  51  51   0   0
  0.7707117E+02  0.1230000E-08  0.1230000E-08  0.3000000E-08  0.5000000E-15
  1.000000000000000E-004
  CAR 
 Li defective graphene MACE training lab 
      4.92039657    -55.33027310  301     -2.57371967      1.00000000
    -55.330  0.0000E+00  0.0000E+00  0.0000E+00  0.0000E+00
    -55.129  0.0000E+00  0.0000E+00  0.0000E+00  0.0000E+00
    -54.929  0.0000E+00  0.0000E+00  0.0000E+00  0.0000E+00
    -54.728  0.0000E+00  0.0000E+00  0.0000E+00  0.0000E+00
    -54.527  0.0000E+00  0.0000E+00  0.0000E+00  0.0000E+00
    -54.326  0.0000E+00  0.0000E+00  0.0000E+00  0.0000E+00
    -54.125  0.0000E+00  0.0000E+00  0.0000E+00  0.0000E+00
    -53.924  0.0000E+00  0.0000E+00  0.0000E+00  0.0000E+00
    -53.724  0.0000E+00  0.0000E+00  0.0000E+00  0.0000E+00
    -53.523  0.0000E+00  0.0000E+00  0.0000E+00  0.0000E+00
    -53.322  0.0000E+00  0.0000E+00  0.0000E+00  0.0000E+00
    -53.121  0.0000E+00  0.0000E+00  0.0000E+00  0.0000E+00
    -52.920  0.0000E+00  0.0000E+00  0.0000E+00  0.0000E+00
    -52.719  0.7481E-03  0.7333E-03  0.1502E-03  0.1473E-03
    -52.519  0.4882E+01  0.4880E+01  0.9806E+00  0.9803E+00
    -52.318  0.9676E-01  0.9799E-01  0.1000E+01  0.1000E+01
    -52.117  0.0000E+00  0.0000E+00  0.1000E+01  0.1000E+01
    -51.916  0.0000E+00  0.0000E+00  0.1000E+01  0.1000E+01
    -51.715  0.0000E+00  0.0000E+00  0.1000E+01  0.1000E+01
    -51.514  0.0000E+00  0.0000E+00  0.1000E+01  0.1000E+01
    -51.314  0.0000E+00  0.0000E+00  0.1000E+01  0.1000E+01
    -51.113  0.0000E+00  0.0000E+00  0.1000E+01  0.1000E+01
    -50.912  0.0000E+00  0.0000E+00  0.1000E+01  0.1000E+01
    -50.711  0.0000E+00  0.0000E+00  0.1000E+01  0.1000E+01
    -50.510  0.0000E+00  0.0000E+00  0.1000E+01  0.1000E+01
    -50.309  0.0000E+00  0.0000E+00  0.1000E+01  0.1000E+01
    -50.109  0.0000E+00  0.0000E+00  0.1000E+01  0.1000E+01
    -49.908  0.0000E+00  0.0000E+00  0.1000E+01  0.1000E+01
    -49.707  0.0000E+00  0.0000E+00  0.1000E+01  0.1000E+01
    -49.506  0.0000E+00  0.0000E+00  0.1000E+01  0.1000E+01
    -49.305  0.0000E+00  0.0000E+00  0.1000E+01  0.1000E+01
    -49.104  0.0000E+00  0.0000E+00  0.1000E+01  0.1000E+01
    -48.904  0.0000E+00  0.0000E+00  0.1000E+01  0.1000E+01
    -48.703  0.0000E+00  0.0000E+00  0.1000E+01  0.1000E+01
    -48.502  0.0000E+00  0.0000E+00  0.1000E+01  0.1000E+01
    -48.301  0.0000E+00  0.0000E+00  0.1000E+01  0.1000E+01
    -48.100  0.0000E+00  0.0000E+00  0.1000E+01  0.1000E+01
    -47.899  0.0000E+00  0.0000E+00  0.1000E+01  0.1000E+01
    -47.699  0.0000E+00  0.0000E+00  0.1000E+01  0.1000E+01
    -47.498  0.0000E+00  0.0000E+00  0.1000E+01  0.1000E+01
    -47.297  0.0000E+00  0.0000E+00  0.1000E+01  0.1000E+01
    -47.096  0.0000E+00  0.0000E+00  0.1000E+01  0.1000E+01
    -46.895  0.0000E+00  0.0000E+00  0.1000E+01  0.1000E+01
    -46.694  0.0000E+00  0.0000E+00  0.1000E+01  0.1000E+01
    -46.494  0.0000E+00  0.0000E+00  0.1000E+01  0.1000E+01
    -46.293  0.0000E+00  0.0000E+00  0.1000E+01  0.1000E+01
    -46.092  0.0000E+00  0.0000E+00  0.1000E+01  0.1000E+01
    -45.891  0.0000E+00  0.0000E+00  0.1000E+01  0.1000E+01
    -45.690  0.0000E+00  0.0000E+00  0.1000E+01  0.1000E+01
    -45.489  0.0000E+00  0.0000E+00  0.1000E+01  0.1000E+01
    -45.288  0.0000E+00  0.0000E+00  0.1000E+01  0.1000E+01
    -45.088  0.0000E+00  0.0000E+00  0.1000E+01  0.1000E+01
    -44.887  0.0000E+00  0.0000E+00  0.1000E+01  0.1000E+01
    -44.686  0.0000E+00  0.0000E+00  0.1000E+01  0.1000E+01
    -44.485  0.0000E+00  0.0000E+00  0.1000E+01  0.1000E+01
    -44.284  0.0000E+00  0.0000E+00  0.1000E+01  0.1000E+01
    -44.083  0.0000E+00  0.0000E+00  0.1000E+01  0.1000E+01
    -43.883  0.0000E+00  0.0000E+00  0.1000E+01  0.1000E+01
    -43.682  0.0000E+00  0.0000E+00  0.1000E+01  0.1000E+01
    -43.481  0.0000E+00  0.0000E+00  0.1000E+01  0.1000E+01
    -43.280  0.0000E+00  0.0000E+00  0.1000E+01  0.1000E+01
    -43.079  0.0000E+00  0.0000E+00  0.1000E+01  0.1000E+01
    -42.878  0.0000E+00  0.0000E+00  0.1000E+01  0.1000E+01
    -42.678  0.0000E+00  0.0000E+00  0.1000E+01  0.1000E+01
    -42.477  0.0000E+00  0.0000E+00  0.1000E+01  0.1000E+01
    -42.276  0.0000E+00  0.0000E+00  0.1000E+01  0.1000E+01
    -42.075  0.0000E+00  0.0000E+00  0.1000E+01  0.1000E+01
    -41.874  0.0000E+00  0.0000E+00  0.1000E+01  0.1000E+01
    -41.673  0.0000E+00  0.0000E+00  0.1000E+01  0.1000E+01
    -41.473  0.0000E+00  0.0000E+00  0.1000E+01  0.1000E+01
    -41.272  0.0000E+00  0.0000E+00  0.1000E+01  0.1000E+01
    -41.071  0.0000E+00  0.0000E+00  0.1000E+01  0.1000E+01
    -40.870  0.0000E+00  0.0000E+00  0.1000E+01  0.1000E+01
    -40.669  0.0000E+00  0.0000E+00  0.1000E+01  0.1000E+01
    -40.468  0.0000E+00  0.0000E+00  0.1000E+01  0.1000E+01
    -40.268  0.0000E+00  0.0000E+00  0.1000E+01  0.1000E+01
    -40.067  0.0000E+00  0.0000E+00  0.1000E+01  0.1000E+01
    -39.866  0.0000E+00  0.0000E+00  0.1000E+01  0.1000E+01
    -39.665  0.0000E+00  0.0000E+00  0.1000E+01  0.1000E+01
    -39.464  0.0000E+00  0.0000E+00  0.1000E+01  0.1000E+01
    -39.263  0.0000E+00  0.0000E+00  0.1000E+01  0.1000E+01
    -39.063  0.0000E+00  0.0000E+00  0.1000E+01  0.1000E+01
    -38.862  0.0000E+00  0.0000E+00  0.1000E+01  0.1000E+01
    -38.661  0.0000E+00  0.0000E+00  0.1000E+01  0.1000E+01
    -38.460  0.0000E+00  0.0000E+00  0.1000E+01  0.1000E+01
    -38.259  0.0000E+00  0.0000E+00  0.1000E+01  0.1000E+01
    -38.058  0.0000E+00  0.0000E+00  0.1000E+01  0.1000E+01
    -37.858  0.0000E+00  0.0000E+00  0.1000E+01  0.1000E+01
    -37.657  0.0000E+00  0.0000E+00  0.1000E+01  0.1000E+01
    -37.456  0.0000E+00  0.0000E+00  0.1000E+01  0.1000E+01
    -37.255  0.0000E+00  0.0000E+00  0.1000E+01  0.1000E+01
    -37.054  0.0000E+00  0.0000E+00  0.1000E+01  0.1000E+01
    -36.853  0.0000E+00  0.0000E+00  0.1000E+01  0.1000E+01
    -36.653  0.0000E+00  0.0000E+00  0.1000E+01  0.1000E+01
    -36.452  0.0000E+00  0.0000E+00  0.1000E+01  0.1000E+01
    -36.251  0.0000E+00  0.0000E+00  0.1000E+01  0.1000E+01
    -36.050  0.0000E+00  0.0000E+00  0.1000E+01  0.1000E+01
    -35.849  0.0000E+00  0.0000E+00  0.1000E+01  0.1000E+01
    -35.648  0.0000E+00  0.0000E+00  0.1000E+01  0.1000E+01
    -35.448  0.0000E+00  0.0000E+00  0.1000E+01  0.1000E+01
    -35.247  0.0000E+00  0.0000E+00  0.1000E+01  0.1000E+01
    -35.046  0.0000E+00  0.0000E+00  0.1000E+01  0.1000E+01
    -34.845  0.0000E+00  0.0000E+00  0.1000E+01  0.1000E+01
    -34.644  0.0000E+00  0.0000E+00  0.1000E+01  0.1000E+01
    -34.443  0.0000E+00  0.0000E+00  0.1000E+01  0.1000E+01
    -34.243  0.0000E+00  0.0000E+00  0.1000E+01  0.1000E+01
    -34.042  0.0000E+00  0.0000E+00  0.1000E+01  0.1000E+01
    -33.841  0.0000E+00  0.0000E+00  0.1000E+01  0.1000E+01
    -33.640  0.0000E+00  0.0000E+00  0.1000E+01  0.1000E+01
    -33.439  0.0000E+00  0.0000E+00  0.1000E+01  0.1000E+01
    -33.238  0.0000E+00  0.0000E+00  0.1000E+01  0.1000E+01
    -33.038  0.0000E+00  0.0000E+00  0.1000E+01  0.1000E+01
    -32.837  0.0000E+00  0.0000E+00  0.1000E+01  0.1000E+01
    -32.636  0.0000E+00  0.0000E+00  0.1000E+01  0.1000E+01
    -32.435  0.0000E+00  0.0000E+00  0.1000E+01  0.1000E+01
    -32.234  0.0000E+00  0.0000E+00  0.1000E+01  0.1000E+01
    -32.033  0.0000E+00  0.0000E+00  0.1000E+01  0.1000E+01
    -31.833  0.0000E+00  0.0000E+00  0.1000E+01  0.1000E+01
    -31.632  0.0000E+00  0.0000E+00  0.1000E+01  0.1000E+01
    -31.431  0.0000E+00  0.0000E+00  0.1000E+01  0.1000E+01
    -31.230  0.0000E+00  0.0000E+00  0.1000E+01  0.1000E+01
    -31.029  0.0000E+00  0.0000E+00  0.1000E+01  0.1000E+01
    -30.828  0.0000E+00  0.0000E+00  0.1000E+01  0.1000E+01
    -30.627  0.0000E+00  0.0000E+00  0.1000E+01  0.1000E+01
    -30.427  0.0000E+00  0.0000E+00  0.1000E+01  0.1000E+01
    -30.226  0.0000E+00  0.0000E+00  0.1000E+01  0.1000E+01
    -30.025  0.0000E+00  0.0000E+00  0.1000E+01  0.1000E+01
    -29.824  0.0000E+00  0.0000E+00  0.1000E+01  0.1000E+01
    -29.623  0.0000E+00  0.0000E+00  0.1000E+01  0.1000E+01
    -29.422  0.0000E+00  0.0000E+00  0.1000E+01  0.1000E+01
    -29.222  0.0000E+00  0.0000E+00  0.1000E+01  0.1000E+01
    -29.021  0.0000E+00  0.0000E+00  0.1000E+01  0.1000E+01
    -28.820  0.0000E+00  0.0000E+00  0.1000E+01  0.1000E+01
    -28.619  0.0000E+00  0.0000E+00  0.1000E+01  0.1000E+01
    -28.418  0.0000E+00  0.0000E+00  0.1000E+01  0.1000E+01
    -28.217  0.0000E+00  0.0000E+00  0.1000E+01  0.1000E+01
    -28.017  0.0000E+00  0.0000E+00  0.1000E+01  0.1000E+01
    -27.816  0.0000E+00  0.0000E+00  0.1000E+01  0.1000E+01
    -27.615  0.0000E+00  0.0000E+00  0.1000E+01  0.1000E+01
    -27.414  0.0000E+00  0.0000E+00  0.1000E+01  0.1000E+01
    -27.213  0.0000E+00  0.0000E+00  0.1000E+01  0.1000E+01
    -27.012  0.0000E+00  0.0000E+00  0.1000E+01  0.1000E+01
    -26.812  0.0000E+00  0.0000E+00  0.1000E+01  0.1000E+01
    -26.611  0.0000E+00  0.0000E+00  0.1000E+01  0.1000E+01
    -26.410  0.0000E+00  0.0000E+00  0.1000E+01  0.1000E+01
    -26.209  0.0000E+00  0.0000E+00  0.1000E+01  0.1000E+01
    -26.008  0.0000E+00  0.0000E+00  0.1000E+01  0.1000E+01
    -25.807  0.0000E+00  0.0000E+00  0.1000E+01  0.1000E+01
    -25.607  0.0000E+00  0.0000E+00  0.1000E+01  0.1000E+01
    -25.406  0.0000E+00  0.0000E+00  0.1000E+01  0.1000E+01
    -25.205  0.0000E+00  0.0000E+00  0.1000E+01  0.1000E+01
    -25.004  0.0000E+00  0.0000E+00  0.1000E+01  0.1000E+01
    -24.803  0.0000E+00  0.0000E+00  0.1000E+01  0.1000E+01
    -24.602  0.0000E+00  0.0000E+00  0.1000E+01  0.1000E+01
    -24.402  0.0000E+00  0.0000E+00  0.1000E+01  0.1000E+01
    -24.201  0.0000E+00  0.0000E+00  0.1000E+01  0.1000E+01
    -24.000  0.0000E+00  0.0000E+00  0.1000E+01  0.1000E+01
    -23.799  0.0000E+00  0.0000E+00  0.1000E+01  0.1000E+01
    -23.598  0.0000E+00  0.0000E+00  0.1000E+01  0.1000E+01
    -23.397  0.0000E+00  0.0000E+00  0.1000E+01  0.1000E+01
    -23.197  0.0000E+00  0.0000E+00  0.1000E+01  0.1000E+01
    -22.996  0.0000E+00  0.0000E+00  0.1000E+01  0.1000E+01
    -22.795  0.0000E+00  0.0000E+00  0.1000E+01  0.1000E+01
    -22.594  0.8742E-11  0.9895E-12  0.1000E+01  0.1000E+01
    -22.393  0.9644E-01  0.5712E-01  0.1019E+01  0.1011E+01
    -22.192  0.4241E+01  0.4073E+01  0.1871E+01  0.1830E+01
    -21.992  0.3205E+01  0.3073E+01  0.2515E+01  0.2447E+01
    -21.791  0.3350E+01  0.3464E+01  0.3187E+01  0.3142E+01
    -21.590  0.2930E+01  0.2966E+01  0.3776E+01  0.3738E+01
    -21.389  0.4445E+01  0.4613E+01  0.4669E+01  0.4665E+01
    -21.188  0.2608E+01  0.2535E+01  0.5192E+01  0.5174E+01
    -20.987  0.4568E+01  0.4555E+01  0.6110E+01  0.6089E+01
    -20.787  0.4959E+01  0.5051E+01  0.7106E+01  0.7103E+01
    -20.586  0.1729E+01  0.1611E+01  0.7453E+01  0.7427E+01
    -20.385  0.5115E+01  0.4932E+01  0.8480E+01  0.8417E+01
    -20.184  0.3239E+01  0.3252E+01  0.9131E+01  0.9070E+01
    -19.983  0.4704E+01  0.4909E+01  0.1008E+02  0.1006E+02
    -19.782  0.1504E+01  0.1532E+01  0.1038E+02  0.1036E+02
    -19.582  0.5600E+01  0.5581E+01  0.1150E+02  0.1148E+02
    -19.381  0.3654E+01  0.3634E+01  0.1224E+02  0.1221E+02
    -19.180  0.4493E+01  0.4536E+01  0.1314E+02  0.1313E+02
    -18.979  0.4797E+01  0.4597E+01  0.1410E+02  0.1405E+02
    -18.778  0.2048E+01  0.2286E+01  0.1451E+02  0.1451E+02
    -18.577  0.2737E+01  0.2445E+01  0.1506E+02  0.1500E+02
    -18.377  0.7514E+01  0.7545E+01  0.1657E+02  0.1651E+02
    -18.176  0.3456E+01  0.3705E+01  0.1727E+02  0.1726E+02
    -17.975  0.3545E+01  0.3327E+01  0.1798E+02  0.1793E+02
    -17.774  0.5465E+01  0.5655E+01  0.1908E+02  0.1906E+02
    -17.573  0.4043E+00  0.4136E+00  0.1916E+02  0.1915E+02
    -17.372  0.8230E+01  0.8046E+01  0.2081E+02  0.2076E+02
    -17.172  0.4711E+01  0.4848E+01  0.2176E+02  0.2174E+02
    -16.971  0.4169E+01  0.4124E+01  0.2259E+02  0.2256E+02
    -16.770  0.4721E+01  0.4696E+01  0.2354E+02  0.2351E+02
    -16.569  0.1816E+01  0.1899E+01  0.2391E+02  0.2389E+02
    -16.368  0.2057E+01  0.2018E+01  0.2432E+02  0.2429E+02
    -16.167  0.7767E+01  0.7763E+01  0.2588E+02  0.2585E+02
    -15.967  0.1158E+01  0.1289E+01  0.2611E+02  0.2611E+02
    -15.766  0.1974E+01  0.1637E+01  0.2651E+02  0.2644E+02
    -15.565  0.3109E+01  0.3304E+01  0.2713E+02  0.2710E+02
    -15.364  0.3510E+01  0.3541E+01  0.2784E+02  0.2781E+02
    -15.163  0.7623E+01  0.7688E+01  0.2937E+02  0.2936E+02
    -14.962  0.3636E+01  0.3523E+01  0.3010E+02  0.3007E+02
    -14.761  0.4785E+01  0.4861E+01  0.3106E+02  0.3104E+02
    -14.561  0.4531E+01  0.4557E+01  0.3197E+02  0.3196E+02
    -14.360  0.3297E+01  0.3117E+01  0.3263E+02  0.3258E+02
    -14.159  0.3648E+01  0.3827E+01  0.3336E+02  0.3335E+02
    -13.958  0.5465E+01  0.5487E+01  0.3446E+02  0.3445E+02
    -13.757  0.4689E+01  0.4668E+01  0.3540E+02  0.3539E+02
    -13.556  0.2406E+01  0.2453E+01  0.3589E+02  0.3588E+02
    -13.356  0.8708E+00  0.7231E+00  0.3606E+02  0.3603E+02
    -13.155  0.7075E+01  0.6960E+01  0.3748E+02  0.3743E+02
    -12.954  0.5779E+01  0.5946E+01  0.3864E+02  0.3862E+02
    -12.753  0.4750E+01  0.4735E+01  0.3960E+02  0.3957E+02
    -12.552  0.1525E+01  0.1528E+01  0.3990E+02  0.3988E+02
    -12.351  0.4129E+01  0.4169E+01  0.4073E+02  0.4072E+02
    -12.151  0.4830E+01  0.4779E+01  0.4170E+02  0.4168E+02
    -11.950  0.7925E+01  0.7946E+01  0.4329E+02  0.4327E+02
    -11.749  0.1245E+01  0.1297E+01  0.4354E+02  0.4353E+02
    -11.548  0.6049E+01  0.5664E+01  0.4476E+02  0.4467E+02
    -11.347  0.7666E+01  0.8023E+01  0.4630E+02  0.4628E+02
    -11.146  0.4409E+01  0.4418E+01  0.4718E+02  0.4717E+02
    -10.946  0.3621E+01  0.3587E+01  0.4791E+02  0.4789E+02
    -10.745  0.2944E+01  0.2975E+01  0.4850E+02  0.4849E+02
    -10.544  0.8307E+01  0.8088E+01  0.5017E+02  0.5011E+02
    -10.343  0.9936E+01  0.9531E+01  0.5217E+02  0.5203E+02
    -10.142  0.8743E+01  0.9322E+01  0.5392E+02  0.5390E+02
     -9.941  0.8354E+01  0.8007E+01  0.5560E+02  0.5551E+02
     -9.741  0.8255E+01  0.8351E+01  0.5726E+02  0.5718E+02
     -9.540  0.1091E+02  0.1057E+02  0.5945E+02  0.5931E+02
     -9.339  0.8765E+01  0.9232E+01  0.6121E+02  0.6116E+02
     -9.138  0.1407E+02  0.1404E+02  0.6404E+02  0.6398E+02
     -8.937  0.1203E+02  0.1166E+02  0.6645E+02  0.6632E+02
     -8.736  0.1168E+02  0.1179E+02  0.6880E+02  0.6869E+02
     -8.536  0.8054E+01  0.8481E+01  0.7041E+02  0.7039E+02
     -8.335  0.8072E+01  0.7965E+01  0.7204E+02  0.7199E+02
     -8.134  0.9893E+01  0.9769E+01  0.7402E+02  0.7395E+02
     -7.933  0.1299E+02  0.1274E+02  0.7663E+02  0.7651E+02
     -7.732  0.7899E+01  0.8318E+01  0.7822E+02  0.7818E+02
     -7.531  0.2730E+01  0.2563E+01  0.7877E+02  0.7870E+02
     -7.331  0.9001E+01  0.8956E+01  0.8057E+02  0.8050E+02
     -7.130  0.9244E+01  0.9349E+01  0.8243E+02  0.8237E+02
     -6.929  0.1007E+02  0.1001E+02  0.8445E+02  0.8438E+02
     -6.728  0.8590E+01  0.8474E+01  0.8618E+02  0.8609E+02
     -6.527  0.5313E+01  0.5746E+01  0.8724E+02  0.8724E+02
     -6.326  0.5842E+01  0.5618E+01  0.8842E+02  0.8837E+02
     -6.126  0.5298E+01  0.4505E+01  0.8948E+02  0.8927E+02
     -5.925  0.1187E+02  0.1259E+02  0.9187E+02  0.9180E+02
     -5.724  0.3164E+01  0.3225E+01  0.9250E+02  0.9245E+02
     -5.523  0.6827E+01  0.6574E+01  0.9387E+02  0.9377E+02
     -5.322  0.2276E+01  0.2761E+01  0.9433E+02  0.9432E+02
     -5.121  0.2956E+01  0.2771E+01  0.9492E+02  0.9488E+02
     -4.921  0.7974E+01  0.7129E+01  0.9652E+02  0.9631E+02
     -4.720  0.7506E+01  0.8150E+01  0.9803E+02  0.9795E+02
     -4.519  0.2046E+01  0.2233E+01  0.9844E+02  0.9840E+02
     -4.318  0.2289E+01  0.2414E+01  0.9890E+02  0.9888E+02
     -4.117  0.2003E+01  0.2086E+01  0.9931E+02  0.9930E+02
     -3.916  0.2504E+01  0.1753E+01  0.9981E+02  0.9965E+02
     -3.716  0.2599E+01  0.3325E+01  0.1003E+03  0.1003E+03
     -3.515  0.2220E+01  0.2253E+01  0.1008E+03  0.1008E+03
     -3.314  0.9514E-02  0.2343E-01  0.1008E+03  0.1008E+03
     -3.113  0.3109E-08  0.7072E-12  0.1008E+03  0.1008E+03
     -2.912  0.4885E+00  0.8671E-01  0.1009E+03  0.1008E+03
     -2.711  0.2087E+01  0.2007E+01  0.1013E+03  0.1012E+03
     -2.511  0.2460E+01  0.1816E+01  0.1018E+03  0.1016E+03
     -2.310  0.2088E+01  0.2709E+01  0.1022E+03  0.1021E+03
     -2.109  0.6808E-01  0.5743E+00  0.1022E+03  0.1022E+03
     -1.908  0.1090E+00  0.2806E-01  0.1022E+03  0.1022E+03
     -1.707  0.3887E+01  0.3825E+01  0.1030E+03  0.1030E+03
     -1.506  0.3787E+01  0.3612E+01  0.1038E+03  0.1037E+03
     -1.306  0.5669E+01  0.5872E+01  0.1049E+03  0.1049E+03
     -1.105  0.1244E+01  0.1183E+01  0.1052E+03  0.1051E+03
     -0.904  0.7218E+01  0.7177E+01  0.1066E+03  0.1066E+03
     -0.703  0.7946E+01  0.7822E+01  0.1082E+03  0.1082E+03
     -0.502  0.5170E+01  0.5049E+01  0.1093E+03  0.1092E+03
     -0.301  0.3144E+01  0.3606E+01  0.1099E+03  0.1099E+03
     -0.100  0.7051E+00  0.4057E+00  0.1100E+03  0.1100E+03
      0.100  0.3823E+01  0.3931E+01  0.1108E+03  0.1108E+03
      0.301  0.9917E+01  0.9712E+01  0.1128E+03  0.1127E+03
      0.502  0.8456E+01  0.8418E+01  0.1145E+03  0.1144E+03
      0.703  0.4256E+01  0.4669E+01  0.1153E+03  0.1153E+03
      0.904  0.7625E+01  0.7230E+01  0.1169E+03  0.1168E+03
      1.105  0.8449E+01  0.8409E+01  0.1186E+03  0.1185E+03
      1.305  0.1126E+02  0.1081E+02  0.1208E+03  0.1207E+03
      1.506  0.1384E+02  0.1284E+02  0.1236E+03  0.1232E+03
      1.707  0.1608E+02  0.1685E+02  0.1268E+03  0.1266E+03
      1.908  0.1804E+02  0.1857E+02  0.1305E+03  0.1303E+03
      2.109  0.7068E+01  0.7383E+01  0.1319E+03  0.1318E+03
      2.310  0.5761E+00  0.8685E+00  0.1320E+03  0.1320E+03
      2.510  0.1005E-06  0.8313E-04  0.1320E+03  0.1320E+03
      2.711  0.0000E+00  0.0000E+00  0.1320E+03  0.1320E+03
      2.912  0.0000E+00  0.0000E+00  0.1320E+03  0.1320E+03
      3.113  0.0000E+00  0.0000E+00  0.1320E+03  0.1320E+03
      3.314  0.0000E+00  0.0000E+00  0.1320E+03  0.1320E+03
      3.515  0.0000E+00  0.0000E+00  0.1320E+03  0.1320E+03
      3.715  0.0000E+00  0.0000E+00  0.1320E+03  0.1320E+03
      3.916  0.0000E+00  0.0000E+00  0.1320E+03  0.1320E+03
      4.117  0.0000E+00  0.0000E+00  0.1320E+03  0.1320E+03
      4.318  0.0000E+00  0.0000E+00  0.1320E+03  0.1320E+03
      4.519  0.0000E+00  0.0000E+00  0.1320E+03  0.1320E+03
      4.720  0.0000E+00  0.0000E+00  0.1320E+03  0.1320E+03
      4.920  0.0000E+00  0.0000E+00  0.1320E+03  0.1320E+03
