       N       E                     dE             d eps       ncg     rms          rms(c)
DAV:   1     0.194416760323E+04    0.19442E+04   -0.67593E+04  3232   0.106E+03
DAV:   2     0.431269643637E+02   -0.19010E+04   -0.17577E+04  4080   0.237E+02
DAV:   3    -0.462634078620E+03   -0.50576E+03   -0.50119E+03  3472   0.129E+02
DAV:   4    -0.489627408974E+03   -0.26993E+02   -0.26696E+02  3376   0.389E+01
DAV:   5    -0.490537445777E+03   -0.91004E+00   -0.90382E+00  3664   0.611E+00    0.329E+01
DAV:   6    -0.465428160949E+03    0.25109E+02   -0.25091E+01  2988   0.125E+01    0.190E+01
DAV:   7    -0.453368354651E+03    0.12060E+02   -0.17160E+01  3064   0.997E+00    0.995E+00
DAV:   8    -0.452751469354E+03    0.61689E+00   -0.44594E+00  3052   0.474E+00    0.387E+00
DAV:   9    -0.453796154515E+03   -0.10447E+01   -0.57644E-01  3420   0.198E+00    0.144E+00
DAV:  10    -0.454136736896E+03   -0.34058E+00   -0.18284E-01  2840   0.999E-01    0.980E-01
DAV:  11    -0.454444465775E+03   -0.30773E+00   -0.48195E-02  3320   0.477E-01    0.835E-01
DAV:  12    -0.455173358670E+03   -0.72889E+00   -0.21395E-01  2836   0.812E-01    0.591E-01
DAV:  13    -0.455153508033E+03    0.19851E-01   -0.12701E-01  2804   0.640E-01    0.426E-01
DAV:  14    -0.455784523395E+03   -0.63102E+00   -0.57459E-02  2916   0.411E-01    0.292E-01
DAV:  15    -0.456489300294E+03   -0.70478E+00   -0.31341E-02  2928   0.277E-01    0.200E-01
DAV:  16    -0.456885073873E+03   -0.39577E+00   -0.80158E-03  2968   0.176E-01    0.151E-01
DAV:  17    -0.457223140096E+03   -0.33807E+00   -0.69394E-03  2888   0.155E-01    0.990E-02
DAV:  18    -0.457335798290E+03   -0.11266E+00   -0.23323E-03  2948   0.935E-02    0.742E-02
DAV:  19    -0.457375756758E+03   -0.39958E-01   -0.12103E-03  3024   0.716E-02    0.547E-02
DAV:  20    -0.457390198246E+03   -0.14441E-01   -0.77192E-04  2992   0.622E-02    0.375E-02
DAV:  21    -0.457406340616E+03   -0.16142E-01   -0.34634E-04  2964   0.522E-02    0.253E-02
DAV:  22    -0.457434645113E+03   -0.28304E-01   -0.18253E-04  2928   0.456E-02    0.152E-02
DAV:  23    -0.457448592422E+03   -0.13947E-01   -0.94405E-05  2860   0.359E-02    0.950E-03
DAV:  24    -0.457453018829E+03   -0.44264E-02   -0.58718E-05  2568   0.259E-02    0.615E-03
DAV:  25    -0.457455127628E+03   -0.21088E-02   -0.42061E-05  2408   0.211E-02    0.371E-03
DAV:  26    -0.457456014495E+03   -0.88687E-03   -0.14232E-05  2416   0.120E-02    0.239E-03
DAV:  27    -0.457456406477E+03   -0.39198E-03   -0.38869E-06  2296   0.604E-03    0.149E-03
DAV:  28    -0.457456632327E+03   -0.22585E-03   -0.17313E-06  2244   0.348E-03    0.993E-04
DAV:  29    -0.457456744676E+03   -0.11235E-03   -0.60431E-07  2064   0.194E-03    0.653E-04
DAV:  30    -0.457456816838E+03   -0.72162E-04   -0.41993E-07  2020   0.130E-03    0.416E-04
DAV:  31    -0.457456857341E+03   -0.40503E-04   -0.22335E-07  2032   0.977E-04    0.271E-04
DAV:  32    -0.457456874313E+03   -0.16972E-04   -0.79416E-08  1992   0.670E-04    0.185E-04
DAV:  33    -0.457456881275E+03   -0.69621E-05   -0.25727E-08  2012   0.428E-04    0.149E-04
DAV:  34    -0.457456883649E+03   -0.23742E-05    0.11760E-09  1964   0.258E-04    0.136E-04
DAV:  35    -0.457456884667E+03   -0.10178E-05    0.12181E-08  1944   0.154E-04    0.132E-04
DAV:  36    -0.457456885185E+03   -0.51776E-06    0.15616E-08  1896   0.101E-04
   1 F= -.45745689E+03 E0= -.45745350E+03  d E =-.677030E-02  mag=     0.2976
