  49  49   0   0
  0.8021693E+02  0.1230000E-08  0.1230000E-08  0.3000000E-08  0.5000000E-15
  1.000000000000000E-004
  CAR 
 Li defective graphene MACE training lab 
      4.77924332    -53.88451784  301     -3.07193848      1.00000000
    -53.885  0.0000E+00  0.0000E+00  0.0000E+00  0.0000E+00
    -53.689  0.0000E+00  0.0000E+00  0.0000E+00  0.0000E+00
    -53.493  0.0000E+00  0.0000E+00  0.0000E+00  0.0000E+00
    -53.298  0.0000E+00  0.0000E+00  0.0000E+00  0.0000E+00
    -53.102  0.0000E+00  0.0000E+00  0.0000E+00  0.0000E+00
    -52.907  0.0000E+00  0.0000E+00  0.0000E+00  0.0000E+00
    -52.711  0.0000E+00  0.0000E+00  0.0000E+00  0.0000E+00
    -52.516  0.0000E+00  0.0000E+00  0.0000E+00  0.0000E+00
    -52.320  0.0000E+00  0.0000E+00  0.0000E+00  0.0000E+00
    -52.125  0.0000E+00  0.0000E+00  0.0000E+00  0.0000E+00
    -51.929  0.0000E+00  0.0000E+00  0.0000E+00  0.0000E+00
    -51.734  0.0000E+00  0.0000E+00  0.0000E+00  0.0000E+00
    -51.538  0.0000E+00  0.0000E+00  0.0000E+00  0.0000E+00
    -51.342  0.1105E-02  0.1105E-02  0.2160E-03  0.2160E-03
    -51.147  0.5000E+01  0.4999E+01  0.9778E+00  0.9778E+00
    -50.951  0.1133E+00  0.1133E+00  0.1000E+01  0.1000E+01
    -50.756  0.0000E+00  0.0000E+00  0.1000E+01  0.1000E+01
    -50.560  0.0000E+00  0.0000E+00  0.1000E+01  0.1000E+01
    -50.365  0.0000E+00  0.0000E+00  0.1000E+01  0.1000E+01
    -50.169  0.0000E+00  0.0000E+00  0.1000E+01  0.1000E+01
    -49.974  0.0000E+00  0.0000E+00  0.1000E+01  0.1000E+01
    -49.778  0.0000E+00  0.0000E+00  0.1000E+01  0.1000E+01
    -49.583  0.0000E+00  0.0000E+00  0.1000E+01  0.1000E+01
    -49.387  0.0000E+00  0.0000E+00  0.1000E+01  0.1000E+01
    -49.191  0.0000E+00  0.0000E+00  0.1000E+01  0.1000E+01
    -48.996  0.0000E+00  0.0000E+00  0.1000E+01  0.1000E+01
    -48.800  0.0000E+00  0.0000E+00  0.1000E+01  0.1000E+01
    -48.605  0.0000E+00  0.0000E+00  0.1000E+01  0.1000E+01
    -48.409  0.0000E+00  0.0000E+00  0.1000E+01  0.1000E+01
    -48.214  0.0000E+00  0.0000E+00  0.1000E+01  0.1000E+01
    -48.018  0.0000E+00  0.0000E+00  0.1000E+01  0.1000E+01
    -47.823  0.0000E+00  0.0000E+00  0.1000E+01  0.1000E+01
    -47.627  0.0000E+00  0.0000E+00  0.1000E+01  0.1000E+01
    -47.432  0.0000E+00  0.0000E+00  0.1000E+01  0.1000E+01
    -47.236  0.0000E+00  0.0000E+00  0.1000E+01  0.1000E+01
    -47.040  0.0000E+00  0.0000E+00  0.1000E+01  0.1000E+01
    -46.845  0.0000E+00  0.0000E+00  0.1000E+01  0.1000E+01
    -46.649  0.0000E+00  0.0000E+00  0.1000E+01  0.1000E+01
    -46.454  0.0000E+00  0.0000E+00  0.1000E+01  0.1000E+01
    -46.258  0.0000E+00  0.0000E+00  0.1000E+01  0.1000E+01
    -46.063  0.0000E+00  0.0000E+00  0.1000E+01  0.1000E+01
    -45.867  0.0000E+00  0.0000E+00  0.1000E+01  0.1000E+01
    -45.672  0.0000E+00  0.0000E+00  0.1000E+01  0.1000E+01
    -45.476  0.0000E+00  0.0000E+00  0.1000E+01  0.1000E+01
    -45.280  0.0000E+00  0.0000E+00  0.1000E+01  0.1000E+01
    -45.085  0.0000E+00  0.0000E+00  0.1000E+01  0.1000E+01
    -44.889  0.0000E+00  0.0000E+00  0.1000E+01  0.1000E+01
    -44.694  0.0000E+00  0.0000E+00  0.1000E+01  0.1000E+01
    -44.498  0.0000E+00  0.0000E+00  0.1000E+01  0.1000E+01
    -44.303  0.0000E+00  0.0000E+00  0.1000E+01  0.1000E+01
    -44.107  0.0000E+00  0.0000E+00  0.1000E+01  0.1000E+01
    -43.912  0.0000E+00  0.0000E+00  0.1000E+01  0.1000E+01
    -43.716  0.0000E+00  0.0000E+00  0.1000E+01  0.1000E+01
    -43.521  0.0000E+00  0.0000E+00  0.1000E+01  0.1000E+01
    -43.325  0.0000E+00  0.0000E+00  0.1000E+01  0.1000E+01
    -43.129  0.0000E+00  0.0000E+00  0.1000E+01  0.1000E+01
    -42.934  0.0000E+00  0.0000E+00  0.1000E+01  0.1000E+01
    -42.738  0.0000E+00  0.0000E+00  0.1000E+01  0.1000E+01
    -42.543  0.0000E+00  0.0000E+00  0.1000E+01  0.1000E+01
    -42.347  0.0000E+00  0.0000E+00  0.1000E+01  0.1000E+01
    -42.152  0.0000E+00  0.0000E+00  0.1000E+01  0.1000E+01
    -41.956  0.0000E+00  0.0000E+00  0.1000E+01  0.1000E+01
    -41.761  0.0000E+00  0.0000E+00  0.1000E+01  0.1000E+01
    -41.565  0.0000E+00  0.0000E+00  0.1000E+01  0.1000E+01
    -41.370  0.0000E+00  0.0000E+00  0.1000E+01  0.1000E+01
    -41.174  0.0000E+00  0.0000E+00  0.1000E+01  0.1000E+01
    -40.978  0.0000E+00  0.0000E+00  0.1000E+01  0.1000E+01
    -40.783  0.0000E+00  0.0000E+00  0.1000E+01  0.1000E+01
    -40.587  0.0000E+00  0.0000E+00  0.1000E+01  0.1000E+01
    -40.392  0.0000E+00  0.0000E+00  0.1000E+01  0.1000E+01
    -40.196  0.0000E+00  0.0000E+00  0.1000E+01  0.1000E+01
    -40.001  0.0000E+00  0.0000E+00  0.1000E+01  0.1000E+01
    -39.805  0.0000E+00  0.0000E+00  0.1000E+01  0.1000E+01
    -39.610  0.0000E+00  0.0000E+00  0.1000E+01  0.1000E+01
    -39.414  0.0000E+00  0.0000E+00  0.1000E+01  0.1000E+01
    -39.219  0.0000E+00  0.0000E+00  0.1000E+01  0.1000E+01
    -39.023  0.0000E+00  0.0000E+00  0.1000E+01  0.1000E+01
    -38.827  0.0000E+00  0.0000E+00  0.1000E+01  0.1000E+01
    -38.632  0.0000E+00  0.0000E+00  0.1000E+01  0.1000E+01
    -38.436  0.0000E+00  0.0000E+00  0.1000E+01  0.1000E+01
    -38.241  0.0000E+00  0.0000E+00  0.1000E+01  0.1000E+01
    -38.045  0.0000E+00  0.0000E+00  0.1000E+01  0.1000E+01
    -37.850  0.0000E+00  0.0000E+00  0.1000E+01  0.1000E+01
    -37.654  0.0000E+00  0.0000E+00  0.1000E+01  0.1000E+01
    -37.459  0.0000E+00  0.0000E+00  0.1000E+01  0.1000E+01
    -37.263  0.0000E+00  0.0000E+00  0.1000E+01  0.1000E+01
    -37.068  0.0000E+00  0.0000E+00  0.1000E+01  0.1000E+01
    -36.872  0.0000E+00  0.0000E+00  0.1000E+01  0.1000E+01
    -36.676  0.0000E+00  0.0000E+00  0.1000E+01  0.1000E+01
    -36.481  0.0000E+00  0.0000E+00  0.1000E+01  0.1000E+01
    -36.285  0.0000E+00  0.0000E+00  0.1000E+01  0.1000E+01
    -36.090  0.0000E+00  0.0000E+00  0.1000E+01  0.1000E+01
    -35.894  0.0000E+00  0.0000E+00  0.1000E+01  0.1000E+01
    -35.699  0.0000E+00  0.0000E+00  0.1000E+01  0.1000E+01
    -35.503  0.0000E+00  0.0000E+00  0.1000E+01  0.1000E+01
    -35.308  0.0000E+00  0.0000E+00  0.1000E+01  0.1000E+01
    -35.112  0.0000E+00  0.0000E+00  0.1000E+01  0.1000E+01
    -34.917  0.0000E+00  0.0000E+00  0.1000E+01  0.1000E+01
    -34.721  0.0000E+00  0.0000E+00  0.1000E+01  0.1000E+01
    -34.525  0.0000E+00  0.0000E+00  0.1000E+01  0.1000E+01
    -34.330  0.0000E+00  0.0000E+00  0.1000E+01  0.1000E+01
    -34.134  0.0000E+00  0.0000E+00  0.1000E+01  0.1000E+01
    -33.939  0.0000E+00  0.0000E+00  0.1000E+01  0.1000E+01
    -33.743  0.0000E+00  0.0000E+00  0.1000E+01  0.1000E+01
    -33.548  0.0000E+00  0.0000E+00  0.1000E+01  0.1000E+01
    -33.352  0.0000E+00  0.0000E+00  0.1000E+01  0.1000E+01
    -33.157  0.0000E+00  0.0000E+00  0.1000E+01  0.1000E+01
    -32.961  0.0000E+00  0.0000E+00  0.1000E+01  0.1000E+01
    -32.766  0.0000E+00  0.0000E+00  0.1000E+01  0.1000E+01
    -32.570  0.0000E+00  0.0000E+00  0.1000E+01  0.1000E+01
    -32.374  0.0000E+00  0.0000E+00  0.1000E+01  0.1000E+01
    -32.179  0.0000E+00  0.0000E+00  0.1000E+01  0.1000E+01
    -31.983  0.0000E+00  0.0000E+00  0.1000E+01  0.1000E+01
    -31.788  0.0000E+00  0.0000E+00  0.1000E+01  0.1000E+01
    -31.592  0.0000E+00  0.0000E+00  0.1000E+01  0.1000E+01
    -31.397  0.0000E+00  0.0000E+00  0.1000E+01  0.1000E+01
    -31.201  0.0000E+00  0.0000E+00  0.1000E+01  0.1000E+01
    -31.006  0.0000E+00  0.0000E+00  0.1000E+01  0.1000E+01
    -30.810  0.0000E+00  0.0000E+00  0.1000E+01  0.1000E+01
    -30.615  0.0000E+00  0.0000E+00  0.1000E+01  0.1000E+01
    -30.419  0.0000E+00  0.0000E+00  0.1000E+01  0.1000E+01
    -30.223  0.0000E+00  0.0000E+00  0.1000E+01  0.1000E+01
    -30.028  0.0000E+00  0.0000E+00  0.1000E+01  0.1000E+01
    -29.832  0.0000E+00  0.0000E+00  0.1000E+01  0.1000E+01
    -29.637  0.0000E+00  0.0000E+00  0.1000E+01  0.1000E+01
    -29.441  0.0000E+00  0.0000E+00  0.1000E+01  0.1000E+01
    -29.246  0.0000E+00  0.0000E+00  0.1000E+01  0.1000E+01
    -29.050  0.0000E+00  0.0000E+00  0.1000E+01  0.1000E+01
    -28.855  0.0000E+00  0.0000E+00  0.1000E+01  0.1000E+01
    -28.659  0.0000E+00  0.0000E+00  0.1000E+01  0.1000E+01
    -28.464  0.0000E+00  0.0000E+00  0.1000E+01  0.1000E+01
    -28.268  0.0000E+00  0.0000E+00  0.1000E+01  0.1000E+01
    -28.072  0.0000E+00  0.0000E+00  0.1000E+01  0.1000E+01
    -27.877  0.0000E+00  0.0000E+00  0.1000E+01  0.1000E+01
    -27.681  0.0000E+00  0.0000E+00  0.1000E+01  0.1000E+01
    -27.486  0.0000E+00  0.0000E+00  0.1000E+01  0.1000E+01
    -27.290  0.0000E+00  0.0000E+00  0.1000E+01  0.1000E+01
    -27.095  0.0000E+00  0.0000E+00  0.1000E+01  0.1000E+01
    -26.899  0.0000E+00  0.0000E+00  0.1000E+01  0.1000E+01
    -26.704  0.0000E+00  0.0000E+00  0.1000E+01  0.1000E+01
    -26.508  0.0000E+00  0.0000E+00  0.1000E+01  0.1000E+01
    -26.313  0.0000E+00  0.0000E+00  0.1000E+01  0.1000E+01
    -26.117  0.0000E+00  0.0000E+00  0.1000E+01  0.1000E+01
    -25.921  0.0000E+00  0.0000E+00  0.1000E+01  0.1000E+01
    -25.726  0.0000E+00  0.0000E+00  0.1000E+01  0.1000E+01
    -25.530  0.0000E+00  0.0000E+00  0.1000E+01  0.1000E+01
    -25.335  0.0000E+00  0.0000E+00  0.1000E+01  0.1000E+01
    -25.139  0.0000E+00  0.0000E+00  0.1000E+01  0.1000E+01
    -24.944  0.0000E+00  0.0000E+00  0.1000E+01  0.1000E+01
    -24.748  0.0000E+00  0.0000E+00  0.1000E+01  0.1000E+01
    -24.553  0.0000E+00  0.0000E+00  0.1000E+01  0.1000E+01
    -24.357  0.0000E+00  0.0000E+00  0.1000E+01  0.1000E+01
    -24.162  0.0000E+00  0.0000E+00  0.1000E+01  0.1000E+01
    -23.966  0.0000E+00  0.0000E+00  0.1000E+01  0.1000E+01
    -23.770  0.0000E+00  0.0000E+00  0.1000E+01  0.1000E+01
    -23.575  0.0000E+00  0.0000E+00  0.1000E+01  0.1000E+01
    -23.379  0.0000E+00  0.0000E+00  0.1000E+01  0.1000E+01
    -23.184  0.0000E+00  0.0000E+00  0.1000E+01  0.1000E+01
    -22.988  0.0000E+00  0.0000E+00  0.1000E+01  0.1000E+01
    -22.793  0.0000E+00  0.0000E+00  0.1000E+01  0.1000E+01
    -22.597  0.2796E-11  0.2796E-11  0.1000E+01  0.1000E+01
    -22.402  0.6079E-01  0.6079E-01  0.1012E+01  0.1012E+01
    -22.206  0.4538E+01  0.4538E+01  0.1899E+01  0.1899E+01
    -22.011  0.1517E+01  0.1517E+01  0.2196E+01  0.2196E+01
    -21.815  0.2729E+01  0.2729E+01  0.2729E+01  0.2729E+01
    -21.619  0.4011E+01  0.4011E+01  0.3514E+01  0.3514E+01
    -21.424  0.4139E+01  0.4139E+01  0.4323E+01  0.4323E+01
    -21.228  0.2895E+01  0.2895E+01  0.4889E+01  0.4889E+01
    -21.033  0.4293E+01  0.4293E+01  0.5729E+01  0.5729E+01
    -20.837  0.3361E+01  0.3361E+01  0.6386E+01  0.6386E+01
    -20.642  0.3717E+01  0.3717E+01  0.7113E+01  0.7113E+01
    -20.446  0.3424E+01  0.3424E+01  0.7782E+01  0.7782E+01
    -20.251  0.3644E+01  0.3644E+01  0.8495E+01  0.8495E+01
    -20.055  0.5856E+01  0.5856E+01  0.9640E+01  0.9640E+01
    -19.860  0.2835E+01  0.2835E+01  0.1019E+02  0.1019E+02
    -19.664  0.1732E+01  0.1732E+01  0.1053E+02  0.1053E+02
    -19.468  0.4378E+01  0.4378E+01  0.1139E+02  0.1139E+02
    -19.273  0.6447E+01  0.6447E+01  0.1265E+02  0.1265E+02
    -19.077  0.2711E+01  0.2711E+01  0.1318E+02  0.1318E+02
    -18.882  0.4188E+01  0.4188E+01  0.1400E+02  0.1400E+02
    -18.686  0.2638E+01  0.2638E+01  0.1451E+02  0.1451E+02
    -18.491  0.4653E+01  0.4653E+01  0.1542E+02  0.1542E+02
    -18.295  0.6447E+01  0.6447E+01  0.1668E+02  0.1668E+02
    -18.100  0.2748E+01  0.2748E+01  0.1722E+02  0.1722E+02
    -17.904  0.1790E+01  0.1790E+01  0.1757E+02  0.1757E+02
    -17.709  0.5162E+01  0.5162E+01  0.1858E+02  0.1858E+02
    -17.513  0.4183E+01  0.4183E+01  0.1940E+02  0.1940E+02
    -17.317  0.5418E+01  0.5418E+01  0.2046E+02  0.2046E+02
    -17.122  0.5380E+01  0.5380E+01  0.2151E+02  0.2151E+02
    -16.926  0.4736E+01  0.4736E+01  0.2244E+02  0.2244E+02
    -16.731  0.1251E+01  0.1251E+01  0.2268E+02  0.2268E+02
    -16.535  0.2857E+01  0.2857E+01  0.2324E+02  0.2324E+02
    -16.340  0.4281E+01  0.4281E+01  0.2408E+02  0.2408E+02
    -16.144  0.2167E+01  0.2167E+01  0.2450E+02  0.2450E+02
    -15.949  0.2872E+01  0.2872E+01  0.2506E+02  0.2506E+02
    -15.753  0.5368E+01  0.5368E+01  0.2611E+02  0.2611E+02
    -15.558  0.1517E+01  0.1517E+01  0.2641E+02  0.2641E+02
    -15.362  0.4299E+01  0.4299E+01  0.2725E+02  0.2725E+02
    -15.166  0.6289E+01  0.6289E+01  0.2848E+02  0.2848E+02
    -14.971  0.3500E+01  0.3500E+01  0.2916E+02  0.2916E+02
    -14.775  0.5489E+01  0.5489E+01  0.3024E+02  0.3024E+02
    -14.580  0.3060E+01  0.3060E+01  0.3084E+02  0.3084E+02
    -14.384  0.3935E+01  0.3935E+01  0.3161E+02  0.3161E+02
    -14.189  0.3766E+01  0.3766E+01  0.3234E+02  0.3234E+02
    -13.993  0.5762E+01  0.5762E+01  0.3347E+02  0.3347E+02
    -13.798  0.2196E+01  0.2196E+01  0.3390E+02  0.3390E+02
    -13.602  0.4859E+01  0.4859E+01  0.3485E+02  0.3485E+02
    -13.407  0.4183E+01  0.4183E+01  0.3567E+02  0.3567E+02
    -13.211  0.1340E-02  0.1339E-02  0.3567E+02  0.3567E+02
    -13.015  0.4612E+01  0.4612E+01  0.3657E+02  0.3657E+02
    -12.820  0.5818E+01  0.5818E+01  0.3771E+02  0.3771E+02
    -12.624  0.7269E+01  0.7269E+01  0.3913E+02  0.3913E+02
    -12.429  0.2147E+01  0.2147E+01  0.3955E+02  0.3955E+02
    -12.233  0.4329E+01  0.4329E+01  0.4039E+02  0.4039E+02
    -12.038  0.3345E+01  0.3345E+01  0.4105E+02  0.4105E+02
    -11.842  0.4721E+01  0.4721E+01  0.4197E+02  0.4197E+02
    -11.647  0.4766E+01  0.4766E+01  0.4290E+02  0.4290E+02
    -11.451  0.5724E+01  0.5724E+01  0.4402E+02  0.4402E+02
    -11.256  0.4980E+01  0.4980E+01  0.4500E+02  0.4500E+02
    -11.060  0.7032E+01  0.7032E+01  0.4637E+02  0.4637E+02
    -10.864  0.2561E+01  0.2561E+01  0.4687E+02  0.4687E+02
    -10.669  0.5116E+01  0.5116E+01  0.4787E+02  0.4787E+02
    -10.473  0.6815E+01  0.6815E+01  0.4921E+02  0.4921E+02
    -10.278  0.1075E+02  0.1075E+02  0.5131E+02  0.5131E+02
    -10.082  0.8349E+01  0.8349E+01  0.5294E+02  0.5294E+02
     -9.887  0.1008E+02  0.1008E+02  0.5491E+02  0.5491E+02
     -9.691  0.6833E+01  0.6833E+01  0.5625E+02  0.5625E+02
     -9.496  0.9597E+01  0.9597E+01  0.5812E+02  0.5812E+02
     -9.300  0.8102E+01  0.8102E+01  0.5971E+02  0.5971E+02
     -9.105  0.1149E+02  0.1149E+02  0.6196E+02  0.6196E+02
     -8.909  0.1298E+02  0.1298E+02  0.6450E+02  0.6450E+02
     -8.713  0.1172E+02  0.1172E+02  0.6679E+02  0.6679E+02
     -8.518  0.9338E+01  0.9338E+01  0.6861E+02  0.6861E+02
     -8.322  0.7627E+01  0.7627E+01  0.7010E+02  0.7010E+02
     -8.127  0.8526E+01  0.8526E+01  0.7177E+02  0.7177E+02
     -7.931  0.1350E+02  0.1350E+02  0.7441E+02  0.7441E+02
     -7.736  0.8957E+01  0.8957E+01  0.7616E+02  0.7616E+02
     -7.540  0.3604E+01  0.3604E+01  0.7687E+02  0.7687E+02
     -7.345  0.7961E+01  0.7961E+01  0.7842E+02  0.7842E+02
     -7.149  0.1116E+02  0.1116E+02  0.8061E+02  0.8061E+02
     -6.954  0.7247E+01  0.7247E+01  0.8202E+02  0.8202E+02
     -6.758  0.8259E+01  0.8259E+01  0.8364E+02  0.8364E+02
     -6.562  0.5523E+01  0.5523E+01  0.8472E+02  0.8472E+02
     -6.367  0.6534E+01  0.6534E+01  0.8600E+02  0.8600E+02
     -6.171  0.6014E+01  0.6014E+01  0.8717E+02  0.8717E+02
     -5.976  0.8478E+01  0.8478E+01  0.8883E+02  0.8883E+02
     -5.780  0.2052E+01  0.2052E+01  0.8923E+02  0.8923E+02
     -5.585  0.4813E+01  0.4813E+01  0.9017E+02  0.9017E+02
     -5.389  0.5008E+01  0.5008E+01  0.9115E+02  0.9115E+02
     -5.194  0.3483E+01  0.3483E+01  0.9183E+02  0.9183E+02
     -4.998  0.6007E+01  0.6007E+01  0.9301E+02  0.9301E+02
     -4.803  0.5286E+01  0.5286E+01  0.9404E+02  0.9404E+02
     -4.607  0.4139E+01  0.4139E+01  0.9485E+02  0.9485E+02
     -4.411  0.9285E+00  0.9285E+00  0.9503E+02  0.9503E+02
     -4.216  0.2167E+01  0.2167E+01  0.9546E+02  0.9546E+02
     -4.020  0.2830E+01  0.2830E+01  0.9601E+02  0.9601E+02
     -3.825  0.1661E+01  0.1661E+01  0.9634E+02  0.9634E+02
     -3.629  0.3177E+01  0.3177E+01  0.9696E+02  0.9696E+02
     -3.434  0.2203E+00  0.2202E+00  0.9700E+02  0.9700E+02
     -3.238  0.5218E-01  0.5218E-01  0.9701E+02  0.9701E+02
     -3.043  0.2734E+01  0.2734E+01  0.9754E+02  0.9754E+02
     -2.847  0.1062E+01  0.1062E+01  0.9775E+02  0.9775E+02
     -2.651  0.4569E+00  0.4569E+00  0.9784E+02  0.9784E+02
     -2.456  0.1803E+01  0.1803E+01  0.9819E+02  0.9819E+02
     -2.260  0.1430E+00  0.1430E+00  0.9822E+02  0.9822E+02
     -2.065  0.2033E-05  0.2033E-05  0.9822E+02  0.9822E+02
     -1.869  0.1604E+01  0.1604E+01  0.9854E+02  0.9854E+02
     -1.674  0.5159E+01  0.5159E+01  0.9954E+02  0.9954E+02
     -1.478  0.1708E+01  0.1708E+01  0.9988E+02  0.9988E+02
     -1.283  0.2341E+01  0.2341E+01  0.1003E+03  0.1003E+03
     -1.087  0.9169E+01  0.9169E+01  0.1021E+03  0.1021E+03
     -0.892  0.8299E+01  0.8299E+01  0.1038E+03  0.1038E+03
     -0.696  0.3515E+01  0.3515E+01  0.1044E+03  0.1044E+03
     -0.500  0.2582E+01  0.2582E+01  0.1049E+03  0.1049E+03
     -0.305  0.7830E+01  0.7830E+01  0.1065E+03  0.1065E+03
     -0.109  0.5747E+00  0.5748E+00  0.1066E+03  0.1066E+03
      0.086  0.6120E+01  0.6120E+01  0.1078E+03  0.1078E+03
      0.282  0.6852E+01  0.6850E+01  0.1091E+03  0.1091E+03
      0.477  0.8359E+01  0.8355E+01  0.1108E+03  0.1108E+03
      0.673  0.5124E+01  0.5124E+01  0.1118E+03  0.1118E+03
      0.868  0.8875E+01  0.8823E+01  0.1135E+03  0.1135E+03
      1.064  0.1127E+02  0.1115E+02  0.1157E+03  0.1157E+03
      1.259  0.1369E+02  0.1349E+02  0.1184E+03  0.1183E+03
      1.455  0.1334E+02  0.1319E+02  0.1210E+03  0.1209E+03
      1.651  0.1271E+02  0.1278E+02  0.1235E+03  0.1234E+03
      1.846  0.1711E+02  0.1637E+02  0.1268E+03  0.1266E+03
      2.042  0.4918E+01  0.6399E+01  0.1278E+03  0.1278E+03
      2.237  0.1125E+01  0.8473E+00  0.1280E+03  0.1280E+03
      2.433  0.1715E-04  0.1228E-03  0.1280E+03  0.1280E+03
      2.628  0.0000E+00  0.0000E+00  0.1280E+03  0.1280E+03
      2.824  0.0000E+00  0.0000E+00  0.1280E+03  0.1280E+03
      3.019  0.0000E+00  0.0000E+00  0.1280E+03  0.1280E+03
      3.215  0.0000E+00  0.0000E+00  0.1280E+03  0.1280E+03
      3.410  0.0000E+00  0.0000E+00  0.1280E+03  0.1280E+03
      3.606  0.0000E+00  0.0000E+00  0.1280E+03  0.1280E+03
      3.802  0.0000E+00  0.0000E+00  0.1280E+03  0.1280E+03
      3.997  0.0000E+00  0.0000E+00  0.1280E+03  0.1280E+03
      4.193  0.0000E+00  0.0000E+00  0.1280E+03  0.1280E+03
      4.388  0.0000E+00  0.0000E+00  0.1280E+03  0.1280E+03
      4.584  0.0000E+00  0.0000E+00  0.1280E+03  0.1280E+03
      4.779  0.0000E+00  0.0000E+00  0.1280E+03  0.1280E+03
