       N       E                     dE             d eps       ncg     rms          rms(c)
DAV:   1     0.184997225444E+04    0.18500E+04   -0.64224E+04  3136   0.105E+03
DAV:   2     0.457815980100E+02   -0.18042E+04   -0.16579E+04  3968   0.230E+02
DAV:   3    -0.437923108035E+03   -0.48370E+03   -0.47948E+03  3328   0.127E+02
DAV:   4    -0.464787486222E+03   -0.26864E+02   -0.26538E+02  3344   0.390E+01
DAV:   5    -0.466008149373E+03   -0.12207E+01   -0.12071E+01  4248   0.681E+00    0.316E+01
DAV:   6    -0.443163471855E+03    0.22845E+02   -0.23051E+01  2880   0.128E+01    0.182E+01
DAV:   7    -0.432180301981E+03    0.10983E+02   -0.15315E+01  3008   0.970E+00    0.982E+00
DAV:   8    -0.431671208213E+03    0.50909E+00   -0.41394E+00  3000   0.466E+00    0.374E+00
DAV:   9    -0.432810570824E+03   -0.11394E+01   -0.54991E-01  3632   0.200E+00    0.162E+00
DAV:  10    -0.433327341642E+03   -0.51677E+00   -0.16911E-01  2856   0.105E+00    0.100E+00
DAV:  11    -0.433741916223E+03   -0.41457E+00   -0.52122E-02  3048   0.524E-01    0.835E-01
DAV:  12    -0.434498833120E+03   -0.75692E+00   -0.15203E-01  2816   0.690E-01    0.624E-01
DAV:  13    -0.434657152411E+03   -0.15832E+00   -0.11793E-01  2744   0.598E-01    0.457E-01
DAV:  14    -0.434997462745E+03   -0.34031E+00   -0.58476E-02  2832   0.437E-01    0.314E-01
DAV:  15    -0.435761400155E+03   -0.76394E+00   -0.38982E-02  2816   0.284E-01    0.208E-01
DAV:  16    -0.436164874870E+03   -0.40347E+00   -0.77600E-03  3024   0.169E-01    0.156E-01
DAV:  17    -0.436475166913E+03   -0.31029E+00   -0.57629E-03  2792   0.151E-01    0.107E-01
DAV:  18    -0.436616529238E+03   -0.14136E+00   -0.32043E-03  2848   0.103E-01    0.772E-02
DAV:  19    -0.436663815570E+03   -0.47286E-01   -0.14481E-03  2872   0.690E-02    0.561E-02
DAV:  20    -0.436676615319E+03   -0.12800E-01   -0.61880E-04  2848   0.489E-02    0.402E-02
DAV:  21    -0.436687771833E+03   -0.11157E-01   -0.22164E-04  2920   0.343E-02    0.285E-02
DAV:  22    -0.436712149690E+03   -0.24378E-01   -0.88517E-05  2800   0.255E-02    0.179E-02
DAV:  23    -0.436734991738E+03   -0.22842E-01   -0.40003E-05  2840   0.204E-02    0.102E-02
DAV:  24    -0.436739562989E+03   -0.45713E-02   -0.19331E-05  2432   0.152E-02    0.722E-03
DAV:  25    -0.436742632623E+03   -0.30696E-02   -0.38794E-05  2376   0.158E-02    0.411E-03
DAV:  26    -0.436743827543E+03   -0.11949E-02   -0.19713E-05  2336   0.137E-02    0.264E-03
DAV:  27    -0.436744250748E+03   -0.42321E-03   -0.55733E-06  2232   0.816E-03    0.169E-03
DAV:  28    -0.436744533859E+03   -0.28311E-03   -0.27834E-06  2280   0.506E-03    0.117E-03
DAV:  29    -0.436744670356E+03   -0.13650E-03   -0.11723E-06  2224   0.306E-03    0.804E-04
DAV:  30    -0.436744747505E+03   -0.77149E-04   -0.51474E-07  1920   0.188E-03    0.443E-04
DAV:  31    -0.436744792219E+03   -0.44714E-04   -0.26555E-07  1912   0.119E-03    0.397E-04
DAV:  32    -0.436744812544E+03   -0.20325E-04   -0.10583E-07  1944   0.797E-04    0.220E-04
DAV:  33    -0.436744818551E+03   -0.60072E-05   -0.20707E-08  1968   0.507E-04    0.147E-04
DAV:  34    -0.436744821751E+03   -0.32000E-05    0.18530E-10  1880   0.295E-04    0.141E-04
DAV:  35    -0.436744823256E+03   -0.15045E-05    0.11709E-08  1856   0.191E-04    0.120E-04
DAV:  36    -0.436744823797E+03   -0.54109E-06    0.16236E-08  1944   0.117E-04
   1 F= -.43674482E+03 E0= -.43674162E+03  d E =-.641101E-02  mag=     0.0000
