  50  50   0   0
  0.7861259E+02  0.1230000E-08  0.1230000E-08  0.3000000E-08  0.5000000E-15
  1.000000000000000E-004
  CAR 
 Li defective graphene MACE training lab 
      4.48804667    -52.03499155  301     -3.01187285      1.00000000
    -52.035  0.0000E+00  0.0000E+00  0.0000E+00  0.0000E+00
    -51.847  0.0000E+00  0.0000E+00  0.0000E+00  0.0000E+00
    -51.658  0.0000E+00  0.0000E+00  0.0000E+00  0.0000E+00
    -51.470  0.0000E+00  0.0000E+00  0.0000E+00  0.0000E+00
    -51.281  0.0000E+00  0.0000E+00  0.0000E+00  0.0000E+00
    -51.093  0.0000E+00  0.0000E+00  0.0000E+00  0.0000E+00
    -50.905  0.0000E+00  0.0000E+00  0.0000E+00  0.0000E+00
    -50.716  0.0000E+00  0.0000E+00  0.0000E+00  0.0000E+00
    -50.528  0.0000E+00  0.0000E+00  0.0000E+00  0.0000E+00
    -50.339  0.0000E+00  0.0000E+00  0.0000E+00  0.0000E+00
    -50.151  0.0000E+00  0.0000E+00  0.0000E+00  0.0000E+00
    -49.962  0.0000E+00  0.0000E+00  0.0000E+00  0.0000E+00
    -49.774  0.0000E+00  0.0000E+00  0.0000E+00  0.0000E+00
    -49.586  0.1846E-02  0.8524E-03  0.3479E-03  0.1606E-03
    -49.397  0.5166E+01  0.5085E+01  0.9737E+00  0.9583E+00
    -49.209  0.1397E+00  0.2212E+00  0.1000E+01  0.1000E+01
    -49.020  0.0000E+00  0.0000E+00  0.1000E+01  0.1000E+01
    -48.832  0.0000E+00  0.0000E+00  0.1000E+01  0.1000E+01
    -48.644  0.0000E+00  0.0000E+00  0.1000E+01  0.1000E+01
    -48.455  0.0000E+00  0.0000E+00  0.1000E+01  0.1000E+01
    -48.267  0.0000E+00  0.0000E+00  0.1000E+01  0.1000E+01
    -48.078  0.0000E+00  0.0000E+00  0.1000E+01  0.1000E+01
    -47.890  0.0000E+00  0.0000E+00  0.1000E+01  0.1000E+01
    -47.702  0.0000E+00  0.0000E+00  0.1000E+01  0.1000E+01
    -47.513  0.0000E+00  0.0000E+00  0.1000E+01  0.1000E+01
    -47.325  0.0000E+00  0.0000E+00  0.1000E+01  0.1000E+01
    -47.136  0.0000E+00  0.0000E+00  0.1000E+01  0.1000E+01
    -46.948  0.0000E+00  0.0000E+00  0.1000E+01  0.1000E+01
    -46.760  0.0000E+00  0.0000E+00  0.1000E+01  0.1000E+01
    -46.571  0.0000E+00  0.0000E+00  0.1000E+01  0.1000E+01
    -46.383  0.0000E+00  0.0000E+00  0.1000E+01  0.1000E+01
    -46.194  0.0000E+00  0.0000E+00  0.1000E+01  0.1000E+01
    -46.006  0.0000E+00  0.0000E+00  0.1000E+01  0.1000E+01
    -45.817  0.0000E+00  0.0000E+00  0.1000E+01  0.1000E+01
    -45.629  0.0000E+00  0.0000E+00  0.1000E+01  0.1000E+01
    -45.441  0.0000E+00  0.0000E+00  0.1000E+01  0.1000E+01
    -45.252  0.0000E+00  0.0000E+00  0.1000E+01  0.1000E+01
    -45.064  0.0000E+00  0.0000E+00  0.1000E+01  0.1000E+01
    -44.875  0.0000E+00  0.0000E+00  0.1000E+01  0.1000E+01
    -44.687  0.0000E+00  0.0000E+00  0.1000E+01  0.1000E+01
    -44.499  0.0000E+00  0.0000E+00  0.1000E+01  0.1000E+01
    -44.310  0.0000E+00  0.0000E+00  0.1000E+01  0.1000E+01
    -44.122  0.0000E+00  0.0000E+00  0.1000E+01  0.1000E+01
    -43.933  0.0000E+00  0.0000E+00  0.1000E+01  0.1000E+01
    -43.745  0.0000E+00  0.0000E+00  0.1000E+01  0.1000E+01
    -43.557  0.0000E+00  0.0000E+00  0.1000E+01  0.1000E+01
    -43.368  0.0000E+00  0.0000E+00  0.1000E+01  0.1000E+01
    -43.180  0.0000E+00  0.0000E+00  0.1000E+01  0.1000E+01
    -42.991  0.0000E+00  0.0000E+00  0.1000E+01  0.1000E+01
    -42.803  0.0000E+00  0.0000E+00  0.1000E+01  0.1000E+01
    -42.614  0.0000E+00  0.0000E+00  0.1000E+01  0.1000E+01
    -42.426  0.0000E+00  0.0000E+00  0.1000E+01  0.1000E+01
    -42.238  0.0000E+00  0.0000E+00  0.1000E+01  0.1000E+01
    -42.049  0.0000E+00  0.0000E+00  0.1000E+01  0.1000E+01
    -41.861  0.0000E+00  0.0000E+00  0.1000E+01  0.1000E+01
    -41.672  0.0000E+00  0.0000E+00  0.1000E+01  0.1000E+01
    -41.484  0.0000E+00  0.0000E+00  0.1000E+01  0.1000E+01
    -41.296  0.0000E+00  0.0000E+00  0.1000E+01  0.1000E+01
    -41.107  0.0000E+00  0.0000E+00  0.1000E+01  0.1000E+01
    -40.919  0.0000E+00  0.0000E+00  0.1000E+01  0.1000E+01
    -40.730  0.0000E+00  0.0000E+00  0.1000E+01  0.1000E+01
    -40.542  0.0000E+00  0.0000E+00  0.1000E+01  0.1000E+01
    -40.354  0.0000E+00  0.0000E+00  0.1000E+01  0.1000E+01
    -40.165  0.0000E+00  0.0000E+00  0.1000E+01  0.1000E+01
    -39.977  0.0000E+00  0.0000E+00  0.1000E+01  0.1000E+01
    -39.788  0.0000E+00  0.0000E+00  0.1000E+01  0.1000E+01
    -39.600  0.0000E+00  0.0000E+00  0.1000E+01  0.1000E+01
    -39.412  0.0000E+00  0.0000E+00  0.1000E+01  0.1000E+01
    -39.223  0.0000E+00  0.0000E+00  0.1000E+01  0.1000E+01
    -39.035  0.0000E+00  0.0000E+00  0.1000E+01  0.1000E+01
    -38.846  0.0000E+00  0.0000E+00  0.1000E+01  0.1000E+01
    -38.658  0.0000E+00  0.0000E+00  0.1000E+01  0.1000E+01
    -38.469  0.0000E+00  0.0000E+00  0.1000E+01  0.1000E+01
    -38.281  0.0000E+00  0.0000E+00  0.1000E+01  0.1000E+01
    -38.093  0.0000E+00  0.0000E+00  0.1000E+01  0.1000E+01
    -37.904  0.0000E+00  0.0000E+00  0.1000E+01  0.1000E+01
    -37.716  0.0000E+00  0.0000E+00  0.1000E+01  0.1000E+01
    -37.527  0.0000E+00  0.0000E+00  0.1000E+01  0.1000E+01
    -37.339  0.0000E+00  0.0000E+00  0.1000E+01  0.1000E+01
    -37.151  0.0000E+00  0.0000E+00  0.1000E+01  0.1000E+01
    -36.962  0.0000E+00  0.0000E+00  0.1000E+01  0.1000E+01
    -36.774  0.0000E+00  0.0000E+00  0.1000E+01  0.1000E+01
    -36.585  0.0000E+00  0.0000E+00  0.1000E+01  0.1000E+01
    -36.397  0.0000E+00  0.0000E+00  0.1000E+01  0.1000E+01
    -36.209  0.0000E+00  0.0000E+00  0.1000E+01  0.1000E+01
    -36.020  0.0000E+00  0.0000E+00  0.1000E+01  0.1000E+01
    -35.832  0.0000E+00  0.0000E+00  0.1000E+01  0.1000E+01
    -35.643  0.0000E+00  0.0000E+00  0.1000E+01  0.1000E+01
    -35.455  0.0000E+00  0.0000E+00  0.1000E+01  0.1000E+01
    -35.266  0.0000E+00  0.0000E+00  0.1000E+01  0.1000E+01
    -35.078  0.0000E+00  0.0000E+00  0.1000E+01  0.1000E+01
    -34.890  0.0000E+00  0.0000E+00  0.1000E+01  0.1000E+01
    -34.701  0.0000E+00  0.0000E+00  0.1000E+01  0.1000E+01
    -34.513  0.0000E+00  0.0000E+00  0.1000E+01  0.1000E+01
    -34.324  0.0000E+00  0.0000E+00  0.1000E+01  0.1000E+01
    -34.136  0.0000E+00  0.0000E+00  0.1000E+01  0.1000E+01
    -33.948  0.0000E+00  0.0000E+00  0.1000E+01  0.1000E+01
    -33.759  0.0000E+00  0.0000E+00  0.1000E+01  0.1000E+01
    -33.571  0.0000E+00  0.0000E+00  0.1000E+01  0.1000E+01
    -33.382  0.0000E+00  0.0000E+00  0.1000E+01  0.1000E+01
    -33.194  0.0000E+00  0.0000E+00  0.1000E+01  0.1000E+01
    -33.006  0.0000E+00  0.0000E+00  0.1000E+01  0.1000E+01
    -32.817  0.0000E+00  0.0000E+00  0.1000E+01  0.1000E+01
    -32.629  0.0000E+00  0.0000E+00  0.1000E+01  0.1000E+01
    -32.440  0.0000E+00  0.0000E+00  0.1000E+01  0.1000E+01
    -32.252  0.0000E+00  0.0000E+00  0.1000E+01  0.1000E+01
    -32.064  0.0000E+00  0.0000E+00  0.1000E+01  0.1000E+01
    -31.875  0.0000E+00  0.0000E+00  0.1000E+01  0.1000E+01
    -31.687  0.0000E+00  0.0000E+00  0.1000E+01  0.1000E+01
    -31.498  0.0000E+00  0.0000E+00  0.1000E+01  0.1000E+01
    -31.310  0.0000E+00  0.0000E+00  0.1000E+01  0.1000E+01
    -31.121  0.0000E+00  0.0000E+00  0.1000E+01  0.1000E+01
    -30.933  0.0000E+00  0.0000E+00  0.1000E+01  0.1000E+01
    -30.745  0.0000E+00  0.0000E+00  0.1000E+01  0.1000E+01
    -30.556  0.0000E+00  0.0000E+00  0.1000E+01  0.1000E+01
    -30.368  0.0000E+00  0.0000E+00  0.1000E+01  0.1000E+01
    -30.179  0.0000E+00  0.0000E+00  0.1000E+01  0.1000E+01
    -29.991  0.0000E+00  0.0000E+00  0.1000E+01  0.1000E+01
    -29.803  0.0000E+00  0.0000E+00  0.1000E+01  0.1000E+01
    -29.614  0.0000E+00  0.0000E+00  0.1000E+01  0.1000E+01
    -29.426  0.0000E+00  0.0000E+00  0.1000E+01  0.1000E+01
    -29.237  0.0000E+00  0.0000E+00  0.1000E+01  0.1000E+01
    -29.049  0.0000E+00  0.0000E+00  0.1000E+01  0.1000E+01
    -28.861  0.0000E+00  0.0000E+00  0.1000E+01  0.1000E+01
    -28.672  0.0000E+00  0.0000E+00  0.1000E+01  0.1000E+01
    -28.484  0.0000E+00  0.0000E+00  0.1000E+01  0.1000E+01
    -28.295  0.0000E+00  0.0000E+00  0.1000E+01  0.1000E+01
    -28.107  0.0000E+00  0.0000E+00  0.1000E+01  0.1000E+01
    -27.918  0.0000E+00  0.0000E+00  0.1000E+01  0.1000E+01
    -27.730  0.0000E+00  0.0000E+00  0.1000E+01  0.1000E+01
    -27.542  0.0000E+00  0.0000E+00  0.1000E+01  0.1000E+01
    -27.353  0.0000E+00  0.0000E+00  0.1000E+01  0.1000E+01
    -27.165  0.0000E+00  0.0000E+00  0.1000E+01  0.1000E+01
    -26.976  0.0000E+00  0.0000E+00  0.1000E+01  0.1000E+01
    -26.788  0.0000E+00  0.0000E+00  0.1000E+01  0.1000E+01
    -26.600  0.0000E+00  0.0000E+00  0.1000E+01  0.1000E+01
    -26.411  0.0000E+00  0.0000E+00  0.1000E+01  0.1000E+01
    -26.223  0.0000E+00  0.0000E+00  0.1000E+01  0.1000E+01
    -26.034  0.0000E+00  0.0000E+00  0.1000E+01  0.1000E+01
    -25.846  0.0000E+00  0.0000E+00  0.1000E+01  0.1000E+01
    -25.658  0.0000E+00  0.0000E+00  0.1000E+01  0.1000E+01
    -25.469  0.0000E+00  0.0000E+00  0.1000E+01  0.1000E+01
    -25.281  0.0000E+00  0.0000E+00  0.1000E+01  0.1000E+01
    -25.092  0.0000E+00  0.0000E+00  0.1000E+01  0.1000E+01
    -24.904  0.0000E+00  0.0000E+00  0.1000E+01  0.1000E+01
    -24.716  0.0000E+00  0.0000E+00  0.1000E+01  0.1000E+01
    -24.527  0.0000E+00  0.0000E+00  0.1000E+01  0.1000E+01
    -24.339  0.0000E+00  0.0000E+00  0.1000E+01  0.1000E+01
    -24.150  0.0000E+00  0.0000E+00  0.1000E+01  0.1000E+01
    -23.962  0.0000E+00  0.0000E+00  0.1000E+01  0.1000E+01
    -23.773  0.0000E+00  0.0000E+00  0.1000E+01  0.1000E+01
    -23.585  0.0000E+00  0.0000E+00  0.1000E+01  0.1000E+01
    -23.397  0.0000E+00  0.0000E+00  0.1000E+01  0.1000E+01
    -23.208  0.0000E+00  0.0000E+00  0.1000E+01  0.1000E+01
    -23.020  0.0000E+00  0.0000E+00  0.1000E+01  0.1000E+01
    -22.831  0.0000E+00  0.0000E+00  0.1000E+01  0.1000E+01
    -22.643  0.2435E-06  0.6842E-07  0.1000E+01  0.1000E+01
    -22.455  0.4486E+00  0.3668E+00  0.1085E+01  0.1069E+01
    -22.266  0.4288E+01  0.4260E+01  0.1892E+01  0.1872E+01
    -22.078  0.2794E+01  0.2683E+01  0.2419E+01  0.2377E+01
    -21.889  0.3665E+01  0.3866E+01  0.3109E+01  0.3106E+01
    -21.701  0.4131E+01  0.3789E+01  0.3888E+01  0.3820E+01
    -21.513  0.4967E+01  0.5202E+01  0.4824E+01  0.4800E+01
    -21.324  0.1065E+01  0.1126E+01  0.5024E+01  0.5012E+01
    -21.136  0.4233E+01  0.4008E+01  0.5822E+01  0.5767E+01
    -20.947  0.6777E+01  0.6998E+01  0.7099E+01  0.7086E+01
    -20.759  0.4684E+00  0.2898E+00  0.7187E+01  0.7140E+01
    -20.571  0.3507E+01  0.3619E+01  0.7848E+01  0.7822E+01
    -20.382  0.4508E+01  0.4273E+01  0.8697E+01  0.8628E+01
    -20.194  0.7094E+01  0.7275E+01  0.1003E+02  0.9998E+01
    -20.005  0.1001E+01  0.1189E+01  0.1022E+02  0.1022E+02
    -19.817  0.1771E+01  0.1175E+01  0.1056E+02  0.1044E+02
    -19.628  0.5549E+01  0.5846E+01  0.1160E+02  0.1155E+02
    -19.440  0.6966E+01  0.7119E+01  0.1291E+02  0.1289E+02
    -19.252  0.2396E+01  0.2001E+01  0.1337E+02  0.1326E+02
    -19.063  0.3376E+01  0.3659E+01  0.1400E+02  0.1395E+02
    -18.875  0.2668E+01  0.2813E+01  0.1450E+02  0.1448E+02
    -18.686  0.4086E+01  0.3773E+01  0.1527E+02  0.1519E+02
    -18.498  0.7220E+01  0.6973E+01  0.1663E+02  0.1651E+02
    -18.310  0.4181E+01  0.4564E+01  0.1742E+02  0.1737E+02
    -18.121  0.6950E+00  0.6621E+00  0.1755E+02  0.1749E+02
    -17.933  0.5926E+01  0.5513E+01  0.1867E+02  0.1853E+02
    -17.744  0.2373E+01  0.3097E+01  0.1912E+02  0.1911E+02
    -17.556  0.5605E+01  0.4932E+01  0.2017E+02  0.2004E+02
    -17.368  0.7776E+01  0.7879E+01  0.2164E+02  0.2153E+02
    -17.179  0.4847E+01  0.5176E+01  0.2255E+02  0.2250E+02
    -16.991  0.1721E+01  0.1787E+01  0.2288E+02  0.2284E+02
    -16.802  0.3380E+01  0.2993E+01  0.2351E+02  0.2340E+02
    -16.614  0.1831E+01  0.2187E+01  0.2386E+02  0.2382E+02
    -16.425  0.4582E+01  0.4305E+01  0.2472E+02  0.2463E+02
    -16.237  0.1533E+01  0.1984E+01  0.2501E+02  0.2500E+02
    -16.049  0.5129E+01  0.4878E+01  0.2598E+02  0.2592E+02
    -15.860  0.2087E+01  0.2222E+01  0.2637E+02  0.2634E+02
    -15.672  0.2205E+01  0.1743E+01  0.2678E+02  0.2667E+02
    -15.483  0.4794E+01  0.4849E+01  0.2769E+02  0.2758E+02
    -15.295  0.8125E+01  0.8655E+01  0.2922E+02  0.2921E+02
    -15.107  0.5201E+00  0.3102E+00  0.2932E+02  0.2927E+02
    -14.918  0.7876E+01  0.7858E+01  0.3080E+02  0.3075E+02
    -14.730  0.3505E+01  0.3546E+01  0.3146E+02  0.3142E+02
    -14.541  0.5713E+01  0.5487E+01  0.3254E+02  0.3245E+02
    -14.353  0.1983E+01  0.2381E+01  0.3291E+02  0.3290E+02
    -14.165  0.2095E+01  0.2027E+01  0.3330E+02  0.3328E+02
    -13.976  0.6037E+01  0.5608E+01  0.3444E+02  0.3434E+02
    -13.788  0.6511E+01  0.6886E+01  0.3567E+02  0.3564E+02
    -13.599  0.1166E+01  0.1336E+01  0.3589E+02  0.3589E+02
    -13.411  0.3883E-01  0.1567E-01  0.3590E+02  0.3589E+02
    -13.223  0.5780E+01  0.5336E+01  0.3699E+02  0.3690E+02
    -13.034  0.6535E+01  0.6844E+01  0.3822E+02  0.3819E+02
    -12.846  0.5036E+01  0.4873E+01  0.3917E+02  0.3910E+02
    -12.657  0.5308E+01  0.4799E+01  0.4017E+02  0.4001E+02
    -12.469  0.1494E+01  0.2318E+01  0.4045E+02  0.4044E+02
    -12.280  0.8496E+01  0.7896E+01  0.4205E+02  0.4193E+02
    -12.092  0.1336E+01  0.1788E+01  0.4230E+02  0.4227E+02
    -11.904  0.2125E+01  0.2022E+01  0.4270E+02  0.4265E+02
    -11.715  0.8552E+01  0.8503E+01  0.4431E+02  0.4425E+02
    -11.527  0.4153E+01  0.4309E+01  0.4509E+02  0.4506E+02
    -11.338  0.8058E+01  0.7756E+01  0.4661E+02  0.4653E+02
    -11.150  0.3390E+01  0.3394E+01  0.4725E+02  0.4717E+02
    -10.962  0.4290E+01  0.4574E+01  0.4806E+02  0.4803E+02
    -10.773  0.2815E+01  0.2103E+01  0.4859E+02  0.4842E+02
    -10.585  0.7422E+01  0.7947E+01  0.4999E+02  0.4992E+02
    -10.396  0.1166E+02  0.1148E+02  0.5218E+02  0.5208E+02
    -10.208  0.9426E+01  0.9264E+01  0.5396E+02  0.5383E+02
    -10.020  0.8123E+01  0.7824E+01  0.5549E+02  0.5530E+02
     -9.831  0.9650E+01  0.1008E+02  0.5731E+02  0.5720E+02
     -9.643  0.8267E+01  0.8207E+01  0.5887E+02  0.5875E+02
     -9.454  0.1356E+02  0.1314E+02  0.6142E+02  0.6122E+02
     -9.266  0.1080E+02  0.1115E+02  0.6346E+02  0.6333E+02
     -9.077  0.1002E+02  0.1006E+02  0.6534E+02  0.6522E+02
     -8.889  0.1489E+02  0.1391E+02  0.6815E+02  0.6784E+02
     -8.701  0.7328E+01  0.8837E+01  0.6953E+02  0.6951E+02
     -8.512  0.8935E+01  0.7806E+01  0.7121E+02  0.7098E+02
     -8.324  0.7247E+01  0.7991E+01  0.7258E+02  0.7248E+02
     -8.135  0.1126E+02  0.1021E+02  0.7470E+02  0.7441E+02
     -7.947  0.1045E+02  0.1144E+02  0.7667E+02  0.7656E+02
     -7.759  0.4555E+01  0.4259E+01  0.7753E+02  0.7737E+02
     -7.570  0.4189E+01  0.4532E+01  0.7832E+02  0.7822E+02
     -7.382  0.1120E+02  0.1098E+02  0.8043E+02  0.8029E+02
     -7.193  0.1002E+02  0.9968E+01  0.8231E+02  0.8217E+02
     -7.005  0.7418E+01  0.7152E+01  0.8371E+02  0.8351E+02
     -6.817  0.6196E+01  0.6884E+01  0.8488E+02  0.8481E+02
     -6.628  0.6028E+01  0.5757E+01  0.8601E+02  0.8590E+02
     -6.440  0.5898E+01  0.5800E+01  0.8713E+02  0.8699E+02
     -6.251  0.5967E+01  0.5824E+01  0.8825E+02  0.8809E+02
     -6.063  0.9952E+01  0.1023E+02  0.9013E+02  0.9001E+02
     -5.875  0.1809E+01  0.2318E+01  0.9047E+02  0.9045E+02
     -5.686  0.7040E+01  0.6019E+01  0.9179E+02  0.9158E+02
     -5.498  0.2053E+01  0.2933E+01  0.9218E+02  0.9214E+02
     -5.309  0.3696E+01  0.3655E+01  0.9288E+02  0.9283E+02
     -5.121  0.8663E+01  0.7772E+01  0.9451E+02  0.9429E+02
     -4.932  0.7328E+01  0.8482E+01  0.9589E+02  0.9589E+02
     -4.744  0.7172E-02  0.6178E-02  0.9589E+02  0.9589E+02
     -4.556  0.4048E+01  0.1975E+01  0.9665E+02  0.9626E+02
     -4.367  0.3113E+01  0.4208E+01  0.9724E+02  0.9705E+02
     -4.179  0.6122E+00  0.1464E+01  0.9735E+02  0.9733E+02
     -3.990  0.4927E+01  0.3522E+01  0.9828E+02  0.9799E+02
     -3.802  0.2615E+01  0.9053E+00  0.9878E+02  0.9816E+02
     -3.614  0.1011E+01  0.3223E+01  0.9897E+02  0.9877E+02
     -3.425  0.1847E+00  0.3752E-01  0.9900E+02  0.9878E+02
     -3.237  0.3346E+01  0.1154E+01  0.9963E+02  0.9900E+02
     -3.048  0.7993E+00  0.2440E+00  0.9978E+02  0.9904E+02
     -2.860  0.1156E+01  0.4031E+01  0.1000E+03  0.9980E+02
     -2.672  0.2609E+00  0.1059E+01  0.1000E+03  0.1000E+03
     -2.483  0.9192E+00  0.1168E+01  0.1002E+03  0.1002E+03
     -2.295  0.3032E-05  0.9718E-02  0.1002E+03  0.1002E+03
     -2.106  0.2008E-01  0.3699E-03  0.1002E+03  0.1002E+03
     -1.918  0.2682E+01  0.2402E+01  0.1007E+03  0.1007E+03
     -1.729  0.5724E+01  0.5086E+01  0.1018E+03  0.1016E+03
     -1.541  0.1650E+01  0.2529E+01  0.1021E+03  0.1021E+03
     -1.353  0.6579E+01  0.4325E+01  0.1034E+03  0.1029E+03
     -1.164  0.6972E+01  0.8800E+01  0.1047E+03  0.1046E+03
     -0.976  0.7646E+01  0.7553E+01  0.1061E+03  0.1060E+03
     -0.787  0.7502E+01  0.6705E+01  0.1075E+03  0.1073E+03
     -0.599  0.3406E+01  0.4036E+01  0.1082E+03  0.1080E+03
     -0.411  0.3468E+01  0.3789E+01  0.1088E+03  0.1087E+03
     -0.222  0.3931E+01  0.4321E+01  0.1096E+03  0.1096E+03
     -0.034  0.4936E+01  0.2860E+01  0.1105E+03  0.1101E+03
      0.155  0.6153E+01  0.7934E+01  0.1117E+03  0.1116E+03
      0.343  0.2832E+01  0.2619E+01  0.1122E+03  0.1121E+03
      0.531  0.7650E+01  0.8071E+01  0.1136E+03  0.1136E+03
      0.720  0.4353E+01  0.4033E+01  0.1144E+03  0.1144E+03
      0.908  0.7585E+01  0.7852E+01  0.1159E+03  0.1158E+03
      1.097  0.9829E+01  0.9677E+01  0.1177E+03  0.1177E+03
      1.285  0.8806E+01  0.8357E+01  0.1194E+03  0.1192E+03
      1.473  0.1610E+02  0.1542E+02  0.1224E+03  0.1221E+03
      1.662  0.1451E+02  0.1522E+02  0.1252E+03  0.1250E+03
      1.850  0.1437E+02  0.1475E+02  0.1279E+03  0.1278E+03
      2.039  0.7212E+00  0.1098E+01  0.1280E+03  0.1280E+03
      2.227  0.2881E-04  0.2052E-03  0.1280E+03  0.1280E+03
      2.416  0.0000E+00  0.0000E+00  0.1280E+03  0.1280E+03
      2.604  0.0000E+00  0.0000E+00  0.1280E+03  0.1280E+03
      2.792  0.0000E+00  0.0000E+00  0.1280E+03  0.1280E+03
      2.981  0.0000E+00  0.0000E+00  0.1280E+03  0.1280E+03
      3.169  0.0000E+00  0.0000E+00  0.1280E+03  0.1280E+03
      3.358  0.0000E+00  0.0000E+00  0.1280E+03  0.1280E+03
      3.546  0.0000E+00  0.0000E+00  0.1280E+03  0.1280E+03
      3.734  0.0000E+00  0.0000E+00  0.1280E+03  0.1280E+03
      3.923  0.0000E+00  0.0000E+00  0.1280E+03  0.1280E+03
      4.111  0.0000E+00  0.0000E+00  0.1280E+03  0.1280E+03
      4.300  0.0000E+00  0.0000E+00  0.1280E+03  0.1280E+03
      4.488  0.0000E+00  0.0000E+00  0.1280E+03  0.1280E+03
