  50  50   0   0
  0.7861259E+02  0.1230000E-08  0.1230000E-08  0.3000000E-08  0.5000000E-15
  1.000000000000000E-004
  CAR 
 Li defective graphene MACE training lab 
      4.67238511    -53.85890392  301     -2.82305096      1.00000000
    -53.859  0.0000E+00  0.0000E+00  0.0000E+00  0.0000E+00
    -53.664  0.0000E+00  0.0000E+00  0.0000E+00  0.0000E+00
    -53.469  0.0000E+00  0.0000E+00  0.0000E+00  0.0000E+00
    -53.274  0.0000E+00  0.0000E+00  0.0000E+00  0.0000E+00
    -53.078  0.0000E+00  0.0000E+00  0.0000E+00  0.0000E+00
    -52.883  0.0000E+00  0.0000E+00  0.0000E+00  0.0000E+00
    -52.688  0.0000E+00  0.0000E+00  0.0000E+00  0.0000E+00
    -52.493  0.0000E+00  0.0000E+00  0.0000E+00  0.0000E+00
    -52.298  0.0000E+00  0.0000E+00  0.0000E+00  0.0000E+00
    -52.103  0.0000E+00  0.0000E+00  0.0000E+00  0.0000E+00
    -51.908  0.0000E+00  0.0000E+00  0.0000E+00  0.0000E+00
    -51.713  0.0000E+00  0.0000E+00  0.0000E+00  0.0000E+00
    -51.518  0.0000E+00  0.0000E+00  0.0000E+00  0.0000E+00
    -51.323  0.1141E-02  0.1053E-02  0.2226E-03  0.2054E-03
    -51.127  0.5010E+01  0.5004E+01  0.9776E+00  0.9764E+00
    -50.932  0.1148E+00  0.1207E+00  0.1000E+01  0.1000E+01
    -50.737  0.0000E+00  0.0000E+00  0.1000E+01  0.1000E+01
    -50.542  0.0000E+00  0.0000E+00  0.1000E+01  0.1000E+01
    -50.347  0.0000E+00  0.0000E+00  0.1000E+01  0.1000E+01
    -50.152  0.0000E+00  0.0000E+00  0.1000E+01  0.1000E+01
    -49.957  0.0000E+00  0.0000E+00  0.1000E+01  0.1000E+01
    -49.762  0.0000E+00  0.0000E+00  0.1000E+01  0.1000E+01
    -49.567  0.0000E+00  0.0000E+00  0.1000E+01  0.1000E+01
    -49.372  0.0000E+00  0.0000E+00  0.1000E+01  0.1000E+01
    -49.176  0.0000E+00  0.0000E+00  0.1000E+01  0.1000E+01
    -48.981  0.0000E+00  0.0000E+00  0.1000E+01  0.1000E+01
    -48.786  0.0000E+00  0.0000E+00  0.1000E+01  0.1000E+01
    -48.591  0.0000E+00  0.0000E+00  0.1000E+01  0.1000E+01
    -48.396  0.0000E+00  0.0000E+00  0.1000E+01  0.1000E+01
    -48.201  0.0000E+00  0.0000E+00  0.1000E+01  0.1000E+01
    -48.006  0.0000E+00  0.0000E+00  0.1000E+01  0.1000E+01
    -47.811  0.0000E+00  0.0000E+00  0.1000E+01  0.1000E+01
    -47.616  0.0000E+00  0.0000E+00  0.1000E+01  0.1000E+01
    -47.420  0.0000E+00  0.0000E+00  0.1000E+01  0.1000E+01
    -47.225  0.0000E+00  0.0000E+00  0.1000E+01  0.1000E+01
    -47.030  0.0000E+00  0.0000E+00  0.1000E+01  0.1000E+01
    -46.835  0.0000E+00  0.0000E+00  0.1000E+01  0.1000E+01
    -46.640  0.0000E+00  0.0000E+00  0.1000E+01  0.1000E+01
    -46.445  0.0000E+00  0.0000E+00  0.1000E+01  0.1000E+01
    -46.250  0.0000E+00  0.0000E+00  0.1000E+01  0.1000E+01
    -46.055  0.0000E+00  0.0000E+00  0.1000E+01  0.1000E+01
    -45.860  0.0000E+00  0.0000E+00  0.1000E+01  0.1000E+01
    -45.665  0.0000E+00  0.0000E+00  0.1000E+01  0.1000E+01
    -45.469  0.0000E+00  0.0000E+00  0.1000E+01  0.1000E+01
    -45.274  0.0000E+00  0.0000E+00  0.1000E+01  0.1000E+01
    -45.079  0.0000E+00  0.0000E+00  0.1000E+01  0.1000E+01
    -44.884  0.0000E+00  0.0000E+00  0.1000E+01  0.1000E+01
    -44.689  0.0000E+00  0.0000E+00  0.1000E+01  0.1000E+01
    -44.494  0.0000E+00  0.0000E+00  0.1000E+01  0.1000E+01
    -44.299  0.0000E+00  0.0000E+00  0.1000E+01  0.1000E+01
    -44.104  0.0000E+00  0.0000E+00  0.1000E+01  0.1000E+01
    -43.909  0.0000E+00  0.0000E+00  0.1000E+01  0.1000E+01
    -43.713  0.0000E+00  0.0000E+00  0.1000E+01  0.1000E+01
    -43.518  0.0000E+00  0.0000E+00  0.1000E+01  0.1000E+01
    -43.323  0.0000E+00  0.0000E+00  0.1000E+01  0.1000E+01
    -43.128  0.0000E+00  0.0000E+00  0.1000E+01  0.1000E+01
    -42.933  0.0000E+00  0.0000E+00  0.1000E+01  0.1000E+01
    -42.738  0.0000E+00  0.0000E+00  0.1000E+01  0.1000E+01
    -42.543  0.0000E+00  0.0000E+00  0.1000E+01  0.1000E+01
    -42.348  0.0000E+00  0.0000E+00  0.1000E+01  0.1000E+01
    -42.153  0.0000E+00  0.0000E+00  0.1000E+01  0.1000E+01
    -41.958  0.0000E+00  0.0000E+00  0.1000E+01  0.1000E+01
    -41.762  0.0000E+00  0.0000E+00  0.1000E+01  0.1000E+01
    -41.567  0.0000E+00  0.0000E+00  0.1000E+01  0.1000E+01
    -41.372  0.0000E+00  0.0000E+00  0.1000E+01  0.1000E+01
    -41.177  0.0000E+00  0.0000E+00  0.1000E+01  0.1000E+01
    -40.982  0.0000E+00  0.0000E+00  0.1000E+01  0.1000E+01
    -40.787  0.0000E+00  0.0000E+00  0.1000E+01  0.1000E+01
    -40.592  0.0000E+00  0.0000E+00  0.1000E+01  0.1000E+01
    -40.397  0.0000E+00  0.0000E+00  0.1000E+01  0.1000E+01
    -40.202  0.0000E+00  0.0000E+00  0.1000E+01  0.1000E+01
    -40.006  0.0000E+00  0.0000E+00  0.1000E+01  0.1000E+01
    -39.811  0.0000E+00  0.0000E+00  0.1000E+01  0.1000E+01
    -39.616  0.0000E+00  0.0000E+00  0.1000E+01  0.1000E+01
    -39.421  0.0000E+00  0.0000E+00  0.1000E+01  0.1000E+01
    -39.226  0.0000E+00  0.0000E+00  0.1000E+01  0.1000E+01
    -39.031  0.0000E+00  0.0000E+00  0.1000E+01  0.1000E+01
    -38.836  0.0000E+00  0.0000E+00  0.1000E+01  0.1000E+01
    -38.641  0.0000E+00  0.0000E+00  0.1000E+01  0.1000E+01
    -38.446  0.0000E+00  0.0000E+00  0.1000E+01  0.1000E+01
    -38.251  0.0000E+00  0.0000E+00  0.1000E+01  0.1000E+01
    -38.055  0.0000E+00  0.0000E+00  0.1000E+01  0.1000E+01
    -37.860  0.0000E+00  0.0000E+00  0.1000E+01  0.1000E+01
    -37.665  0.0000E+00  0.0000E+00  0.1000E+01  0.1000E+01
    -37.470  0.0000E+00  0.0000E+00  0.1000E+01  0.1000E+01
    -37.275  0.0000E+00  0.0000E+00  0.1000E+01  0.1000E+01
    -37.080  0.0000E+00  0.0000E+00  0.1000E+01  0.1000E+01
    -36.885  0.0000E+00  0.0000E+00  0.1000E+01  0.1000E+01
    -36.690  0.0000E+00  0.0000E+00  0.1000E+01  0.1000E+01
    -36.495  0.0000E+00  0.0000E+00  0.1000E+01  0.1000E+01
    -36.300  0.0000E+00  0.0000E+00  0.1000E+01  0.1000E+01
    -36.104  0.0000E+00  0.0000E+00  0.1000E+01  0.1000E+01
    -35.909  0.0000E+00  0.0000E+00  0.1000E+01  0.1000E+01
    -35.714  0.0000E+00  0.0000E+00  0.1000E+01  0.1000E+01
    -35.519  0.0000E+00  0.0000E+00  0.1000E+01  0.1000E+01
    -35.324  0.0000E+00  0.0000E+00  0.1000E+01  0.1000E+01
    -35.129  0.0000E+00  0.0000E+00  0.1000E+01  0.1000E+01
    -34.934  0.0000E+00  0.0000E+00  0.1000E+01  0.1000E+01
    -34.739  0.0000E+00  0.0000E+00  0.1000E+01  0.1000E+01
    -34.544  0.0000E+00  0.0000E+00  0.1000E+01  0.1000E+01
    -34.348  0.0000E+00  0.0000E+00  0.1000E+01  0.1000E+01
    -34.153  0.0000E+00  0.0000E+00  0.1000E+01  0.1000E+01
    -33.958  0.0000E+00  0.0000E+00  0.1000E+01  0.1000E+01
    -33.763  0.0000E+00  0.0000E+00  0.1000E+01  0.1000E+01
    -33.568  0.0000E+00  0.0000E+00  0.1000E+01  0.1000E+01
    -33.373  0.0000E+00  0.0000E+00  0.1000E+01  0.1000E+01
    -33.178  0.0000E+00  0.0000E+00  0.1000E+01  0.1000E+01
    -32.983  0.0000E+00  0.0000E+00  0.1000E+01  0.1000E+01
    -32.788  0.0000E+00  0.0000E+00  0.1000E+01  0.1000E+01
    -32.593  0.0000E+00  0.0000E+00  0.1000E+01  0.1000E+01
    -32.397  0.0000E+00  0.0000E+00  0.1000E+01  0.1000E+01
    -32.202  0.0000E+00  0.0000E+00  0.1000E+01  0.1000E+01
    -32.007  0.0000E+00  0.0000E+00  0.1000E+01  0.1000E+01
    -31.812  0.0000E+00  0.0000E+00  0.1000E+01  0.1000E+01
    -31.617  0.0000E+00  0.0000E+00  0.1000E+01  0.1000E+01
    -31.422  0.0000E+00  0.0000E+00  0.1000E+01  0.1000E+01
    -31.227  0.0000E+00  0.0000E+00  0.1000E+01  0.1000E+01
    -31.032  0.0000E+00  0.0000E+00  0.1000E+01  0.1000E+01
    -30.837  0.0000E+00  0.0000E+00  0.1000E+01  0.1000E+01
    -30.641  0.0000E+00  0.0000E+00  0.1000E+01  0.1000E+01
    -30.446  0.0000E+00  0.0000E+00  0.1000E+01  0.1000E+01
    -30.251  0.0000E+00  0.0000E+00  0.1000E+01  0.1000E+01
    -30.056  0.0000E+00  0.0000E+00  0.1000E+01  0.1000E+01
    -29.861  0.0000E+00  0.0000E+00  0.1000E+01  0.1000E+01
    -29.666  0.0000E+00  0.0000E+00  0.1000E+01  0.1000E+01
    -29.471  0.0000E+00  0.0000E+00  0.1000E+01  0.1000E+01
    -29.276  0.0000E+00  0.0000E+00  0.1000E+01  0.1000E+01
    -29.081  0.0000E+00  0.0000E+00  0.1000E+01  0.1000E+01
    -28.886  0.0000E+00  0.0000E+00  0.1000E+01  0.1000E+01
    -28.690  0.0000E+00  0.0000E+00  0.1000E+01  0.1000E+01
    -28.495  0.0000E+00  0.0000E+00  0.1000E+01  0.1000E+01
    -28.300  0.0000E+00  0.0000E+00  0.1000E+01  0.1000E+01
    -28.105  0.0000E+00  0.0000E+00  0.1000E+01  0.1000E+01
    -27.910  0.0000E+00  0.0000E+00  0.1000E+01  0.1000E+01
    -27.715  0.0000E+00  0.0000E+00  0.1000E+01  0.1000E+01
    -27.520  0.0000E+00  0.0000E+00  0.1000E+01  0.1000E+01
    -27.325  0.0000E+00  0.0000E+00  0.1000E+01  0.1000E+01
    -27.130  0.0000E+00  0.0000E+00  0.1000E+01  0.1000E+01
    -26.935  0.0000E+00  0.0000E+00  0.1000E+01  0.1000E+01
    -26.739  0.0000E+00  0.0000E+00  0.1000E+01  0.1000E+01
    -26.544  0.0000E+00  0.0000E+00  0.1000E+01  0.1000E+01
    -26.349  0.0000E+00  0.0000E+00  0.1000E+01  0.1000E+01
    -26.154  0.0000E+00  0.0000E+00  0.1000E+01  0.1000E+01
    -25.959  0.0000E+00  0.0000E+00  0.1000E+01  0.1000E+01
    -25.764  0.0000E+00  0.0000E+00  0.1000E+01  0.1000E+01
    -25.569  0.0000E+00  0.0000E+00  0.1000E+01  0.1000E+01
    -25.374  0.0000E+00  0.0000E+00  0.1000E+01  0.1000E+01
    -25.179  0.0000E+00  0.0000E+00  0.1000E+01  0.1000E+01
    -24.983  0.0000E+00  0.0000E+00  0.1000E+01  0.1000E+01
    -24.788  0.0000E+00  0.0000E+00  0.1000E+01  0.1000E+01
    -24.593  0.0000E+00  0.0000E+00  0.1000E+01  0.1000E+01
    -24.398  0.0000E+00  0.0000E+00  0.1000E+01  0.1000E+01
    -24.203  0.0000E+00  0.0000E+00  0.1000E+01  0.1000E+01
    -24.008  0.0000E+00  0.0000E+00  0.1000E+01  0.1000E+01
    -23.813  0.0000E+00  0.0000E+00  0.1000E+01  0.1000E+01
    -23.618  0.0000E+00  0.0000E+00  0.1000E+01  0.1000E+01
    -23.423  0.0000E+00  0.0000E+00  0.1000E+01  0.1000E+01
    -23.228  0.0000E+00  0.0000E+00  0.1000E+01  0.1000E+01
    -23.032  0.0000E+00  0.0000E+00  0.1000E+01  0.1000E+01
    -22.837  0.0000E+00  0.0000E+00  0.1000E+01  0.1000E+01
    -22.642  0.2173E-08  0.3020E-09  0.1000E+01  0.1000E+01
    -22.447  0.2446E+00  0.1674E+00  0.1048E+01  0.1033E+01
    -22.252  0.4486E+01  0.4442E+01  0.1923E+01  0.1899E+01
    -22.057  0.2113E+01  0.1938E+01  0.2335E+01  0.2277E+01
    -21.862  0.3955E+01  0.4180E+01  0.3107E+01  0.3093E+01
    -21.667  0.4402E+01  0.3997E+01  0.3966E+01  0.3873E+01
    -21.472  0.3949E+01  0.4070E+01  0.4736E+01  0.4667E+01
    -21.276  0.1732E+01  0.1867E+01  0.5074E+01  0.5031E+01
    -21.081  0.4398E+01  0.4248E+01  0.5932E+01  0.5860E+01
    -20.886  0.5975E+01  0.6241E+01  0.7098E+01  0.7078E+01
    -20.691  0.1483E+01  0.7791E+00  0.7387E+01  0.7230E+01
    -20.496  0.3293E+01  0.3825E+01  0.8030E+01  0.7976E+01
    -20.301  0.5141E+01  0.4715E+01  0.9033E+01  0.8896E+01
    -20.106  0.5458E+01  0.5921E+01  0.1010E+02  0.1005E+02
    -19.911  0.6413E+00  0.8783E+00  0.1022E+02  0.1022E+02
    -19.716  0.4188E+01  0.3364E+01  0.1104E+02  0.1088E+02
    -19.521  0.5536E+01  0.5578E+01  0.1212E+02  0.1197E+02
    -19.325  0.4485E+01  0.5187E+01  0.1300E+02  0.1298E+02
    -19.130  0.4233E+01  0.3684E+01  0.1382E+02  0.1370E+02
    -18.935  0.2370E+01  0.2388E+01  0.1428E+02  0.1416E+02
    -18.740  0.2475E+01  0.2819E+01  0.1477E+02  0.1471E+02
    -18.545  0.5406E+01  0.5321E+01  0.1582E+02  0.1575E+02
    -18.350  0.7087E+01  0.6907E+01  0.1720E+02  0.1710E+02
    -18.155  0.1240E+01  0.1769E+01  0.1745E+02  0.1744E+02
    -17.960  0.4904E+01  0.4315E+01  0.1840E+02  0.1829E+02
    -17.765  0.3618E+01  0.4177E+01  0.1911E+02  0.1910E+02
    -17.570  0.2342E+01  0.1763E+01  0.1957E+02  0.1945E+02
    -17.374  0.8090E+01  0.7753E+01  0.2114E+02  0.2096E+02
    -17.179  0.6618E+01  0.6538E+01  0.2243E+02  0.2223E+02
    -16.984  0.2020E+01  0.2475E+01  0.2283E+02  0.2272E+02
    -16.789  0.3018E+01  0.2516E+01  0.2342E+02  0.2321E+02
    -16.594  0.1956E+01  0.2788E+01  0.2380E+02  0.2375E+02
    -16.399  0.4299E+01  0.3844E+01  0.2464E+02  0.2450E+02
    -16.204  0.1884E+01  0.2557E+01  0.2501E+02  0.2500E+02
    -16.009  0.4820E+01  0.4149E+01  0.2595E+02  0.2581E+02
    -15.814  0.2191E+01  0.2569E+01  0.2637E+02  0.2631E+02
    -15.618  0.2555E+01  0.1876E+01  0.2687E+02  0.2668E+02
    -15.423  0.4801E+01  0.4745E+01  0.2781E+02  0.2760E+02
    -15.228  0.7225E+01  0.8239E+01  0.2922E+02  0.2921E+02
    -15.033  0.9925E+00  0.4910E+00  0.2941E+02  0.2931E+02
    -14.838  0.7578E+01  0.7620E+01  0.3089E+02  0.3079E+02
    -14.643  0.3588E+01  0.3677E+01  0.3159E+02  0.3151E+02
    -14.448  0.6049E+01  0.5543E+01  0.3277E+02  0.3259E+02
    -14.253  0.1366E+01  0.2027E+01  0.3304E+02  0.3299E+02
    -14.058  0.3081E+01  0.2820E+01  0.3364E+02  0.3354E+02
    -13.863  0.7263E+01  0.6010E+01  0.3505E+02  0.3471E+02
    -13.667  0.4078E+01  0.5053E+01  0.3585E+02  0.3570E+02
    -13.472  0.1971E+00  0.9918E+00  0.3589E+02  0.3589E+02
    -13.277  0.2159E+01  0.1175E+01  0.3631E+02  0.3612E+02
    -13.082  0.7546E+01  0.7363E+01  0.3778E+02  0.3755E+02
    -12.887  0.4500E+01  0.5017E+01  0.3866E+02  0.3853E+02
    -12.692  0.4351E+01  0.4743E+01  0.3951E+02  0.3946E+02
    -12.497  0.4794E+01  0.5006E+01  0.4044E+02  0.4044E+02
    -12.302  0.4021E+01  0.2166E+01  0.4123E+02  0.4086E+02
    -12.107  0.5105E+01  0.6991E+01  0.4222E+02  0.4222E+02
    -11.911  0.1701E+01  0.1465E+01  0.4256E+02  0.4251E+02
    -11.716  0.7397E+01  0.6415E+01  0.4400E+02  0.4376E+02
    -11.521  0.4878E+01  0.5937E+01  0.4495E+02  0.4492E+02
    -11.326  0.7492E+01  0.6082E+01  0.4641E+02  0.4610E+02
    -11.131  0.3232E+01  0.4205E+01  0.4704E+02  0.4692E+02
    -10.936  0.4520E+01  0.4663E+01  0.4793E+02  0.4783E+02
    -10.741  0.3029E+01  0.2348E+01  0.4852E+02  0.4829E+02
    -10.546  0.7310E+01  0.8072E+01  0.4994E+02  0.4987E+02
    -10.351  0.1200E+02  0.1151E+02  0.5228E+02  0.5211E+02
    -10.156  0.8051E+01  0.7594E+01  0.5386E+02  0.5360E+02
     -9.960  0.8859E+01  0.8990E+01  0.5558E+02  0.5535E+02
     -9.765  0.9796E+01  0.1010E+02  0.5749E+02  0.5732E+02
     -9.570  0.9260E+01  0.9526E+01  0.5930E+02  0.5918E+02
     -9.375  0.1230E+02  0.1162E+02  0.6170E+02  0.6145E+02
     -9.180  0.1136E+02  0.1126E+02  0.6392E+02  0.6364E+02
     -8.985  0.1036E+02  0.1106E+02  0.6594E+02  0.6580E+02
     -8.790  0.1405E+02  0.1293E+02  0.6868E+02  0.6832E+02
     -8.595  0.5056E+01  0.6398E+01  0.6967E+02  0.6957E+02
     -8.400  0.1115E+02  0.1053E+02  0.7184E+02  0.7163E+02
     -8.204  0.6853E+01  0.7308E+01  0.7318E+02  0.7305E+02
     -8.009  0.1264E+02  0.1252E+02  0.7564E+02  0.7550E+02
     -7.814  0.6666E+01  0.6776E+01  0.7695E+02  0.7682E+02
     -7.619  0.4585E+01  0.4152E+01  0.7784E+02  0.7763E+02
     -7.424  0.8653E+01  0.7754E+01  0.7953E+02  0.7914E+02
     -7.229  0.9360E+01  0.9497E+01  0.8135E+02  0.8099E+02
     -7.034  0.8920E+01  0.1011E+02  0.8309E+02  0.8297E+02
     -6.839  0.7217E+01  0.6670E+01  0.8450E+02  0.8427E+02
     -6.644  0.5327E+01  0.5785E+01  0.8554E+02  0.8540E+02
     -6.449  0.6283E+01  0.6591E+01  0.8677E+02  0.8668E+02
     -6.253  0.6712E+01  0.6454E+01  0.8808E+02  0.8794E+02
     -6.058  0.8163E+01  0.7769E+01  0.8967E+02  0.8946E+02
     -5.863  0.3962E+01  0.4893E+01  0.9044E+02  0.9041E+02
     -5.668  0.6231E+01  0.5225E+01  0.9166E+02  0.9143E+02
     -5.473  0.2374E+01  0.3485E+01  0.9212E+02  0.9211E+02
     -5.278  0.4073E+01  0.3831E+01  0.9292E+02  0.9286E+02
     -5.083  0.6685E+01  0.6164E+01  0.9422E+02  0.9406E+02
     -4.888  0.8528E+01  0.9228E+01  0.9588E+02  0.9586E+02
     -4.693  0.4671E+00  0.1329E+00  0.9598E+02  0.9589E+02
     -4.498  0.4047E+01  0.1952E+01  0.9677E+02  0.9627E+02
     -4.302  0.2639E+01  0.3853E+01  0.9728E+02  0.9702E+02
     -4.107  0.1132E+01  0.1332E+01  0.9750E+02  0.9728E+02
     -3.912  0.6309E+01  0.3655E+01  0.9873E+02  0.9799E+02
     -3.717  0.4563E+00  0.2845E-01  0.9882E+02  0.9800E+02
     -3.522  0.9172E+00  0.2205E+01  0.9900E+02  0.9843E+02
     -3.327  0.1338E+01  0.1781E+01  0.9926E+02  0.9878E+02
     -3.132  0.2648E+01  0.1707E-05  0.9978E+02  0.9878E+02
     -2.937  0.4556E+00  0.5481E+00  0.9987E+02  0.9888E+02
     -2.742  0.6863E+00  0.9314E+00  0.1000E+03  0.9907E+02
     -2.546  0.1132E+01  0.7985E+00  0.1002E+03  0.9922E+02
     -2.351  0.4993E-02  0.2584E+00  0.1002E+03  0.9927E+02
     -2.156  0.3683E-04  0.4654E+01  0.1002E+03  0.1002E+03
     -1.961  0.2062E+01  0.9631E+00  0.1006E+03  0.1004E+03
     -1.766  0.3761E+01  0.3840E+01  0.1014E+03  0.1011E+03
     -1.571  0.3475E+01  0.4267E+01  0.1020E+03  0.1020E+03
     -1.376  0.2406E+01  0.1472E+01  0.1025E+03  0.1022E+03
     -1.181  0.6669E+01  0.5972E+01  0.1038E+03  0.1034E+03
     -0.986  0.1066E+02  0.1092E+02  0.1059E+03  0.1055E+03
     -0.791  0.8716E+01  0.9306E+01  0.1076E+03  0.1073E+03
     -0.595  0.6647E+01  0.7228E+01  0.1089E+03  0.1088E+03
     -0.400  0.3441E+01  0.4073E+01  0.1096E+03  0.1096E+03
     -0.205  0.2488E-01  0.8862E-02  0.1096E+03  0.1096E+03
     -0.010  0.5839E+01  0.3652E+01  0.1107E+03  0.1103E+03
      0.185  0.4771E+01  0.6697E+01  0.1116E+03  0.1116E+03
      0.380  0.5071E+01  0.4676E+01  0.1126E+03  0.1125E+03
      0.575  0.6782E+01  0.6836E+01  0.1139E+03  0.1138E+03
      0.770  0.6408E+01  0.6236E+01  0.1152E+03  0.1150E+03
      0.965  0.7486E+01  0.7501E+01  0.1167E+03  0.1165E+03
      1.161  0.9742E+01  0.9673E+01  0.1186E+03  0.1184E+03
      1.356  0.1088E+02  0.1070E+02  0.1207E+03  0.1205E+03
      1.551  0.1626E+02  0.1548E+02  0.1238E+03  0.1235E+03
      1.746  0.1447E+02  0.1513E+02  0.1267E+03  0.1264E+03
      1.941  0.6229E+01  0.7702E+01  0.1279E+03  0.1280E+03
      2.136  0.5822E+00  0.2446E+00  0.1280E+03  0.1280E+03
      2.331  0.1268E-03  0.0000E+00  0.1280E+03  0.1280E+03
      2.526  0.0000E+00  0.0000E+00  0.1280E+03  0.1280E+03
      2.721  0.0000E+00  0.0000E+00  0.1280E+03  0.1280E+03
      2.916  0.0000E+00  0.0000E+00  0.1280E+03  0.1280E+03
      3.112  0.0000E+00  0.0000E+00  0.1280E+03  0.1280E+03
      3.307  0.0000E+00  0.0000E+00  0.1280E+03  0.1280E+03
      3.502  0.0000E+00  0.0000E+00  0.1280E+03  0.1280E+03
      3.697  0.0000E+00  0.0000E+00  0.1280E+03  0.1280E+03
      3.892  0.0000E+00  0.0000E+00  0.1280E+03  0.1280E+03
      4.087  0.0000E+00  0.0000E+00  0.1280E+03  0.1280E+03
      4.282  0.0000E+00  0.0000E+00  0.1280E+03  0.1280E+03
      4.477  0.0000E+00  0.0000E+00  0.1280E+03  0.1280E+03
      4.672  0.0000E+00  0.0000E+00  0.1280E+03  0.1280E+03
