  50  50   0   0
  0.7861259E+02  0.1230000E-08  0.1230000E-08  0.3000000E-08  0.5000000E-15
  1.000000000000000E-004
  CAR 
 Li defective graphene MACE training lab 
      4.66625839    -53.95992072  301     -2.81298872      1.00000000
    -53.960  0.0000E+00  0.0000E+00  0.0000E+00  0.0000E+00
    -53.765  0.0000E+00  0.0000E+00  0.0000E+00  0.0000E+00
    -53.569  0.0000E+00  0.0000E+00  0.0000E+00  0.0000E+00
    -53.374  0.0000E+00  0.0000E+00  0.0000E+00  0.0000E+00
    -53.178  0.0000E+00  0.0000E+00  0.0000E+00  0.0000E+00
    -52.983  0.0000E+00  0.0000E+00  0.0000E+00  0.0000E+00
    -52.787  0.0000E+00  0.0000E+00  0.0000E+00  0.0000E+00
    -52.592  0.0000E+00  0.0000E+00  0.0000E+00  0.0000E+00
    -52.397  0.0000E+00  0.0000E+00  0.0000E+00  0.0000E+00
    -52.201  0.0000E+00  0.0000E+00  0.0000E+00  0.0000E+00
    -52.006  0.0000E+00  0.0000E+00  0.0000E+00  0.0000E+00
    -51.810  0.0000E+00  0.0000E+00  0.0000E+00  0.0000E+00
    -51.615  0.0000E+00  0.0000E+00  0.0000E+00  0.0000E+00
    -51.419  0.1115E-02  0.1051E-02  0.2179E-03  0.2054E-03
    -51.224  0.5002E+01  0.4998E+01  0.9778E+00  0.9769E+00
    -51.029  0.1137E+00  0.1180E+00  0.1000E+01  0.1000E+01
    -50.833  0.0000E+00  0.0000E+00  0.1000E+01  0.1000E+01
    -50.638  0.0000E+00  0.0000E+00  0.1000E+01  0.1000E+01
    -50.442  0.0000E+00  0.0000E+00  0.1000E+01  0.1000E+01
    -50.247  0.0000E+00  0.0000E+00  0.1000E+01  0.1000E+01
    -50.052  0.0000E+00  0.0000E+00  0.1000E+01  0.1000E+01
    -49.856  0.0000E+00  0.0000E+00  0.1000E+01  0.1000E+01
    -49.661  0.0000E+00  0.0000E+00  0.1000E+01  0.1000E+01
    -49.465  0.0000E+00  0.0000E+00  0.1000E+01  0.1000E+01
    -49.270  0.0000E+00  0.0000E+00  0.1000E+01  0.1000E+01
    -49.074  0.0000E+00  0.0000E+00  0.1000E+01  0.1000E+01
    -48.879  0.0000E+00  0.0000E+00  0.1000E+01  0.1000E+01
    -48.684  0.0000E+00  0.0000E+00  0.1000E+01  0.1000E+01
    -48.488  0.0000E+00  0.0000E+00  0.1000E+01  0.1000E+01
    -48.293  0.0000E+00  0.0000E+00  0.1000E+01  0.1000E+01
    -48.097  0.0000E+00  0.0000E+00  0.1000E+01  0.1000E+01
    -47.902  0.0000E+00  0.0000E+00  0.1000E+01  0.1000E+01
    -47.706  0.0000E+00  0.0000E+00  0.1000E+01  0.1000E+01
    -47.511  0.0000E+00  0.0000E+00  0.1000E+01  0.1000E+01
    -47.316  0.0000E+00  0.0000E+00  0.1000E+01  0.1000E+01
    -47.120  0.0000E+00  0.0000E+00  0.1000E+01  0.1000E+01
    -46.925  0.0000E+00  0.0000E+00  0.1000E+01  0.1000E+01
    -46.729  0.0000E+00  0.0000E+00  0.1000E+01  0.1000E+01
    -46.534  0.0000E+00  0.0000E+00  0.1000E+01  0.1000E+01
    -46.339  0.0000E+00  0.0000E+00  0.1000E+01  0.1000E+01
    -46.143  0.0000E+00  0.0000E+00  0.1000E+01  0.1000E+01
    -45.948  0.0000E+00  0.0000E+00  0.1000E+01  0.1000E+01
    -45.752  0.0000E+00  0.0000E+00  0.1000E+01  0.1000E+01
    -45.557  0.0000E+00  0.0000E+00  0.1000E+01  0.1000E+01
    -45.361  0.0000E+00  0.0000E+00  0.1000E+01  0.1000E+01
    -45.166  0.0000E+00  0.0000E+00  0.1000E+01  0.1000E+01
    -44.971  0.0000E+00  0.0000E+00  0.1000E+01  0.1000E+01
    -44.775  0.0000E+00  0.0000E+00  0.1000E+01  0.1000E+01
    -44.580  0.0000E+00  0.0000E+00  0.1000E+01  0.1000E+01
    -44.384  0.0000E+00  0.0000E+00  0.1000E+01  0.1000E+01
    -44.189  0.0000E+00  0.0000E+00  0.1000E+01  0.1000E+01
    -43.993  0.0000E+00  0.0000E+00  0.1000E+01  0.1000E+01
    -43.798  0.0000E+00  0.0000E+00  0.1000E+01  0.1000E+01
    -43.603  0.0000E+00  0.0000E+00  0.1000E+01  0.1000E+01
    -43.407  0.0000E+00  0.0000E+00  0.1000E+01  0.1000E+01
    -43.212  0.0000E+00  0.0000E+00  0.1000E+01  0.1000E+01
    -43.016  0.0000E+00  0.0000E+00  0.1000E+01  0.1000E+01
    -42.821  0.0000E+00  0.0000E+00  0.1000E+01  0.1000E+01
    -42.626  0.0000E+00  0.0000E+00  0.1000E+01  0.1000E+01
    -42.430  0.0000E+00  0.0000E+00  0.1000E+01  0.1000E+01
    -42.235  0.0000E+00  0.0000E+00  0.1000E+01  0.1000E+01
    -42.039  0.0000E+00  0.0000E+00  0.1000E+01  0.1000E+01
    -41.844  0.0000E+00  0.0000E+00  0.1000E+01  0.1000E+01
    -41.648  0.0000E+00  0.0000E+00  0.1000E+01  0.1000E+01
    -41.453  0.0000E+00  0.0000E+00  0.1000E+01  0.1000E+01
    -41.258  0.0000E+00  0.0000E+00  0.1000E+01  0.1000E+01
    -41.062  0.0000E+00  0.0000E+00  0.1000E+01  0.1000E+01
    -40.867  0.0000E+00  0.0000E+00  0.1000E+01  0.1000E+01
    -40.671  0.0000E+00  0.0000E+00  0.1000E+01  0.1000E+01
    -40.476  0.0000E+00  0.0000E+00  0.1000E+01  0.1000E+01
    -40.280  0.0000E+00  0.0000E+00  0.1000E+01  0.1000E+01
    -40.085  0.0000E+00  0.0000E+00  0.1000E+01  0.1000E+01
    -39.890  0.0000E+00  0.0000E+00  0.1000E+01  0.1000E+01
    -39.694  0.0000E+00  0.0000E+00  0.1000E+01  0.1000E+01
    -39.499  0.0000E+00  0.0000E+00  0.1000E+01  0.1000E+01
    -39.303  0.0000E+00  0.0000E+00  0.1000E+01  0.1000E+01
    -39.108  0.0000E+00  0.0000E+00  0.1000E+01  0.1000E+01
    -38.913  0.0000E+00  0.0000E+00  0.1000E+01  0.1000E+01
    -38.717  0.0000E+00  0.0000E+00  0.1000E+01  0.1000E+01
    -38.522  0.0000E+00  0.0000E+00  0.1000E+01  0.1000E+01
    -38.326  0.0000E+00  0.0000E+00  0.1000E+01  0.1000E+01
    -38.131  0.0000E+00  0.0000E+00  0.1000E+01  0.1000E+01
    -37.935  0.0000E+00  0.0000E+00  0.1000E+01  0.1000E+01
    -37.740  0.0000E+00  0.0000E+00  0.1000E+01  0.1000E+01
    -37.545  0.0000E+00  0.0000E+00  0.1000E+01  0.1000E+01
    -37.349  0.0000E+00  0.0000E+00  0.1000E+01  0.1000E+01
    -37.154  0.0000E+00  0.0000E+00  0.1000E+01  0.1000E+01
    -36.958  0.0000E+00  0.0000E+00  0.1000E+01  0.1000E+01
    -36.763  0.0000E+00  0.0000E+00  0.1000E+01  0.1000E+01
    -36.567  0.0000E+00  0.0000E+00  0.1000E+01  0.1000E+01
    -36.372  0.0000E+00  0.0000E+00  0.1000E+01  0.1000E+01
    -36.177  0.0000E+00  0.0000E+00  0.1000E+01  0.1000E+01
    -35.981  0.0000E+00  0.0000E+00  0.1000E+01  0.1000E+01
    -35.786  0.0000E+00  0.0000E+00  0.1000E+01  0.1000E+01
    -35.590  0.0000E+00  0.0000E+00  0.1000E+01  0.1000E+01
    -35.395  0.0000E+00  0.0000E+00  0.1000E+01  0.1000E+01
    -35.200  0.0000E+00  0.0000E+00  0.1000E+01  0.1000E+01
    -35.004  0.0000E+00  0.0000E+00  0.1000E+01  0.1000E+01
    -34.809  0.0000E+00  0.0000E+00  0.1000E+01  0.1000E+01
    -34.613  0.0000E+00  0.0000E+00  0.1000E+01  0.1000E+01
    -34.418  0.0000E+00  0.0000E+00  0.1000E+01  0.1000E+01
    -34.222  0.0000E+00  0.0000E+00  0.1000E+01  0.1000E+01
    -34.027  0.0000E+00  0.0000E+00  0.1000E+01  0.1000E+01
    -33.832  0.0000E+00  0.0000E+00  0.1000E+01  0.1000E+01
    -33.636  0.0000E+00  0.0000E+00  0.1000E+01  0.1000E+01
    -33.441  0.0000E+00  0.0000E+00  0.1000E+01  0.1000E+01
    -33.245  0.0000E+00  0.0000E+00  0.1000E+01  0.1000E+01
    -33.050  0.0000E+00  0.0000E+00  0.1000E+01  0.1000E+01
    -32.854  0.0000E+00  0.0000E+00  0.1000E+01  0.1000E+01
    -32.659  0.0000E+00  0.0000E+00  0.1000E+01  0.1000E+01
    -32.464  0.0000E+00  0.0000E+00  0.1000E+01  0.1000E+01
    -32.268  0.0000E+00  0.0000E+00  0.1000E+01  0.1000E+01
    -32.073  0.0000E+00  0.0000E+00  0.1000E+01  0.1000E+01
    -31.877  0.0000E+00  0.0000E+00  0.1000E+01  0.1000E+01
    -31.682  0.0000E+00  0.0000E+00  0.1000E+01  0.1000E+01
    -31.487  0.0000E+00  0.0000E+00  0.1000E+01  0.1000E+01
    -31.291  0.0000E+00  0.0000E+00  0.1000E+01  0.1000E+01
    -31.096  0.0000E+00  0.0000E+00  0.1000E+01  0.1000E+01
    -30.900  0.0000E+00  0.0000E+00  0.1000E+01  0.1000E+01
    -30.705  0.0000E+00  0.0000E+00  0.1000E+01  0.1000E+01
    -30.509  0.0000E+00  0.0000E+00  0.1000E+01  0.1000E+01
    -30.314  0.0000E+00  0.0000E+00  0.1000E+01  0.1000E+01
    -30.119  0.0000E+00  0.0000E+00  0.1000E+01  0.1000E+01
    -29.923  0.0000E+00  0.0000E+00  0.1000E+01  0.1000E+01
    -29.728  0.0000E+00  0.0000E+00  0.1000E+01  0.1000E+01
    -29.532  0.0000E+00  0.0000E+00  0.1000E+01  0.1000E+01
    -29.337  0.0000E+00  0.0000E+00  0.1000E+01  0.1000E+01
    -29.142  0.0000E+00  0.0000E+00  0.1000E+01  0.1000E+01
    -28.946  0.0000E+00  0.0000E+00  0.1000E+01  0.1000E+01
    -28.751  0.0000E+00  0.0000E+00  0.1000E+01  0.1000E+01
    -28.555  0.0000E+00  0.0000E+00  0.1000E+01  0.1000E+01
    -28.360  0.0000E+00  0.0000E+00  0.1000E+01  0.1000E+01
    -28.164  0.0000E+00  0.0000E+00  0.1000E+01  0.1000E+01
    -27.969  0.0000E+00  0.0000E+00  0.1000E+01  0.1000E+01
    -27.774  0.0000E+00  0.0000E+00  0.1000E+01  0.1000E+01
    -27.578  0.0000E+00  0.0000E+00  0.1000E+01  0.1000E+01
    -27.383  0.0000E+00  0.0000E+00  0.1000E+01  0.1000E+01
    -27.187  0.0000E+00  0.0000E+00  0.1000E+01  0.1000E+01
    -26.992  0.0000E+00  0.0000E+00  0.1000E+01  0.1000E+01
    -26.796  0.0000E+00  0.0000E+00  0.1000E+01  0.1000E+01
    -26.601  0.0000E+00  0.0000E+00  0.1000E+01  0.1000E+01
    -26.406  0.0000E+00  0.0000E+00  0.1000E+01  0.1000E+01
    -26.210  0.0000E+00  0.0000E+00  0.1000E+01  0.1000E+01
    -26.015  0.0000E+00  0.0000E+00  0.1000E+01  0.1000E+01
    -25.819  0.0000E+00  0.0000E+00  0.1000E+01  0.1000E+01
    -25.624  0.0000E+00  0.0000E+00  0.1000E+01  0.1000E+01
    -25.429  0.0000E+00  0.0000E+00  0.1000E+01  0.1000E+01
    -25.233  0.0000E+00  0.0000E+00  0.1000E+01  0.1000E+01
    -25.038  0.0000E+00  0.0000E+00  0.1000E+01  0.1000E+01
    -24.842  0.0000E+00  0.0000E+00  0.1000E+01  0.1000E+01
    -24.647  0.0000E+00  0.0000E+00  0.1000E+01  0.1000E+01
    -24.451  0.0000E+00  0.0000E+00  0.1000E+01  0.1000E+01
    -24.256  0.0000E+00  0.0000E+00  0.1000E+01  0.1000E+01
    -24.061  0.0000E+00  0.0000E+00  0.1000E+01  0.1000E+01
    -23.865  0.0000E+00  0.0000E+00  0.1000E+01  0.1000E+01
    -23.670  0.0000E+00  0.0000E+00  0.1000E+01  0.1000E+01
    -23.474  0.0000E+00  0.0000E+00  0.1000E+01  0.1000E+01
    -23.279  0.0000E+00  0.0000E+00  0.1000E+01  0.1000E+01
    -23.083  0.0000E+00  0.0000E+00  0.1000E+01  0.1000E+01
    -22.888  0.0000E+00  0.0000E+00  0.1000E+01  0.1000E+01
    -22.693  0.4508E-12  0.4640E-13  0.1000E+01  0.1000E+01
    -22.497  0.3551E-01  0.1846E-01  0.1007E+01  0.1004E+01
    -22.302  0.4066E+01  0.3868E+01  0.1801E+01  0.1759E+01
    -22.106  0.1565E+01  0.1621E+01  0.2107E+01  0.2076E+01
    -21.911  0.4654E+01  0.4393E+01  0.3017E+01  0.2935E+01
    -21.716  0.2950E+01  0.2678E+01  0.3593E+01  0.3458E+01
    -21.520  0.4648E+01  0.4966E+01  0.4502E+01  0.4429E+01
    -21.325  0.2401E+01  0.2659E+01  0.4971E+01  0.4948E+01
    -21.129  0.3629E+01  0.3355E+01  0.5680E+01  0.5604E+01
    -20.934  0.6312E+01  0.6034E+01  0.6913E+01  0.6783E+01
    -20.738  0.1288E+01  0.1732E+01  0.7165E+01  0.7122E+01
    -20.543  0.3452E+01  0.3526E+01  0.7840E+01  0.7811E+01
    -20.348  0.4543E+01  0.4235E+01  0.8727E+01  0.8638E+01
    -20.152  0.6350E+01  0.6505E+01  0.9968E+01  0.9910E+01
    -19.957  0.1299E+01  0.1599E+01  0.1022E+02  0.1022E+02
    -19.761  0.2467E+01  0.1695E+01  0.1070E+02  0.1055E+02
    -19.566  0.5059E+01  0.5383E+01  0.1169E+02  0.1161E+02
    -19.370  0.6036E+01  0.6295E+01  0.1287E+02  0.1284E+02
    -19.175  0.3513E+01  0.2784E+01  0.1356E+02  0.1338E+02
    -18.980  0.2630E+01  0.3255E+01  0.1407E+02  0.1402E+02
    -18.784  0.2838E+01  0.2899E+01  0.1463E+02  0.1458E+02
    -18.589  0.4701E+01  0.4501E+01  0.1555E+02  0.1546E+02
    -18.393  0.7030E+01  0.6772E+01  0.1692E+02  0.1678E+02
    -18.198  0.2684E+01  0.3347E+01  0.1744E+02  0.1744E+02
    -18.003  0.3809E+01  0.2791E+01  0.1819E+02  0.1798E+02
    -17.807  0.4447E+01  0.5135E+01  0.1906E+02  0.1899E+02
    -17.612  0.1111E+01  0.1203E+01  0.1927E+02  0.1922E+02
    -17.416  0.7552E+01  0.7363E+01  0.2075E+02  0.2066E+02
    -17.221  0.6930E+01  0.6399E+01  0.2211E+02  0.2191E+02
    -17.025  0.3129E+01  0.3877E+01  0.2272E+02  0.2267E+02
    -16.830  0.2273E+01  0.1585E+01  0.2316E+02  0.2298E+02
    -16.635  0.2694E+01  0.3479E+01  0.2369E+02  0.2366E+02
    -16.439  0.3974E+01  0.3510E+01  0.2446E+02  0.2435E+02
    -16.244  0.2743E+01  0.3338E+01  0.2500E+02  0.2500E+02
    -16.048  0.3634E+01  0.2194E+01  0.2571E+02  0.2543E+02
    -15.853  0.2704E+01  0.3856E+01  0.2624E+02  0.2618E+02
    -15.657  0.1530E+01  0.1531E+01  0.2654E+02  0.2648E+02
    -15.462  0.5110E+01  0.5019E+01  0.2754E+02  0.2746E+02
    -15.267  0.8339E+01  0.8419E+01  0.2917E+02  0.2911E+02
    -15.071  0.4374E+00  0.6339E+00  0.2925E+02  0.2923E+02
    -14.876  0.7782E+01  0.7423E+01  0.3077E+02  0.3068E+02
    -14.680  0.3400E+01  0.3461E+01  0.3144E+02  0.3136E+02
    -14.485  0.5684E+01  0.5425E+01  0.3255E+02  0.3242E+02
    -14.290  0.1997E+01  0.2529E+01  0.3294E+02  0.3291E+02
    -14.094  0.2372E+01  0.2257E+01  0.3340E+02  0.3335E+02
    -13.899  0.6320E+01  0.5738E+01  0.3464E+02  0.3447E+02
    -13.703  0.5738E+01  0.6096E+01  0.3576E+02  0.3566E+02
    -13.508  0.6732E+00  0.1149E+01  0.3589E+02  0.3589E+02
    -13.312  0.6689E+00  0.2096E+00  0.3602E+02  0.3593E+02
    -13.117  0.7380E+01  0.6880E+01  0.3746E+02  0.3727E+02
    -12.922  0.4773E+01  0.5255E+01  0.3839E+02  0.3830E+02
    -12.726  0.5072E+01  0.5282E+01  0.3939E+02  0.3933E+02
    -12.531  0.5381E+01  0.5309E+01  0.4044E+02  0.4037E+02
    -12.335  0.1645E+01  0.8689E+00  0.4076E+02  0.4054E+02
    -12.140  0.7480E+01  0.8562E+01  0.4222E+02  0.4221E+02
    -11.944  0.1307E+01  0.1152E+01  0.4248E+02  0.4244E+02
    -11.749  0.5981E+01  0.4408E+01  0.4364E+02  0.4330E+02
    -11.554  0.6133E+01  0.7548E+01  0.4484E+02  0.4478E+02
    -11.358  0.6238E+01  0.4716E+01  0.4606E+02  0.4570E+02
    -11.163  0.4120E+01  0.5693E+01  0.4687E+02  0.4681E+02
    -10.967  0.4516E+01  0.4482E+01  0.4775E+02  0.4769E+02
    -10.772  0.2448E+01  0.2363E+01  0.4823E+02  0.4815E+02
    -10.577  0.8280E+01  0.8141E+01  0.4985E+02  0.4974E+02
    -10.381  0.1067E+02  0.1004E+02  0.5193E+02  0.5170E+02
    -10.186  0.7949E+01  0.8099E+01  0.5349E+02  0.5328E+02
     -9.990  0.8599E+01  0.8733E+01  0.5517E+02  0.5499E+02
     -9.795  0.1049E+02  0.1015E+02  0.5721E+02  0.5697E+02
     -9.599  0.9621E+01  0.1007E+02  0.5909E+02  0.5894E+02
     -9.404  0.1085E+02  0.1039E+02  0.6122E+02  0.6097E+02
     -9.209  0.1145E+02  0.1151E+02  0.6345E+02  0.6322E+02
     -9.013  0.1115E+02  0.1168E+02  0.6563E+02  0.6550E+02
     -8.818  0.1307E+02  0.1200E+02  0.6819E+02  0.6785E+02
     -8.622  0.7039E+01  0.8608E+01  0.6956E+02  0.6953E+02
     -8.427  0.1045E+02  0.9116E+01  0.7160E+02  0.7131E+02
     -8.232  0.7018E+01  0.8129E+01  0.7297E+02  0.7290E+02
     -8.036  0.1222E+02  0.1149E+02  0.7536E+02  0.7515E+02
     -7.841  0.7173E+01  0.7701E+01  0.7677E+02  0.7665E+02
     -7.645  0.4644E+01  0.3633E+01  0.7767E+02  0.7736E+02
     -7.450  0.7651E+01  0.7467E+01  0.7917E+02  0.7882E+02
     -7.254  0.9125E+01  0.9383E+01  0.8095E+02  0.8065E+02
     -7.059  0.1013E+02  0.1082E+02  0.8293E+02  0.8277E+02
     -6.864  0.6595E+01  0.6244E+01  0.8422E+02  0.8399E+02
     -6.668  0.5849E+01  0.6142E+01  0.8536E+02  0.8519E+02
     -6.473  0.6698E+01  0.6603E+01  0.8667E+02  0.8648E+02
     -6.277  0.6538E+01  0.6529E+01  0.8795E+02  0.8775E+02
     -6.082  0.7248E+01  0.7402E+01  0.8937E+02  0.8920E+02
     -5.886  0.5387E+01  0.5855E+01  0.9042E+02  0.9035E+02
     -5.691  0.5211E+01  0.4431E+01  0.9144E+02  0.9121E+02
     -5.496  0.3460E+01  0.4604E+01  0.9211E+02  0.9211E+02
     -5.300  0.3776E+01  0.3427E+01  0.9285E+02  0.9278E+02
     -5.105  0.5806E+01  0.5575E+01  0.9399E+02  0.9387E+02
     -4.909  0.9570E+01  0.9695E+01  0.9586E+02  0.9576E+02
     -4.714  0.3860E+00  0.6367E+00  0.9593E+02  0.9589E+02
     -4.519  0.3704E+01  0.1658E+01  0.9665E+02  0.9621E+02
     -4.323  0.2948E+01  0.3771E+01  0.9723E+02  0.9695E+02
     -4.128  0.7266E+00  0.1177E+01  0.9737E+02  0.9718E+02
     -3.932  0.6461E+01  0.4050E+01  0.9864E+02  0.9797E+02
     -3.737  0.7619E+00  0.1467E+00  0.9878E+02  0.9800E+02
     -3.541  0.1104E+01  0.1364E+01  0.9900E+02  0.9827E+02
     -3.346  0.7965E+00  0.2616E+01  0.9916E+02  0.9878E+02
     -3.151  0.3167E+01  0.2465E-03  0.9977E+02  0.9878E+02
     -2.955  0.2168E+00  0.2158E+00  0.9982E+02  0.9882E+02
     -2.760  0.9374E+00  0.1014E+01  0.1000E+03  0.9902E+02
     -2.564  0.1106E+01  0.1045E+01  0.1002E+03  0.9922E+02
     -2.369  0.3133E-01  0.5969E-03  0.1002E+03  0.9922E+02
     -2.173  0.3403E-05  0.3252E+01  0.1002E+03  0.9986E+02
     -1.978  0.1691E+01  0.2278E+01  0.1006E+03  0.1003E+03
     -1.783  0.3492E+01  0.3742E+01  0.1012E+03  0.1010E+03
     -1.587  0.3852E+01  0.4358E+01  0.1020E+03  0.1019E+03
     -1.392  0.2087E+01  0.1628E+01  0.1024E+03  0.1022E+03
     -1.196  0.5407E+01  0.5215E+01  0.1035E+03  0.1032E+03
     -1.001  0.1146E+02  0.9268E+01  0.1057E+03  0.1050E+03
     -0.806  0.9622E+01  0.1192E+02  0.1076E+03  0.1074E+03
     -0.610  0.6000E+01  0.6723E+01  0.1087E+03  0.1087E+03
     -0.415  0.4142E+01  0.4481E+01  0.1096E+03  0.1096E+03
     -0.219  0.8127E-02  0.1446E-01  0.1096E+03  0.1096E+03
     -0.024  0.5155E+01  0.2708E+01  0.1106E+03  0.1101E+03
      0.172  0.5289E+01  0.7413E+01  0.1116E+03  0.1115E+03
      0.367  0.4673E+01  0.4446E+01  0.1125E+03  0.1124E+03
      0.562  0.7155E+01  0.7185E+01  0.1139E+03  0.1138E+03
      0.758  0.6030E+01  0.5702E+01  0.1151E+03  0.1149E+03
      0.953  0.7179E+01  0.7267E+01  0.1165E+03  0.1163E+03
      1.149  0.9824E+01  0.9669E+01  0.1184E+03  0.1182E+03
      1.344  0.1074E+02  0.1065E+02  0.1205E+03  0.1203E+03
      1.540  0.1610E+02  0.1533E+02  0.1237E+03  0.1233E+03
      1.735  0.1437E+02  0.1523E+02  0.1265E+03  0.1263E+03
      1.930  0.7160E+01  0.8478E+01  0.1279E+03  0.1279E+03
      2.126  0.7115E+00  0.3102E+00  0.1280E+03  0.1280E+03
      2.321  0.1239E-03  0.3792E-08  0.1280E+03  0.1280E+03
      2.517  0.0000E+00  0.0000E+00  0.1280E+03  0.1280E+03
      2.712  0.0000E+00  0.0000E+00  0.1280E+03  0.1280E+03
      2.907  0.0000E+00  0.0000E+00  0.1280E+03  0.1280E+03
      3.103  0.0000E+00  0.0000E+00  0.1280E+03  0.1280E+03
      3.298  0.0000E+00  0.0000E+00  0.1280E+03  0.1280E+03
      3.494  0.0000E+00  0.0000E+00  0.1280E+03  0.1280E+03
      3.689  0.0000E+00  0.0000E+00  0.1280E+03  0.1280E+03
      3.885  0.0000E+00  0.0000E+00  0.1280E+03  0.1280E+03
      4.080  0.0000E+00  0.0000E+00  0.1280E+03  0.1280E+03
      4.275  0.0000E+00  0.0000E+00  0.1280E+03  0.1280E+03
      4.471  0.0000E+00  0.0000E+00  0.1280E+03  0.1280E+03
      4.666  0.0000E+00  0.0000E+00  0.1280E+03  0.1280E+03
