  55  55   0   0
  0.7146599E+02  0.1230000E-08  0.1230000E-08  0.3000000E-08  0.5000000E-15
  1.000000000000000E-004
  CAR 
 Li defective graphene MACE training lab 
      4.37359123    -52.51973866  301     -3.06250975      1.00000000
    -52.520  0.0000E+00  0.0000E+00  0.0000E+00  0.0000E+00
    -52.330  0.0000E+00  0.0000E+00  0.0000E+00  0.0000E+00
    -52.140  0.0000E+00  0.0000E+00  0.0000E+00  0.0000E+00
    -51.951  0.0000E+00  0.0000E+00  0.0000E+00  0.0000E+00
    -51.761  0.0000E+00  0.0000E+00  0.0000E+00  0.0000E+00
    -51.572  0.0000E+00  0.0000E+00  0.0000E+00  0.0000E+00
    -51.382  0.0000E+00  0.0000E+00  0.0000E+00  0.0000E+00
    -51.192  0.0000E+00  0.0000E+00  0.0000E+00  0.0000E+00
    -51.003  0.0000E+00  0.0000E+00  0.0000E+00  0.0000E+00
    -50.813  0.0000E+00  0.0000E+00  0.0000E+00  0.0000E+00
    -50.623  0.0000E+00  0.0000E+00  0.0000E+00  0.0000E+00
    -50.434  0.0000E+00  0.0000E+00  0.0000E+00  0.0000E+00
    -50.244  0.0000E+00  0.0000E+00  0.0000E+00  0.0000E+00
    -50.054  0.1691E-02  0.1397E-02  0.3207E-03  0.2649E-03
    -49.865  0.5137E+01  0.5120E+01  0.9744E+00  0.9712E+00
    -49.675  0.1348E+00  0.1519E+00  0.1000E+01  0.1000E+01
    -49.485  0.0000E+00  0.0000E+00  0.1000E+01  0.1000E+01
    -49.296  0.0000E+00  0.0000E+00  0.1000E+01  0.1000E+01
    -49.106  0.0000E+00  0.0000E+00  0.1000E+01  0.1000E+01
    -48.916  0.0000E+00  0.0000E+00  0.1000E+01  0.1000E+01
    -48.727  0.0000E+00  0.0000E+00  0.1000E+01  0.1000E+01
    -48.537  0.0000E+00  0.0000E+00  0.1000E+01  0.1000E+01
    -48.348  0.0000E+00  0.0000E+00  0.1000E+01  0.1000E+01
    -48.158  0.0000E+00  0.0000E+00  0.1000E+01  0.1000E+01
    -47.968  0.0000E+00  0.0000E+00  0.1000E+01  0.1000E+01
    -47.779  0.0000E+00  0.0000E+00  0.1000E+01  0.1000E+01
    -47.589  0.0000E+00  0.0000E+00  0.1000E+01  0.1000E+01
    -47.399  0.0000E+00  0.0000E+00  0.1000E+01  0.1000E+01
    -47.210  0.0000E+00  0.0000E+00  0.1000E+01  0.1000E+01
    -47.020  0.0000E+00  0.0000E+00  0.1000E+01  0.1000E+01
    -46.830  0.0000E+00  0.0000E+00  0.1000E+01  0.1000E+01
    -46.641  0.0000E+00  0.0000E+00  0.1000E+01  0.1000E+01
    -46.451  0.0000E+00  0.0000E+00  0.1000E+01  0.1000E+01
    -46.261  0.0000E+00  0.0000E+00  0.1000E+01  0.1000E+01
    -46.072  0.0000E+00  0.0000E+00  0.1000E+01  0.1000E+01
    -45.882  0.0000E+00  0.0000E+00  0.1000E+01  0.1000E+01
    -45.693  0.0000E+00  0.0000E+00  0.1000E+01  0.1000E+01
    -45.503  0.0000E+00  0.0000E+00  0.1000E+01  0.1000E+01
    -45.313  0.0000E+00  0.0000E+00  0.1000E+01  0.1000E+01
    -45.124  0.0000E+00  0.0000E+00  0.1000E+01  0.1000E+01
    -44.934  0.0000E+00  0.0000E+00  0.1000E+01  0.1000E+01
    -44.744  0.0000E+00  0.0000E+00  0.1000E+01  0.1000E+01
    -44.555  0.0000E+00  0.0000E+00  0.1000E+01  0.1000E+01
    -44.365  0.0000E+00  0.0000E+00  0.1000E+01  0.1000E+01
    -44.175  0.0000E+00  0.0000E+00  0.1000E+01  0.1000E+01
    -43.986  0.0000E+00  0.0000E+00  0.1000E+01  0.1000E+01
    -43.796  0.0000E+00  0.0000E+00  0.1000E+01  0.1000E+01
    -43.606  0.0000E+00  0.0000E+00  0.1000E+01  0.1000E+01
    -43.417  0.0000E+00  0.0000E+00  0.1000E+01  0.1000E+01
    -43.227  0.0000E+00  0.0000E+00  0.1000E+01  0.1000E+01
    -43.038  0.0000E+00  0.0000E+00  0.1000E+01  0.1000E+01
    -42.848  0.0000E+00  0.0000E+00  0.1000E+01  0.1000E+01
    -42.658  0.0000E+00  0.0000E+00  0.1000E+01  0.1000E+01
    -42.469  0.0000E+00  0.0000E+00  0.1000E+01  0.1000E+01
    -42.279  0.0000E+00  0.0000E+00  0.1000E+01  0.1000E+01
    -42.089  0.0000E+00  0.0000E+00  0.1000E+01  0.1000E+01
    -41.900  0.0000E+00  0.0000E+00  0.1000E+01  0.1000E+01
    -41.710  0.0000E+00  0.0000E+00  0.1000E+01  0.1000E+01
    -41.520  0.0000E+00  0.0000E+00  0.1000E+01  0.1000E+01
    -41.331  0.0000E+00  0.0000E+00  0.1000E+01  0.1000E+01
    -41.141  0.0000E+00  0.0000E+00  0.1000E+01  0.1000E+01
    -40.951  0.0000E+00  0.0000E+00  0.1000E+01  0.1000E+01
    -40.762  0.0000E+00  0.0000E+00  0.1000E+01  0.1000E+01
    -40.572  0.0000E+00  0.0000E+00  0.1000E+01  0.1000E+01
    -40.382  0.0000E+00  0.0000E+00  0.1000E+01  0.1000E+01
    -40.193  0.0000E+00  0.0000E+00  0.1000E+01  0.1000E+01
    -40.003  0.0000E+00  0.0000E+00  0.1000E+01  0.1000E+01
    -39.814  0.0000E+00  0.0000E+00  0.1000E+01  0.1000E+01
    -39.624  0.0000E+00  0.0000E+00  0.1000E+01  0.1000E+01
    -39.434  0.0000E+00  0.0000E+00  0.1000E+01  0.1000E+01
    -39.245  0.0000E+00  0.0000E+00  0.1000E+01  0.1000E+01
    -39.055  0.0000E+00  0.0000E+00  0.1000E+01  0.1000E+01
    -38.865  0.0000E+00  0.0000E+00  0.1000E+01  0.1000E+01
    -38.676  0.0000E+00  0.0000E+00  0.1000E+01  0.1000E+01
    -38.486  0.0000E+00  0.0000E+00  0.1000E+01  0.1000E+01
    -38.296  0.0000E+00  0.0000E+00  0.1000E+01  0.1000E+01
    -38.107  0.0000E+00  0.0000E+00  0.1000E+01  0.1000E+01
    -37.917  0.0000E+00  0.0000E+00  0.1000E+01  0.1000E+01
    -37.727  0.0000E+00  0.0000E+00  0.1000E+01  0.1000E+01
    -37.538  0.0000E+00  0.0000E+00  0.1000E+01  0.1000E+01
    -37.348  0.0000E+00  0.0000E+00  0.1000E+01  0.1000E+01
    -37.159  0.0000E+00  0.0000E+00  0.1000E+01  0.1000E+01
    -36.969  0.0000E+00  0.0000E+00  0.1000E+01  0.1000E+01
    -36.779  0.0000E+00  0.0000E+00  0.1000E+01  0.1000E+01
    -36.590  0.0000E+00  0.0000E+00  0.1000E+01  0.1000E+01
    -36.400  0.0000E+00  0.0000E+00  0.1000E+01  0.1000E+01
    -36.210  0.0000E+00  0.0000E+00  0.1000E+01  0.1000E+01
    -36.021  0.0000E+00  0.0000E+00  0.1000E+01  0.1000E+01
    -35.831  0.0000E+00  0.0000E+00  0.1000E+01  0.1000E+01
    -35.641  0.0000E+00  0.0000E+00  0.1000E+01  0.1000E+01
    -35.452  0.0000E+00  0.0000E+00  0.1000E+01  0.1000E+01
    -35.262  0.0000E+00  0.0000E+00  0.1000E+01  0.1000E+01
    -35.072  0.0000E+00  0.0000E+00  0.1000E+01  0.1000E+01
    -34.883  0.0000E+00  0.0000E+00  0.1000E+01  0.1000E+01
    -34.693  0.0000E+00  0.0000E+00  0.1000E+01  0.1000E+01
    -34.504  0.0000E+00  0.0000E+00  0.1000E+01  0.1000E+01
    -34.314  0.0000E+00  0.0000E+00  0.1000E+01  0.1000E+01
    -34.124  0.0000E+00  0.0000E+00  0.1000E+01  0.1000E+01
    -33.935  0.0000E+00  0.0000E+00  0.1000E+01  0.1000E+01
    -33.745  0.0000E+00  0.0000E+00  0.1000E+01  0.1000E+01
    -33.555  0.0000E+00  0.0000E+00  0.1000E+01  0.1000E+01
    -33.366  0.0000E+00  0.0000E+00  0.1000E+01  0.1000E+01
    -33.176  0.0000E+00  0.0000E+00  0.1000E+01  0.1000E+01
    -32.986  0.0000E+00  0.0000E+00  0.1000E+01  0.1000E+01
    -32.797  0.0000E+00  0.0000E+00  0.1000E+01  0.1000E+01
    -32.607  0.0000E+00  0.0000E+00  0.1000E+01  0.1000E+01
    -32.417  0.0000E+00  0.0000E+00  0.1000E+01  0.1000E+01
    -32.228  0.0000E+00  0.0000E+00  0.1000E+01  0.1000E+01
    -32.038  0.0000E+00  0.0000E+00  0.1000E+01  0.1000E+01
    -31.848  0.0000E+00  0.0000E+00  0.1000E+01  0.1000E+01
    -31.659  0.0000E+00  0.0000E+00  0.1000E+01  0.1000E+01
    -31.469  0.0000E+00  0.0000E+00  0.1000E+01  0.1000E+01
    -31.280  0.0000E+00  0.0000E+00  0.1000E+01  0.1000E+01
    -31.090  0.0000E+00  0.0000E+00  0.1000E+01  0.1000E+01
    -30.900  0.0000E+00  0.0000E+00  0.1000E+01  0.1000E+01
    -30.711  0.0000E+00  0.0000E+00  0.1000E+01  0.1000E+01
    -30.521  0.0000E+00  0.0000E+00  0.1000E+01  0.1000E+01
    -30.331  0.0000E+00  0.0000E+00  0.1000E+01  0.1000E+01
    -30.142  0.0000E+00  0.0000E+00  0.1000E+01  0.1000E+01
    -29.952  0.0000E+00  0.0000E+00  0.1000E+01  0.1000E+01
    -29.762  0.0000E+00  0.0000E+00  0.1000E+01  0.1000E+01
    -29.573  0.0000E+00  0.0000E+00  0.1000E+01  0.1000E+01
    -29.383  0.0000E+00  0.0000E+00  0.1000E+01  0.1000E+01
    -29.193  0.0000E+00  0.0000E+00  0.1000E+01  0.1000E+01
    -29.004  0.0000E+00  0.0000E+00  0.1000E+01  0.1000E+01
    -28.814  0.0000E+00  0.0000E+00  0.1000E+01  0.1000E+01
    -28.625  0.0000E+00  0.0000E+00  0.1000E+01  0.1000E+01
    -28.435  0.0000E+00  0.0000E+00  0.1000E+01  0.1000E+01
    -28.245  0.0000E+00  0.0000E+00  0.1000E+01  0.1000E+01
    -28.056  0.0000E+00  0.0000E+00  0.1000E+01  0.1000E+01
    -27.866  0.0000E+00  0.0000E+00  0.1000E+01  0.1000E+01
    -27.676  0.0000E+00  0.0000E+00  0.1000E+01  0.1000E+01
    -27.487  0.0000E+00  0.0000E+00  0.1000E+01  0.1000E+01
    -27.297  0.0000E+00  0.0000E+00  0.1000E+01  0.1000E+01
    -27.107  0.0000E+00  0.0000E+00  0.1000E+01  0.1000E+01
    -26.918  0.0000E+00  0.0000E+00  0.1000E+01  0.1000E+01
    -26.728  0.0000E+00  0.0000E+00  0.1000E+01  0.1000E+01
    -26.538  0.0000E+00  0.0000E+00  0.1000E+01  0.1000E+01
    -26.349  0.0000E+00  0.0000E+00  0.1000E+01  0.1000E+01
    -26.159  0.0000E+00  0.0000E+00  0.1000E+01  0.1000E+01
    -25.970  0.0000E+00  0.0000E+00  0.1000E+01  0.1000E+01
    -25.780  0.0000E+00  0.0000E+00  0.1000E+01  0.1000E+01
    -25.590  0.0000E+00  0.0000E+00  0.1000E+01  0.1000E+01
    -25.401  0.0000E+00  0.0000E+00  0.1000E+01  0.1000E+01
    -25.211  0.0000E+00  0.0000E+00  0.1000E+01  0.1000E+01
    -25.021  0.0000E+00  0.0000E+00  0.1000E+01  0.1000E+01
    -24.832  0.0000E+00  0.0000E+00  0.1000E+01  0.1000E+01
    -24.642  0.0000E+00  0.0000E+00  0.1000E+01  0.1000E+01
    -24.452  0.0000E+00  0.0000E+00  0.1000E+01  0.1000E+01
    -24.263  0.0000E+00  0.0000E+00  0.1000E+01  0.1000E+01
    -24.073  0.0000E+00  0.0000E+00  0.1000E+01  0.1000E+01
    -23.883  0.0000E+00  0.0000E+00  0.1000E+01  0.1000E+01
    -23.694  0.0000E+00  0.0000E+00  0.1000E+01  0.1000E+01
    -23.504  0.0000E+00  0.0000E+00  0.1000E+01  0.1000E+01
    -23.314  0.0000E+00  0.0000E+00  0.1000E+01  0.1000E+01
    -23.125  0.3252E-16  0.3252E-16  0.1000E+01  0.1000E+01
    -22.935  0.8440E-03  0.8409E-03  0.1000E+01  0.1000E+01
    -22.746  0.1976E+01  0.1974E+01  0.1375E+01  0.1375E+01
    -22.556  0.3281E+01  0.3283E+01  0.1997E+01  0.1997E+01
    -22.366  0.4973E+01  0.4972E+01  0.2940E+01  0.2940E+01
    -22.177  0.9084E+00  0.9090E+00  0.3112E+01  0.3112E+01
    -21.987  0.7365E+01  0.7365E+01  0.4509E+01  0.4509E+01
    -21.797  0.2063E+01  0.2064E+01  0.4900E+01  0.4900E+01
    -21.608  0.1404E+01  0.1404E+01  0.5167E+01  0.5167E+01
    -21.418  0.8182E+01  0.8182E+01  0.6718E+01  0.6718E+01
    -21.228  0.2072E+01  0.2073E+01  0.7111E+01  0.7111E+01
    -21.039  0.3444E+01  0.3444E+01  0.7764E+01  0.7764E+01
    -20.849  0.2151E+01  0.2149E+01  0.8172E+01  0.8172E+01
    -20.659  0.6895E+01  0.6895E+01  0.9480E+01  0.9480E+01
    -20.470  0.5058E+01  0.5059E+01  0.1044E+02  0.1044E+02
    -20.280  0.6098E-01  0.6094E-01  0.1045E+02  0.1045E+02
    -20.091  0.3760E+01  0.3760E+01  0.1116E+02  0.1116E+02
    -19.901  0.7504E+01  0.7502E+01  0.1259E+02  0.1259E+02
    -19.711  0.2766E+01  0.2768E+01  0.1311E+02  0.1311E+02
    -19.522  0.6804E+01  0.6804E+01  0.1440E+02  0.1440E+02
    -19.332  0.2250E+00  0.2252E+00  0.1444E+02  0.1444E+02
    -19.142  0.5211E+00  0.5208E+00  0.1454E+02  0.1454E+02
    -18.953  0.9375E+01  0.9374E+01  0.1632E+02  0.1632E+02
    -18.763  0.5399E+01  0.5399E+01  0.1734E+02  0.1734E+02
    -18.573  0.2283E+01  0.2283E+01  0.1778E+02  0.1778E+02
    -18.384  0.5852E+01  0.5851E+01  0.1889E+02  0.1889E+02
    -18.194  0.1179E+01  0.1179E+01  0.1911E+02  0.1911E+02
    -18.004  0.4086E+00  0.4079E+00  0.1919E+02  0.1919E+02
    -17.815  0.1227E+02  0.1227E+02  0.2151E+02  0.2151E+02
    -17.625  0.3176E+01  0.3176E+01  0.2212E+02  0.2212E+02
    -17.436  0.7451E+01  0.7451E+01  0.2353E+02  0.2353E+02
    -17.246  0.1305E+01  0.1306E+01  0.2378E+02  0.2378E+02
    -17.056  0.1293E-01  0.1290E-01  0.2378E+02  0.2378E+02
    -16.867  0.2960E+01  0.2960E+01  0.2434E+02  0.2434E+02
    -16.677  0.7571E+01  0.7572E+01  0.2578E+02  0.2578E+02
    -16.487  0.2968E+00  0.2965E+00  0.2583E+02  0.2583E+02
    -16.298  0.3220E+01  0.3221E+01  0.2644E+02  0.2644E+02
    -16.108  0.1354E+01  0.1353E+01  0.2670E+02  0.2670E+02
    -15.918  0.4777E+01  0.4777E+01  0.2761E+02  0.2761E+02
    -15.729  0.1027E+02  0.1027E+02  0.2955E+02  0.2955E+02
    -15.539  0.4849E-02  0.4858E-02  0.2956E+02  0.2956E+02
    -15.349  0.2528E+01  0.2526E+01  0.3004E+02  0.3003E+02
    -15.160  0.1153E+02  0.1153E+02  0.3222E+02  0.3222E+02
    -14.970  0.1794E+00  0.1791E+00  0.3226E+02  0.3226E+02
    -14.780  0.6833E+01  0.6833E+01  0.3355E+02  0.3355E+02
    -14.591  0.1288E+01  0.1288E+01  0.3380E+02  0.3380E+02
    -14.401  0.4414E+01  0.4413E+01  0.3463E+02  0.3463E+02
    -14.212  0.7369E+01  0.7370E+01  0.3603E+02  0.3603E+02
    -14.022  0.1012E+01  0.1012E+01  0.3622E+02  0.3622E+02
    -13.832  0.4710E+00  0.4708E+00  0.3631E+02  0.3631E+02
    -13.643  0.8072E+01  0.7213E+01  0.3784E+02  0.3768E+02
    -13.453  0.9346E+01  0.1016E+02  0.3961E+02  0.3961E+02
    -13.263  0.2982E+01  0.3031E+01  0.4018E+02  0.4018E+02
    -13.074  0.6665E+01  0.6665E+01  0.4144E+02  0.4144E+02
    -12.884  0.1329E+01  0.1328E+01  0.4170E+02  0.4170E+02
    -12.694  0.9991E+01  0.9991E+01  0.4359E+02  0.4359E+02
    -12.505  0.2741E+01  0.2742E+01  0.4411E+02  0.4411E+02
    -12.315  0.7751E-02  0.7727E-02  0.4411E+02  0.4411E+02
    -12.125  0.3910E+01  0.3910E+01  0.4485E+02  0.4485E+02
    -11.936  0.1395E+02  0.1395E+02  0.4750E+02  0.4750E+02
    -11.746  0.3224E+01  0.3225E+01  0.4811E+02  0.4811E+02
    -11.557  0.1625E+01  0.1624E+01  0.4842E+02  0.4842E+02
    -11.367  0.5406E+01  0.5407E+01  0.4944E+02  0.4944E+02
    -11.177  0.2232E+01  0.2230E+01  0.4987E+02  0.4987E+02
    -10.988  0.8396E+01  0.8396E+01  0.5146E+02  0.5146E+02
    -10.798  0.1070E+02  0.1068E+02  0.5349E+02  0.5349E+02
    -10.608  0.1108E+02  0.1007E+02  0.5559E+02  0.5540E+02
    -10.419  0.9967E+01  0.6318E+01  0.5748E+02  0.5659E+02
    -10.229  0.9088E+01  0.1375E+02  0.5920E+02  0.5920E+02
    -10.039  0.1003E+02  0.1002E+02  0.6110E+02  0.6110E+02
     -9.850  0.1451E+02  0.1452E+02  0.6386E+02  0.6386E+02
     -9.660  0.7747E+01  0.7750E+01  0.6533E+02  0.6533E+02
     -9.470  0.1728E+02  0.1728E+02  0.6860E+02  0.6860E+02
     -9.281  0.1452E+02  0.1452E+02  0.7136E+02  0.7136E+02
     -9.091  0.5277E+01  0.5278E+01  0.7236E+02  0.7236E+02
     -8.902  0.1022E+02  0.1022E+02  0.7430E+02  0.7430E+02
     -8.712  0.7244E+01  0.7208E+01  0.7567E+02  0.7566E+02
     -8.522  0.1602E+02  0.1606E+02  0.7871E+02  0.7871E+02
     -8.333  0.1465E+02  0.1466E+02  0.8149E+02  0.8149E+02
     -8.143  0.3870E+01  0.3871E+01  0.8222E+02  0.8222E+02
     -7.953  0.9219E-01  0.9149E-01  0.8224E+02  0.8224E+02
     -7.764  0.8588E+01  0.8582E+01  0.8387E+02  0.8387E+02
     -7.574  0.1446E+02  0.1444E+02  0.8661E+02  0.8661E+02
     -7.384  0.7318E+01  0.7345E+01  0.8800E+02  0.8800E+02
     -7.195  0.6259E+01  0.6235E+01  0.8919E+02  0.8918E+02
     -7.005  0.5061E+01  0.4969E+01  0.9015E+02  0.9012E+02
     -6.815  0.9556E+01  0.4965E+01  0.9196E+02  0.9107E+02
     -6.626  0.7453E+01  0.1203E+02  0.9337E+02  0.9335E+02
     -6.436  0.1148E+02  0.1161E+02  0.9555E+02  0.9555E+02
     -6.246  0.5669E+01  0.5674E+01  0.9662E+02  0.9662E+02
     -6.057  0.6967E+01  0.6961E+01  0.9794E+02  0.9794E+02
     -5.867  0.9370E+00  0.9414E+00  0.9812E+02  0.9812E+02
     -5.678  0.3490E+01  0.3489E+01  0.9878E+02  0.9878E+02
     -5.488  0.5180E+01  0.4973E+01  0.9977E+02  0.9973E+02
     -5.298  0.1928E+02  0.1439E+02  0.1034E+03  0.1025E+03
     -5.109  0.1869E+01  0.6953E+01  0.1038E+03  0.1038E+03
     -4.919  0.4915E+01  0.1609E+01  0.1047E+03  0.1041E+03
     -4.729  0.2330E+01  0.5644E+01  0.1052E+03  0.1052E+03
     -4.540  0.6125E+01  0.6076E+01  0.1063E+03  0.1063E+03
     -4.350  0.2298E+01  0.2344E+01  0.1067E+03  0.1067E+03
     -4.160  0.5433E+01  0.5434E+01  0.1078E+03  0.1078E+03
     -3.971  0.5223E+01  0.2792E+01  0.1088E+03  0.1083E+03
     -3.781  0.4100E-01  0.2481E+01  0.1088E+03  0.1088E+03
     -3.591  0.0000E+00  0.1442E-06  0.1088E+03  0.1088E+03
     -3.402  0.2382E-04  0.1948E-04  0.1088E+03  0.1088E+03
     -3.212  0.1909E+01  0.1892E+01  0.1091E+03  0.1091E+03
     -3.023  0.5168E+01  0.4517E+00  0.1101E+03  0.1092E+03
     -2.833  0.5390E+00  0.2895E-14  0.1102E+03  0.1092E+03
     -2.643  0.0000E+00  0.2067E-01  0.1102E+03  0.1092E+03
     -2.454  0.8025E-07  0.5234E+01  0.1102E+03  0.1102E+03
     -2.264  0.9319E+00  0.8756E+00  0.1104E+03  0.1104E+03
     -2.074  0.6639E+01  0.6677E+01  0.1117E+03  0.1117E+03
     -1.885  0.4438E+01  0.4029E+01  0.1125E+03  0.1124E+03
     -1.695  0.5494E+01  0.5274E+01  0.1135E+03  0.1134E+03
     -1.505  0.9274E+01  0.8752E+01  0.1153E+03  0.1151E+03
     -1.316  0.8316E+01  0.9445E+01  0.1169E+03  0.1169E+03
     -1.126  0.5797E+01  0.5844E+01  0.1180E+03  0.1180E+03
     -0.936  0.4644E+01  0.4650E+01  0.1189E+03  0.1189E+03
     -0.747  0.7157E+01  0.7159E+01  0.1202E+03  0.1202E+03
     -0.557  0.4799E+01  0.4413E-01  0.1211E+03  0.1202E+03
     -0.368  0.1459E+01  0.1218E+01  0.1214E+03  0.1205E+03
     -0.178  0.4033E+01  0.8782E+01  0.1222E+03  0.1221E+03
      0.012  0.5146E+01  0.5319E+01  0.1231E+03  0.1231E+03
      0.201  0.7496E+01  0.7255E+01  0.1246E+03  0.1245E+03
      0.391  0.9109E+01  0.8377E+01  0.1263E+03  0.1261E+03
      0.581  0.4128E+01  0.4362E+01  0.1271E+03  0.1269E+03
      0.770  0.1180E+02  0.1200E+02  0.1293E+03  0.1292E+03
      0.960  0.8972E+01  0.7900E+01  0.1310E+03  0.1307E+03
      1.150  0.6892E+01  0.7383E+01  0.1323E+03  0.1321E+03
      1.339  0.9221E+01  0.9320E+01  0.1341E+03  0.1339E+03
      1.529  0.1631E+02  0.1608E+02  0.1372E+03  0.1369E+03
      1.719  0.1203E+02  0.1221E+02  0.1394E+03  0.1392E+03
      1.908  0.2928E+01  0.4085E+01  0.1400E+03  0.1400E+03
      2.098  0.1492E-03  0.4963E-03  0.1400E+03  0.1400E+03
      2.288  0.0000E+00  0.0000E+00  0.1400E+03  0.1400E+03
      2.477  0.0000E+00  0.0000E+00  0.1400E+03  0.1400E+03
      2.667  0.0000E+00  0.0000E+00  0.1400E+03  0.1400E+03
      2.856  0.0000E+00  0.0000E+00  0.1400E+03  0.1400E+03
      3.046  0.0000E+00  0.0000E+00  0.1400E+03  0.1400E+03
      3.236  0.0000E+00  0.0000E+00  0.1400E+03  0.1400E+03
      3.425  0.0000E+00  0.0000E+00  0.1400E+03  0.1400E+03
      3.615  0.0000E+00  0.0000E+00  0.1400E+03  0.1400E+03
      3.805  0.0000E+00  0.0000E+00  0.1400E+03  0.1400E+03
      3.994  0.0000E+00  0.0000E+00  0.1400E+03  0.1400E+03
      4.184  0.0000E+00  0.0000E+00  0.1400E+03  0.1400E+03
      4.374  0.0000E+00  0.0000E+00  0.1400E+03  0.1400E+03
