       N       E                     dE             d eps       ncg     rms          rms(c)
DAV:   1     0.207589622099E+04    0.20759E+04   -0.73106E+04  3320   0.109E+03
DAV:   2     0.335971784640E+02   -0.20423E+04   -0.19025E+04  4216   0.244E+02
DAV:   3    -0.482347544222E+03   -0.51594E+03   -0.50652E+03  3656   0.128E+02
DAV:   4    -0.512933583911E+03   -0.30586E+02   -0.29846E+02  3584   0.390E+01
DAV:   5    -0.514286182729E+03   -0.13526E+01   -0.13407E+01  4744   0.672E+00    0.343E+01
DAV:   6    -0.487210788731E+03    0.27075E+02   -0.73075E+01  3300   0.123E+01    0.199E+01
DAV:   7    -0.477096305498E+03    0.10114E+02   -0.13811E+01  3056   0.818E+00    0.107E+01
DAV:   8    -0.475189807330E+03    0.19065E+01   -0.56813E+00  3120   0.512E+00    0.404E+00
DAV:   9    -0.475116862016E+03    0.72945E-01   -0.63955E-01  3432   0.166E+00    0.202E+00
DAV:  10    -0.475666775225E+03   -0.54991E+00   -0.23096E-01  3208   0.947E-01    0.109E+00
DAV:  11    -0.476262951068E+03   -0.59618E+00   -0.76605E-02  3128   0.506E-01    0.866E-01
DAV:  12    -0.476908103385E+03   -0.64515E+00   -0.83155E-02  3156   0.439E-01    0.710E-01
DAV:  13    -0.477555481195E+03   -0.64738E+00   -0.25338E-01  2976   0.727E-01    0.477E-01
DAV:  14    -0.477719216467E+03   -0.16374E+00   -0.11035E-01  2968   0.517E-01    0.335E-01
DAV:  15    -0.478364322285E+03   -0.64511E+00   -0.58395E-02  3032   0.333E-01    0.219E-01
DAV:  16    -0.478774728890E+03   -0.41041E+00   -0.18087E-02  3156   0.193E-01    0.155E-01
DAV:  17    -0.479027548282E+03   -0.25282E+00   -0.10416E-02  3168   0.144E-01    0.108E-01
DAV:  18    -0.479158462061E+03   -0.13091E+00   -0.50472E-03  3092   0.939E-02    0.790E-02
DAV:  19    -0.479208435026E+03   -0.49973E-01   -0.16105E-03  3148   0.587E-02    0.593E-02
DAV:  20    -0.479234089886E+03   -0.25655E-01   -0.14251E-03  3100   0.482E-02    0.402E-02
DAV:  21    -0.479243179767E+03   -0.90899E-02   -0.37719E-04  3248   0.309E-02    0.289E-02
DAV:  22    -0.479255380458E+03   -0.12201E-01   -0.15864E-04  3088   0.261E-02    0.178E-02
DAV:  23    -0.479270779079E+03   -0.15399E-01   -0.90267E-05  3040   0.243E-02    0.105E-02
DAV:  24    -0.479277602991E+03   -0.68239E-02   -0.47774E-05  2696   0.192E-02    0.699E-03
DAV:  25    -0.479280280315E+03   -0.26773E-02   -0.41995E-05  2536   0.169E-02    0.440E-03
DAV:  26    -0.479281447455E+03   -0.11671E-02   -0.36598E-05  2512   0.161E-02    0.269E-03
DAV:  27    -0.479282015504E+03   -0.56805E-03   -0.22512E-05  2584   0.127E-02    0.162E-03
DAV:  28    -0.479282228173E+03   -0.21267E-03   -0.98870E-06  2488   0.863E-03    0.101E-03
DAV:  29    -0.479282322023E+03   -0.93850E-04   -0.37783E-06  2520   0.516E-03    0.643E-04
DAV:  30    -0.479282380762E+03   -0.58739E-04   -0.18087E-06  2264   0.319E-03    0.397E-04
DAV:  31    -0.479282407048E+03   -0.26286E-04   -0.57518E-07  2224   0.175E-03    0.271E-04
DAV:  32    -0.479282421687E+03   -0.14639E-04   -0.16675E-07  2104   0.885E-04    0.181E-04
DAV:  33    -0.479282431416E+03   -0.97285E-05   -0.93522E-08  2032   0.528E-04    0.131E-04
DAV:  34    -0.479282434781E+03   -0.33646E-05   -0.20719E-08  2000   0.331E-04    0.109E-04
DAV:  35    -0.479282436542E+03   -0.17619E-05   -0.70597E-09  2016   0.224E-04    0.975E-05
DAV:  36    -0.479282437077E+03   -0.53457E-06    0.95782E-09  1944   0.137E-04
   1 F= -.47928244E+03 E0= -.47927546E+03  d E =-.139542E-01  mag=     0.5556
