 vasp.5.4.1 24Jun15 (build Jul 23 2024 06:15:33) complex                        
  
 executed on           IFC91_ompi date 2026.05.05  21:35:40
 running on   16 total cores
 distrk:  each k-point on   16 cores,    1 groups
 distr:  one band on NCORES_PER_BAND=   4 cores,    4 groups


--------------------------------------------------------------------------------------------------------


 INCAR:
 POTCAR:    PAW_PBE C 08Apr2002                   
 POTCAR:    PAW_PBE Li_sv 10Sep2004               
 POTCAR:    PAW_PBE Si 05Jan2001                  
 POTCAR:    PAW_PBE C 08Apr2002                   
   VRHFIN =C: s2p2                                                              
   LEXCH  = PE                                                                  
   EATOM  =   147.1560 eV,   10.8157 Ry                                         
                                                                                
   TITEL  = PAW_PBE C 08Apr2002                                                 
   LULTRA =        F    use ultrasoft PP ?                                      
   IUNSCR =        1    unscreen: 0-lin 1-nonlin 2-no                           
   RPACOR =    1.200    partial core radius                                     
   POMASS =   12.011; ZVAL   =    4.000    mass and valenz                      
   RCORE  =    1.500    outmost cutoff radius                                   
   RWIGS  =    1.630; RWIGS  =    0.863    wigner-seitz radius (au A)           
   ENMAX  =  400.000; ENMIN  =  300.000 eV                                      
   ICORE  =        2    local potential                                         
   LCOR   =        T    correct aug charges                                     
   LPAW   =        T    paw PP                                                  
   EAUG   =  644.873                                                            
   DEXC   =    0.000                                                            
   RMAX   =    1.529    core radius for proj-oper                               
   RAUG   =    1.300    factor for augmentation sphere                          
   RDEP   =    1.501    radius for radial grids                                 
   RDEPT  =    1.300    core radius for aug-charge                              
                                                                                
   Atomic configuration                                                         
    4 entries                                                                   
     n  l   j            E        occ.                                          
     1  0  0.50      -273.3789   2.0000                                         
     2  0  0.50       -13.7508   2.0000                                         
     2  1  0.50        -5.2854   2.0000                                         
     3  2  1.50        -5.4423   0.0000                                         
   Description                                                                  
     l       E           TYP  RCUT    TYP  RCUT                                 
     0    -13.7508458     23  1.200                                             
     0     -8.2022199     23  1.200                                             
     1     -5.2854383     23  1.500                                             
     1     34.0145650     23  1.500                                             
     2     -5.4423304      7  1.500                                             
  local pseudopotential read in
  partial core-charges read in
  partial kinetic energy density read in
  atomic valenz-charges read in
  non local Contribution for L=           0  read in
    real space projection operators read in
  non local Contribution for L=           0  read in
    real space projection operators read in
  non local Contribution for L=           1  read in
    real space projection operators read in
  non local Contribution for L=           1  read in
    real space projection operators read in
    PAW grid and wavefunctions read in
 
   number of l-projection  operators is LMAX  =           4
   number of lm-projection operators is LMMAX =           8
 
 POTCAR:    PAW_PBE Li_sv 10Sep2004               
   VRHFIN =Li: 1s2s2p                                                           
   LEXCH  = PE                                                                  
   EATOM  =   202.7858 eV,   14.9043 Ry                                         
                                                                                
   TITEL  = PAW_PBE Li_sv 10Sep2004                                             
   LULTRA =        F    use ultrasoft PP ?                                      
   IUNSCR =        0    unscreen: 0-lin 1-nonlin 2-no                           
   RPACOR =    0.000    partial core radius                                     
   POMASS =    7.010; ZVAL   =    3.000    mass and valenz                      
   RCORE  =    1.700    outmost cutoff radius                                   
   RWIGS  =    2.050; RWIGS  =    1.085    wigner-seitz radius (au A)           
   ENMAX  =  499.034; ENMIN  =  374.276 eV                                      
   ICORE  =        2    local potential                                         
   LCOR   =        T    correct aug charges                                     
   LPAW   =        T    paw PP                                                  
   EAUG   =  628.945                                                            
   RMAX   =    1.732    core radius for proj-oper                               
   RAUG   =    1.300    factor for augmentation sphere                          
   RDEP   =    1.728    radius for radial grids                                 
   RDEPT  =    1.329    core radius for aug-charge                              
                                                                                
   Atomic configuration                                                         
    4 entries                                                                   
     n  l   j            E        occ.                                          
     1  0  0.50       -51.8549   2.0000                                         
     2  0  0.50        -2.8742   1.0000                                         
     2  1  0.50        -1.3606   0.0000                                         
     3  2  1.50        -1.3606   0.0000                                         
   Description                                                                  
     l       E           TYP  RCUT    TYP  RCUT                                 
     0    -51.8548813     23  1.400                                             
     0     -2.8742052     23  1.700                                             
     1     -1.3605826     23  1.400                                             
     2     -1.3605826     23  1.400                                             
  local pseudopotential read in
  atomic valenz-charges read in
  non local Contribution for L=           0  read in
    real space projection operators read in
  non local Contribution for L=           0  read in
    real space projection operators read in
  non local Contribution for L=           1  read in
    real space projection operators read in
    PAW grid and wavefunctions read in
 
   number of l-projection  operators is LMAX  =           3
   number of lm-projection operators is LMMAX =           5
 
 POTCAR:    PAW_PBE Si 05Jan2001                  
   VRHFIN =Si: s2p2                                                             
   LEXCH  = PE                                                                  
   EATOM  =   103.0669 eV,    7.5752 Ry                                         
                                                                                
   TITEL  = PAW_PBE Si 05Jan2001                                                
   LULTRA =        F    use ultrasoft PP ?                                      
   IUNSCR =        1    unscreen: 0-lin 1-nonlin 2-no                           
   RPACOR =    1.500    partial core radius                                     
   POMASS =   28.085; ZVAL   =    4.000    mass and valenz                      
   RCORE  =    1.900    outmost cutoff radius                                   
   RWIGS  =    2.480; RWIGS  =    1.312    wigner-seitz radius (au A)           
   ENMAX  =  245.345; ENMIN  =  184.009 eV                                      
   ICORE  =        2    local potential                                         
   LCOR   =        T    correct aug charges                                     
   LPAW   =        T    paw PP                                                  
   EAUG   =  322.069                                                            
   DEXC   =    0.000                                                            
   RMAX   =    1.950    core radius for proj-oper                               
   RAUG   =    1.300    factor for augmentation sphere                          
   RDEP   =    1.993    radius for radial grids                                 
   RDEPT  =    1.837    core radius for aug-charge                              
                                                                                
   Atomic configuration                                                         
    6 entries                                                                   
     n  l   j            E        occ.                                          
     1  0  0.50     -1785.8828   2.0000                                         
     2  0  0.50      -139.4969   2.0000                                         
     2  1  1.50       -95.5546   6.0000                                         
     3  0  0.50       -10.8127   2.0000                                         
     3  1  0.50        -4.0811   2.0000                                         
     3  2  1.50        -4.0817   0.0000                                         
   Description                                                                  
     l       E           TYP  RCUT    TYP  RCUT                                 
     0    -10.8127223     23  1.900                                             
     0     -7.6451159     23  1.900                                             
     1     -4.0811372     23  1.900                                             
     1      2.4879257     23  1.900                                             
     2     -4.0817478      7  1.900                                             
  local pseudopotential read in
  partial core-charges read in
  partial kinetic energy density read in
  atomic valenz-charges read in
  non local Contribution for L=           0  read in
    real space projection operators read in
  non local Contribution for L=           0  read in
    real space projection operators read in
  non local Contribution for L=           1  read in
    real space projection operators read in
  non local Contribution for L=           1  read in
    real space projection operators read in
    PAW grid and wavefunctions read in
 
   number of l-projection  operators is LMAX  =           4
   number of lm-projection operators is LMMAX =           8
 
 Optimization of the real space projectors (new method)

 maximal supplied QI-value         = 25.13
 optimisation between [QCUT,QGAM] = [ 11.56, 23.12] = [ 37.43,149.72] Ry 
 Optimized for a Real-space Cutoff    1.04 Angstroem

   l    n(q)    QCUT    max X(q) W(low)/X(q) W(high)/X(q)  e(spline) 
   0      7    11.561   115.676    0.20E-03    0.60E-03    0.21E-06
   0      7    11.561    87.132    0.20E-03    0.59E-03    0.21E-06
   1      7    11.561     4.429    0.23E-03    0.35E-03    0.15E-06
   1      7    11.561     2.733    0.18E-03    0.25E-03    0.12E-06
 Optimization of the real space projectors (new method)

 maximal supplied QI-value         = 22.11
 optimisation between [QCUT,QGAM] = [ 11.50, 23.22] = [ 37.02,150.92] Ry 
 Optimized for a Real-space Cutoff    1.08 Angstroem

   l    n(q)    QCUT    max X(q) W(low)/X(q) W(high)/X(q)  e(spline) 
   0      7    11.497    10.506    0.36E-04    0.62E-04    0.14E-07
   0      7    11.497     8.367    0.65E-04    0.14E-03    0.28E-07
   1      7    11.497     8.983    0.21E-03    0.43E-03    0.90E-07
 Optimization of the real space projectors (new method)

 maximal supplied QI-value         = 19.84
 optimisation between [QCUT,QGAM] = [ 11.51, 23.22] = [ 37.09,150.92] Ry 
 Optimized for a Real-space Cutoff    1.21 Angstroem

   l    n(q)    QCUT    max X(q) W(low)/X(q) W(high)/X(q)  e(spline) 
   0      8    11.508   159.560    0.71E-04    0.15E-03    0.51E-07
   0      8    11.508   115.863    0.70E-04    0.15E-03    0.51E-07
   1      8    11.508    88.339    0.16E-03    0.38E-04    0.82E-07
   1      8    11.508    48.592    0.15E-03    0.36E-04    0.79E-07
  PAW_PBE C 08Apr2002                   :
 energy of atom  1       EATOM= -147.1560
 kinetic energy error for atom=    0.0071 (will be added to EATOM!!)
  PAW_PBE Li_sv 10Sep2004               :
 energy of atom  2       EATOM= -202.7858
 kinetic energy error for atom=    0.0130 (will be added to EATOM!!)
  PAW_PBE Si 05Jan2001                  :
 energy of atom  3       EATOM= -103.0669
 kinetic energy error for atom=    0.0005 (will be added to EATOM!!)
 
 
 POSCAR: C  Li Si                                
  positions in direct lattice
  velocities in cartesian coordinates
 exchange correlation table for  LEXCH =        8
   RHO(1)=    0.500       N(1)  =     2000
   RHO(2)=  100.500       N(2)  =     4000
 


--------------------------------------------------------------------------------------------------------


 ion  position               nearest neighbor table
   1  0.003  1.000  0.496-  49 1.42  41 1.42  26 1.42
   2  0.003  0.200  0.497-  41 1.42  43 1.42   3 1.42
   3  0.137  0.266  0.497-  23 1.42  14 1.42   2 1.42
   4  0.004  0.400  0.497-  43 1.42   5 1.42  45 1.42
   5  0.137  0.466  0.497-   4 1.42  14 1.42  16 1.42
   6  0.004  0.600  0.497-   7 1.42  47 1.43  45 1.43
   7  0.137  0.667  0.497-  18 1.42  16 1.42   6 1.42
   8  0.004  0.800  0.496-  49 1.42   9 1.42  47 1.42
   9  0.137  0.867  0.496-   8 1.42  13 1.42  18 1.42
  10  0.403  0.400  0.496-  37 1.42  24 1.42  15 1.42
  11  0.337  0.066  0.496-  22 1.42  13 1.42  20 1.42
  12  0.537  0.266  0.496-  34 1.42  22 1.42  32 1.42
  13  0.204  1.000  0.496-   9 1.42  11 1.42  26 1.42
  14  0.204  0.400  0.497-  15 1.42   5 1.42   3 1.42
  15  0.337  0.466  0.496-  14 1.42  10 1.42  38 1.42
  16  0.204  0.600  0.497-  17 1.42   7 1.42   5 1.42
  17  0.337  0.667  0.497-  16 1.42  38 1.42  28 1.42
  18  0.204  0.800  0.497-   7 1.42  19 1.42   9 1.42
  19  0.337  0.867  0.496-  18 1.42  20 1.42  28 1.42
  20  0.403  1.000  0.496-  21 1.42  11 1.42  19 1.42
  21  0.537  0.066  0.496-  32 1.42  20 1.42  30 1.42
  22  0.403  0.200  0.496-  11 1.42  12 1.42  24 1.42
  23  0.203  0.200  0.496-   3 1.42  24 1.42  26 1.42
  24  0.337  0.266  0.496-  10 1.42  22 1.42  23 1.42
  25  0.537  0.667  0.496-  36 1.42  38 1.42  50 1.42
  26  0.137  0.066  0.496-  13 1.42   1 1.42  23 1.42
  27  0.737  0.867  0.496-  48 1.42  40 1.42  50 1.42
  28  0.403  0.800  0.496-  19 1.42  17 1.42  29 1.42
  29  0.537  0.866  0.496-  50 1.42  30 1.42  28 1.42
  30  0.603  1.000  0.496-  31 1.42  29 1.42  21 1.42
  31  0.737  0.066  0.496-  42 1.42  40 1.42  30 1.42
  32  0.603  0.200  0.496-  33 1.42  21 1.42  12 1.42
  33  0.736  0.266  0.497-  32 1.42  42 1.42  44 1.42
  34  0.603  0.399  0.496-  12 1.42  37 1.42  35 1.42
  35  0.736  0.466  0.496-  34 1.42  46 1.43  44 1.43  51 2.13
  36  0.603  0.600  0.496-  39 1.42  25 1.42  37 1.42
  37  0.537  0.466  0.496-  34 1.42  10 1.42  36 1.42
  38  0.403  0.600  0.496-  25 1.42  17 1.42  15 1.42
  39  0.736  0.667  0.496-  36 1.42  48 1.42  46 1.42
  40  0.803  1.000  0.496-  31 1.42  27 1.42  41 1.42
  41  0.937  0.066  0.496-   1 1.42   2 1.42  40 1.42
  42  0.803  0.200  0.497-  33 1.42  31 1.42  43 1.42
  43  0.937  0.266  0.497-   4 1.42   2 1.42  42 1.42
  44  0.803  0.399  0.497-  33 1.42  35 1.43  45 1.43
  45  0.937  0.466  0.497-   4 1.42   6 1.43  44 1.43
  46  0.803  0.600  0.496-  39 1.42  35 1.43  47 1.43  51 1.78
  47  0.937  0.667  0.496-   8 1.42   6 1.43  46 1.43  51 2.11
  48  0.803  0.800  0.496-  39 1.42  27 1.42  49 1.42
  49  0.937  0.867  0.496-   8 1.42   1 1.42  48 1.42
  50  0.603  0.800  0.496-  29 1.42  27 1.42  25 1.42
  51  0.825  0.578  0.553-  46 1.78  47 2.11  35 2.13  54 2.74  55 2.75
  52  0.520  0.405  0.676-  54 2.32  53 2.34
  53  0.711  0.590  0.689-  55 2.30  52 2.34  54 2.35
  54  0.687  0.462  0.627-  52 2.32  55 2.35  53 2.35  51 2.74
  55  0.876  0.648  0.641-  53 2.30  54 2.35  51 2.75
 

IMPORTANT INFORMATION: All symmetrisations will be switched off!
NOSYMM: (Re-)initialisation of all symmetry stuff for point group C_1.

 
 
 KPOINTS: Automatic mesh                          

Automatic generation of k-mesh.
Space group operators:
 irot       det(A)        alpha          n_x          n_y          n_z        tau_x        tau_y        tau_z
    1     1.000000     0.000001     1.000000     0.000000     0.000000     0.000000     0.000000     0.000000
 
 Subroutine IBZKPT returns following result:
 ===========================================
 
 Found      5 irreducible k-points:
 
 Following reciprocal coordinates:
            Coordinates               Weight
  0.000000  0.000000  0.000000      1.000000
  0.333333 -0.000000  0.000000      2.000000
  0.000000  0.333333  0.000000      2.000000
  0.333333  0.333333  0.000000      2.000000
 -0.333333  0.333333  0.000000      2.000000
 
 Following cartesian coordinates:
            Coordinates               Weight
  0.000000  0.000000  0.000000      1.000000
  0.027100  0.015646  0.000000      2.000000
  0.000000  0.031293  0.000000      2.000000
  0.027100  0.046939  0.000000      2.000000
 -0.027100  0.015646  0.000000      2.000000
 


--------------------------------------------------------------------------------------------------------




 Dimension of arrays:
   k-points           NKPTS =      5   k-points in BZ     NKDIM =      5   number of bands    NBANDS=    140
   number of dos      NEDOS =    301   number of ions     NIONS =     55
   non local maximal  LDIM  =      4   non local SUM 2l+1 LMDIM =      8
   total plane-waves  NPLWV = ******
   max r-space proj   IRMAX =   3955   max aug-charges    IRDMAX= 140664
   dimension x,y,z NGX =    96 NGY =   96 NGZ =  224
   dimension x,y,z NGXF=   192 NGYF=  192 NGZF=  448
   support grid    NGXF=   384 NGYF=  384 NGZF=  896
   ions per type =              50   1   4
 NGX,Y,Z   is equivalent  to a cutoff of  12.98, 12.98, 12.41 a.u.
 NGXF,Y,Z  is equivalent  to a cutoff of  25.95, 25.95, 24.83 a.u.


 I would recommend the setting:
   dimension x,y,z NGX =    91 NGY =   91 NGZ =  223
 SYSTEM =  Li defective graphene MACE training lab 
 POSCAR =  C  Li Si                                

 Startparameter for this run:
   NWRITE =      2    write-flag & timer
   PREC   = accura    normal or accurate (medium, high low for compatibility)
   ISTART =      0    job   : 0-new  1-cont  2-samecut
   ICHARG =      2    charge: 1-file 2-atom 10-const
   ISPIN  =      2    spin polarized calculation?
   LNONCOLLINEAR =      F non collinear calculations
   LSORBIT =      F    spin-orbit coupling
   INIWAV =      1    electr: 0-lowe 1-rand  2-diag
   LASPH  =      T    aspherical Exc in radial PAW
   METAGGA=      F    non-selfconsistent MetaGGA calc.

 Electronic Relaxation 1
   ENCUT  =  520.0 eV  38.22 Ry    6.18 a.u.  22.87 22.87 55.78*2*pi/ulx,y,z
   ENINI  =  520.0     initial cutoff
   ENAUG  =  644.9 eV  augmentation charge cutoff
   NELM   =    120;   NELMIN=  2; NELMDL= -5     # of ELM steps 
   EDIFF  = 0.1E-05   stopping-criterion for ELM
   LREAL  =      T    real-space projection
   NLSPLINE    = F    spline interpolate recip. space projectors
   LCOMPAT=      F    compatible to vasp.4.4
   GGA_COMPAT  = T    GGA compatible to vasp.4.4-vasp.4.6
   LMAXPAW     = -100 max onsite density
   LMAXMIX     =    2 max onsite mixed and CHGCAR
   VOSKOWN=      0    Vosko Wilk Nusair interpolation
   ROPT   =   -0.00025  -0.00025  -0.00025
 Ionic relaxation
   EDIFFG = 0.1E-04   stopping-criterion for IOM
   NSW    =      0    number of steps for IOM
   NBLOCK =      1;   KBLOCK =      1    inner block; outer block 
   IBRION =     -1    ionic relax: 0-MD 1-quasi-New 2-CG
   NFREE  =      0    steps in history (QN), initial steepest desc. (CG)
   ISIF   =      2    stress and relaxation
   IWAVPR =     10    prediction:  0-non 1-charg 2-wave 3-comb
   ISYM   =      0    0-nonsym 1-usesym 2-fastsym
   LCORR  =      T    Harris-Foulkes like correction to forces

   POTIM  = 0.5000    time-step for ionic-motion
   TEIN   =    0.0    initial temperature
   TEBEG  =    0.0;   TEEND  =   0.0 temperature during run
   SMASS  =  -3.00    Nose mass-parameter (am)
   estimated Nose-frequenzy (Omega)   =  0.10E-29 period in steps =****** mass=  -0.346E-26a.u.
   SCALEE = 1.0000    scale energy and forces
   NPACO  =    256;   APACO  = 16.0  distance and # of slots for P.C.
   PSTRESS=    0.0 pullay stress

  Mass of Ions in am
   POMASS =  12.01  7.01 28.09
  Ionic Valenz
   ZVAL   =   4.00  3.00  4.00
  Atomic Wigner-Seitz radii
   RWIGS  =  -1.00 -1.00 -1.00
  virtual crystal weights 
   VCA    =   1.00  1.00  1.00
   NELECT =     219.0000    total number of electrons
   NUPDOWN=      -1.0000    fix difference up-down

 DOS related values:
   EMIN   =  10.00;   EMAX   =-10.00  energy-range for DOS
   EFERMI =   0.00
   ISMEAR =     0;   SIGMA  =   0.05  broadening in eV -4-tet -1-fermi 0-gaus

 Electronic relaxation 2 (details)
   IALGO  =     38    algorithm
   LDIAG  =      T    sub-space diagonalisation (order eigenvalues)
   LSUBROT=      F    optimize rotation matrix (better conditioning)
   TURBO    =      0    0=normal 1=particle mesh
   IRESTART =      0    0=no restart 2=restart with 2 vectors
   NREBOOT  =      0    no. of reboots
   NMIN     =      0    reboot dimension
   EREF     =   0.00    reference energy to select bands
   IMIX   =      4    mixing-type and parameters
     AMIX     =   0.40;   BMIX     =  1.00
     AMIX_MAG =   1.60;   BMIX_MAG =  1.00
     AMIN     =   0.10
     WC   =   100.;   INIMIX=   1;  MIXPRE=   1;  MAXMIX= -45

 Intra band minimization:
   WEIMIN = 0.0000     energy-eigenvalue tresh-hold
   EBREAK =  0.18E-08  absolut break condition
   DEPER  =   0.30     relativ break condition  

   TIME   =   0.40     timestep for ELM

  volume/ion in A,a.u.               =      71.47       482.28
  Fermi-wavevector in a.u.,A,eV,Ry     =   0.625272  1.181592  5.319399  0.390965
  Thomas-Fermi vector in A             =   1.686119
 
 Write flags
   LWAVE  =      F    write WAVECAR
   LCHARG =      F    write CHGCAR
   LVTOT  =      F    write LOCPOT, total local potential
   LVHAR  =      F    write LOCPOT, Hartree potential only
   LELF   =      F    write electronic localiz. function (ELF)
   LORBIT =      0    0 simple, 1 ext, 2 COOP (PROOUT)


 Dipole corrections
   LMONO  =      F    monopole corrections only (constant potential shift)
   LDIPOL =      F    correct potential (dipole corrections)
   IDIPOL =      0    1-x, 2-y, 3-z, 4-all directions 
   EPSILON=  1.0000000 bulk dielectric constant

 Exchange correlation treatment:
   GGA     =    --    GGA type
   LEXCH   =     8    internal setting for exchange type
   VOSKOWN=      0    Vosko Wilk Nusair interpolation
   LHFCALC =     F    Hartree Fock is set to
   LHFONE  =     F    Hartree Fock one center treatment
   AEXX    =    0.0000 exact exchange contribution

 Linear response parameters
   LEPSILON=     F    determine dielectric tensor
   LRPA    =     F    only Hartree local field effects (RPA)
   LNABLA  =     F    use nabla operator in PAW spheres
   LVEL    =     F    velocity operator in full k-point grid
   LINTERFAST=   F  fast interpolation
   KINTER  =     0    interpolate to denser k-point grid
   CSHIFT  =0.1000    complex shift for real part using Kramers Kronig
   OMEGAMAX=  -1.0    maximum frequency
   DEG_THRESHOLD= 0.2000000E-02 threshold for treating states as degnerate
   RTIME   =    0.100 relaxation time in fs

 Orbital magnetization related:
   ORBITALMAG=     F  switch on orbital magnetization
   LCHIMAG   =     F  perturbation theory with respect to B field
   DQ        =  0.001000  dq finite difference perturbation B field



--------------------------------------------------------------------------------------------------------


 Static calculation
 charge density and potential will be updated during run
 spin polarized calculation
 Variant of blocked Davidson
 Davidson routine will perform the subspace rotation
 perform sub-space diagonalisation
    after iterative eigenvector-optimisation
 modified Broyden-mixing scheme, WC =      100.0
 initial mixing is a Kerker type mixing with AMIX =  0.4000 and BMIX =      1.0000
 Hartree-type preconditioning will be used
 using additional bands           30
 real space projection scheme for non local part
 use partial core corrections
 calculate Harris-corrections to forces 
   (improved forces if not selfconsistent)
 use gradient corrections 
 use of overlap-Matrix (Vanderbilt PP)
 Gauss-broadening in eV      SIGMA  =   0.05


--------------------------------------------------------------------------------------------------------


  energy-cutoff  :      520.00
  volume of cell :     3930.63
      direct lattice vectors                 reciprocal lattice vectors
    12.300000000  0.000000000  0.000000000     0.081300813  0.046939046  0.000000000
    -6.150000000 10.652112467  0.000000000     0.000000000  0.093878093  0.000000000
     0.000000000  0.000000000 30.000000000     0.000000000  0.000000000  0.033333333

  length of vectors
    12.300000000 12.300000000 30.000000000     0.093878093  0.093878093  0.033333333


 
 k-points in units of 2pi/SCALE and weight: Automatic mesh                          
   0.00000000  0.00000000  0.00000000       0.111
   0.02710027  0.01564635  0.00000000       0.222
   0.00000000  0.03129270  0.00000000       0.222
   0.02710027  0.04693905  0.00000000       0.222
  -0.02710027  0.01564635  0.00000000       0.222
 
 k-points in reciprocal lattice and weights: Automatic mesh                          
   0.00000000  0.00000000  0.00000000       0.111
   0.33333333 -0.00000000  0.00000000       0.222
   0.00000000  0.33333333  0.00000000       0.222
   0.33333333  0.33333333  0.00000000       0.222
  -0.33333333  0.33333333  0.00000000       0.222
 
 position of ions in fractional coordinates (direct lattice) 
   0.00345074  0.99986383  0.49609670
   0.00348460  0.19970334  0.49664178
   0.13682954  0.26641593  0.49662475
   0.00369603  0.39951385  0.49732348
   0.13694708  0.46642552  0.49708584
   0.00383788  0.60005532  0.49711179
   0.13728880  0.66673225  0.49714247
   0.00373898  0.80037993  0.49623857
   0.13693361  0.86663486  0.49637633
   0.40332590  0.39971860  0.49590635
   0.33679058  0.06643168  0.49601494
   0.53661624  0.26629152  0.49570410
   0.20350352  0.99988078  0.49615422
   0.20353132  0.39972944  0.49672267
   0.33680059  0.46648876  0.49629492
   0.20362647  0.59981745  0.49699182
   0.33686522  0.66650087  0.49656844
   0.20361733  0.79994590  0.49668328
   0.33686383  0.86652635  0.49644123
   0.40346456  0.99981634  0.49614744
   0.53673714  0.06636083  0.49614030
   0.40335236  0.19969184  0.49582630
   0.20346847  0.19976015  0.49630817
   0.33677594  0.26642160  0.49600636
   0.53671381  0.66650573  0.49577726
   0.13676778  0.06644140  0.49620324
   0.73675221  0.86656239  0.49579090
   0.40345319  0.79981189  0.49641146
   0.53677031  0.86643479  0.49613927
   0.60343762  0.99974474  0.49621758
   0.73674534  0.06635827  0.49634866
   0.60329964  0.19960770  0.49607178
   0.73647718  0.26588547  0.49658746
   0.60285721  0.39947764  0.49554387
   0.73629875  0.46622453  0.49571691
   0.60324845  0.59978617  0.49552552
   0.53657849  0.46639432  0.49553343
   0.40344283  0.59979045  0.49620483
   0.73644477  0.66674569  0.49555307
   0.80346948  0.99983073  0.49611591
   0.93675302  0.06643387  0.49626334
   0.80338933  0.19958592  0.49670218
   0.93678703  0.26628266  0.49693830
   0.80315717  0.39930135  0.49657820
   0.93695234  0.46624950  0.49725907
   0.80315673  0.60002138  0.49569846
   0.93698371  0.66696228  0.49635207
   0.80338826  0.79995657  0.49565506
   0.93678992  0.86661211  0.49589353
   0.60345197  0.79982850  0.49586192
   0.82547973  0.57773606  0.55293658
   0.52033525  0.40496966  0.67613139
   0.71141259  0.58973245  0.68898397
   0.68672958  0.46155567  0.62731800
   0.87646093  0.64798229  0.64082278
 
 position of ions in cartesian coordinates  (Angst):
  -6.10671846 10.65066197 14.88290089
  -1.18531491  2.12726240 14.89925350
   0.04454541  2.83789241 14.89874252
  -2.41154903  4.25566641 14.91970451
  -1.18406787  4.96841708 14.91257506
  -3.64313427  6.39185673 14.91335357
  -2.41175114  7.10210693 14.91427397
  -4.87634711  8.52573698 14.88715701
  -3.64552099  9.23149204 14.89128987
   2.50263919  4.25784749 14.87719048
   3.73396924  0.70763774 14.88044810
   4.96268690  2.83656720 14.87112287
  -3.64617358 10.65084257 14.88462669
   0.04509921  4.25796300 14.90168010
   1.27374135  4.96909070 14.88884762
  -1.18427169  6.38932295 14.90975472
   0.04446188  7.09964220 14.89705333
  -2.41517415  8.52111364 14.90049854
  -1.18571191  9.23033612 14.89323688
  -1.18625644 10.65015614 14.88442308
   6.19374777  0.70688299 14.88420894
   3.73312915  2.12713994 14.87478889
   1.27413727  2.12786759 14.88924496
   2.50385118  2.83795289 14.88019072
   2.50256967  7.09969402 14.87331781
   1.27362904  0.70774126 14.88609724
   3.73269344  9.23072008 14.87372686
   0.04363111  8.51968620 14.89234386
   1.27370083  9.22936084 14.88417806
   1.27385256 10.64939342 14.88652739
   8.65386434  0.70685570 14.89045991
   6.19299828  2.12624366 14.88215340
   7.42347369  2.83224192 14.89762390
   4.95835618  4.25528070 14.86631608
   6.18919378  4.96627611 14.87150740
   3.73127102  6.38898971 14.86576574
   3.73159039  4.96808480 14.86600299
   1.27363559  6.38903531 14.88614497
   4.95778472  7.10225008 14.86659210
   3.73371563 10.65030942 14.88347736
  11.11349378  0.70766108 14.88790028
   8.65423541  2.12601166 14.90106526
   9.88484214  2.83647289 14.90814913
   7.42312981  4.25340293 14.89734598
   8.65707935  4.96654212 14.91777217
   6.18869622  6.39149526 14.87095383
   7.42308164  7.10455725 14.89056222
   4.96194264  8.52122735 14.86965193
   6.19285153  9.23124965 14.87680605
   2.50351397  8.51986312 14.87585769
   6.60032388  6.15410954 16.58809733
   3.90956025  4.31378231 20.28394178
   5.12352031  6.28189640 20.66951921
   5.60820650  4.91654295 18.81954013
   6.79537841  6.90238022 19.22468343
 


--------------------------------------------------------------------------------------------------------


 k-point  1 :   0.0000 0.0000 0.0000  plane waves:  105831
 k-point  2 :   0.3333-0.0000 0.0000  plane waves:  105834
 k-point  3 :   0.0000 0.3333 0.0000  plane waves:  105834
 k-point  4 :   0.3333 0.3333 0.0000  plane waves:  105861
 k-point  5 :  -0.3333 0.3333 0.0000  plane waves:  105834

 maximum and minimum number of plane-waves per node :     26501    26424

 maximum number of plane-waves:    105861
 maximum index in each direction: 
   IXMAX=   23   IYMAX=   22   IZMAX=   55
   IXMIN=  -23   IYMIN=  -23   IZMIN=  -55

 NGX is ok and might be reduce to  94
 NGY is ok and might be reduce to  92
 NGZ is ok and might be reduce to 222

 real space projection operators:
  total allocation   :       8657.79 KBytes
  max/ min on nodes  :       2165.41       2163.12


 parallel 3D FFT for wavefunctions:
    minimum data exchange during FFTs selected (reduces bandwidth)
 parallel 3D FFT for charge:
    minimum data exchange during FFTs selected (reduces bandwidth)


 total amount of memory used by VASP on root node   483653. kBytes
========================================================================

   base      :      30000. kBytes
   nonlr-proj:       6339. kBytes
   fftplans  :     165810. kBytes
   grid      :     132526. kBytes
   one-center:         86. kBytes
   wavefun   :     148892. kBytes
 
     INWAV:  cpu time    0.0000: real time    0.0002
 Broyden mixing: mesh for mixing (old mesh)
   NGX = 45   NGY = 45   NGZ =111
  (NGX  =192   NGY  =192   NGZ  =448)
  gives a total of 224775 points

 initial charge density was supplied:
 charge density of overlapping atoms calculated
 number of electron     219.0000000 magnetization       6.4000000
 keeping initial charge density in first step


--------------------------------------------------------------------------------------------------------


 Maximum index for non-local projection operator          958
 Maximum index for augmentation-charges         8580 (set IRDMAX)


--------------------------------------------------------------------------------------------------------


 First call to EWALD:  gamma=   0.112
 Maximum number of real-space cells 4x 4x 2
 Maximum number of reciprocal cells 2x 2x 5

 FEWALD executed in parallel
    FEWALD:  cpu time    0.0017: real time    0.0017


----------------------------------------- Iteration    1(   1)  ---------------------------------------


    POTLOK:  cpu time    1.0823: real time    1.0824
    SETDIJ:  cpu time    1.0493: real time    1.0497
     EDDAV:  cpu time   33.1160: real time   33.1201
       DOS:  cpu time    0.0009: real time    0.0009
    --------------------------------------------
      LOOP:  cpu time   35.2494: real time   35.2563

 eigenvalue-minimisations  :  3336
 total energy-change (2. order) : 0.2070584E+04  (-0.7314840E+04)
 number of electron     219.0000000 magnetization       6.4000000
 augmentation part      219.0000000 magnetization       6.4000000

 Free energy of the ion-electron system (eV)
  ---------------------------------------------------
  alpha Z        PSCENC =        59.51446491
  Ewald energy   TEWEN  =     59557.29111492
  -Hartree energ DENC   =    -65161.32774470
  -exchange      EXHF   =         0.00000000
  -V(xc)+E(xc)   XCENC  =       632.78705539
  PAW double counting   =      5858.04939626    -5831.48174947
  entropy T*S    EENTRO =        -0.03404884
  eigenvalues    EBANDS =     -1016.69733617
  atomic energy  EATOM  =      7972.48291802
  Solvation  Ediel_sol  =         0.00000000
  ---------------------------------------------------
  free energy    TOTEN  =      2070.58407033 eV

  energy without entropy =     2070.61811917  energy(sigma->0) =     2070.60109475


--------------------------------------------------------------------------------------------------------




----------------------------------------- Iteration    1(   2)  ---------------------------------------


     EDDAV:  cpu time   39.7647: real time   39.7693
       DOS:  cpu time    0.0005: real time    0.0005
    --------------------------------------------
      LOOP:  cpu time   39.7655: real time   39.7725

 eigenvalue-minimisations  :  4192
 total energy-change (2. order) :-0.2035757E+04  (-0.1896830E+04)
 number of electron     219.0000000 magnetization       6.4000000
 augmentation part      219.0000000 magnetization       6.4000000

 Free energy of the ion-electron system (eV)
  ---------------------------------------------------
  alpha Z        PSCENC =        59.51446491
  Ewald energy   TEWEN  =     59557.29111492
  -Hartree energ DENC   =    -65161.32774470
  -exchange      EXHF   =         0.00000000
  -V(xc)+E(xc)   XCENC  =       632.78705539
  PAW double counting   =      5858.04939626    -5831.48174947
  entropy T*S    EENTRO =        -0.00886356
  eigenvalues    EBANDS =     -3052.47933066
  atomic energy  EATOM  =      7972.48291802
  Solvation  Ediel_sol  =         0.00000000
  ---------------------------------------------------
  free energy    TOTEN  =        34.82726111 eV

  energy without entropy =       34.83612468  energy(sigma->0) =       34.83169290


--------------------------------------------------------------------------------------------------------




----------------------------------------- Iteration    1(   3)  ---------------------------------------


     EDDAV:  cpu time   35.5145: real time   35.5189
       DOS:  cpu time    0.0005: real time    0.0005
    --------------------------------------------
      LOOP:  cpu time   35.5155: real time   35.5235

 eigenvalue-minimisations  :  3648
 total energy-change (2. order) :-0.5172255E+03  (-0.5066011E+03)
 number of electron     219.0000000 magnetization       6.4000000
 augmentation part      219.0000000 magnetization       6.4000000

 Free energy of the ion-electron system (eV)
  ---------------------------------------------------
  alpha Z        PSCENC =        59.51446491
  Ewald energy   TEWEN  =     59557.29111492
  -Hartree energ DENC   =    -65161.32774470
  -exchange      EXHF   =         0.00000000
  -V(xc)+E(xc)   XCENC  =       632.78705539
  PAW double counting   =      5858.04939626    -5831.48174947
  entropy T*S    EENTRO =        -0.00915038
  eigenvalues    EBANDS =     -3569.70457537
  atomic energy  EATOM  =      7972.48291802
  Solvation  Ediel_sol  =         0.00000000
  ---------------------------------------------------
  free energy    TOTEN  =      -482.39827041 eV

  energy without entropy =     -482.38912003  energy(sigma->0) =     -482.39369522


--------------------------------------------------------------------------------------------------------




----------------------------------------- Iteration    1(   4)  ---------------------------------------


     EDDAV:  cpu time   34.6489: real time   34.6534
       DOS:  cpu time    0.0005: real time    0.0005
    --------------------------------------------
      LOOP:  cpu time   34.6503: real time   34.6575

 eigenvalue-minimisations  :  3536
 total energy-change (2. order) :-0.3046251E+02  (-0.2978337E+02)
 number of electron     219.0000000 magnetization       6.4000000
 augmentation part      219.0000000 magnetization       6.4000000

 Free energy of the ion-electron system (eV)
  ---------------------------------------------------
  alpha Z        PSCENC =        59.51446491
  Ewald energy   TEWEN  =     59557.29111492
  -Hartree energ DENC   =    -65161.32774470
  -exchange      EXHF   =         0.00000000
  -V(xc)+E(xc)   XCENC  =       632.78705539
  PAW double counting   =      5858.04939626    -5831.48174947
  entropy T*S    EENTRO =        -0.01283570
  eigenvalues    EBANDS =     -3600.16340166
  atomic energy  EATOM  =      7972.48291802
  Solvation  Ediel_sol  =         0.00000000
  ---------------------------------------------------
  free energy    TOTEN  =      -512.86078203 eV

  energy without entropy =     -512.84794633  energy(sigma->0) =     -512.85436418


--------------------------------------------------------------------------------------------------------




----------------------------------------- Iteration    1(   5)  ---------------------------------------


     EDDAV:  cpu time   42.7034: real time   42.7089
       DOS:  cpu time    0.0005: real time    0.0005
    CHARGE:  cpu time    3.1419: real time    3.1422
    MIXING:  cpu time    0.0178: real time    0.0178
    --------------------------------------------
      LOOP:  cpu time   45.8640: real time   45.8725

 eigenvalue-minimisations  :  4576
 total energy-change (2. order) :-0.1322330E+01  (-0.1309616E+01)
 number of electron     219.0000000 magnetization       5.9978882
 augmentation part        5.5955739 magnetization       5.5635333

 Broyden mixing:
  rms(total) = 0.34283E+01    rms(broyden)= 0.34278E+01
  rms(prec ) = 0.35700E+01
  weight for this iteration     100.00

 Free energy of the ion-electron system (eV)
  ---------------------------------------------------
  alpha Z        PSCENC =        59.51446491
  Ewald energy   TEWEN  =     59557.29111492
  -Hartree energ DENC   =    -65161.32774470
  -exchange      EXHF   =         0.00000000
  -V(xc)+E(xc)   XCENC  =       632.78705539
  PAW double counting   =      5858.04939626    -5831.48174947
  entropy T*S    EENTRO =        -0.01337548
  eigenvalues    EBANDS =     -3601.48519198
  atomic energy  EATOM  =      7972.48291802
  Solvation  Ediel_sol  =         0.00000000
  ---------------------------------------------------
  free energy    TOTEN  =      -514.18311213 eV

  energy without entropy =     -514.16973665  energy(sigma->0) =     -514.17642439


--------------------------------------------------------------------------------------------------------




----------------------------------------- Iteration    1(   6)  ---------------------------------------


    POTLOK:  cpu time    1.0541: real time    1.0542
    SETDIJ:  cpu time    1.0580: real time    1.0581
     EDDAV:  cpu time   32.5453: real time   32.5489
       DOS:  cpu time    0.0005: real time    0.0005
    CHARGE:  cpu time    3.0990: real time    3.0994
    MIXING:  cpu time    0.0331: real time    0.0331
    --------------------------------------------
      LOOP:  cpu time   37.7905: real time   37.7973

 eigenvalue-minimisations  :  3268
 total energy-change (2. order) : 0.2685474E+02  (-0.7458771E+01)
 number of electron     219.0000000 magnetization       5.5835620
 augmentation part        4.9862371 magnetization       4.2836085

 Broyden mixing:
  rms(total) = 0.19863E+01    rms(broyden)= 0.19862E+01
  rms(prec ) = 0.20398E+01
  weight for this iteration     100.00

 eigenvalues of (default mixing * dielectric matrix)
  average eigenvalue GAMMA=   0.9675
  0.9675

 Free energy of the ion-electron system (eV)
  ---------------------------------------------------
  alpha Z        PSCENC =        59.51446491
  Ewald energy   TEWEN  =     59557.29111492
  -Hartree energ DENC   =    -65575.09713343
  -exchange      EXHF   =         0.00000000
  -V(xc)+E(xc)   XCENC  =       646.42865724
  PAW double counting   =     10743.90962152   -10721.44626606
  entropy T*S    EENTRO =        -0.01105701
  eigenvalues    EBANDS =     -3170.40068857
  atomic energy  EATOM  =      7972.48291802
  Solvation  Ediel_sol  =         0.00000000
  ---------------------------------------------------
  free energy    TOTEN  =      -487.32836846 eV

  energy without entropy =     -487.31731145  energy(sigma->0) =     -487.32283995


--------------------------------------------------------------------------------------------------------




----------------------------------------- Iteration    1(   7)  ---------------------------------------


    POTLOK:  cpu time    1.0504: real time    1.0504
    SETDIJ:  cpu time    1.0460: real time    1.0470
     EDDAV:  cpu time   31.1732: real time   31.1763
       DOS:  cpu time    0.0005: real time    0.0005
    CHARGE:  cpu time    3.0855: real time    3.0862
    MIXING:  cpu time    0.0279: real time    0.0279
    --------------------------------------------
      LOOP:  cpu time   36.3839: real time   36.3914

 eigenvalue-minimisations  :  3092
 total energy-change (2. order) : 0.1012883E+02  (-0.1391349E+01)
 number of electron     219.0000000 magnetization       5.0580539
 augmentation part        4.8965188 magnetization       4.4755237

 Broyden mixing:
  rms(total) = 0.10673E+01    rms(broyden)= 0.10673E+01
  rms(prec ) = 0.10852E+01
  weight for this iteration     100.00

 eigenvalues of (default mixing * dielectric matrix)
  average eigenvalue GAMMA=   1.4079
  0.6722  2.1435

 Free energy of the ion-electron system (eV)
  ---------------------------------------------------
  alpha Z        PSCENC =        59.51446491
  Ewald energy   TEWEN  =     59557.29111492
  -Hartree energ DENC   =    -65751.97838668
  -exchange      EXHF   =         0.00000000
  -V(xc)+E(xc)   XCENC  =       658.12746703
  PAW double counting   =     16001.98515425   -15981.73745802
  entropy T*S    EENTRO =        -0.01396435
  eigenvalues    EBANDS =     -2992.87085069
  atomic energy  EATOM  =      7972.48291802
  Solvation  Ediel_sol  =         0.00000000
  ---------------------------------------------------
  free energy    TOTEN  =      -477.19954060 eV

  energy without entropy =     -477.18557625  energy(sigma->0) =     -477.19255843


--------------------------------------------------------------------------------------------------------




----------------------------------------- Iteration    1(   8)  ---------------------------------------


    POTLOK:  cpu time    1.0453: real time    1.0455
    SETDIJ:  cpu time    1.0477: real time    1.0478
     EDDAV:  cpu time   31.4730: real time   31.4764
       DOS:  cpu time    0.0005: real time    0.0005
    CHARGE:  cpu time    3.0960: real time    3.0973
    MIXING:  cpu time    0.0476: real time    0.0476
    --------------------------------------------
      LOOP:  cpu time   36.7106: real time   36.7178

 eigenvalue-minimisations  :  3128
 total energy-change (2. order) : 0.1915746E+01  (-0.5840973E+00)
 number of electron     219.0000000 magnetization       4.6728820
 augmentation part        4.7972018 magnetization       4.0807174

 Broyden mixing:
  rms(total) = 0.40219E+00    rms(broyden)= 0.40213E+00
  rms(prec ) = 0.41140E+00
  weight for this iteration     100.00

 eigenvalues of (default mixing * dielectric matrix)
  average eigenvalue GAMMA=   1.3595
  2.3120  1.1157  0.6510

 Free energy of the ion-electron system (eV)
  ---------------------------------------------------
  alpha Z        PSCENC =        59.51446491
  Ewald energy   TEWEN  =     59557.29111492
  -Hartree energ DENC   =    -65903.38382564
  -exchange      EXHF   =         0.00000000
  -V(xc)+E(xc)   XCENC  =       665.43361519
  PAW double counting   =     20765.28247693   -20746.10238261
  entropy T*S    EENTRO =        -0.01396407
  eigenvalues    EBANDS =     -2845.78821267
  atomic energy  EATOM  =      7972.48291802
  Solvation  Ediel_sol  =         0.00000000
  ---------------------------------------------------
  free energy    TOTEN  =      -475.28379502 eV

  energy without entropy =     -475.26983095  energy(sigma->0) =     -475.27681299


--------------------------------------------------------------------------------------------------------




----------------------------------------- Iteration    1(   9)  ---------------------------------------


    POTLOK:  cpu time    1.0427: real time    1.0428
    SETDIJ:  cpu time    1.0508: real time    1.0509
     EDDAV:  cpu time   34.8914: real time   34.8950
       DOS:  cpu time    0.0005: real time    0.0005
    CHARGE:  cpu time    3.1058: real time    3.1060
    MIXING:  cpu time    0.0176: real time    0.0176
    --------------------------------------------
      LOOP:  cpu time   40.1092: real time   40.1159

 eigenvalue-minimisations  :  3572
 total energy-change (2. order) : 0.4447982E-01  (-0.6397243E-01)
 number of electron     219.0000000 magnetization       4.2528031
 augmentation part        4.7555890 magnetization       3.6796139

 Broyden mixing:
  rms(total) = 0.20209E+00    rms(broyden)= 0.20203E+00
  rms(prec ) = 0.21060E+00
  weight for this iteration     100.00

 eigenvalues of (default mixing * dielectric matrix)
  average eigenvalue GAMMA=   1.3462
  2.3777  1.6257  0.7519  0.6296

 Free energy of the ion-electron system (eV)
  ---------------------------------------------------
  alpha Z        PSCENC =        59.51446491
  Ewald energy   TEWEN  =     59557.29111492
  -Hartree energ DENC   =    -65941.11537195
  -exchange      EXHF   =         0.00000000
  -V(xc)+E(xc)   XCENC  =       666.16605094
  PAW double counting   =     21978.67906285   -21959.09315481
  entropy T*S    EENTRO =        -0.01396426
  eigenvalues    EBANDS =     -2809.15043582
  atomic energy  EATOM  =      7972.48291802
  Solvation  Ediel_sol  =         0.00000000
  ---------------------------------------------------
  free energy    TOTEN  =      -475.23931521 eV

  energy without entropy =     -475.22535094  energy(sigma->0) =     -475.23233307


--------------------------------------------------------------------------------------------------------




----------------------------------------- Iteration    1(  10)  ---------------------------------------


    POTLOK:  cpu time    1.0392: real time    1.0393
    SETDIJ:  cpu time    1.0482: real time    1.0482
     EDDAV:  cpu time   32.1694: real time   32.1711
       DOS:  cpu time    0.0005: real time    0.0005
    CHARGE:  cpu time    3.0676: real time    3.0678
    MIXING:  cpu time    0.0350: real time    0.0350
    --------------------------------------------
      LOOP:  cpu time   37.3604: real time   37.3653

 eigenvalue-minimisations  :  3216
 total energy-change (2. order) :-0.5581300E+00  (-0.2323974E-01)
 number of electron     219.0000000 magnetization       3.9475365
 augmentation part        4.7507310 magnetization       3.3770000

 Broyden mixing:
  rms(total) = 0.10930E+00    rms(broyden)= 0.10928E+00
  rms(prec ) = 0.11674E+00
  weight for this iteration     100.00

 eigenvalues of (default mixing * dielectric matrix)
  average eigenvalue GAMMA=   1.3234
  2.3492  1.9566  0.9365  0.7450  0.6296

 Free energy of the ion-electron system (eV)
  ---------------------------------------------------
  alpha Z        PSCENC =        59.51446491
  Ewald energy   TEWEN  =     59557.29111492
  -Hartree energ DENC   =    -65966.05438613
  -exchange      EXHF   =         0.00000000
  -V(xc)+E(xc)   XCENC  =       665.91036374
  PAW double counting   =     22453.78177120   -22433.75638597
  entropy T*S    EENTRO =        -0.01396430
  eigenvalues    EBANDS =     -2784.95334164
  atomic energy  EATOM  =      7972.48291802
  Solvation  Ediel_sol  =         0.00000000
  ---------------------------------------------------
  free energy    TOTEN  =      -475.79744525 eV

  energy without entropy =     -475.78348094  energy(sigma->0) =     -475.79046310


--------------------------------------------------------------------------------------------------------




----------------------------------------- Iteration    1(  11)  ---------------------------------------


    POTLOK:  cpu time    1.0321: real time    1.0323
    SETDIJ:  cpu time    1.0575: real time    1.0576
     EDDAV:  cpu time   32.3362: real time   32.3375
       DOS:  cpu time    0.0005: real time    0.0005
    CHARGE:  cpu time    3.0984: real time    3.0985
    MIXING:  cpu time    0.0281: real time    0.0281
    --------------------------------------------
      LOOP:  cpu time   37.5534: real time   37.5572

 eigenvalue-minimisations  :  3216
 total energy-change (2. order) :-0.5827448E+00  (-0.7432561E-02)
 number of electron     219.0000000 magnetization       3.5653055
 augmentation part        4.7516113 magnetization       2.9954042

 Broyden mixing:
  rms(total) = 0.86804E-01    rms(broyden)= 0.86802E-01
  rms(prec ) = 0.92673E-01
  weight for this iteration     100.00

 eigenvalues of (default mixing * dielectric matrix)
  average eigenvalue GAMMA=   1.3095
  2.2527  2.2527  1.0207  1.0207  0.6846  0.6258

 Free energy of the ion-electron system (eV)
  ---------------------------------------------------
  alpha Z        PSCENC =        59.51446491
  Ewald energy   TEWEN  =     59557.29111492
  -Hartree energ DENC   =    -65982.30113551
  -exchange      EXHF   =         0.00000000
  -V(xc)+E(xc)   XCENC  =       665.61373634
  PAW double counting   =     22516.73283352   -22496.55517517
  entropy T*S    EENTRO =        -0.01396424
  eigenvalues    EBANDS =     -2769.14498288
  atomic energy  EATOM  =      7972.48291802
  Solvation  Ediel_sol  =         0.00000000
  ---------------------------------------------------
  free energy    TOTEN  =      -476.38019008 eV

  energy without entropy =     -476.36622584  energy(sigma->0) =     -476.37320796


--------------------------------------------------------------------------------------------------------




----------------------------------------- Iteration    1(  12)  ---------------------------------------


    POTLOK:  cpu time    1.0217: real time    1.0217
    SETDIJ:  cpu time    1.0339: real time    1.0339
     EDDAV:  cpu time   31.9599: real time   31.9609
       DOS:  cpu time    0.0005: real time    0.0005
    CHARGE:  cpu time    3.0966: real time    3.0967
    MIXING:  cpu time    0.0486: real time    0.0486
    --------------------------------------------
      LOOP:  cpu time   37.1618: real time   37.1651

 eigenvalue-minimisations  :  3184
 total energy-change (2. order) :-0.6310523E+00  (-0.7964755E-02)
 number of electron     219.0000000 magnetization       2.7579152
 augmentation part        4.7523064 magnetization       2.1901667

 Broyden mixing:
  rms(total) = 0.71263E-01    rms(broyden)= 0.71263E-01
  rms(prec ) = 0.75106E-01
  weight for this iteration     100.00

 eigenvalues of (default mixing * dielectric matrix)
  average eigenvalue GAMMA=   1.4315
  2.5762  2.5762  1.6543  0.9856  0.9327  0.6679  0.6278

 Free energy of the ion-electron system (eV)
  ---------------------------------------------------
  alpha Z        PSCENC =        59.51446491
  Ewald energy   TEWEN  =     59557.29111492
  -Hartree energ DENC   =    -66001.02280970
  -exchange      EXHF   =         0.00000000
  -V(xc)+E(xc)   XCENC  =       665.32101864
  PAW double counting   =     22479.01141790   -22458.75992504
  entropy T*S    EENTRO =        -0.01396423
  eigenvalues    EBANDS =     -2750.83547779
  atomic energy  EATOM  =      7972.48291802
  Solvation  Ediel_sol  =         0.00000000
  ---------------------------------------------------
  free energy    TOTEN  =      -477.01124236 eV

  energy without entropy =     -476.99727813  energy(sigma->0) =     -477.00426025


--------------------------------------------------------------------------------------------------------




----------------------------------------- Iteration    1(  13)  ---------------------------------------


    POTLOK:  cpu time    1.0222: real time    1.0222
    SETDIJ:  cpu time    1.0506: real time    1.0506
     EDDAV:  cpu time   30.1742: real time   30.1749
       DOS:  cpu time    0.0005: real time    0.0005
    CHARGE:  cpu time    3.0435: real time    3.0442
    MIXING:  cpu time    0.0218: real time    0.0218
    --------------------------------------------
      LOOP:  cpu time   35.3133: real time   35.3178

 eigenvalue-minimisations  :  2992
 total energy-change (2. order) :-0.6592008E+00  (-0.2488300E-01)
 number of electron     219.0000000 magnetization       2.1812392
 augmentation part        4.7515020 magnetization       1.6153009

 Broyden mixing:
  rms(total) = 0.48223E-01    rms(broyden)= 0.48222E-01
  rms(prec ) = 0.49500E-01
  weight for this iteration     100.00

 eigenvalues of (default mixing * dielectric matrix)
  average eigenvalue GAMMA=   1.6038
  4.3069  2.3979  1.9694  1.0461  1.0461  0.7777  0.6311  0.6554

 Free energy of the ion-electron system (eV)
  ---------------------------------------------------
  alpha Z        PSCENC =        59.51446491
  Ewald energy   TEWEN  =     59557.29111492
  -Hartree energ DENC   =    -66036.28817500
  -exchange      EXHF   =         0.00000000
  -V(xc)+E(xc)   XCENC  =       665.27327891
  PAW double counting   =     22417.93400088   -22397.60207636
  entropy T*S    EENTRO =        -0.01396421
  eigenvalues    EBANDS =     -2716.26200528
  atomic energy  EATOM  =      7972.48291802
  Solvation  Ediel_sol  =         0.00000000
  ---------------------------------------------------
  free energy    TOTEN  =      -477.67044320 eV

  energy without entropy =     -477.65647900  energy(sigma->0) =     -477.66346110


--------------------------------------------------------------------------------------------------------




----------------------------------------- Iteration    1(  14)  ---------------------------------------


    POTLOK:  cpu time    1.0022: real time    1.0022
    SETDIJ:  cpu time    1.0326: real time    1.0326
     EDDAV:  cpu time   30.1293: real time   30.1301
       DOS:  cpu time    0.0005: real time    0.0005
    CHARGE:  cpu time    2.9871: real time    2.9871
    MIXING:  cpu time    0.0351: real time    0.0351
    --------------------------------------------
      LOOP:  cpu time   35.1872: real time   35.1906

 eigenvalue-minimisations  :  3020
 total energy-change (2. order) :-0.1577338E+00  (-0.1083150E-01)
 number of electron     219.0000000 magnetization       1.6706734
 augmentation part        4.7501055 magnetization       1.1053289

 Broyden mixing:
  rms(total) = 0.34167E-01    rms(broyden)= 0.34165E-01
  rms(prec ) = 0.35123E-01
  weight for this iteration     100.00

 eigenvalues of (default mixing * dielectric matrix)
  average eigenvalue GAMMA=   1.7992
  6.2443  2.2456  2.2456  1.4401  1.0785  0.9330  0.7278  0.6262  0.6512

 Free energy of the ion-electron system (eV)
  ---------------------------------------------------
  alpha Z        PSCENC =        59.51446491
  Ewald energy   TEWEN  =     59557.29111492
  -Hartree energ DENC   =    -66054.88022091
  -exchange      EXHF   =         0.00000000
  -V(xc)+E(xc)   XCENC  =       665.37819101
  PAW double counting   =     22396.14485553   -22375.80377827
  entropy T*S    EENTRO =        -0.01396429
  eigenvalues    EBANDS =     -2697.94175793
  atomic energy  EATOM  =      7972.48291802
  Solvation  Ediel_sol  =         0.00000000
  ---------------------------------------------------
  free energy    TOTEN  =      -477.82817701 eV

  energy without entropy =     -477.81421272  energy(sigma->0) =     -477.82119487


--------------------------------------------------------------------------------------------------------




----------------------------------------- Iteration    1(  15)  ---------------------------------------


    POTLOK:  cpu time    1.0001: real time    1.0001
    SETDIJ:  cpu time    1.0359: real time    1.0360
     EDDAV:  cpu time   30.2936: real time   30.2943
       DOS:  cpu time    0.0005: real time    0.0005
    CHARGE:  cpu time    2.9812: real time    2.9813
    MIXING:  cpu time    0.0310: real time    0.0310
    --------------------------------------------
      LOOP:  cpu time   35.3428: real time   35.3466

 eigenvalue-minimisations  :  3044
 total energy-change (2. order) :-0.6446446E+00  (-0.6194337E-02)
 number of electron     219.0000000 magnetization       1.3715216
 augmentation part        4.7487485 magnetization       0.8072953

 Broyden mixing:
  rms(total) = 0.22024E-01    rms(broyden)= 0.22022E-01
  rms(prec ) = 0.23289E-01
  weight for this iteration     100.00

 eigenvalues of (default mixing * dielectric matrix)
  average eigenvalue GAMMA=   1.9723
  8.2406  2.4166  2.4166  1.7003  1.0759  1.0759  0.8382  0.6881  0.6202  0.6502

 Free energy of the ion-electron system (eV)
  ---------------------------------------------------
  alpha Z        PSCENC =        59.51446491
  Ewald energy   TEWEN  =     59557.29111492
  -Hartree energ DENC   =    -66064.06196633
  -exchange      EXHF   =         0.00000000
  -V(xc)+E(xc)   XCENC  =       664.79026589
  PAW double counting   =     22379.23304845   -22358.90790133
  entropy T*S    EENTRO =        -0.01396429
  eigenvalues    EBANDS =     -2688.80080183
  atomic energy  EATOM  =      7972.48291802
  Solvation  Ediel_sol  =         0.00000000
  ---------------------------------------------------
  free energy    TOTEN  =      -478.47282159 eV

  energy without entropy =     -478.45885730  energy(sigma->0) =     -478.46583945


--------------------------------------------------------------------------------------------------------




----------------------------------------- Iteration    1(  16)  ---------------------------------------


    POTLOK:  cpu time    1.0013: real time    1.0014
    SETDIJ:  cpu time    1.0357: real time    1.0357
     EDDAV:  cpu time   30.4721: real time   30.4747
       DOS:  cpu time    0.0005: real time    0.0005
    CHARGE:  cpu time    3.0193: real time    3.0195
    MIXING:  cpu time    0.0480: real time    0.0480
    --------------------------------------------
      LOOP:  cpu time   35.5774: real time   35.5828

 eigenvalue-minimisations  :  3064
 total energy-change (2. order) :-0.4179748E+00  (-0.1861590E-02)
 number of electron     219.0000000 magnetization       1.1510659
 augmentation part        4.7483193 magnetization       0.5868537

 Broyden mixing:
  rms(total) = 0.15614E-01    rms(broyden)= 0.15613E-01
  rms(prec ) = 0.16901E-01
  weight for this iteration     100.00

 eigenvalues of (default mixing * dielectric matrix)
  average eigenvalue GAMMA=   2.0367
  9.3847  2.5793  2.5793  1.7683  1.2400  1.1669  0.9446  0.8116  0.6725  0.6399
  0.6166

 Free energy of the ion-electron system (eV)
  ---------------------------------------------------
  alpha Z        PSCENC =        59.51446491
  Ewald energy   TEWEN  =     59557.29111492
  -Hartree energ DENC   =    -66064.54136518
  -exchange      EXHF   =         0.00000000
  -V(xc)+E(xc)   XCENC  =       664.31583999
  PAW double counting   =     22376.22788136   -22355.91911444
  entropy T*S    EENTRO =        -0.01396428
  eigenvalues    EBANDS =     -2688.24857174
  atomic energy  EATOM  =      7972.48291802
  Solvation  Ediel_sol  =         0.00000000
  ---------------------------------------------------
  free energy    TOTEN  =      -478.89079644 eV

  energy without entropy =     -478.87683215  energy(sigma->0) =     -478.88381430


--------------------------------------------------------------------------------------------------------




----------------------------------------- Iteration    1(  17)  ---------------------------------------


    POTLOK:  cpu time    1.0033: real time    1.0033
    SETDIJ:  cpu time    1.0358: real time    1.0360
     EDDAV:  cpu time   31.1384: real time   31.1412
       DOS:  cpu time    0.0005: real time    0.0005
    CHARGE:  cpu time    3.0353: real time    3.0355
    MIXING:  cpu time    0.0239: real time    0.0239
    --------------------------------------------
      LOOP:  cpu time   36.2376: real time   36.2434

 eigenvalue-minimisations  :  3152
 total energy-change (2. order) :-0.2456027E+00  (-0.9735293E-03)
 number of electron     219.0000000 magnetization       0.9709712
 augmentation part        4.7484502 magnetization       0.4068696

 Broyden mixing:
  rms(total) = 0.11050E-01    rms(broyden)= 0.11050E-01
  rms(prec ) = 0.12040E-01
  weight for this iteration     100.00

 eigenvalues of (default mixing * dielectric matrix)
  average eigenvalue GAMMA=   2.1284
 10.3981  3.3223  2.4541  1.9080  1.7008  1.1631  1.0152  0.9021  0.7599  0.6685
  0.6349  0.6136

 Free energy of the ion-electron system (eV)
  ---------------------------------------------------
  alpha Z        PSCENC =        59.51446491
  Ewald energy   TEWEN  =     59557.29111492
  -Hartree energ DENC   =    -66061.84191099
  -exchange      EXHF   =         0.00000000
  -V(xc)+E(xc)   XCENC  =       663.99179064
  PAW double counting   =     22380.62397343   -22360.32443188
  entropy T*S    EENTRO =        -0.01396423
  eigenvalues    EBANDS =     -2690.86035400
  atomic energy  EATOM  =      7972.48291802
  Solvation  Ediel_sol  =         0.00000000
  ---------------------------------------------------
  free energy    TOTEN  =      -479.13639917 eV

  energy without entropy =     -479.12243494  energy(sigma->0) =     -479.12941705


--------------------------------------------------------------------------------------------------------




----------------------------------------- Iteration    1(  18)  ---------------------------------------


    POTLOK:  cpu time    1.0234: real time    1.0234
    SETDIJ:  cpu time    1.0389: real time    1.0389
     EDDAV:  cpu time   30.7598: real time   30.7626
       DOS:  cpu time    0.0005: real time    0.0005
    CHARGE:  cpu time    2.9962: real time    2.9964
    MIXING:  cpu time    0.0380: real time    0.0380
    --------------------------------------------
      LOOP:  cpu time   35.8572: real time   35.8635

 eigenvalue-minimisations  :  3104
 total energy-change (2. order) :-0.1385539E+00  (-0.5585622E-03)
 number of electron     219.0000000 magnetization       0.8577433
 augmentation part        4.7485325 magnetization       0.2936222

 Broyden mixing:
  rms(total) = 0.79300E-02    rms(broyden)= 0.79299E-02
  rms(prec ) = 0.86086E-02
  weight for this iteration     100.00

 eigenvalues of (default mixing * dielectric matrix)
  average eigenvalue GAMMA=   2.1539
 10.9843  3.9042  2.3899  2.1326  1.8295  1.1624  1.1624  0.8951  0.8951  0.7304
  0.6629  0.6386  0.6139

 Free energy of the ion-electron system (eV)
  ---------------------------------------------------
  alpha Z        PSCENC =        59.51446491
  Ewald energy   TEWEN  =     59557.29111492
  -Hartree energ DENC   =    -66058.45394383
  -exchange      EXHF   =         0.00000000
  -V(xc)+E(xc)   XCENC  =       663.79063315
  PAW double counting   =     22385.64057975   -22365.34464312
  entropy T*S    EENTRO =        -0.01396415
  eigenvalues    EBANDS =     -2694.18211274
  atomic energy  EATOM  =      7972.48291802
  Solvation  Ediel_sol  =         0.00000000
  ---------------------------------------------------
  free energy    TOTEN  =      -479.27495309 eV

  energy without entropy =     -479.26098893  energy(sigma->0) =     -479.26797101


--------------------------------------------------------------------------------------------------------




----------------------------------------- Iteration    1(  19)  ---------------------------------------


    POTLOK:  cpu time    1.0012: real time    1.0013
    SETDIJ:  cpu time    1.0305: real time    1.0309
     EDDAV:  cpu time   31.3346: real time   31.3372
       DOS:  cpu time    0.0005: real time    0.0005
    CHARGE:  cpu time    3.0135: real time    3.0137
    MIXING:  cpu time    0.0332: real time    0.0332
    --------------------------------------------
      LOOP:  cpu time   36.4140: real time   36.4203

 eigenvalue-minimisations  :  3180
 total energy-change (2. order) :-0.5120904E-01  (-0.1728841E-03)
 number of electron     219.0000000 magnetization       0.7439299
 augmentation part        4.7484658 magnetization       0.1797415

 Broyden mixing:
  rms(total) = 0.59821E-02    rms(broyden)= 0.59821E-02
  rms(prec ) = 0.64418E-02
  weight for this iteration     100.00

 eigenvalues of (default mixing * dielectric matrix)
  average eigenvalue GAMMA=   2.2324
 11.5613  4.7493  2.4604  2.4604  1.8984  1.3909  1.3909  0.9590  0.9590  0.8053
  0.7056  0.6159  0.6577  0.6396

 Free energy of the ion-electron system (eV)
  ---------------------------------------------------
  alpha Z        PSCENC =        59.51446491
  Ewald energy   TEWEN  =     59557.29111492
  -Hartree energ DENC   =    -66055.92257940
  -exchange      EXHF   =         0.00000000
  -V(xc)+E(xc)   XCENC  =       663.71342891
  PAW double counting   =     22387.32882519   -22367.03240450
  entropy T*S    EENTRO =        -0.01396411
  eigenvalues    EBANDS =     -2696.68796609
  atomic energy  EATOM  =      7972.48291802
  Solvation  Ediel_sol  =         0.00000000
  ---------------------------------------------------
  free energy    TOTEN  =      -479.32616213 eV

  energy without entropy =     -479.31219803  energy(sigma->0) =     -479.31918008


--------------------------------------------------------------------------------------------------------




----------------------------------------- Iteration    1(  20)  ---------------------------------------


    POTLOK:  cpu time    1.0015: real time    1.0017
    SETDIJ:  cpu time    1.0317: real time    1.0318
     EDDAV:  cpu time   30.4611: real time   30.4636
       DOS:  cpu time    0.0005: real time    0.0005
    CHARGE:  cpu time    3.0234: real time    3.0237
    MIXING:  cpu time    0.0527: real time    0.0527
    --------------------------------------------
      LOOP:  cpu time   35.5714: real time   35.5782

 eigenvalue-minimisations  :  3064
 total energy-change (2. order) :-0.2559441E-01  (-0.1423731E-03)
 number of electron     219.0000000 magnetization       0.6728399
 augmentation part        4.7484030 magnetization       0.1086365

 Broyden mixing:
  rms(total) = 0.40810E-02    rms(broyden)= 0.40809E-02
  rms(prec ) = 0.43420E-02
  weight for this iteration     100.00

 eigenvalues of (default mixing * dielectric matrix)
  average eigenvalue GAMMA=   2.2673
 11.9865  5.6025  2.8030  2.4511  1.9285  1.5883  1.2699  1.0534  0.9747  0.9747
  0.7809  0.6896  0.6152  0.6545  0.6359

 Free energy of the ion-electron system (eV)
  ---------------------------------------------------
  alpha Z        PSCENC =        59.51446491
  Ewald energy   TEWEN  =     59557.29111492
  -Hartree energ DENC   =    -66053.34856678
  -exchange      EXHF   =         0.00000000
  -V(xc)+E(xc)   XCENC  =       663.67470988
  PAW double counting   =     22387.47221538   -22367.17343309
  entropy T*S    EENTRO =        -0.01396401
  eigenvalues    EBANDS =     -2699.25121577
  atomic energy  EATOM  =      7972.48291802
  Solvation  Ediel_sol  =         0.00000000
  ---------------------------------------------------
  free energy    TOTEN  =      -479.35175654 eV

  energy without entropy =     -479.33779253  energy(sigma->0) =     -479.34477454


--------------------------------------------------------------------------------------------------------




----------------------------------------- Iteration    1(  21)  ---------------------------------------


    POTLOK:  cpu time    1.0065: real time    1.0066
    SETDIJ:  cpu time    1.0387: real time    1.0388
     EDDAV:  cpu time   31.3413: real time   31.3437
       DOS:  cpu time    0.0004: real time    0.0004
    CHARGE:  cpu time    3.0336: real time    3.0338
    MIXING:  cpu time    0.0268: real time    0.0268
    --------------------------------------------
      LOOP:  cpu time   36.4478: real time   36.4527

 eigenvalue-minimisations  :  3184
 total energy-change (2. order) :-0.9206585E-02  (-0.4208691E-04)
 number of electron     219.0000000 magnetization       0.6202205
 augmentation part        4.7484082 magnetization       0.0560010

 Broyden mixing:
  rms(total) = 0.28905E-02    rms(broyden)= 0.28905E-02
  rms(prec ) = 0.30655E-02
  weight for this iteration     100.00

 eigenvalues of (default mixing * dielectric matrix)
  average eigenvalue GAMMA=   2.3313
 12.4945  6.5377  3.2189  2.3971  2.0567  1.7213  1.3707  1.3707  0.9632  0.9632
  0.8778  0.7551  0.6799  0.6140  0.6480  0.6322

 Free energy of the ion-electron system (eV)
  ---------------------------------------------------
  alpha Z        PSCENC =        59.51446491
  Ewald energy   TEWEN  =     59557.29111492
  -Hartree energ DENC   =    -66051.84232330
  -exchange      EXHF   =         0.00000000
  -V(xc)+E(xc)   XCENC  =       663.66291423
  PAW double counting   =     22387.14092406   -22366.84064412
  entropy T*S    EENTRO =        -0.01396387
  eigenvalues    EBANDS =     -2700.75636798
  atomic energy  EATOM  =      7972.48291802
  Solvation  Ediel_sol  =         0.00000000
  ---------------------------------------------------
  free energy    TOTEN  =      -479.36096313 eV

  energy without entropy =     -479.34699925  energy(sigma->0) =     -479.35398119


--------------------------------------------------------------------------------------------------------




----------------------------------------- Iteration    1(  22)  ---------------------------------------


    POTLOK:  cpu time    1.0093: real time    1.0094
    SETDIJ:  cpu time    1.0366: real time    1.0366
     EDDAV:  cpu time   30.6899: real time   30.6923
       DOS:  cpu time    0.0005: real time    0.0005
    CHARGE:  cpu time    3.0074: real time    3.0076
    MIXING:  cpu time    0.0417: real time    0.0417
    --------------------------------------------
      LOOP:  cpu time   35.7857: real time   35.7913

 eigenvalue-minimisations  :  3096
 total energy-change (2. order) :-0.1210405E-01  (-0.1696827E-04)
 number of electron     219.0000000 magnetization       0.5876927
 augmentation part        4.7484238 magnetization       0.0234974

 Broyden mixing:
  rms(total) = 0.17989E-02    rms(broyden)= 0.17988E-02
  rms(prec ) = 0.19363E-02
  weight for this iteration     100.00

 eigenvalues of (default mixing * dielectric matrix)
  average eigenvalue GAMMA=   2.4448
 13.2085  7.8765  3.8009  2.4092  2.4092  1.9183  1.4209  1.4209  1.0179  1.0179
  0.9298  0.8454  0.7265  0.6728  0.6152  0.6425  0.6295

 Free energy of the ion-electron system (eV)
  ---------------------------------------------------
  alpha Z        PSCENC =        59.51446491
  Ewald energy   TEWEN  =     59557.29111492
  -Hartree energ DENC   =    -66050.83354873
  -exchange      EXHF   =         0.00000000
  -V(xc)+E(xc)   XCENC  =       663.65069914
  PAW double counting   =     22386.16180768   -22365.86108281
  entropy T*S    EENTRO =        -0.01396374
  eigenvalues    EBANDS =     -2701.76547658
  atomic energy  EATOM  =      7972.48291802
  Solvation  Ediel_sol  =         0.00000000
  ---------------------------------------------------
  free energy    TOTEN  =      -479.37306718 eV

  energy without entropy =     -479.35910344  energy(sigma->0) =     -479.36608531


--------------------------------------------------------------------------------------------------------




----------------------------------------- Iteration    1(  23)  ---------------------------------------


    POTLOK:  cpu time    1.0100: real time    1.0100
    SETDIJ:  cpu time    1.0323: real time    1.0323
     EDDAV:  cpu time   30.1411: real time   30.1435
       DOS:  cpu time    0.0005: real time    0.0005
    CHARGE:  cpu time    3.0196: real time    3.0198
    MIXING:  cpu time    0.0371: real time    0.0371
    --------------------------------------------
      LOOP:  cpu time   35.2409: real time   35.2459

 eigenvalue-minimisations  :  3024
 total energy-change (2. order) :-0.1548379E-01  (-0.9049599E-05)
 number of electron     219.0000000 magnetization       0.5729484
 augmentation part        4.7484386 magnetization       0.0087592

 Broyden mixing:
  rms(total) = 0.10635E-02    rms(broyden)= 0.10634E-02
  rms(prec ) = 0.11861E-02
  weight for this iteration     100.00

 eigenvalues of (default mixing * dielectric matrix)
  average eigenvalue GAMMA=   2.4798
 13.7703  8.7006  4.1839  2.5044  2.5044  1.9583  1.4632  1.4632  1.0705  1.0705
  0.9430  0.9430  0.7994  0.7117  0.6674  0.6160  0.6393  0.6280

 Free energy of the ion-electron system (eV)
  ---------------------------------------------------
  alpha Z        PSCENC =        59.51446491
  Ewald energy   TEWEN  =     59557.29111492
  -Hartree energ DENC   =    -66050.30157605
  -exchange      EXHF   =         0.00000000
  -V(xc)+E(xc)   XCENC  =       663.63456424
  PAW double counting   =     22385.71231217   -22365.41193654
  entropy T*S    EENTRO =        -0.01396367
  eigenvalues    EBANDS =     -2702.29644898
  atomic energy  EATOM  =      7972.48291802
  Solvation  Ediel_sol  =         0.00000000
  ---------------------------------------------------
  free energy    TOTEN  =      -479.38855097 eV

  energy without entropy =     -479.37458730  energy(sigma->0) =     -479.38156914


--------------------------------------------------------------------------------------------------------




----------------------------------------- Iteration    1(  24)  ---------------------------------------


    POTLOK:  cpu time    1.0089: real time    1.0089
    SETDIJ:  cpu time    1.0320: real time    1.0323
     EDDAV:  cpu time   27.8277: real time   27.8298
       DOS:  cpu time    0.0005: real time    0.0005
    CHARGE:  cpu time    3.0248: real time    3.0253
    MIXING:  cpu time    0.0587: real time    0.0587
    --------------------------------------------
      LOOP:  cpu time   32.9531: real time   32.9597

 eigenvalue-minimisations  :  2720
 total energy-change (2. order) :-0.7132781E-02  (-0.4803005E-05)
 number of electron     219.0000000 magnetization       0.5653142
 augmentation part        4.7484444 magnetization       0.0011248

 Broyden mixing:
  rms(total) = 0.70582E-03    rms(broyden)= 0.70574E-03
  rms(prec ) = 0.81201E-03
  weight for this iteration     100.00

 eigenvalues of (default mixing * dielectric matrix)
  average eigenvalue GAMMA=   2.4890
 14.1497  9.1277  4.4214  2.6844  2.4470  2.0076  1.7337  1.4234  1.4234  1.0246
  1.0246  0.9131  0.9131  0.7605  0.6969  0.6626  0.6373  0.6167  0.6242

 Free energy of the ion-electron system (eV)
  ---------------------------------------------------
  alpha Z        PSCENC =        59.51446491
  Ewald energy   TEWEN  =     59557.29111492
  -Hartree energ DENC   =    -66050.15039485
  -exchange      EXHF   =         0.00000000
  -V(xc)+E(xc)   XCENC  =       663.62690394
  PAW double counting   =     22385.88169871   -22365.58178452
  entropy T*S    EENTRO =        -0.01396365
  eigenvalues    EBANDS =     -2702.44664125
  atomic energy  EATOM  =      7972.48291802
  Solvation  Ediel_sol  =         0.00000000
  ---------------------------------------------------
  free energy    TOTEN  =      -479.39568375 eV

  energy without entropy =     -479.38172010  energy(sigma->0) =     -479.38870193


--------------------------------------------------------------------------------------------------------




----------------------------------------- Iteration    1(  25)  ---------------------------------------


    POTLOK:  cpu time    1.0094: real time    1.0095
    SETDIJ:  cpu time    1.0343: real time    1.0344
     EDDAV:  cpu time   26.5436: real time   26.5455
       DOS:  cpu time    0.0005: real time    0.0005
    CHARGE:  cpu time    3.0507: real time    3.0520
    MIXING:  cpu time    0.0332: real time    0.0332
    --------------------------------------------
      LOOP:  cpu time   31.6722: real time   31.6779

 eigenvalue-minimisations  :  2552
 total energy-change (2. order) :-0.2666800E-02  (-0.4037755E-05)
 number of electron     219.0000000 magnetization       0.5605046
 augmentation part        4.7484469 magnetization      -0.0036960

 Broyden mixing:
  rms(total) = 0.44711E-03    rms(broyden)= 0.44700E-03
  rms(prec ) = 0.52708E-03
  weight for this iteration     100.00

 eigenvalues of (default mixing * dielectric matrix)
  average eigenvalue GAMMA=   2.4939
 14.4168  9.4291  4.6519  3.0322  2.3547  2.3547  1.9055  1.4411  1.4411  1.0394
  1.0394  0.9868  0.9868  0.8366  0.7434  0.6873  0.6545  0.6393  0.6183  0.6183

 Free energy of the ion-electron system (eV)
  ---------------------------------------------------
  alpha Z        PSCENC =        59.51446491
  Ewald energy   TEWEN  =     59557.29111492
  -Hartree energ DENC   =    -66050.15588549
  -exchange      EXHF   =         0.00000000
  -V(xc)+E(xc)   XCENC  =       663.62427250
  PAW double counting   =     22386.11527412   -22365.81573318
  entropy T*S    EENTRO =        -0.01396366
  eigenvalues    EBANDS =     -2702.44081270
  atomic energy  EATOM  =      7972.48291802
  Solvation  Ediel_sol  =         0.00000000
  ---------------------------------------------------
  free energy    TOTEN  =      -479.39835055 eV

  energy without entropy =     -479.38438690  energy(sigma->0) =     -479.39136872


--------------------------------------------------------------------------------------------------------




----------------------------------------- Iteration    1(  26)  ---------------------------------------


    POTLOK:  cpu time    1.0122: real time    1.0123
    SETDIJ:  cpu time    1.0335: real time    1.0335
     EDDAV:  cpu time   26.4267: real time   26.4284
       DOS:  cpu time    0.0005: real time    0.0005
    CHARGE:  cpu time    3.0158: real time    3.0159
    MIXING:  cpu time    0.0470: real time    0.0470
    --------------------------------------------
      LOOP:  cpu time   31.5363: real time   31.5410

 eigenvalue-minimisations  :  2532
 total energy-change (2. order) :-0.1238839E-02  (-0.3777336E-05)
 number of electron     219.0000000 magnetization       0.5578843
 augmentation part        4.7484441 magnetization      -0.0063282

 Broyden mixing:
  rms(total) = 0.26764E-03    rms(broyden)= 0.26747E-03
  rms(prec ) = 0.32190E-03
  weight for this iteration     100.00

 eigenvalues of (default mixing * dielectric matrix)
  average eigenvalue GAMMA=   2.4953
 14.6102  9.6349  4.9989  3.4597  2.4326  2.4326  1.8800  1.4891  1.4891  1.2029
  1.2029  0.9597  0.9597  0.9177  0.8141  0.7245  0.6775  0.6447  0.6386  0.6164
  0.6164

 Free energy of the ion-electron system (eV)
  ---------------------------------------------------
  alpha Z        PSCENC =        59.51446491
  Ewald energy   TEWEN  =     59557.29111492
  -Hartree energ DENC   =    -66050.22422443
  -exchange      EXHF   =         0.00000000
  -V(xc)+E(xc)   XCENC  =       663.62355943
  PAW double counting   =     22386.22041810   -22365.92101970
  entropy T*S    EENTRO =        -0.01396367
  eigenvalues    EBANDS =     -2702.37285697
  atomic energy  EATOM  =      7972.48291802
  Solvation  Ediel_sol  =         0.00000000
  ---------------------------------------------------
  free energy    TOTEN  =      -479.39958939 eV

  energy without entropy =     -479.38562572  energy(sigma->0) =     -479.39260755


--------------------------------------------------------------------------------------------------------




----------------------------------------- Iteration    1(  27)  ---------------------------------------


    POTLOK:  cpu time    1.0155: real time    1.0155
    SETDIJ:  cpu time    1.0329: real time    1.0329
     EDDAV:  cpu time   26.8058: real time   26.8074
       DOS:  cpu time    0.0005: real time    0.0005
    CHARGE:  cpu time    3.0022: real time    3.0024
    MIXING:  cpu time    0.0447: real time    0.0447
    --------------------------------------------
      LOOP:  cpu time   31.9019: real time   31.9058

 eigenvalue-minimisations  :  2584
 total energy-change (2. order) :-0.5551523E-03  (-0.2346895E-05)
 number of electron     219.0000000 magnetization       0.5567235
 augmentation part        4.7484406 magnetization      -0.0074980

 Broyden mixing:
  rms(total) = 0.16330E-03    rms(broyden)= 0.16302E-03
  rms(prec ) = 0.20082E-03
  weight for this iteration     100.00

 eigenvalues of (default mixing * dielectric matrix)
  average eigenvalue GAMMA=   2.4897
 14.7304  9.7609  5.4429  3.7632  2.4894  2.4894  1.8276  1.8276  1.4008  1.4008
  1.1467  0.9819  0.9819  1.0093  0.8604  0.7767  0.7106  0.6682  0.6449  0.6304
  0.6142  0.6142

 Free energy of the ion-electron system (eV)
  ---------------------------------------------------
  alpha Z        PSCENC =        59.51446491
  Ewald energy   TEWEN  =     59557.29111492
  -Hartree energ DENC   =    -66050.30849867
  -exchange      EXHF   =         0.00000000
  -V(xc)+E(xc)   XCENC  =       663.62393029
  PAW double counting   =     22386.24784423   -22365.94836817
  entropy T*S    EENTRO =        -0.01396369
  eigenvalues    EBANDS =     -2702.28958639
  atomic energy  EATOM  =      7972.48291802
  Solvation  Ediel_sol  =         0.00000000
  ---------------------------------------------------
  free energy    TOTEN  =      -479.40014454 eV

  energy without entropy =     -479.38618085  energy(sigma->0) =     -479.39316270


--------------------------------------------------------------------------------------------------------




----------------------------------------- Iteration    1(  28)  ---------------------------------------


    POTLOK:  cpu time    1.0166: real time    1.0166
    SETDIJ:  cpu time    1.0316: real time    1.0317
     EDDAV:  cpu time   26.5283: real time   26.5305
       DOS:  cpu time    0.0005: real time    0.0005
    CHARGE:  cpu time    3.0250: real time    3.0252
    MIXING:  cpu time    0.0637: real time    0.0637
    --------------------------------------------
      LOOP:  cpu time   31.6661: real time   31.6712

 eigenvalue-minimisations  :  2544
 total energy-change (2. order) :-0.2124130E-03  (-0.1005224E-05)
 number of electron     219.0000000 magnetization       0.5561954
 augmentation part        4.7484399 magnetization      -0.0080328

 Broyden mixing:
  rms(total) = 0.10243E-03    rms(broyden)= 0.10199E-03
  rms(prec ) = 0.13041E-03
  weight for this iteration     100.00

 eigenvalues of (default mixing * dielectric matrix)
  average eigenvalue GAMMA=   2.4788
 14.7917  9.8405  5.8629  3.9647  2.5522  2.5522  1.9545  1.9545  1.4262  1.4262
  1.1960  1.1960  0.9866  0.9866  0.8674  0.8674  0.7395  0.6953  0.6612  0.6396
  0.6277  0.6129  0.6108

 Free energy of the ion-electron system (eV)
  ---------------------------------------------------
  alpha Z        PSCENC =        59.51446491
  Ewald energy   TEWEN  =     59557.29111492
  -Hartree energ DENC   =    -66050.37489224
  -exchange      EXHF   =         0.00000000
  -V(xc)+E(xc)   XCENC  =       663.62456732
  PAW double counting   =     22386.24300769   -22365.94338961
  entropy T*S    EENTRO =        -0.01396370
  eigenvalues    EBANDS =     -2702.22418427
  atomic energy  EATOM  =      7972.48291802
  Solvation  Ediel_sol  =         0.00000000
  ---------------------------------------------------
  free energy    TOTEN  =      -479.40035696 eV

  energy without entropy =     -479.38639326  energy(sigma->0) =     -479.39337511


--------------------------------------------------------------------------------------------------------




----------------------------------------- Iteration    1(  29)  ---------------------------------------


    POTLOK:  cpu time    1.0179: real time    1.0180
    SETDIJ:  cpu time    1.0369: real time    1.0369
     EDDAV:  cpu time   26.5807: real time   26.5831
       DOS:  cpu time    0.0005: real time    0.0005
    CHARGE:  cpu time    3.0537: real time    3.0539
    MIXING:  cpu time    0.0387: real time    0.0387
    --------------------------------------------
      LOOP:  cpu time   31.7288: real time   31.7340

 eigenvalue-minimisations  :  2552
 total energy-change (2. order) :-0.9796502E-04  (-0.4062898E-06)
 number of electron     219.0000000 magnetization       0.5558559
 augmentation part        4.7484410 magnetization      -0.0083763

 Broyden mixing:
  rms(total) = 0.64835E-04    rms(broyden)= 0.64143E-04
  rms(prec ) = 0.84602E-04
  weight for this iteration     100.00

 eigenvalues of (default mixing * dielectric matrix)
  average eigenvalue GAMMA=   2.4706
 14.8251  9.8878  6.2193  4.1392  2.7372  2.5695  2.1065  2.1065  1.4749  1.4749
  1.2926  1.2926  0.9822  0.9822  0.9265  0.9265  0.8001  0.7278  0.6844  0.6550
  0.6372  0.6237  0.6191  0.6021

 Free energy of the ion-electron system (eV)
  ---------------------------------------------------
  alpha Z        PSCENC =        59.51446491
  Ewald energy   TEWEN  =     59557.29111492
  -Hartree energ DENC   =    -66050.42428546
  -exchange      EXHF   =         0.00000000
  -V(xc)+E(xc)   XCENC  =       663.62504523
  PAW double counting   =     22386.21680620   -22365.91705726
  entropy T*S    EENTRO =        -0.01396370
  eigenvalues    EBANDS =     -2702.17549778
  atomic energy  EATOM  =      7972.48291802
  Solvation  Ediel_sol  =         0.00000000
  ---------------------------------------------------
  free energy    TOTEN  =      -479.40045492 eV

  energy without entropy =     -479.38649122  energy(sigma->0) =     -479.39347307


--------------------------------------------------------------------------------------------------------




----------------------------------------- Iteration    1(  30)  ---------------------------------------


    POTLOK:  cpu time    1.0178: real time    1.0179
    SETDIJ:  cpu time    1.0320: real time    1.0321
     EDDAV:  cpu time   24.3945: real time   24.3969
       DOS:  cpu time    0.0005: real time    0.0005
    CHARGE:  cpu time    3.0127: real time    3.0128
    MIXING:  cpu time    0.0563: real time    0.0563
    --------------------------------------------
      LOOP:  cpu time   29.5142: real time   29.5201

 eigenvalue-minimisations  :  2264
 total energy-change (2. order) :-0.5780280E-04  (-0.1924369E-06)
 number of electron     219.0000000 magnetization       0.5556975
 augmentation part        4.7484423 magnetization      -0.0085367

 Broyden mixing:
  rms(total) = 0.39929E-04    rms(broyden)= 0.38798E-04
  rms(prec ) = 0.51770E-04
  weight for this iteration     100.00

 eigenvalues of (default mixing * dielectric matrix)
  average eigenvalue GAMMA=   2.4685
 14.8496  9.9241  6.5570  4.3680  3.1601  2.5846  2.3604  2.0415  1.5492  1.5492
  1.3433  1.3433  0.9996  0.9996  0.9757  0.9757  0.8550  0.7666  0.7150  0.6753
  0.6490  0.6373  0.6195  0.6195  0.5956

 Free energy of the ion-electron system (eV)
  ---------------------------------------------------
  alpha Z        PSCENC =        59.51446491
  Ewald energy   TEWEN  =     59557.29111492
  -Hartree energ DENC   =    -66050.46198508
  -exchange      EXHF   =         0.00000000
  -V(xc)+E(xc)   XCENC  =       663.62528575
  PAW double counting   =     22386.18388513   -22365.88406116
  entropy T*S    EENTRO =        -0.01396371
  eigenvalues    EBANDS =     -2702.13817150
  atomic energy  EATOM  =      7972.48291802
  Solvation  Ediel_sol  =         0.00000000
  ---------------------------------------------------
  free energy    TOTEN  =      -479.40051272 eV

  energy without entropy =     -479.38654902  energy(sigma->0) =     -479.39353087


--------------------------------------------------------------------------------------------------------




----------------------------------------- Iteration    1(  31)  ---------------------------------------


    POTLOK:  cpu time    1.0255: real time    1.0256
    SETDIJ:  cpu time    1.0330: real time    1.0331
     EDDAV:  cpu time   24.1440: real time   24.1463
       DOS:  cpu time    0.0005: real time    0.0005
    CHARGE:  cpu time    3.0020: real time    3.0022
    MIXING:  cpu time    0.0529: real time    0.0529
    --------------------------------------------
      LOOP:  cpu time   29.2584: real time   29.2640

 eigenvalue-minimisations  :  2232
 total energy-change (2. order) :-0.2706179E-04  (-0.6206076E-07)
 number of electron     219.0000000 magnetization       0.5556318
 augmentation part        4.7484422 magnetization      -0.0086036

 Broyden mixing:
  rms(total) = 0.27373E-04    rms(broyden)= 0.25696E-04
  rms(prec ) = 0.33805E-04
  weight for this iteration     100.00

 eigenvalues of (default mixing * dielectric matrix)
  average eigenvalue GAMMA=   2.4535
 14.8579  9.9503  6.7470  4.5788  3.4009  2.6188  2.3956  2.0288  1.8197  1.4928
  1.3890  1.3890  1.2151  0.9812  0.9812  0.9474  0.9474  0.8210  0.7446  0.7057
  0.6681  0.6446  0.6378  0.6186  0.6186  0.5915

 Free energy of the ion-electron system (eV)
  ---------------------------------------------------
  alpha Z        PSCENC =        59.51446491
  Ewald energy   TEWEN  =     59557.29111492
  -Hartree energ DENC   =    -66050.48347993
  -exchange      EXHF   =         0.00000000
  -V(xc)+E(xc)   XCENC  =       663.62536220
  PAW double counting   =     22386.17041037   -22365.87058484
  entropy T*S    EENTRO =        -0.01396371
  eigenvalues    EBANDS =     -2702.11678174
  atomic energy  EATOM  =      7972.48291802
  Solvation  Ediel_sol  =         0.00000000
  ---------------------------------------------------
  free energy    TOTEN  =      -479.40053979 eV

  energy without entropy =     -479.38657608  energy(sigma->0) =     -479.39355793


--------------------------------------------------------------------------------------------------------




----------------------------------------- Iteration    1(  32)  ---------------------------------------


    POTLOK:  cpu time    1.0836: real time    1.0836
    SETDIJ:  cpu time    1.0306: real time    1.0307
     EDDAV:  cpu time   23.1874: real time   23.1895
       DOS:  cpu time    0.0005: real time    0.0005
    CHARGE:  cpu time    3.0252: real time    3.0254
    MIXING:  cpu time    0.0725: real time    0.0725
    --------------------------------------------
      LOOP:  cpu time   28.4000: real time   28.4058

 eigenvalue-minimisations  :  2104
 total energy-change (2. order) :-0.1522778E-04  (-0.1819555E-07)
 number of electron     219.0000000 magnetization       0.5555890
 augmentation part        4.7484413 magnetization      -0.0086468

 Broyden mixing:
  rms(total) = 0.18324E-04    rms(broyden)= 0.15711E-04
  rms(prec ) = 0.20777E-04
  weight for this iteration     100.00
  WARNING: grid for Broyden might be to small

 eigenvalues of (default mixing * dielectric matrix)
  average eigenvalue GAMMA=   2.4612
 14.8623  9.9770  6.9797  4.9010  3.6833  2.7435  2.3702  2.3702  2.0313  1.4844
  1.4844  1.3668  1.3668  0.9837  0.9837  1.0124  0.9619  0.8903  0.8077  0.7304
  0.6960  0.6628  0.6379  0.6379  0.6181  0.6181  0.5898

 Free energy of the ion-electron system (eV)
  ---------------------------------------------------
  alpha Z        PSCENC =        59.51446491
  Ewald energy   TEWEN  =     59557.29111492
  -Hartree energ DENC   =    -66050.49652575
  -exchange      EXHF   =         0.00000000
  -V(xc)+E(xc)   XCENC  =       663.62537294
  PAW double counting   =     22386.16665815   -22365.86686224
  entropy T*S    EENTRO =        -0.01396371
  eigenvalues    EBANDS =     -2702.10373226
  atomic energy  EATOM  =      7972.48291802
  Solvation  Ediel_sol  =         0.00000000
  ---------------------------------------------------
  free energy    TOTEN  =      -479.40055501 eV

  energy without entropy =     -479.38659130  energy(sigma->0) =     -479.39357316


--------------------------------------------------------------------------------------------------------




----------------------------------------- Iteration    1(  33)  ---------------------------------------


    POTLOK:  cpu time    1.0211: real time    1.0212
    SETDIJ:  cpu time    1.0368: real time    1.0368
     EDDAV:  cpu time   22.6914: real time   22.6936
       DOS:  cpu time    0.0005: real time    0.0005
    CHARGE:  cpu time    3.0501: real time    3.0503
    MIXING:  cpu time    0.0496: real time    0.0496
    --------------------------------------------
      LOOP:  cpu time   27.8500: real time   27.8559

 eigenvalue-minimisations  :  2036
 total energy-change (2. order) :-0.9678612E-05  (-0.9732054E-08)
 number of electron     219.0000000 magnetization       0.5555703
 augmentation part        4.7484405 magnetization      -0.0086657

 Broyden mixing:
  rms(total) = 0.13169E-04    rms(broyden)= 0.91936E-05
  rms(prec ) = 0.11709E-04
  weight for this iteration     100.00
  WARNING: grid for Broyden might be to small

 eigenvalues of (default mixing * dielectric matrix)
  average eigenvalue GAMMA=   2.4600
 14.8677  9.9937  7.2770  5.2636  3.9302  2.9353  2.4391  2.4391  2.0096  1.5894
  1.5894  1.3835  1.3835  1.1161  0.9865  0.9865  0.9532  0.9532  0.8443  0.7767
  0.7209  0.6873  0.6591  0.6382  0.6308  0.6168  0.6189  0.5890

 Free energy of the ion-electron system (eV)
  ---------------------------------------------------
  alpha Z        PSCENC =        59.51446491
  Ewald energy   TEWEN  =     59557.29111492
  -Hartree energ DENC   =    -66050.50618010
  -exchange      EXHF   =         0.00000000
  -V(xc)+E(xc)   XCENC  =       663.62536782
  PAW double counting   =     22386.16273929   -22365.86296668
  entropy T*S    EENTRO =        -0.01396371
  eigenvalues    EBANDS =     -2702.09405918
  atomic energy  EATOM  =      7972.48291802
  Solvation  Ediel_sol  =         0.00000000
  ---------------------------------------------------
  free energy    TOTEN  =      -479.40056469 eV

  energy without entropy =     -479.38660098  energy(sigma->0) =     -479.39358284


--------------------------------------------------------------------------------------------------------




----------------------------------------- Iteration    1(  34)  ---------------------------------------


    POTLOK:  cpu time    1.0232: real time    1.0233
    SETDIJ:  cpu time    1.0351: real time    1.0352
     EDDAV:  cpu time   22.6532: real time   22.6553
       DOS:  cpu time    0.0005: real time    0.0005
    CHARGE:  cpu time    2.9955: real time    2.9965
    MIXING:  cpu time    0.0647: real time    0.0647
    --------------------------------------------
      LOOP:  cpu time   27.7726: real time   27.7783

 eigenvalue-minimisations  :  2032
 total energy-change (2. order) :-0.3177864E-05  (-0.2120389E-08)
 number of electron     219.0000000 magnetization       0.5555620
 augmentation part        4.7484398 magnetization      -0.0086741

 Broyden mixing:
  rms(total) = 0.10991E-04    rms(broyden)= 0.56466E-05
  rms(prec ) = 0.71767E-05
  weight for this iteration     100.00
  WARNING: grid for Broyden might be to small

 eigenvalues of (default mixing * dielectric matrix)
  average eigenvalue GAMMA=   2.4582
 14.8715 10.0081  7.5825  5.6016  4.1076  3.1056  2.4668  2.4668  1.9400  1.9400
  1.4047  1.4047  1.4709  1.3438  0.9795  0.9795  1.0114  1.0114  0.8788  0.8378
  0.7463  0.7102  0.6786  0.6532  0.6399  0.6271  0.6185  0.6138  0.5884

 Free energy of the ion-electron system (eV)
  ---------------------------------------------------
  alpha Z        PSCENC =        59.51446491
  Ewald energy   TEWEN  =     59557.29111492
  -Hartree energ DENC   =    -66050.51049739
  -exchange      EXHF   =         0.00000000
  -V(xc)+E(xc)   XCENC  =       663.62536814
  PAW double counting   =     22386.16324553   -22365.86347475
  entropy T*S    EENTRO =        -0.01396371
  eigenvalues    EBANDS =     -2702.08974354
  atomic energy  EATOM  =      7972.48291802
  Solvation  Ediel_sol  =         0.00000000
  ---------------------------------------------------
  free energy    TOTEN  =      -479.40056787 eV

  energy without entropy =     -479.38660416  energy(sigma->0) =     -479.39358602


--------------------------------------------------------------------------------------------------------




----------------------------------------- Iteration    1(  35)  ---------------------------------------


    POTLOK:  cpu time    1.0236: real time    1.0237
    SETDIJ:  cpu time    1.0310: real time    1.0311
     EDDAV:  cpu time   22.4579: real time   22.4597
       DOS:  cpu time    0.0005: real time    0.0005
    CHARGE:  cpu time    3.0084: real time    3.0088
    MIXING:  cpu time    0.0629: real time    0.0629
    --------------------------------------------
      LOOP:  cpu time   27.5849: real time   27.5904

 eigenvalue-minimisations  :  2008
 total energy-change (2. order) :-0.1557526E-05  (-0.5035473E-09)
 number of electron     219.0000000 magnetization       0.5555598
 augmentation part        4.7484395 magnetization      -0.0086764

 Broyden mixing:
  rms(total) = 0.99622E-05    rms(broyden)= 0.32149E-05
  rms(prec ) = 0.41381E-05
  weight for this iteration     100.00
  WARNING: grid for Broyden might be to small

 eigenvalues of (default mixing * dielectric matrix)
  average eigenvalue GAMMA=   2.4564
 14.8734 10.0229  7.8890  5.8982  4.2559  3.2571  2.5044  2.5044  2.0815  2.0815
  1.5245  1.5245  1.3830  1.3830  1.0680  1.0680  0.9909  0.9909  0.8894  0.8894
  0.7866  0.7317  0.6997  0.6672  0.6498  0.6300  0.6300  0.6154  0.6139  0.5881

 Free energy of the ion-electron system (eV)
  ---------------------------------------------------
  alpha Z        PSCENC =        59.51446491
  Ewald energy   TEWEN  =     59557.29111492
  -Hartree energ DENC   =    -66050.51320240
  -exchange      EXHF   =         0.00000000
  -V(xc)+E(xc)   XCENC  =       663.62537267
  PAW double counting   =     22386.16295871   -22365.86318370
  entropy T*S    EENTRO =        -0.01396371
  eigenvalues    EBANDS =     -2702.08704886
  atomic energy  EATOM  =      7972.48291802
  Solvation  Ediel_sol  =         0.00000000
  ---------------------------------------------------
  free energy    TOTEN  =      -479.40056943 eV

  energy without entropy =     -479.38660572  energy(sigma->0) =     -479.39358757


--------------------------------------------------------------------------------------------------------




----------------------------------------- Iteration    1(  36)  ---------------------------------------


    POTLOK:  cpu time    1.0283: real time    1.0284
    SETDIJ:  cpu time    1.0254: real time    1.0254
     EDDAV:  cpu time   22.1181: real time   22.1199
       DOS:  cpu time    0.0005: real time    0.0005
    --------------------------------------------
      LOOP:  cpu time   24.1726: real time   24.1772

 eigenvalue-minimisations  :  1960
 total energy-change (2. order) :-0.5472557E-06  ( 0.8346831E-09)
 number of electron     219.0000000 magnetization       0.5555598
 augmentation part        4.7484395 magnetization      -0.0086764

 Free energy of the ion-electron system (eV)
  ---------------------------------------------------
  alpha Z        PSCENC =        59.51446491
  Ewald energy   TEWEN  =     59557.29111492
  -Hartree energ DENC   =    -66050.51430353
  -exchange      EXHF   =         0.00000000
  -V(xc)+E(xc)   XCENC  =       663.62537626
  PAW double counting   =     22386.16126492   -22365.86148632
  entropy T*S    EENTRO =        -0.01396371
  eigenvalues    EBANDS =     -2702.08595547
  atomic energy  EATOM  =      7972.48291802
  Solvation  Ediel_sol  =         0.00000000
  ---------------------------------------------------
  free energy    TOTEN  =      -479.40056997 eV

  energy without entropy =     -479.38660627  energy(sigma->0) =     -479.39358812


--------------------------------------------------------------------------------------------------------




 average (electrostatic) potential at core
  the test charge radii are     0.6991  0.7079  0.9892
  (the norm of the test charge is              1.0000)
       1 -58.5837       2 -58.5621       3 -58.5747       4 -58.6334       5 -58.6060
       6 -58.8731       7 -58.6661       8 -58.7679       9 -58.6351      10 -58.5779
      11 -58.5618      12 -58.6216      13 -58.5735      14 -58.5608      15 -58.5732
      16 -58.6061      17 -58.5681      18 -58.6374      19 -58.5672      20 -58.5711
      21 -58.5638      22 -58.5678      23 -58.5503      24 -58.5709      25 -58.6003
      26 -58.5749      27 -58.6021      28 -58.5808      29 -58.5589      30 -58.5799
      31 -58.5665      32 -58.6278      33 -58.6559      34 -58.7493      35 -58.9451
      36 -58.7033      37 -58.6744      38 -58.5752      39 -58.8686      40 -58.5768
      41 -58.5751      42 -58.6034      43 -58.6051      44 -58.8572      45 -58.8167
      46 -58.9831      47 -58.9544      48 -58.7084      49 -58.6843      50 -58.5955
      51 -69.1445      52 -92.3612      53 -92.1819      54 -92.1042      55 -92.2798
 
 
 
 E-fermi :  -3.0950     XC(G=0):  -1.8612     alpha+bet : -1.5570


 spin component 1

 k-point     1 :       0.0000    0.0000    0.0000
  band No.  band energies     occupation 
      1     -50.0677      1.00000
      2     -22.8475      1.00000
      3     -22.0504      1.00000
      4     -21.8945      1.00000
      5     -21.8932      1.00000
      6     -21.8108      1.00000
      7     -21.8069      1.00000
      8     -21.7864      1.00000
      9     -20.1003      1.00000
     10     -20.0420      1.00000
     11     -20.0347      1.00000
     12     -19.9972      1.00000
     13     -19.9953      1.00000
     14     -19.9809      1.00000
     15     -19.1555      1.00000
     16     -19.1295      1.00000
     17     -19.1190      1.00000
     18     -19.1013      1.00000
     19     -19.0854      1.00000
     20     -19.0790      1.00000
     21     -17.0000      1.00000
     22     -16.9758      1.00000
     23     -16.9495      1.00000
     24     -16.9306      1.00000
     25     -16.8775      1.00000
     26     -16.8736      1.00000
     27     -15.9943      1.00000
     28     -15.9822      1.00000
     29     -15.9717      1.00000
     30     -15.9366      1.00000
     31     -15.9359      1.00000
     32     -15.9279      1.00000
     33     -14.6119      1.00000
     34     -14.6089      1.00000
     35     -14.6030      1.00000
     36     -14.5834      1.00000
     37     -14.5799      1.00000
     38     -14.5768      1.00000
     39     -13.5700      1.00000
     40     -12.2427      1.00000
     41     -12.2393      1.00000
     42     -12.2125      1.00000
     43     -12.2018      1.00000
     44     -12.1788      1.00000
     45     -12.1740      1.00000
     46     -12.1448      1.00000
     47     -12.1426      1.00000
     48     -12.0793      1.00000
     49     -12.0751      1.00000
     50     -12.0656      1.00000
     51     -12.0627      1.00000
     52     -10.9648      1.00000
     53     -10.7501      1.00000
     54     -10.7441      1.00000
     55     -10.7228      1.00000
     56     -10.7219      1.00000
     57     -10.7197      1.00000
     58     -10.7102      1.00000
     59     -10.5833      1.00000
     60     -10.0418      1.00000
     61      -9.8328      1.00000
     62      -9.8251      1.00000
     63      -9.7133      1.00000
     64      -9.7089      1.00000
     65      -9.6873      1.00000
     66      -9.4952      1.00000
     67      -9.4920      1.00000
     68      -9.4705      1.00000
     69      -9.4142      1.00000
     70      -9.4063      1.00000
     71      -9.3936      1.00000
     72      -9.3914      1.00000
     73      -9.3869      1.00000
     74      -9.3828      1.00000
     75      -9.3566      1.00000
     76      -9.3564      1.00000
     77      -9.3285      1.00000
     78      -8.6638      1.00000
     79      -7.8112      1.00000
     80      -7.7990      1.00000
     81      -7.7891      1.00000
     82      -7.7825      1.00000
     83      -7.7466      1.00000
     84      -7.7412      1.00000
     85      -7.7304      1.00000
     86      -7.7160      1.00000
     87      -7.6881      1.00000
     88      -7.6233      1.00000
     89      -7.6154      1.00000
     90      -7.5953      1.00000
     91      -6.9806      1.00000
     92      -6.8280      1.00000
     93      -6.8068      1.00000
     94      -6.7654      1.00000
     95      -6.7143      1.00000
     96      -6.6910      1.00000
     97      -6.6842      1.00000
     98      -6.2634      1.00000
     99      -6.2619      1.00000
    100      -5.3410      1.00000
    101      -4.9796      1.00000
    102      -4.8494      1.00000
    103      -4.8416      1.00000
    104      -4.7807      1.00000
    105      -4.7458      1.00000
    106      -4.6821      1.00000
    107      -4.6734      1.00000
    108      -4.4083      1.00000
    109      -4.1001      1.00000
    110      -3.1011      0.56832
    111      -2.0849      0.00000
    112      -2.0688      0.00000
    113      -1.9828      0.00000
    114      -1.9366      0.00000
    115      -1.9035      0.00000
    116      -1.8683      0.00000
    117      -1.6841      0.00000
    118      -1.5757      0.00000
    119      -0.6355      0.00000
    120      -0.2312      0.00000
    121      -0.1655      0.00000
    122      -0.1241      0.00000
    123      -0.0312      0.00000
    124      -0.0186      0.00000
    125      -0.0170      0.00000
    126       0.0214      0.00000
    127       0.3917      0.00000
    128       0.6314      0.00000
    129       0.8599      0.00000
    130       0.9195      0.00000
    131       1.1752      0.00000
    132       1.2352      0.00000
    133       1.2951      0.00000
    134       1.3709      0.00000
    135       1.4269      0.00000
    136       1.4871      0.00000
    137       1.5003      0.00000
    138       1.5808      0.00000
    139       1.6349      0.00000
    140       1.6751      0.00000

 k-point     2 :       0.3333   -0.0000    0.0000
  band No.  band energies     occupation 
      1     -50.0677      1.00000
      2     -22.7545      1.00000
      3     -22.4084      1.00000
      4     -22.0920      1.00000
      5     -22.0630      1.00000
      6     -21.4916      1.00000
      7     -21.4313      1.00000
      8     -21.1281      1.00000
      9     -20.8686      1.00000
     10     -20.8131      1.00000
     11     -20.2140      1.00000
     12     -19.9355      1.00000
     13     -19.9220      1.00000
     14     -19.6071      1.00000
     15     -19.6002      1.00000
     16     -19.0529      1.00000
     17     -18.9993      1.00000
     18     -18.4394      1.00000
     19     -18.4303      1.00000
     20     -17.9416      1.00000
     21     -17.8720      1.00000
     22     -17.8544      1.00000
     23     -17.6220      1.00000
     24     -17.6148      1.00000
     25     -16.8224      1.00000
     26     -16.8115      1.00000
     27     -16.1150      1.00000
     28     -15.8657      1.00000
     29     -15.8611      1.00000
     30     -15.3560      1.00000
     31     -15.3449      1.00000
     32     -15.3023      1.00000
     33     -15.2897      1.00000
     34     -14.9294      1.00000
     35     -14.8857      1.00000
     36     -13.7130      1.00000
     37     -13.7078      1.00000
     38     -13.5703      1.00000
     39     -13.5068      1.00000
     40     -13.4615      1.00000
     41     -13.2272      1.00000
     42     -13.2185      1.00000
     43     -12.8903      1.00000
     44     -12.7706      1.00000
     45     -12.7653      1.00000
     46     -12.0029      1.00000
     47     -11.9659      1.00000
     48     -11.5569      1.00000
     49     -11.5344      1.00000
     50     -11.1827      1.00000
     51     -11.1709      1.00000
     52     -11.1201      1.00000
     53     -10.9040      1.00000
     54     -10.8940      1.00000
     55     -10.8563      1.00000
     56     -10.5838      1.00000
     57     -10.4353      1.00000
     58     -10.2757      1.00000
     59     -10.2629      1.00000
     60     -10.2239      1.00000
     61     -10.2209      1.00000
     62     -10.0589      1.00000
     63     -10.0185      1.00000
     64      -9.9085      1.00000
     65      -9.9026      1.00000
     66      -9.6462      1.00000
     67      -9.6196      1.00000
     68      -9.6093      1.00000
     69      -9.5215      1.00000
     70      -9.5192      1.00000
     71      -9.3672      1.00000
     72      -9.2753      1.00000
     73      -9.0237      1.00000
     74      -8.9290      1.00000
     75      -8.6970      1.00000
     76      -8.6946      1.00000
     77      -8.6654      1.00000
     78      -8.6160      1.00000
     79      -8.5531      1.00000
     80      -8.4689      1.00000
     81      -8.4296      1.00000
     82      -8.3967      1.00000
     83      -7.9019      1.00000
     84      -7.8501      1.00000
     85      -7.6619      1.00000
     86      -7.6526      1.00000
     87      -7.5956      1.00000
     88      -7.5630      1.00000
     89      -7.2324      1.00000
     90      -7.2286      1.00000
     91      -7.0570      1.00000
     92      -6.9769      1.00000
     93      -6.6871      1.00000
     94      -6.6326      1.00000
     95      -6.5312      1.00000
     96      -6.4845      1.00000
     97      -6.1222      1.00000
     98      -6.1062      1.00000
     99      -5.8083      1.00000
    100      -5.5138      1.00000
    101      -5.4454      1.00000
    102      -5.3512      1.00000
    103      -5.3360      1.00000
    104      -5.3321      1.00000
    105      -4.9636      1.00000
    106      -4.4385      1.00000
    107      -4.3368      1.00000
    108      -4.3209      1.00000
    109      -4.1027      1.00000
    110      -3.0999      0.55451
    111      -2.2568      0.00000
    112      -2.2030      0.00000
    113      -1.7402      0.00000
    114      -1.6276      0.00000
    115      -1.5455      0.00000
    116      -1.4954      0.00000
    117      -1.3895      0.00000
    118      -1.1844      0.00000
    119      -1.1608      0.00000
    120      -0.8776      0.00000
    121      -0.8539      0.00000
    122      -0.6140      0.00000
    123       0.1112      0.00000
    124       0.1695      0.00000
    125       0.2318      0.00000
    126       0.3923      0.00000
    127       0.5460      0.00000
    128       0.6729      0.00000
    129       0.7186      0.00000
    130       0.7286      0.00000
    131       0.9115      0.00000
    132       1.0533      0.00000
    133       1.1357      0.00000
    134       1.2479      0.00000
    135       1.3752      0.00000
    136       1.3995      0.00000
    137       1.4294      0.00000
    138       1.5068      0.00000
    139       1.5242      0.00000
    140       1.6622      0.00000

 k-point     3 :       0.0000    0.3333    0.0000
  band No.  band energies     occupation 
      1     -50.0677      1.00000
      2     -22.7544      1.00000
      3     -22.4088      1.00000
      4     -22.0910      1.00000
      5     -22.0635      1.00000
      6     -21.4914      1.00000
      7     -21.4319      1.00000
      8     -21.1279      1.00000
      9     -20.8681      1.00000
     10     -20.8137      1.00000
     11     -20.2138      1.00000
     12     -19.9349      1.00000
     13     -19.9222      1.00000
     14     -19.6071      1.00000
     15     -19.6006      1.00000
     16     -19.0524      1.00000
     17     -18.9999      1.00000
     18     -18.4393      1.00000
     19     -18.4305      1.00000
     20     -17.9415      1.00000
     21     -17.8713      1.00000
     22     -17.8550      1.00000
     23     -17.6220      1.00000
     24     -17.6148      1.00000
     25     -16.8226      1.00000
     26     -16.8113      1.00000
     27     -16.1152      1.00000
     28     -15.8656      1.00000
     29     -15.8613      1.00000
     30     -15.3556      1.00000
     31     -15.3456      1.00000
     32     -15.3009      1.00000
     33     -15.2905      1.00000
     34     -14.9288      1.00000
     35     -14.8865      1.00000
     36     -13.7127      1.00000
     37     -13.7079      1.00000
     38     -13.5702      1.00000
     39     -13.5062      1.00000
     40     -13.4626      1.00000
     41     -13.2270      1.00000
     42     -13.2190      1.00000
     43     -12.8905      1.00000
     44     -12.7702      1.00000
     45     -12.7653      1.00000
     46     -12.0022      1.00000
     47     -11.9658      1.00000
     48     -11.5566      1.00000
     49     -11.5348      1.00000
     50     -11.1826      1.00000
     51     -11.1710      1.00000
     52     -11.1203      1.00000
     53     -10.9042      1.00000
     54     -10.8943      1.00000
     55     -10.8560      1.00000
     56     -10.5838      1.00000
     57     -10.4356      1.00000
     58     -10.2755      1.00000
     59     -10.2627      1.00000
     60     -10.2246      1.00000
     61     -10.2208      1.00000
     62     -10.0578      1.00000
     63     -10.0196      1.00000
     64      -9.9083      1.00000
     65      -9.9030      1.00000
     66      -9.6460      1.00000
     67      -9.6197      1.00000
     68      -9.6091      1.00000
     69      -9.5217      1.00000
     70      -9.5188      1.00000
     71      -9.3661      1.00000
     72      -9.2764      1.00000
     73      -9.0237      1.00000
     74      -8.9293      1.00000
     75      -8.7034      1.00000
     76      -8.6875      1.00000
     77      -8.6661      1.00000
     78      -8.6129      1.00000
     79      -8.5548      1.00000
     80      -8.4684      1.00000
     81      -8.4295      1.00000
     82      -8.3972      1.00000
     83      -7.9007      1.00000
     84      -7.8504      1.00000
     85      -7.6622      1.00000
     86      -7.6527      1.00000
     87      -7.5967      1.00000
     88      -7.5643      1.00000
     89      -7.2344      1.00000
     90      -7.2281      1.00000
     91      -7.0564      1.00000
     92      -6.9745      1.00000
     93      -6.6878      1.00000
     94      -6.6318      1.00000
     95      -6.5322      1.00000
     96      -6.4843      1.00000
     97      -6.1221      1.00000
     98      -6.1064      1.00000
     99      -5.8088      1.00000
    100      -5.5097      1.00000
    101      -5.4470      1.00000
    102      -5.3540      1.00000
    103      -5.3376      1.00000
    104      -5.3303      1.00000
    105      -4.9624      1.00000
    106      -4.4193      1.00000
    107      -4.3570      1.00000
    108      -4.3230      1.00000
    109      -4.1007      1.00000
    110      -3.1009      0.56619
    111      -2.2495      0.00000
    112      -2.2058      0.00000
    113      -1.7414      0.00000
    114      -1.6415      0.00000
    115      -1.5284      0.00000
    116      -1.4731      0.00000
    117      -1.4216      0.00000
    118      -1.1851      0.00000
    119      -1.1618      0.00000
    120      -0.8770      0.00000
    121      -0.8426      0.00000
    122      -0.6120      0.00000
    123       0.1028      0.00000
    124       0.1637      0.00000
    125       0.2292      0.00000
    126       0.3662      0.00000
    127       0.5981      0.00000
    128       0.6709      0.00000
    129       0.7170      0.00000
    130       0.7589      0.00000
    131       0.9095      0.00000
    132       0.9939      0.00000
    133       1.1416      0.00000
    134       1.2372      0.00000
    135       1.3737      0.00000
    136       1.4002      0.00000
    137       1.4215      0.00000
    138       1.4941      0.00000
    139       1.5671      0.00000
    140       1.6825      0.00000

 k-point     4 :       0.3333    0.3333    0.0000
  band No.  band energies     occupation 
      1     -50.0677      1.00000
      2     -22.6535      1.00000
      3     -22.4485      1.00000
      4     -22.4435      1.00000
      5     -21.5972      1.00000
      6     -21.5480      1.00000
      7     -21.5449      1.00000
      8     -20.7203      1.00000
      9     -20.6697      1.00000
     10     -20.6636      1.00000
     11     -20.5762      1.00000
     12     -20.5721      1.00000
     13     -20.5671      1.00000
     14     -18.9126      1.00000
     15     -18.8890      1.00000
     16     -18.8458      1.00000
     17     -18.7790      1.00000
     18     -18.7612      1.00000
     19     -18.7585      1.00000
     20     -17.9891      1.00000
     21     -17.9820      1.00000
     22     -17.9251      1.00000
     23     -17.4703      1.00000
     24     -17.4646      1.00000
     25     -17.4569      1.00000
     26     -16.4622      1.00000
     27     -16.4534      1.00000
     28     -16.4487      1.00000
     29     -15.8590      1.00000
     30     -15.8565      1.00000
     31     -14.4331      1.00000
     32     -14.4283      1.00000
     33     -14.4022      1.00000
     34     -14.3851      1.00000
     35     -14.3563      1.00000
     36     -14.3523      1.00000
     37     -14.2786      1.00000
     38     -14.2766      1.00000
     39     -14.2102      1.00000
     40     -13.8404      1.00000
     41     -13.5700      1.00000
     42     -12.7631      1.00000
     43     -12.6462      1.00000
     44     -12.6414      1.00000
     45     -12.0206      1.00000
     46     -12.0132      1.00000
     47     -12.0033      1.00000
     48     -11.9645      1.00000
     49     -11.9612      1.00000
     50     -11.9501      1.00000
     51     -10.7688      1.00000
     52     -10.7452      1.00000
     53     -10.7188      1.00000
     54     -10.7086      1.00000
     55     -10.6255      1.00000
     56     -10.6232      1.00000
     57     -10.6079      1.00000
     58     -10.5810      1.00000
     59     -10.4722      1.00000
     60     -10.4664      1.00000
     61     -10.0176      1.00000
     62     -10.0109      1.00000
     63     -10.0080      1.00000
     64      -9.7872      1.00000
     65      -9.7807      1.00000
     66      -9.7648      1.00000
     67      -9.4851      1.00000
     68      -9.4222      1.00000
     69      -9.4101      1.00000
     70      -9.1248      1.00000
     71      -9.1129      1.00000
     72      -9.1046      1.00000
     73      -9.0734      1.00000
     74      -9.0671      1.00000
     75      -9.0632      1.00000
     76      -8.6769      1.00000
     77      -8.6411      1.00000
     78      -8.6359      1.00000
     79      -8.6208      1.00000
     80      -8.4806      1.00000
     81      -8.4247      1.00000
     82      -8.4002      1.00000
     83      -8.2878      1.00000
     84      -8.2809      1.00000
     85      -8.2723      1.00000
     86      -7.4553      1.00000
     87      -7.4485      1.00000
     88      -7.3642      1.00000
     89      -6.9802      1.00000
     90      -6.9530      1.00000
     91      -6.9477      1.00000
     92      -6.8940      1.00000
     93      -6.5552      1.00000
     94      -6.5422      1.00000
     95      -6.3993      1.00000
     96      -6.3550      1.00000
     97      -6.3106      1.00000
     98      -6.3074      1.00000
     99      -5.6214      1.00000
    100      -5.6120      1.00000
    101      -5.4954      1.00000
    102      -5.3858      1.00000
    103      -5.3798      1.00000
    104      -5.3692      1.00000
    105      -5.3280      1.00000
    106      -4.9620      1.00000
    107      -4.4152      1.00000
    108      -4.1035      1.00000
    109      -3.2666      1.00000
    110      -3.2555      1.00000
    111      -3.0986      0.54014
    112      -1.7836      0.00000
    113      -1.6886      0.00000
    114      -1.6567      0.00000
    115      -1.5888      0.00000
    116      -1.5323      0.00000
    117      -1.0914      0.00000
    118      -1.0836      0.00000
    119      -0.9847      0.00000
    120      -0.6331      0.00000
    121      -0.3957      0.00000
    122      -0.3570      0.00000
    123      -0.2203      0.00000
    124      -0.2072      0.00000
    125      -0.1473      0.00000
    126      -0.1466      0.00000
    127       0.2551      0.00000
    128       0.3767      0.00000
    129       0.4611      0.00000
    130       0.6607      0.00000
    131       0.9078      0.00000
    132       1.0171      0.00000
    133       1.0692      0.00000
    134       1.2823      0.00000
    135       1.4009      0.00000
    136       1.5493      0.00000
    137       1.6258      0.00000
    138       1.6861      0.00000
    139       1.7548      0.00000
    140       1.7781      0.00000

 k-point     5 :      -0.3333    0.3333    0.0000
  band No.  band energies     occupation 
      1     -50.0677      1.00000
      2     -22.7542      1.00000
      3     -22.4102      1.00000
      4     -22.0885      1.00000
      5     -22.0641      1.00000
      6     -21.4918      1.00000
      7     -21.4330      1.00000
      8     -21.1273      1.00000
      9     -20.8676      1.00000
     10     -20.8148      1.00000
     11     -20.2134      1.00000
     12     -19.9328      1.00000
     13     -19.9225      1.00000
     14     -19.6085      1.00000
     15     -19.6006      1.00000
     16     -19.0519      1.00000
     17     -19.0011      1.00000
     18     -18.4390      1.00000
     19     -18.4306      1.00000
     20     -17.9448      1.00000
     21     -17.8662      1.00000
     22     -17.8576      1.00000
     23     -17.6199      1.00000
     24     -17.6160      1.00000
     25     -16.8194      1.00000
     26     -16.8132      1.00000
     27     -16.1136      1.00000
     28     -15.8654      1.00000
     29     -15.8638      1.00000
     30     -15.3566      1.00000
     31     -15.3499      1.00000
     32     -15.2994      1.00000
     33     -15.2912      1.00000
     34     -14.9232      1.00000
     35     -14.8887      1.00000
     36     -13.7126      1.00000
     37     -13.7096      1.00000
     38     -13.5700      1.00000
     39     -13.4992      1.00000
     40     -13.4664      1.00000
     41     -13.2266      1.00000
     42     -13.2171      1.00000
     43     -12.8894      1.00000
     44     -12.7712      1.00000
     45     -12.7672      1.00000
     46     -12.0053      1.00000
     47     -11.9659      1.00000
     48     -11.5588      1.00000
     49     -11.5361      1.00000
     50     -11.1804      1.00000
     51     -11.1705      1.00000
     52     -11.1187      1.00000
     53     -10.9057      1.00000
     54     -10.8918      1.00000
     55     -10.8555      1.00000
     56     -10.5836      1.00000
     57     -10.4372      1.00000
     58     -10.2765      1.00000
     59     -10.2582      1.00000
     60     -10.2238      1.00000
     61     -10.2217      1.00000
     62     -10.0523      1.00000
     63     -10.0236      1.00000
     64      -9.9106      1.00000
     65      -9.9018      1.00000
     66      -9.6481      1.00000
     67      -9.6197      1.00000
     68      -9.6102      1.00000
     69      -9.5200      1.00000
     70      -9.5180      1.00000
     71      -9.3644      1.00000
     72      -9.2814      1.00000
     73      -9.0246      1.00000
     74      -8.9253      1.00000
     75      -8.6995      1.00000
     76      -8.6787      1.00000
     77      -8.6630      1.00000
     78      -8.6378      1.00000
     79      -8.5503      1.00000
     80      -8.4696      1.00000
     81      -8.4291      1.00000
     82      -8.3972      1.00000
     83      -7.8985      1.00000
     84      -7.8473      1.00000
     85      -7.6597      1.00000
     86      -7.6524      1.00000
     87      -7.5947      1.00000
     88      -7.5708      1.00000
     89      -7.2369      1.00000
     90      -7.2328      1.00000
     91      -7.0569      1.00000
     92      -6.9702      1.00000
     93      -6.6862      1.00000
     94      -6.6266      1.00000
     95      -6.5347      1.00000
     96      -6.4856      1.00000
     97      -6.1194      1.00000
     98      -6.1152      1.00000
     99      -5.7956      1.00000
    100      -5.5018      1.00000
    101      -5.4635      1.00000
    102      -5.3526      1.00000
    103      -5.3347      1.00000
    104      -5.3286      1.00000
    105      -4.9626      1.00000
    106      -4.4337      1.00000
    107      -4.3517      1.00000
    108      -4.3234      1.00000
    109      -4.0984      1.00000
    110      -3.0999      0.55500
    111      -2.2281      0.00000
    112      -2.2163      0.00000
    113      -1.7356      0.00000
    114      -1.6190      0.00000
    115      -1.5447      0.00000
    116      -1.4915      0.00000
    117      -1.4299      0.00000
    118      -1.1835      0.00000
    119      -1.1646      0.00000
    120      -0.8679      0.00000
    121      -0.8422      0.00000
    122      -0.6164      0.00000
    123       0.0857      0.00000
    124       0.1633      0.00000
    125       0.2220      0.00000
    126       0.3691      0.00000
    127       0.5723      0.00000
    128       0.7038      0.00000
    129       0.7170      0.00000
    130       0.8315      0.00000
    131       0.8657      0.00000
    132       0.9744      0.00000
    133       1.1884      0.00000
    134       1.2524      0.00000
    135       1.3081      0.00000
    136       1.3931      0.00000
    137       1.4131      0.00000
    138       1.4907      0.00000
    139       1.5321      0.00000
    140       1.6147      0.00000

 spin component 2

 k-point     1 :       0.0000    0.0000    0.0000
  band No.  band energies     occupation 
      1     -50.0639      1.00000
      2     -22.8475      1.00000
      3     -22.0503      1.00000
      4     -21.8945      1.00000
      5     -21.8932      1.00000
      6     -21.8108      1.00000
      7     -21.8069      1.00000
      8     -21.7864      1.00000
      9     -20.1002      1.00000
     10     -20.0420      1.00000
     11     -20.0347      1.00000
     12     -19.9971      1.00000
     13     -19.9953      1.00000
     14     -19.9808      1.00000
     15     -19.1555      1.00000
     16     -19.1295      1.00000
     17     -19.1189      1.00000
     18     -19.1013      1.00000
     19     -19.0854      1.00000
     20     -19.0790      1.00000
     21     -16.9999      1.00000
     22     -16.9758      1.00000
     23     -16.9495      1.00000
     24     -16.9306      1.00000
     25     -16.8775      1.00000
     26     -16.8736      1.00000
     27     -15.9943      1.00000
     28     -15.9821      1.00000
     29     -15.9716      1.00000
     30     -15.9366      1.00000
     31     -15.9359      1.00000
     32     -15.9279      1.00000
     33     -14.6118      1.00000
     34     -14.6089      1.00000
     35     -14.6030      1.00000
     36     -14.5833      1.00000
     37     -14.5799      1.00000
     38     -14.5768      1.00000
     39     -13.5012      1.00000
     40     -12.2426      1.00000
     41     -12.2393      1.00000
     42     -12.2125      1.00000
     43     -12.2018      1.00000
     44     -12.1788      1.00000
     45     -12.1739      1.00000
     46     -12.1447      1.00000
     47     -12.1426      1.00000
     48     -12.0793      1.00000
     49     -12.0751      1.00000
     50     -12.0656      1.00000
     51     -12.0626      1.00000
     52     -10.9645      1.00000
     53     -10.7501      1.00000
     54     -10.7439      1.00000
     55     -10.7228      1.00000
     56     -10.7219      1.00000
     57     -10.7197      1.00000
     58     -10.7102      1.00000
     59     -10.3780      1.00000
     60     -10.0413      1.00000
     61      -9.8327      1.00000
     62      -9.8250      1.00000
     63      -9.7133      1.00000
     64      -9.7089      1.00000
     65      -9.6873      1.00000
     66      -9.4951      1.00000
     67      -9.4920      1.00000
     68      -9.4705      1.00000
     69      -9.4142      1.00000
     70      -9.4063      1.00000
     71      -9.3936      1.00000
     72      -9.3914      1.00000
     73      -9.3869      1.00000
     74      -9.3828      1.00000
     75      -9.3566      1.00000
     76      -9.3564      1.00000
     77      -9.3285      1.00000
     78      -8.6591      1.00000
     79      -7.8111      1.00000
     80      -7.7989      1.00000
     81      -7.7889      1.00000
     82      -7.7825      1.00000
     83      -7.7463      1.00000
     84      -7.7411      1.00000
     85      -7.7298      1.00000
     86      -7.7158      1.00000
     87      -7.6880      1.00000
     88      -7.6233      1.00000
     89      -7.6153      1.00000
     90      -7.5953      1.00000
     91      -6.8487      1.00000
     92      -6.8268      1.00000
     93      -6.7732      1.00000
     94      -6.7649      1.00000
     95      -6.7142      1.00000
     96      -6.6890      1.00000
     97      -6.6841      1.00000
     98      -6.2634      1.00000
     99      -6.2618      1.00000
    100      -5.1579      1.00000
    101      -4.9185      1.00000
    102      -4.8492      1.00000
    103      -4.8269      1.00000
    104      -4.7806      1.00000
    105      -4.7456      1.00000
    106      -4.6821      1.00000
    107      -4.6734      1.00000
    108      -4.4116      1.00000
    109      -4.0173      1.00000
    110      -2.5863      0.00000
    111      -2.0833      0.00000
    112      -2.0672      0.00000
    113      -1.9805      0.00000
    114      -1.9365      0.00000
    115      -1.9028      0.00000
    116      -1.8680      0.00000
    117      -1.6801      0.00000
    118      -1.5137      0.00000
    119      -0.3446      0.00000
    120      -0.2300      0.00000
    121      -0.1438      0.00000
    122      -0.1181      0.00000
    123      -0.0312      0.00000
    124      -0.0180      0.00000
    125      -0.0165      0.00000
    126       0.0420      0.00000
    127       0.4158      0.00000
    128       0.6581      0.00000
    129       0.9314      0.00000
    130       0.9474      0.00000
    131       1.1969      0.00000
    132       1.2614      0.00000
    133       1.3075      0.00000
    134       1.3848      0.00000
    135       1.4424      0.00000
    136       1.5012      0.00000
    137       1.5963      0.00000
    138       1.6750      0.00000
    139       1.7032      0.00000
    140       1.7223      0.00000

 k-point     2 :       0.3333   -0.0000    0.0000
  band No.  band energies     occupation 
      1     -50.0639      1.00000
      2     -22.7545      1.00000
      3     -22.4084      1.00000
      4     -22.0920      1.00000
      5     -22.0630      1.00000
      6     -21.4916      1.00000
      7     -21.4312      1.00000
      8     -21.1281      1.00000
      9     -20.8686      1.00000
     10     -20.8130      1.00000
     11     -20.2140      1.00000
     12     -19.9355      1.00000
     13     -19.9220      1.00000
     14     -19.6071      1.00000
     15     -19.6002      1.00000
     16     -19.0529      1.00000
     17     -18.9993      1.00000
     18     -18.4393      1.00000
     19     -18.4303      1.00000
     20     -17.9416      1.00000
     21     -17.8720      1.00000
     22     -17.8543      1.00000
     23     -17.6220      1.00000
     24     -17.6148      1.00000
     25     -16.8224      1.00000
     26     -16.8115      1.00000
     27     -16.1150      1.00000
     28     -15.8656      1.00000
     29     -15.8611      1.00000
     30     -15.3559      1.00000
     31     -15.3449      1.00000
     32     -15.3023      1.00000
     33     -15.2897      1.00000
     34     -14.9293      1.00000
     35     -14.8857      1.00000
     36     -13.7129      1.00000
     37     -13.7078      1.00000
     38     -13.5097      1.00000
     39     -13.4986      1.00000
     40     -13.4615      1.00000
     41     -13.2272      1.00000
     42     -13.2185      1.00000
     43     -12.8903      1.00000
     44     -12.7705      1.00000
     45     -12.7653      1.00000
     46     -12.0029      1.00000
     47     -11.9658      1.00000
     48     -11.5569      1.00000
     49     -11.5344      1.00000
     50     -11.1827      1.00000
     51     -11.1709      1.00000
     52     -11.1200      1.00000
     53     -10.9040      1.00000
     54     -10.8940      1.00000
     55     -10.8556      1.00000
     56     -10.4394      1.00000
     57     -10.3743      1.00000
     58     -10.2754      1.00000
     59     -10.2629      1.00000
     60     -10.2239      1.00000
     61     -10.2209      1.00000
     62     -10.0588      1.00000
     63     -10.0184      1.00000
     64      -9.9085      1.00000
     65      -9.9026      1.00000
     66      -9.6461      1.00000
     67      -9.6196      1.00000
     68      -9.6093      1.00000
     69      -9.5215      1.00000
     70      -9.5192      1.00000
     71      -9.3671      1.00000
     72      -9.2752      1.00000
     73      -9.0236      1.00000
     74      -8.9290      1.00000
     75      -8.6955      1.00000
     76      -8.6939      1.00000
     77      -8.6653      1.00000
     78      -8.6138      1.00000
     79      -8.5527      1.00000
     80      -8.4689      1.00000
     81      -8.4296      1.00000
     82      -8.3967      1.00000
     83      -7.9017      1.00000
     84      -7.8501      1.00000
     85      -7.6619      1.00000
     86      -7.6526      1.00000
     87      -7.5953      1.00000
     88      -7.5626      1.00000
     89      -7.2320      1.00000
     90      -7.2284      1.00000
     91      -7.0569      1.00000
     92      -6.8128      1.00000
     93      -6.6871      1.00000
     94      -6.6281      1.00000
     95      -6.5311      1.00000
     96      -6.4845      1.00000
     97      -6.1221      1.00000
     98      -6.1061      1.00000
     99      -5.8081      1.00000
    100      -5.5119      1.00000
    101      -5.4450      1.00000
    102      -5.3506      1.00000
    103      -5.3336      1.00000
    104      -5.1518      1.00000
    105      -4.8907      1.00000
    106      -4.4401      1.00000
    107      -4.3374      1.00000
    108      -4.3212      1.00000
    109      -4.0200      1.00000
    110      -2.5844      0.00000
    111      -2.2560      0.00000
    112      -2.2020      0.00000
    113      -1.7342      0.00000
    114      -1.5941      0.00000
    115      -1.5317      0.00000
    116      -1.4851      0.00000
    117      -1.3823      0.00000
    118      -1.1842      0.00000
    119      -1.1606      0.00000
    120      -0.8764      0.00000
    121      -0.8493      0.00000
    122      -0.3010      0.00000
    123       0.1164      0.00000
    124       0.1807      0.00000
    125       0.2321      0.00000
    126       0.4110      0.00000
    127       0.5762      0.00000
    128       0.6896      0.00000
    129       0.7236      0.00000
    130       0.7424      0.00000
    131       0.9492      0.00000
    132       1.0808      0.00000
    133       1.1699      0.00000
    134       1.2784      0.00000
    135       1.3803      0.00000
    136       1.4026      0.00000
    137       1.4412      0.00000
    138       1.5214      0.00000
    139       1.5525      0.00000
    140       1.6729      0.00000

 k-point     3 :       0.0000    0.3333    0.0000
  band No.  band energies     occupation 
      1     -50.0639      1.00000
      2     -22.7544      1.00000
      3     -22.4088      1.00000
      4     -22.0910      1.00000
      5     -22.0635      1.00000
      6     -21.4914      1.00000
      7     -21.4319      1.00000
      8     -21.1279      1.00000
      9     -20.8680      1.00000
     10     -20.8137      1.00000
     11     -20.2138      1.00000
     12     -19.9349      1.00000
     13     -19.9222      1.00000
     14     -19.6071      1.00000
     15     -19.6006      1.00000
     16     -19.0523      1.00000
     17     -18.9999      1.00000
     18     -18.4392      1.00000
     19     -18.4304      1.00000
     20     -17.9414      1.00000
     21     -17.8713      1.00000
     22     -17.8550      1.00000
     23     -17.6220      1.00000
     24     -17.6148      1.00000
     25     -16.8226      1.00000
     26     -16.8113      1.00000
     27     -16.1152      1.00000
     28     -15.8655      1.00000
     29     -15.8612      1.00000
     30     -15.3555      1.00000
     31     -15.3456      1.00000
     32     -15.3008      1.00000
     33     -15.2905      1.00000
     34     -14.9287      1.00000
     35     -14.8865      1.00000
     36     -13.7127      1.00000
     37     -13.7079      1.00000
     38     -13.5085      1.00000
     39     -13.4991      1.00000
     40     -13.4626      1.00000
     41     -13.2270      1.00000
     42     -13.2190      1.00000
     43     -12.8905      1.00000
     44     -12.7702      1.00000
     45     -12.7653      1.00000
     46     -12.0022      1.00000
     47     -11.9658      1.00000
     48     -11.5566      1.00000
     49     -11.5348      1.00000
     50     -11.1826      1.00000
     51     -11.1710      1.00000
     52     -11.1202      1.00000
     53     -10.9041      1.00000
     54     -10.8943      1.00000
     55     -10.8553      1.00000
     56     -10.4390      1.00000
     57     -10.3751      1.00000
     58     -10.2753      1.00000
     59     -10.2627      1.00000
     60     -10.2245      1.00000
     61     -10.2208      1.00000
     62     -10.0576      1.00000
     63     -10.0195      1.00000
     64      -9.9083      1.00000
     65      -9.9029      1.00000
     66      -9.6460      1.00000
     67      -9.6197      1.00000
     68      -9.6090      1.00000
     69      -9.5217      1.00000
     70      -9.5188      1.00000
     71      -9.3660      1.00000
     72      -9.2764      1.00000
     73      -9.0237      1.00000
     74      -8.9293      1.00000
     75      -8.7021      1.00000
     76      -8.6866      1.00000
     77      -8.6660      1.00000
     78      -8.6104      1.00000
     79      -8.5545      1.00000
     80      -8.4684      1.00000
     81      -8.4295      1.00000
     82      -8.3972      1.00000
     83      -7.9005      1.00000
     84      -7.8503      1.00000
     85      -7.6622      1.00000
     86      -7.6527      1.00000
     87      -7.5964      1.00000
     88      -7.5641      1.00000
     89      -7.2336      1.00000
     90      -7.2280      1.00000
     91      -7.0564      1.00000
     92      -6.8090      1.00000
     93      -6.6877      1.00000
     94      -6.6288      1.00000
     95      -6.5320      1.00000
     96      -6.4843      1.00000
     97      -6.1219      1.00000
     98      -6.1063      1.00000
     99      -5.8087      1.00000
    100      -5.5088      1.00000
    101      -5.4465      1.00000
    102      -5.3508      1.00000
    103      -5.3336      1.00000
    104      -5.1533      1.00000
    105      -4.8893      1.00000
    106      -4.4220      1.00000
    107      -4.3564      1.00000
    108      -4.3231      1.00000
    109      -4.0184      1.00000
    110      -2.5854      0.00000
    111      -2.2490      0.00000
    112      -2.2054      0.00000
    113      -1.7352      0.00000
    114      -1.6082      0.00000
    115      -1.5152      0.00000
    116      -1.4614      0.00000
    117      -1.4142      0.00000
    118      -1.1848      0.00000
    119      -1.1618      0.00000
    120      -0.8760      0.00000
    121      -0.8409      0.00000
    122      -0.2949      0.00000
    123       0.1142      0.00000
    124       0.1696      0.00000
    125       0.2296      0.00000
    126       0.3861      0.00000
    127       0.6213      0.00000
    128       0.6920      0.00000
    129       0.7185      0.00000
    130       0.7809      0.00000
    131       0.9424      0.00000
    132       1.0355      0.00000
    133       1.1661      0.00000
    134       1.2752      0.00000
    135       1.3807      0.00000
    136       1.4030      0.00000
    137       1.4308      0.00000
    138       1.5066      0.00000
    139       1.5834      0.00000
    140       1.6669      0.00000

 k-point     4 :       0.3333    0.3333    0.0000
  band No.  band energies     occupation 
      1     -50.0639      1.00000
      2     -22.6534      1.00000
      3     -22.4485      1.00000
      4     -22.4435      1.00000
      5     -21.5972      1.00000
      6     -21.5480      1.00000
      7     -21.5448      1.00000
      8     -20.7203      1.00000
      9     -20.6697      1.00000
     10     -20.6636      1.00000
     11     -20.5762      1.00000
     12     -20.5721      1.00000
     13     -20.5671      1.00000
     14     -18.9125      1.00000
     15     -18.8889      1.00000
     16     -18.8457      1.00000
     17     -18.7790      1.00000
     18     -18.7612      1.00000
     19     -18.7585      1.00000
     20     -17.9890      1.00000
     21     -17.9820      1.00000
     22     -17.9251      1.00000
     23     -17.4703      1.00000
     24     -17.4646      1.00000
     25     -17.4569      1.00000
     26     -16.4622      1.00000
     27     -16.4534      1.00000
     28     -16.4487      1.00000
     29     -15.8589      1.00000
     30     -15.8564      1.00000
     31     -14.4330      1.00000
     32     -14.4283      1.00000
     33     -14.4022      1.00000
     34     -14.3851      1.00000
     35     -14.3563      1.00000
     36     -14.3523      1.00000
     37     -14.2785      1.00000
     38     -14.2765      1.00000
     39     -14.2102      1.00000
     40     -13.8403      1.00000
     41     -13.5012      1.00000
     42     -12.7631      1.00000
     43     -12.6461      1.00000
     44     -12.6414      1.00000
     45     -12.0206      1.00000
     46     -12.0132      1.00000
     47     -12.0033      1.00000
     48     -11.9645      1.00000
     49     -11.9612      1.00000
     50     -11.9500      1.00000
     51     -10.7684      1.00000
     52     -10.7439      1.00000
     53     -10.7187      1.00000
     54     -10.7081      1.00000
     55     -10.6255      1.00000
     56     -10.6232      1.00000
     57     -10.6079      1.00000
     58     -10.4724      1.00000
     59     -10.4680      1.00000
     60     -10.3751      1.00000
     61     -10.0175      1.00000
     62     -10.0108      1.00000
     63     -10.0079      1.00000
     64      -9.7872      1.00000
     65      -9.7807      1.00000
     66      -9.7648      1.00000
     67      -9.4850      1.00000
     68      -9.4221      1.00000
     69      -9.4101      1.00000
     70      -9.1247      1.00000
     71      -9.1129      1.00000
     72      -9.1045      1.00000
     73      -9.0734      1.00000
     74      -9.0671      1.00000
     75      -9.0631      1.00000
     76      -8.6728      1.00000
     77      -8.6410      1.00000
     78      -8.6358      1.00000
     79      -8.6208      1.00000
     80      -8.4804      1.00000
     81      -8.4241      1.00000
     82      -8.3998      1.00000
     83      -8.2877      1.00000
     84      -8.2809      1.00000
     85      -8.2723      1.00000
     86      -7.4553      1.00000
     87      -7.4485      1.00000
     88      -7.3642      1.00000
     89      -6.9535      1.00000
     90      -6.9478      1.00000
     91      -6.8940      1.00000
     92      -6.8134      1.00000
     93      -6.5548      1.00000
     94      -6.5390      1.00000
     95      -6.3990      1.00000
     96      -6.3550      1.00000
     97      -6.3105      1.00000
     98      -6.3074      1.00000
     99      -5.6212      1.00000
    100      -5.6113      1.00000
    101      -5.4953      1.00000
    102      -5.3854      1.00000
    103      -5.3794      1.00000
    104      -5.3613      1.00000
    105      -5.1517      1.00000
    106      -4.8888      1.00000
    107      -4.4182      1.00000
    108      -4.0208      1.00000
    109      -3.2659      1.00000
    110      -3.2547      1.00000
    111      -2.5836      0.00000
    112      -1.7771      0.00000
    113      -1.6792      0.00000
    114      -1.6504      0.00000
    115      -1.5812      0.00000
    116      -1.4908      0.00000
    117      -1.0912      0.00000
    118      -1.0831      0.00000
    119      -0.9846      0.00000
    120      -0.4016      0.00000
    121      -0.3849      0.00000
    122      -0.2923      0.00000
    123      -0.2150      0.00000
    124      -0.1993      0.00000
    125      -0.1470      0.00000
    126      -0.1457      0.00000
    127       0.2649      0.00000
    128       0.4042      0.00000
    129       0.4824      0.00000
    130       0.6905      0.00000
    131       0.9348      0.00000
    132       1.0473      0.00000
    133       1.1367      0.00000
    134       1.3155      0.00000
    135       1.4258      0.00000
    136       1.5801      0.00000
    137       1.6477      0.00000
    138       1.7052      0.00000
    139       1.7667      0.00000
    140       1.7863      0.00000

 k-point     5 :      -0.3333    0.3333    0.0000
  band No.  band energies     occupation 
      1     -50.0639      1.00000
      2     -22.7541      1.00000
      3     -22.4102      1.00000
      4     -22.0885      1.00000
      5     -22.0641      1.00000
      6     -21.4917      1.00000
      7     -21.4330      1.00000
      8     -21.1273      1.00000
      9     -20.8676      1.00000
     10     -20.8148      1.00000
     11     -20.2134      1.00000
     12     -19.9328      1.00000
     13     -19.9225      1.00000
     14     -19.6085      1.00000
     15     -19.6005      1.00000
     16     -19.0518      1.00000
     17     -19.0011      1.00000
     18     -18.4390      1.00000
     19     -18.4306      1.00000
     20     -17.9448      1.00000
     21     -17.8662      1.00000
     22     -17.8575      1.00000
     23     -17.6198      1.00000
     24     -17.6160      1.00000
     25     -16.8193      1.00000
     26     -16.8132      1.00000
     27     -16.1135      1.00000
     28     -15.8654      1.00000
     29     -15.8638      1.00000
     30     -15.3565      1.00000
     31     -15.3499      1.00000
     32     -15.2994      1.00000
     33     -15.2912      1.00000
     34     -14.9231      1.00000
     35     -14.8887      1.00000
     36     -13.7126      1.00000
     37     -13.7095      1.00000
     38     -13.5031      1.00000
     39     -13.4973      1.00000
     40     -13.4664      1.00000
     41     -13.2266      1.00000
     42     -13.2171      1.00000
     43     -12.8894      1.00000
     44     -12.7712      1.00000
     45     -12.7672      1.00000
     46     -12.0053      1.00000
     47     -11.9659      1.00000
     48     -11.5588      1.00000
     49     -11.5361      1.00000
     50     -11.1804      1.00000
     51     -11.1705      1.00000
     52     -11.1187      1.00000
     53     -10.9057      1.00000
     54     -10.8918      1.00000
     55     -10.8549      1.00000
     56     -10.4395      1.00000
     57     -10.3761      1.00000
     58     -10.2765      1.00000
     59     -10.2581      1.00000
     60     -10.2237      1.00000
     61     -10.2216      1.00000
     62     -10.0522      1.00000
     63     -10.0234      1.00000
     64      -9.9106      1.00000
     65      -9.9018      1.00000
     66      -9.6481      1.00000
     67      -9.6196      1.00000
     68      -9.6102      1.00000
     69      -9.5199      1.00000
     70      -9.5180      1.00000
     71      -9.3643      1.00000
     72      -9.2813      1.00000
     73      -9.0246      1.00000
     74      -8.9253      1.00000
     75      -8.6993      1.00000
     76      -8.6762      1.00000
     77      -8.6620      1.00000
     78      -8.6373      1.00000
     79      -8.5495      1.00000
     80      -8.4696      1.00000
     81      -8.4291      1.00000
     82      -8.3972      1.00000
     83      -7.8985      1.00000
     84      -7.8472      1.00000
     85      -7.6597      1.00000
     86      -7.6524      1.00000
     87      -7.5936      1.00000
     88      -7.5707      1.00000
     89      -7.2357      1.00000
     90      -7.2327      1.00000
     91      -7.0569      1.00000
     92      -6.8036      1.00000
     93      -6.6861      1.00000
     94      -6.6261      1.00000
     95      -6.5339      1.00000
     96      -6.4856      1.00000
     97      -6.1192      1.00000
     98      -6.1151      1.00000
     99      -5.7954      1.00000
    100      -5.5004      1.00000
    101      -5.4631      1.00000
    102      -5.3456      1.00000
    103      -5.3340      1.00000
    104      -5.1528      1.00000
    105      -4.8895      1.00000
    106      -4.4355      1.00000
    107      -4.3510      1.00000
    108      -4.3242      1.00000
    109      -4.0162      1.00000
    110      -2.5845      0.00000
    111      -2.2269      0.00000
    112      -2.2153      0.00000
    113      -1.7299      0.00000
    114      -1.5782      0.00000
    115      -1.5440      0.00000
    116      -1.4734      0.00000
    117      -1.4246      0.00000
    118      -1.1834      0.00000
    119      -1.1643      0.00000
    120      -0.8611      0.00000
    121      -0.8420      0.00000
    122      -0.3086      0.00000
    123       0.0957      0.00000
    124       0.1727      0.00000
    125       0.2221      0.00000
    126       0.3938      0.00000
    127       0.6021      0.00000
    128       0.7053      0.00000
    129       0.7204      0.00000
    130       0.8563      0.00000
    131       0.8901      0.00000
    132       1.0243      0.00000
    133       1.2207      0.00000
    134       1.2735      0.00000
    135       1.3399      0.00000
    136       1.3972      0.00000
    137       1.4162      0.00000
    138       1.5016      0.00000
    139       1.5524      0.00000
    140       1.6315      0.00000


--------------------------------------------------------------------------------------------------------


 soft charge-density along one line, spin component           1
         0         1         2         3         4         5         6         7         8         9
 total charge-density along one line
 
 soft charge-density along one line, spin component           2
         0         1         2         3         4         5         6         7         8         9
 total charge-density along one line
 
 pseudopotential strength for first ion, spin component:           1
 10.244  13.624  -0.000  -0.000   0.000   0.001   0.000  -0.000
 13.624  18.117  -0.000  -0.000   0.000   0.001   0.000  -0.000
 -0.000  -0.000  -4.373  -0.000   0.000   8.551   0.000  -0.000
 -0.000  -0.000  -0.000  -4.352   0.000   0.000   8.518  -0.000
  0.000   0.000   0.000   0.000  -4.373  -0.000  -0.000   8.551
  0.001   0.001   8.551   0.000  -0.000 -18.862  -0.000   0.000
  0.000   0.000   0.000   8.518  -0.000  -0.000 -18.809   0.000
 -0.000  -0.000  -0.000  -0.000   8.551   0.000   0.000 -18.861
 pseudopotential strength for first ion, spin component:           2
 10.244  13.624  -0.000  -0.000   0.000   0.001   0.000  -0.000
 13.624  18.117  -0.000  -0.000   0.000   0.001   0.000  -0.000
 -0.000  -0.000  -4.373  -0.000   0.000   8.551   0.000  -0.000
 -0.000  -0.000  -0.000  -4.352   0.000   0.000   8.518  -0.000
  0.000   0.000   0.000   0.000  -4.373  -0.000  -0.000   8.551
  0.001   0.001   8.551   0.000  -0.000 -18.862  -0.000   0.000
  0.000   0.000   0.000   8.518  -0.000  -0.000 -18.809   0.000
 -0.000  -0.000  -0.000  -0.000   8.551   0.000   0.000 -18.861
 total augmentation occupancy for first ion, spin component:           1
  8.134  -3.611  -0.004   0.001  -0.001  -0.001   0.000  -0.000
 -3.611   1.661   0.004  -0.000   0.001   0.001  -0.000   0.000
 -0.004   0.004   1.822   0.003  -0.000   0.168   0.000  -0.000
  0.001  -0.000   0.003   1.200  -0.000   0.000   0.071  -0.000
 -0.001   0.001  -0.000  -0.000   1.826  -0.000  -0.000   0.168
 -0.001   0.001   0.168   0.000  -0.000   0.017   0.000  -0.000
  0.000  -0.000   0.000   0.071  -0.000   0.000   0.005  -0.000
 -0.000   0.000  -0.000  -0.000   0.168  -0.000  -0.000   0.017
 total augmentation occupancy for first ion, spin component:           2
  0.000  -0.000  -0.000  -0.000  -0.000  -0.000  -0.000  -0.000
 -0.000   0.000   0.000   0.000   0.000   0.000   0.000   0.000
 -0.000   0.000  -0.000  -0.000  -0.000   0.000  -0.000   0.000
 -0.000   0.000  -0.000   0.000  -0.000   0.000   0.000  -0.000
 -0.000   0.000  -0.000  -0.000   0.000   0.000  -0.000  -0.000
 -0.000   0.000   0.000   0.000   0.000   0.000   0.000   0.000
 -0.000   0.000  -0.000   0.000  -0.000   0.000   0.000  -0.000
 -0.000   0.000   0.000  -0.000  -0.000   0.000  -0.000  -0.000


------------------------ aborting loop because EDIFF is reached ----------------------------------------


    CHARGE:  cpu time    3.0300: real time    3.0303
    FORLOC:  cpu time    0.1805: real time    0.1805
    FORNL :  cpu time   12.3410: real time   12.3422
    STRESS:  cpu time   37.0102: real time   37.0146
    FORCOR:  cpu time    1.1346: real time    1.1347
    FORHAR:  cpu time    0.2539: real time    0.2540
    MIXING:  cpu time    0.0572: real time    0.0572
    OFIELD:  cpu time    0.0000: real time    0.0000

  FORCE on cell =-STRESS in cart. coord.  units (eV):
  Direction    XX          YY          ZZ          XY          YZ          ZX
  --------------------------------------------------------------------------------------
  Alpha Z    59.51446    59.51446    59.51446
  Ewald   66184.69773 66204.93941-72832.37479   154.01494    14.57309  -126.95972
  Hartree 65382.28528 65390.61377-64722.38362    83.66221     2.42997   -69.49993
  E(xc)    -806.48779  -806.41807  -833.81701     0.06464     0.04044    -0.02646
  Local  ************************134790.25542  -244.04193   -17.93864   201.45381
  n-local   -37.82402   -37.58414   -25.31628     7.73835     1.19096    -6.76080
  augment   -28.41819   -28.59441   -26.77474    -1.21143    -0.23347     0.94245
  Kinetic  3160.21204  3161.14548  3595.50816    -0.16036    -0.52838     1.64900
  Fock        0.00000     0.00000     0.00000     0.00000     0.00000     0.00000
  -------------------------------------------------------------------------------------
  Total      12.55627    12.62934     4.61162     0.06642    -0.46604     0.79836
  in kB       5.11811     5.14789     1.87976     0.02707    -0.18996     0.32542
  external pressure =        4.05 kB  Pullay stress =        0.00 kB


 VOLUME and BASIS-vectors are now :
 -----------------------------------------------------------------------------
  energy-cutoff  :      520.00
  volume of cell :     3930.63
      direct lattice vectors                 reciprocal lattice vectors
    12.300000000  0.000000000  0.000000000     0.081300813  0.046939046  0.000000000
    -6.150000000 10.652112467  0.000000000     0.000000000  0.093878093  0.000000000
     0.000000000  0.000000000 30.000000000     0.000000000  0.000000000  0.033333333

  length of vectors
    12.300000000 12.300000000 30.000000000     0.093878093  0.093878093  0.033333333


 FORCES acting on ions
    electron-ion (+dipol)            ewald-force                    non-local-force                 convergence-correction
 -----------------------------------------------------------------------------------------------
   0.877E+00 -.899E+01 0.315E+02   -.869E+00 0.915E+01 -.315E+02   -.360E-02 -.167E+00 -.169E-01   0.847E-06 -.621E-06 0.102E-05
   -.132E+01 0.286E+00 0.245E+02   0.136E+01 -.300E+00 -.244E+02   -.598E-01 0.176E-01 -.120E-01   0.262E-05 0.175E-05 0.254E-05
   0.177E+01 0.105E+01 0.246E+02   -.175E+01 -.107E+01 -.246E+02   -.239E-01 0.907E-02 -.289E-01   -.654E-06 0.293E-06 0.293E-05
   -.104E+02 0.526E+01 0.241E+02   0.106E+02 -.539E+01 -.240E+02   -.354E+00 0.203E+00 -.371E-01   -.304E-05 0.202E-05 -.982E-06
   -.523E+01 0.149E+01 0.238E+02   0.535E+01 -.148E+01 -.237E+02   -.122E+00 0.120E-01 0.523E-02   -.270E-05 0.397E-06 0.111E-05
   -.242E+02 -.236E+01 0.426E+02   0.249E+02 0.235E+01 -.432E+02   -.687E+00 -.876E-01 0.581E+00   -.541E-05 -.284E-05 -.277E-05
   -.133E+02 -.326E+01 0.273E+02   0.136E+02 0.341E+01 -.273E+02   -.436E+00 -.186E+00 -.518E-01   -.476E-05 -.247E-05 -.116E-05
   -.840E+01 -.185E+02 0.445E+02   0.851E+01 0.191E+02 -.446E+02   -.123E+00 -.595E+00 0.152E+00   -.261E-05 -.474E-05 -.132E-05
   -.792E+01 -.895E+01 0.329E+02   0.813E+01 0.917E+01 -.329E+02   -.191E+00 -.212E+00 -.236E-01   -.202E-05 -.339E-05 -.119E-07
   0.116E+02 0.442E+01 0.387E+02   -.118E+02 -.450E+01 -.387E+02   0.143E+00 0.906E-01 -.205E-01   0.176E-05 -.524E-06 -.848E-06
   0.173E+00 0.349E+01 0.314E+02   -.158E+00 -.349E+01 -.314E+02   -.140E-01 -.551E-02 -.285E-01   0.820E-07 0.529E-06 0.910E-06
   0.371E+01 0.147E+02 0.453E+02   -.379E+01 -.150E+02 -.452E+02   0.825E-01 0.239E+00 -.394E-01   0.184E-05 0.482E-05 -.167E-05
   -.183E+01 -.365E+01 0.306E+02   0.184E+01 0.377E+01 -.306E+02   -.215E-01 -.117E+00 -.106E-01   -.231E-05 0.355E-06 0.136E-05
   0.172E+01 0.173E+01 0.251E+02   -.168E+01 -.176E+01 -.251E+02   -.482E-01 0.374E-01 -.147E-01   -.281E-06 -.283E-05 0.222E-05
   0.773E+01 0.944E+00 0.310E+02   -.776E+01 -.939E+00 -.309E+02   0.279E-01 -.371E-02 -.218E-01   0.127E-05 0.124E-06 0.704E-06
   -.611E+01 -.243E+00 0.247E+02   0.626E+01 0.183E+00 -.247E+02   -.152E+00 0.230E-01 0.421E-02   -.240E-05 -.202E-05 0.880E-06
   0.500E+00 -.185E+01 0.259E+02   -.449E+00 0.188E+01 -.259E+02   -.567E-01 -.284E-01 -.171E-01   0.847E-07 0.772E-06 0.247E-05
   -.851E+01 -.530E+01 0.283E+02   0.860E+01 0.542E+01 -.283E+02   -.976E-01 -.111E+00 0.176E-01   -.337E-05 -.247E-05 -.119E-06
   -.363E+01 -.107E+01 0.262E+02   0.370E+01 0.113E+01 -.262E+02   -.832E-01 -.642E-01 -.201E-01   0.119E-05 -.956E-06 0.173E-05
   -.139E+01 0.332E+01 0.291E+02   0.138E+01 -.331E+01 -.291E+02   0.116E-01 -.171E-01 -.881E-02   -.846E-06 0.544E-06 0.109E-05
   -.120E+01 0.707E+01 0.300E+02   0.119E+01 -.715E+01 -.299E+02   -.392E-02 0.829E-01 -.230E-01   0.632E-06 -.104E-06 0.214E-06
   0.476E+01 0.849E+01 0.371E+02   -.484E+01 -.854E+01 -.371E+02   0.764E-01 0.685E-01 -.234E-01   -.631E-06 0.286E-05 -.139E-06
   0.367E+01 0.108E+01 0.279E+02   -.367E+01 -.108E+01 -.279E+02   -.109E-01 -.448E-02 -.248E-01   -.167E-05 0.120E-05 0.228E-05
   0.726E+01 0.542E+01 0.343E+02   -.727E+01 -.546E+01 -.343E+02   0.177E-01 0.282E-01 -.339E-01   0.144E-05 0.182E-05 0.362E-06
   0.121E+02 -.523E+01 0.385E+02   -.123E+02 0.531E+01 -.385E+02   0.186E+00 -.698E-01 -.303E-02   0.211E-05 -.648E-06 -.104E-05
   0.858E+00 -.389E+01 0.290E+02   -.836E+00 0.394E+01 -.290E+02   -.590E-02 -.528E-01 -.297E-01   -.648E-06 -.116E-05 0.207E-05
   0.719E+01 -.950E+01 0.360E+02   -.734E+01 0.961E+01 -.360E+02   0.159E+00 -.138E+00 -.319E-02   0.131E-05 -.219E-05 -.101E-05
   -.981E-02 -.157E+01 0.257E+02   0.268E-01 0.157E+01 -.257E+02   -.155E-03 -.342E-02 -.228E-01   -.276E-07 -.747E-06 0.304E-05
   0.296E+01 -.180E+01 0.280E+02   -.299E+01 0.181E+01 -.280E+02   0.230E-01 -.973E-02 -.574E-02   -.618E-06 -.259E-06 0.274E-05
   0.138E+00 0.242E+01 0.274E+02   -.137E+00 -.244E+01 -.273E+02   0.726E-02 0.173E-01 -.308E-01   0.411E-06 0.344E-07 0.158E-05
   -.747E+00 0.208E+01 0.269E+02   0.737E+00 -.213E+01 -.269E+02   0.975E-03 0.435E-01 -.945E-02   -.870E-06 -.839E-06 0.683E-06
   -.136E+01 0.133E+02 0.374E+02   0.128E+01 -.134E+02 -.374E+02   0.655E-01 0.120E+00 0.131E-01   -.512E-06 0.553E-05 -.187E-05
   -.732E+01 0.142E+02 0.349E+02   0.734E+01 -.146E+02 -.348E+02   -.371E-01 0.463E+00 -.640E-01   -.181E-05 0.669E-05 -.283E-05
   0.105E+02 0.154E+02 0.593E+02   -.110E+02 -.158E+02 -.594E+02   0.438E+00 0.393E+00 0.827E-01   0.362E-05 0.427E-05 -.255E-05
   0.201E+01 0.219E+02 0.805E+02   -.237E+01 -.231E+02 -.819E+02   0.394E+00 0.961E+00 0.120E+01   0.212E-05 0.148E-05 -.372E-05
   0.183E+02 -.420E+01 0.518E+02   -.188E+02 0.409E+01 -.519E+02   0.364E+00 0.684E-01 0.983E-01   0.531E-05 -.262E-05 -.318E-05
   0.164E+02 0.480E+01 0.523E+02   -.167E+02 -.489E+01 -.524E+02   0.254E+00 0.789E-01 0.714E-01   0.520E-05 0.153E-05 -.240E-05
   0.748E+01 -.178E+01 0.312E+02   -.754E+01 0.174E+01 -.312E+02   0.501E-01 0.251E-01 -.178E-01   0.721E-06 -.148E-05 0.106E-05
   0.181E+02 -.150E+02 0.631E+02   -.189E+02 0.154E+02 -.638E+02   0.769E+00 -.431E+00 0.674E+00   0.347E-05 -.277E-05 -.401E-05
   0.214E+01 -.452E+01 0.293E+02   -.213E+01 0.459E+01 -.293E+02   0.838E-02 -.627E-01 -.205E-01   0.189E-05 0.528E-07 0.694E-06
   0.991E+00 -.450E+01 0.280E+02   -.102E+01 0.453E+01 -.279E+02   0.196E-01 -.289E-01 -.120E-01   0.821E-06 -.409E-06 0.166E-05
   -.584E+01 0.688E+01 0.270E+02   0.597E+01 -.697E+01 -.270E+02   -.810E-01 0.116E+00 -.174E-01   0.194E-06 0.356E-05 -.110E-05
   -.556E+01 0.485E+01 0.246E+02   0.560E+01 -.497E+01 -.246E+02   -.611E-01 0.103E+00 0.852E-02   -.708E-06 0.273E-05 0.189E-06
   -.141E+02 0.194E+02 0.509E+02   0.145E+02 -.200E+02 -.514E+02   -.238E+00 0.638E+00 0.535E+00   -.204E-05 0.629E-05 -.371E-05
   -.202E+02 0.924E+01 0.370E+02   0.206E+02 -.954E+01 -.374E+02   -.464E+00 0.287E+00 0.337E+00   -.566E-05 0.295E-05 -.322E-05
   0.768E+01 -.950E+01 0.996E+02   -.857E+01 0.997E+01 -.103E+03   0.444E+00 -.225E+00 0.928E+00   0.196E-05 -.280E-05 -.382E-05
   -.200E+02 -.190E+02 0.688E+02   0.209E+02 0.199E+02 -.703E+02   -.607E+00 -.808E+00 0.118E+01   -.879E-06 -.400E-05 -.278E-05
   0.859E+01 -.171E+02 0.467E+02   -.874E+01 0.176E+02 -.468E+02   0.135E+00 -.332E+00 0.116E+00   0.438E-05 -.354E-05 -.284E-05
   0.148E+01 -.169E+02 0.419E+02   -.159E+01 0.172E+02 -.420E+02   0.816E-01 -.265E+00 0.105E+00   0.200E-06 -.503E-05 -.130E-05
   0.787E+01 -.604E+01 0.337E+02   -.794E+01 0.607E+01 -.337E+02   0.570E-01 -.315E-01 -.130E-01   0.162E-05 -.127E-05 0.320E-06
   -.136E+02 -.389E+01 -.306E+03   0.131E+02 0.367E+01 0.307E+03   0.106E+01 -.159E+00 0.197E+01   -.312E-07 0.640E-07 -.647E-06
   0.602E+02 0.523E+02 -.385E+03   -.619E+02 -.536E+02 0.386E+03   0.176E+01 0.137E+01 -.510E+00   -.211E-05 -.166E-05 -.778E-05
   0.208E+02 -.467E+02 -.420E+03   -.208E+02 0.460E+02 0.419E+03   -.523E-01 0.704E+00 0.931E+00   -.222E-05 0.395E-05 -.305E-05
   -.110E+02 0.571E+02 -.357E+03   0.983E+01 -.563E+02 0.357E+03   0.112E+01 -.769E+00 -.796E+00   -.139E-05 -.555E-05 -.235E-05
   -.600E+02 -.580E+02 -.391E+03   0.603E+02 0.585E+02 0.390E+03   -.321E+00 -.463E+00 0.103E+01   0.244E-05 0.483E-05 0.136E-06
 -----------------------------------------------------------------------------------------------
   -.340E+01 -.750E+00 -.795E+01   -.256E-12 -.426E-13 -.512E-12   0.340E+01 0.748E+00 0.802E+01   -.267E-05 0.152E-05 -.283E-04
 
 
 POSITION                                       TOTAL-FORCE (eV/Angst)
 -----------------------------------------------------------------------------------
     -6.10672     10.65066     14.88290         0.004405     -0.002748      0.003728
     -1.18531      2.12726     14.89925        -0.012848      0.004126      0.005299
      0.04455      2.83789     14.89874        -0.006968     -0.006709     -0.007302
     -2.41155      4.25567     14.91970        -0.127107      0.075883     -0.009907
     -1.18407      4.96842     14.91258         0.006666      0.026839      0.012123
     -3.64313      6.39186     14.91335         0.025925     -0.106129      0.008126
     -2.41175      7.10211     14.91427        -0.098331     -0.036469     -0.015812
     -4.87635      8.52574     14.88716        -0.007125      0.011266      0.015096
     -3.64552      9.23149     14.89129         0.018022      0.003834      0.006550
      2.50264      4.25785     14.87719         0.009084      0.012448      0.003927
      3.73397      0.70764     14.88045         0.000740     -0.005838      0.011879
      4.96269      2.83657     14.87112         0.004289     -0.021062      0.012889
     -3.64617     10.65084     14.88463        -0.013511      0.003982      0.001504
      0.04510      4.25796     14.90168        -0.008958      0.015456      0.002389
      1.27374      4.96909     14.88885         0.002919      0.001500      0.000196
     -1.18427      6.38932     14.90975        -0.001275     -0.037295      0.014859
      0.04446      7.09964     14.89705        -0.006372      0.002815     -0.002798
     -2.41517      8.52111     14.90050        -0.004265      0.008956     -0.001046
     -1.18571      9.23034     14.89324        -0.008453      0.001300      0.001984
     -1.18626     10.65016     14.88442        -0.004027     -0.006474     -0.002208
      6.19375      0.70688     14.88421        -0.013518      0.005650      0.003388
      3.73313      2.12714     14.87479        -0.006754      0.024803     -0.000823
      1.27414      2.12787     14.88924        -0.006978     -0.002014     -0.005483
      2.50385      2.83795     14.88019        -0.000869     -0.017528     -0.000759
      2.50257      7.09969     14.87332         0.014611      0.005174      0.003658
      1.27363      0.70774     14.88610         0.016905      0.000878     -0.003419
      3.73269      9.23072     14.87373         0.002273     -0.022171     -0.001272
      0.04363      8.51969     14.89234         0.016737     -0.003646     -0.004862
      1.27370      9.22936     14.88418        -0.001212      0.004022      0.002918
      1.27385     10.64939     14.88653         0.008710      0.003406     -0.010370
      8.65386      0.70686     14.89046        -0.009985     -0.007757     -0.002069
      6.19300      2.12624     14.88215        -0.008858     -0.007021      0.007458
      7.42347      2.83224     14.89762        -0.015370      0.122259     -0.015024
      4.95836      4.25528     14.86632        -0.009592     -0.000473     -0.000810
      6.18919      4.96628     14.87151         0.035232     -0.236393     -0.225919
      3.73127      6.38899     14.86577        -0.108747     -0.040529      0.008665
      3.73159      4.96808     14.86600        -0.045452     -0.013485     -0.014251
      1.27364      6.38904     14.88614        -0.004077     -0.011332     -0.001358
      4.95778      7.10225     14.86659        -0.014530      0.007562      0.030281
      3.73372     10.65031     14.88348         0.013853      0.004861      0.000833
     11.11349      0.70766     14.88790        -0.008134      0.002004     -0.002851
      8.65424      2.12601     14.90107         0.042779      0.022543      0.006038
      9.88484      2.83647     14.90815        -0.020392     -0.021138      0.007066
      7.42313      4.25340     14.89735         0.101160      0.049397      0.011077
      8.65708      4.96654     14.91777        -0.022016     -0.006094     -0.051102
      6.18870      6.39150     14.87095        -0.437509      0.248259     -2.330254
      7.42308      7.10456     14.89056         0.235423      0.102297     -0.298578
      4.96194      8.52123     14.86965        -0.017561      0.121864      0.020785
      6.19285      9.23125     14.87681        -0.024371      0.054152     -0.007534
      2.50351      8.51986     14.87586        -0.013822      0.000256      0.001001
      6.60032      6.15411     16.58810         0.564288     -0.384081      2.866866
      3.90956      4.31378     20.28394        -0.004266      0.004420      0.007951
      5.12352      6.28190     20.66952        -0.016131     -0.016679      0.116078
      5.60821      4.91654     18.81954        -0.002520      0.029117     -0.076900
      6.79538      6.90238     19.22468        -0.012119      0.031738     -0.101900
 -----------------------------------------------------------------------------------
    total drift:                                0.007404     -0.002246      0.064408


--------------------------------------------------------------------------------------------------------



  FREE ENERGIE OF THE ION-ELECTRON SYSTEM (eV)
  ---------------------------------------------------
  free  energy   TOTEN  =      -479.40056997 eV

  energy  without entropy=     -479.38660627  energy(sigma->0) =     -479.39358812
 


--------------------------------------------------------------------------------------------------------


    POTLOK:  cpu time    2.0749: real time    2.0750


--------------------------------------------------------------------------------------------------------


     LOOP+:  cpu time 1290.2329: real time 1290.4541
    4ORBIT:  cpu time    0.0000: real time    0.0000

 total amount of memory used by VASP on root node   483653. kBytes
========================================================================

   base      :      30000. kBytes
   nonlr-proj:       6339. kBytes
   fftplans  :     165810. kBytes
   grid      :     132526. kBytes
   one-center:         86. kBytes
   wavefun   :     148892. kBytes
 
  
  
 General timing and accounting informations for this job:
 ========================================================
  
                  Total CPU time used (sec):     1310.044
                            User time (sec):     1253.592
                          System time (sec):       56.452
                         Elapsed time (sec):     1310.750
  
                   Maximum memory used (kb):      905156.
                   Average memory used (kb):           0.
  
                          Minor page faults:       100909
                          Major page faults:           29
                 Voluntary context switches:         1478
