  55  55   0   0
  0.7146599E+02  0.1230000E-08  0.1230000E-08  0.3000000E-08  0.5000000E-15
  1.000000000000000E-004
  CAR 
 Li defective graphene MACE training lab 
      4.38026381    -52.67971593  301     -3.12654277      1.00000000
    -52.680  0.0000E+00  0.0000E+00  0.0000E+00  0.0000E+00
    -52.490  0.0000E+00  0.0000E+00  0.0000E+00  0.0000E+00
    -52.299  0.0000E+00  0.0000E+00  0.0000E+00  0.0000E+00
    -52.109  0.0000E+00  0.0000E+00  0.0000E+00  0.0000E+00
    -51.919  0.0000E+00  0.0000E+00  0.0000E+00  0.0000E+00
    -51.729  0.0000E+00  0.0000E+00  0.0000E+00  0.0000E+00
    -51.539  0.0000E+00  0.0000E+00  0.0000E+00  0.0000E+00
    -51.348  0.0000E+00  0.0000E+00  0.0000E+00  0.0000E+00
    -51.158  0.0000E+00  0.0000E+00  0.0000E+00  0.0000E+00
    -50.968  0.0000E+00  0.0000E+00  0.0000E+00  0.0000E+00
    -50.778  0.0000E+00  0.0000E+00  0.0000E+00  0.0000E+00
    -50.588  0.0000E+00  0.0000E+00  0.0000E+00  0.0000E+00
    -50.397  0.0000E+00  0.0000E+00  0.0000E+00  0.0000E+00
    -50.207  0.1625E-02  0.9304E-03  0.3092E-03  0.1770E-03
    -50.017  0.5123E+01  0.5071E+01  0.9748E+00  0.9647E+00
    -49.827  0.1326E+00  0.1859E+00  0.1000E+01  0.1000E+01
    -49.637  0.0000E+00  0.0000E+00  0.1000E+01  0.1000E+01
    -49.446  0.0000E+00  0.0000E+00  0.1000E+01  0.1000E+01
    -49.256  0.0000E+00  0.0000E+00  0.1000E+01  0.1000E+01
    -49.066  0.0000E+00  0.0000E+00  0.1000E+01  0.1000E+01
    -48.876  0.0000E+00  0.0000E+00  0.1000E+01  0.1000E+01
    -48.686  0.0000E+00  0.0000E+00  0.1000E+01  0.1000E+01
    -48.495  0.0000E+00  0.0000E+00  0.1000E+01  0.1000E+01
    -48.305  0.0000E+00  0.0000E+00  0.1000E+01  0.1000E+01
    -48.115  0.0000E+00  0.0000E+00  0.1000E+01  0.1000E+01
    -47.925  0.0000E+00  0.0000E+00  0.1000E+01  0.1000E+01
    -47.735  0.0000E+00  0.0000E+00  0.1000E+01  0.1000E+01
    -47.544  0.0000E+00  0.0000E+00  0.1000E+01  0.1000E+01
    -47.354  0.0000E+00  0.0000E+00  0.1000E+01  0.1000E+01
    -47.164  0.0000E+00  0.0000E+00  0.1000E+01  0.1000E+01
    -46.974  0.0000E+00  0.0000E+00  0.1000E+01  0.1000E+01
    -46.784  0.0000E+00  0.0000E+00  0.1000E+01  0.1000E+01
    -46.593  0.0000E+00  0.0000E+00  0.1000E+01  0.1000E+01
    -46.403  0.0000E+00  0.0000E+00  0.1000E+01  0.1000E+01
    -46.213  0.0000E+00  0.0000E+00  0.1000E+01  0.1000E+01
    -46.023  0.0000E+00  0.0000E+00  0.1000E+01  0.1000E+01
    -45.833  0.0000E+00  0.0000E+00  0.1000E+01  0.1000E+01
    -45.642  0.0000E+00  0.0000E+00  0.1000E+01  0.1000E+01
    -45.452  0.0000E+00  0.0000E+00  0.1000E+01  0.1000E+01
    -45.262  0.0000E+00  0.0000E+00  0.1000E+01  0.1000E+01
    -45.072  0.0000E+00  0.0000E+00  0.1000E+01  0.1000E+01
    -44.882  0.0000E+00  0.0000E+00  0.1000E+01  0.1000E+01
    -44.691  0.0000E+00  0.0000E+00  0.1000E+01  0.1000E+01
    -44.501  0.0000E+00  0.0000E+00  0.1000E+01  0.1000E+01
    -44.311  0.0000E+00  0.0000E+00  0.1000E+01  0.1000E+01
    -44.121  0.0000E+00  0.0000E+00  0.1000E+01  0.1000E+01
    -43.931  0.0000E+00  0.0000E+00  0.1000E+01  0.1000E+01
    -43.740  0.0000E+00  0.0000E+00  0.1000E+01  0.1000E+01
    -43.550  0.0000E+00  0.0000E+00  0.1000E+01  0.1000E+01
    -43.360  0.0000E+00  0.0000E+00  0.1000E+01  0.1000E+01
    -43.170  0.0000E+00  0.0000E+00  0.1000E+01  0.1000E+01
    -42.980  0.0000E+00  0.0000E+00  0.1000E+01  0.1000E+01
    -42.789  0.0000E+00  0.0000E+00  0.1000E+01  0.1000E+01
    -42.599  0.0000E+00  0.0000E+00  0.1000E+01  0.1000E+01
    -42.409  0.0000E+00  0.0000E+00  0.1000E+01  0.1000E+01
    -42.219  0.0000E+00  0.0000E+00  0.1000E+01  0.1000E+01
    -42.029  0.0000E+00  0.0000E+00  0.1000E+01  0.1000E+01
    -41.838  0.0000E+00  0.0000E+00  0.1000E+01  0.1000E+01
    -41.648  0.0000E+00  0.0000E+00  0.1000E+01  0.1000E+01
    -41.458  0.0000E+00  0.0000E+00  0.1000E+01  0.1000E+01
    -41.268  0.0000E+00  0.0000E+00  0.1000E+01  0.1000E+01
    -41.078  0.0000E+00  0.0000E+00  0.1000E+01  0.1000E+01
    -40.887  0.0000E+00  0.0000E+00  0.1000E+01  0.1000E+01
    -40.697  0.0000E+00  0.0000E+00  0.1000E+01  0.1000E+01
    -40.507  0.0000E+00  0.0000E+00  0.1000E+01  0.1000E+01
    -40.317  0.0000E+00  0.0000E+00  0.1000E+01  0.1000E+01
    -40.127  0.0000E+00  0.0000E+00  0.1000E+01  0.1000E+01
    -39.936  0.0000E+00  0.0000E+00  0.1000E+01  0.1000E+01
    -39.746  0.0000E+00  0.0000E+00  0.1000E+01  0.1000E+01
    -39.556  0.0000E+00  0.0000E+00  0.1000E+01  0.1000E+01
    -39.366  0.0000E+00  0.0000E+00  0.1000E+01  0.1000E+01
    -39.176  0.0000E+00  0.0000E+00  0.1000E+01  0.1000E+01
    -38.985  0.0000E+00  0.0000E+00  0.1000E+01  0.1000E+01
    -38.795  0.0000E+00  0.0000E+00  0.1000E+01  0.1000E+01
    -38.605  0.0000E+00  0.0000E+00  0.1000E+01  0.1000E+01
    -38.415  0.0000E+00  0.0000E+00  0.1000E+01  0.1000E+01
    -38.225  0.0000E+00  0.0000E+00  0.1000E+01  0.1000E+01
    -38.034  0.0000E+00  0.0000E+00  0.1000E+01  0.1000E+01
    -37.844  0.0000E+00  0.0000E+00  0.1000E+01  0.1000E+01
    -37.654  0.0000E+00  0.0000E+00  0.1000E+01  0.1000E+01
    -37.464  0.0000E+00  0.0000E+00  0.1000E+01  0.1000E+01
    -37.274  0.0000E+00  0.0000E+00  0.1000E+01  0.1000E+01
    -37.083  0.0000E+00  0.0000E+00  0.1000E+01  0.1000E+01
    -36.893  0.0000E+00  0.0000E+00  0.1000E+01  0.1000E+01
    -36.703  0.0000E+00  0.0000E+00  0.1000E+01  0.1000E+01
    -36.513  0.0000E+00  0.0000E+00  0.1000E+01  0.1000E+01
    -36.323  0.0000E+00  0.0000E+00  0.1000E+01  0.1000E+01
    -36.132  0.0000E+00  0.0000E+00  0.1000E+01  0.1000E+01
    -35.942  0.0000E+00  0.0000E+00  0.1000E+01  0.1000E+01
    -35.752  0.0000E+00  0.0000E+00  0.1000E+01  0.1000E+01
    -35.562  0.0000E+00  0.0000E+00  0.1000E+01  0.1000E+01
    -35.372  0.0000E+00  0.0000E+00  0.1000E+01  0.1000E+01
    -35.181  0.0000E+00  0.0000E+00  0.1000E+01  0.1000E+01
    -34.991  0.0000E+00  0.0000E+00  0.1000E+01  0.1000E+01
    -34.801  0.0000E+00  0.0000E+00  0.1000E+01  0.1000E+01
    -34.611  0.0000E+00  0.0000E+00  0.1000E+01  0.1000E+01
    -34.421  0.0000E+00  0.0000E+00  0.1000E+01  0.1000E+01
    -34.230  0.0000E+00  0.0000E+00  0.1000E+01  0.1000E+01
    -34.040  0.0000E+00  0.0000E+00  0.1000E+01  0.1000E+01
    -33.850  0.0000E+00  0.0000E+00  0.1000E+01  0.1000E+01
    -33.660  0.0000E+00  0.0000E+00  0.1000E+01  0.1000E+01
    -33.470  0.0000E+00  0.0000E+00  0.1000E+01  0.1000E+01
    -33.279  0.0000E+00  0.0000E+00  0.1000E+01  0.1000E+01
    -33.089  0.0000E+00  0.0000E+00  0.1000E+01  0.1000E+01
    -32.899  0.0000E+00  0.0000E+00  0.1000E+01  0.1000E+01
    -32.709  0.0000E+00  0.0000E+00  0.1000E+01  0.1000E+01
    -32.519  0.0000E+00  0.0000E+00  0.1000E+01  0.1000E+01
    -32.328  0.0000E+00  0.0000E+00  0.1000E+01  0.1000E+01
    -32.138  0.0000E+00  0.0000E+00  0.1000E+01  0.1000E+01
    -31.948  0.0000E+00  0.0000E+00  0.1000E+01  0.1000E+01
    -31.758  0.0000E+00  0.0000E+00  0.1000E+01  0.1000E+01
    -31.568  0.0000E+00  0.0000E+00  0.1000E+01  0.1000E+01
    -31.377  0.0000E+00  0.0000E+00  0.1000E+01  0.1000E+01
    -31.187  0.0000E+00  0.0000E+00  0.1000E+01  0.1000E+01
    -30.997  0.0000E+00  0.0000E+00  0.1000E+01  0.1000E+01
    -30.807  0.0000E+00  0.0000E+00  0.1000E+01  0.1000E+01
    -30.617  0.0000E+00  0.0000E+00  0.1000E+01  0.1000E+01
    -30.426  0.0000E+00  0.0000E+00  0.1000E+01  0.1000E+01
    -30.236  0.0000E+00  0.0000E+00  0.1000E+01  0.1000E+01
    -30.046  0.0000E+00  0.0000E+00  0.1000E+01  0.1000E+01
    -29.856  0.0000E+00  0.0000E+00  0.1000E+01  0.1000E+01
    -29.666  0.0000E+00  0.0000E+00  0.1000E+01  0.1000E+01
    -29.475  0.0000E+00  0.0000E+00  0.1000E+01  0.1000E+01
    -29.285  0.0000E+00  0.0000E+00  0.1000E+01  0.1000E+01
    -29.095  0.0000E+00  0.0000E+00  0.1000E+01  0.1000E+01
    -28.905  0.0000E+00  0.0000E+00  0.1000E+01  0.1000E+01
    -28.715  0.0000E+00  0.0000E+00  0.1000E+01  0.1000E+01
    -28.524  0.0000E+00  0.0000E+00  0.1000E+01  0.1000E+01
    -28.334  0.0000E+00  0.0000E+00  0.1000E+01  0.1000E+01
    -28.144  0.0000E+00  0.0000E+00  0.1000E+01  0.1000E+01
    -27.954  0.0000E+00  0.0000E+00  0.1000E+01  0.1000E+01
    -27.764  0.0000E+00  0.0000E+00  0.1000E+01  0.1000E+01
    -27.573  0.0000E+00  0.0000E+00  0.1000E+01  0.1000E+01
    -27.383  0.0000E+00  0.0000E+00  0.1000E+01  0.1000E+01
    -27.193  0.0000E+00  0.0000E+00  0.1000E+01  0.1000E+01
    -27.003  0.0000E+00  0.0000E+00  0.1000E+01  0.1000E+01
    -26.813  0.0000E+00  0.0000E+00  0.1000E+01  0.1000E+01
    -26.622  0.0000E+00  0.0000E+00  0.1000E+01  0.1000E+01
    -26.432  0.0000E+00  0.0000E+00  0.1000E+01  0.1000E+01
    -26.242  0.0000E+00  0.0000E+00  0.1000E+01  0.1000E+01
    -26.052  0.0000E+00  0.0000E+00  0.1000E+01  0.1000E+01
    -25.862  0.0000E+00  0.0000E+00  0.1000E+01  0.1000E+01
    -25.671  0.0000E+00  0.0000E+00  0.1000E+01  0.1000E+01
    -25.481  0.0000E+00  0.0000E+00  0.1000E+01  0.1000E+01
    -25.291  0.0000E+00  0.0000E+00  0.1000E+01  0.1000E+01
    -25.101  0.0000E+00  0.0000E+00  0.1000E+01  0.1000E+01
    -24.911  0.0000E+00  0.0000E+00  0.1000E+01  0.1000E+01
    -24.720  0.0000E+00  0.0000E+00  0.1000E+01  0.1000E+01
    -24.530  0.0000E+00  0.0000E+00  0.1000E+01  0.1000E+01
    -24.340  0.0000E+00  0.0000E+00  0.1000E+01  0.1000E+01
    -24.150  0.0000E+00  0.0000E+00  0.1000E+01  0.1000E+01
    -23.960  0.0000E+00  0.0000E+00  0.1000E+01  0.1000E+01
    -23.769  0.0000E+00  0.0000E+00  0.1000E+01  0.1000E+01
    -23.579  0.0000E+00  0.0000E+00  0.1000E+01  0.1000E+01
    -23.389  0.0000E+00  0.0000E+00  0.1000E+01  0.1000E+01
    -23.199  0.0000E+00  0.0000E+00  0.1000E+01  0.1000E+01
    -23.009  0.6997E-06  0.7008E-06  0.1000E+01  0.1000E+01
    -22.818  0.5208E+00  0.5209E+00  0.1099E+01  0.1099E+01
    -22.628  0.4395E+01  0.4395E+01  0.1935E+01  0.1935E+01
    -22.438  0.2157E+01  0.2160E+01  0.2345E+01  0.2346E+01
    -22.248  0.4026E+01  0.4023E+01  0.3111E+01  0.3111E+01
    -22.058  0.4716E+01  0.4718E+01  0.4008E+01  0.4009E+01
    -21.867  0.3750E+01  0.3748E+01  0.4721E+01  0.4721E+01
    -21.677  0.2058E+01  0.2058E+01  0.5113E+01  0.5113E+01
    -21.487  0.5214E+01  0.5216E+01  0.6105E+01  0.6105E+01
    -21.297  0.5291E+01  0.5290E+01  0.7111E+01  0.7111E+01
    -21.107  0.2357E+01  0.2359E+01  0.7559E+01  0.7560E+01
    -20.916  0.1380E+01  0.1379E+01  0.7822E+01  0.7822E+01
    -20.726  0.7272E+01  0.7272E+01  0.9205E+01  0.9205E+01
    -20.536  0.5829E+01  0.5830E+01  0.1031E+02  0.1031E+02
    -20.346  0.6876E+00  0.6861E+00  0.1044E+02  0.1044E+02
    -20.156  0.3297E+01  0.3297E+01  0.1107E+02  0.1107E+02
    -19.965  0.3974E+01  0.3975E+01  0.1183E+02  0.1183E+02
    -19.775  0.6749E+01  0.6747E+01  0.1311E+02  0.1311E+02
    -19.585  0.4539E+01  0.4543E+01  0.1397E+02  0.1398E+02
    -19.395  0.2471E+01  0.2468E+01  0.1444E+02  0.1444E+02
    -19.205  0.5037E-01  0.5043E-01  0.1445E+02  0.1445E+02
    -19.014  0.7263E+01  0.7265E+01  0.1584E+02  0.1584E+02
    -18.824  0.6373E+01  0.6372E+01  0.1705E+02  0.1705E+02
    -18.634  0.3837E+01  0.3836E+01  0.1778E+02  0.1778E+02
    -18.444  0.2393E+01  0.2396E+01  0.1823E+02  0.1823E+02
    -18.254  0.4618E+01  0.4615E+01  0.1911E+02  0.1911E+02
    -18.063  0.2271E-01  0.2274E-01  0.1912E+02  0.1912E+02
    -17.873  0.9035E+01  0.9039E+01  0.2083E+02  0.2083E+02
    -17.683  0.5130E+01  0.5127E+01  0.2181E+02  0.2181E+02
    -17.493  0.7428E+01  0.7429E+01  0.2322E+02  0.2322E+02
    -17.303  0.2920E+01  0.2919E+01  0.2378E+02  0.2378E+02
    -17.112  0.2905E-03  0.2897E-03  0.2378E+02  0.2378E+02
    -16.922  0.1939E+01  0.1939E+01  0.2415E+02  0.2415E+02
    -16.732  0.8485E+01  0.8484E+01  0.2576E+02  0.2576E+02
    -16.542  0.1078E+00  0.1076E+00  0.2578E+02  0.2578E+02
    -16.352  0.3478E+01  0.3478E+01  0.2644E+02  0.2644E+02
    -16.161  0.2532E+00  0.2535E+00  0.2649E+02  0.2649E+02
    -15.971  0.4467E+01  0.4467E+01  0.2734E+02  0.2734E+02
    -15.781  0.1149E+02  0.1149E+02  0.2953E+02  0.2953E+02
    -15.591  0.1532E+00  0.1529E+00  0.2956E+02  0.2956E+02
    -15.401  0.4517E+00  0.4521E+00  0.2964E+02  0.2964E+02
    -15.210  0.1348E+02  0.1348E+02  0.3221E+02  0.3221E+02
    -15.020  0.1003E+00  0.1000E+00  0.3222E+02  0.3222E+02
    -14.830  0.6711E+01  0.6712E+01  0.3350E+02  0.3350E+02
    -14.640  0.6113E+00  0.6111E+00  0.3362E+02  0.3362E+02
    -14.450  0.3898E+01  0.3898E+01  0.3436E+02  0.3436E+02
    -14.259  0.7831E+01  0.7832E+01  0.3585E+02  0.3585E+02
    -14.069  0.1968E+01  0.1966E+01  0.3622E+02  0.3622E+02
    -13.879  0.1223E+00  0.1224E+00  0.3625E+02  0.3625E+02
    -13.689  0.5798E+01  0.5792E+01  0.3735E+02  0.3735E+02
    -13.499  0.9699E+01  0.7982E+01  0.3919E+02  0.3887E+02
    -13.308  0.4862E+01  0.6585E+01  0.4012E+02  0.4012E+02
    -13.118  0.6956E+01  0.6956E+01  0.4144E+02  0.4144E+02
    -12.928  0.3975E+00  0.3980E+00  0.4152E+02  0.4152E+02
    -12.738  0.9302E+01  0.9303E+01  0.4329E+02  0.4329E+02
    -12.548  0.4327E+01  0.4325E+01  0.4411E+02  0.4411E+02
    -12.357  0.1339E-01  0.1337E-01  0.4411E+02  0.4411E+02
    -12.167  0.2966E+01  0.2966E+01  0.4468E+02  0.4468E+02
    -11.977  0.1135E+02  0.1135E+02  0.4683E+02  0.4683E+02
    -11.787  0.6716E+01  0.6714E+01  0.4811E+02  0.4811E+02
    -11.597  0.4654E+00  0.4658E+00  0.4820E+02  0.4820E+02
    -11.406  0.6544E+01  0.6543E+01  0.4944E+02  0.4944E+02
    -11.216  0.7198E+00  0.7205E+00  0.4958E+02  0.4958E+02
    -11.026  0.9793E+01  0.9792E+01  0.5144E+02  0.5144E+02
    -10.836  0.9609E+01  0.9591E+01  0.5327E+02  0.5327E+02
    -10.646  0.1050E+02  0.1014E+02  0.5527E+02  0.5520E+02
    -10.455  0.1019E+02  0.5578E+01  0.5721E+02  0.5626E+02
    -10.265  0.7536E+01  0.1252E+02  0.5864E+02  0.5864E+02
    -10.075  0.1134E+02  0.1134E+02  0.6080E+02  0.6080E+02
     -9.885  0.1458E+02  0.1458E+02  0.6357E+02  0.6357E+02
     -9.695  0.8126E+01  0.8129E+01  0.6511E+02  0.6511E+02
     -9.504  0.1618E+02  0.1618E+02  0.6819E+02  0.6819E+02
     -9.314  0.1551E+02  0.1551E+02  0.7114E+02  0.7114E+02
     -9.124  0.5270E+01  0.5267E+01  0.7214E+02  0.7214E+02
     -8.934  0.1046E+02  0.1046E+02  0.7413E+02  0.7413E+02
     -8.744  0.2859E+01  0.2795E+01  0.7468E+02  0.7467E+02
     -8.553  0.1996E+02  0.1999E+02  0.7847E+02  0.7847E+02
     -8.363  0.1499E+02  0.1501E+02  0.8132E+02  0.8132E+02
     -8.173  0.4714E+01  0.4719E+01  0.8222E+02  0.8222E+02
     -7.983  0.3052E-01  0.3044E-01  0.8223E+02  0.8223E+02
     -7.793  0.7926E+01  0.7925E+01  0.8373E+02  0.8373E+02
     -7.602  0.1318E+02  0.1317E+02  0.8624E+02  0.8624E+02
     -7.412  0.8922E+01  0.8934E+01  0.8794E+02  0.8794E+02
     -7.222  0.5353E+01  0.5326E+01  0.8896E+02  0.8895E+02
     -7.032  0.6103E+01  0.5677E+01  0.9012E+02  0.9003E+02
     -6.842  0.9422E+01  0.6007E+01  0.9191E+02  0.9117E+02
     -6.651  0.6708E+01  0.1050E+02  0.9319E+02  0.9317E+02
     -6.461  0.1186E+02  0.1192E+02  0.9544E+02  0.9544E+02
     -6.271  0.5844E+01  0.5854E+01  0.9655E+02  0.9655E+02
     -6.081  0.6684E+01  0.6681E+01  0.9782E+02  0.9782E+02
     -5.891  0.1528E+01  0.1528E+01  0.9811E+02  0.9811E+02
     -5.700  0.3490E+01  0.3489E+01  0.9878E+02  0.9878E+02
     -5.510  0.4439E+01  0.4307E+01  0.9962E+02  0.9960E+02
     -5.320  0.1876E+02  0.1418E+02  0.1032E+03  0.1023E+03
     -5.130  0.3091E+01  0.7558E+01  0.1038E+03  0.1037E+03
     -4.940  0.3514E+01  0.5811E+00  0.1044E+03  0.1038E+03
     -4.749  0.3640E+01  0.6807E+01  0.1051E+03  0.1051E+03
     -4.559  0.1609E+01  0.1622E+01  0.1054E+03  0.1054E+03
     -4.369  0.5926E+01  0.5968E+01  0.1066E+03  0.1066E+03
     -4.179  0.6455E+01  0.6299E+01  0.1078E+03  0.1078E+03
     -3.989  0.5142E+01  0.4443E+01  0.1088E+03  0.1086E+03
     -3.798  0.2133E-02  0.8147E+00  0.1088E+03  0.1088E+03
     -3.608  0.0000E+00  0.0000E+00  0.1088E+03  0.1088E+03
     -3.418  0.6583E-05  0.5458E-05  0.1088E+03  0.1088E+03
     -3.228  0.1852E+01  0.1800E+01  0.1091E+03  0.1091E+03
     -3.038  0.5721E+01  0.5367E+00  0.1102E+03  0.1092E+03
     -2.847  0.2096E-01  0.1933E-09  0.1102E+03  0.1092E+03
     -2.657  0.0000E+00  0.6722E+00  0.1102E+03  0.1094E+03
     -2.467  0.3236E-09  0.4585E+01  0.1102E+03  0.1102E+03
     -2.277  0.5530E+00  0.5253E+00  0.1103E+03  0.1103E+03
     -2.087  0.6813E+01  0.6819E+01  0.1116E+03  0.1116E+03
     -1.896  0.2249E+01  0.2264E+01  0.1121E+03  0.1120E+03
     -1.706  0.6252E+01  0.5989E+01  0.1132E+03  0.1132E+03
     -1.516  0.1127E+02  0.1009E+02  0.1154E+03  0.1151E+03
     -1.326  0.7860E+01  0.9267E+01  0.1169E+03  0.1169E+03
     -1.136  0.5826E+01  0.5866E+01  0.1180E+03  0.1180E+03
     -0.945  0.4616E+01  0.4605E+01  0.1189E+03  0.1189E+03
     -0.755  0.7131E+01  0.7129E+01  0.1202E+03  0.1202E+03
     -0.565  0.5208E+01  0.2372E-01  0.1212E+03  0.1202E+03
     -0.375  0.1138E+01  0.2392E+01  0.1214E+03  0.1207E+03
     -0.185  0.4042E+01  0.7740E+01  0.1222E+03  0.1221E+03
      0.006  0.5075E+01  0.5221E+01  0.1232E+03  0.1231E+03
      0.196  0.7528E+01  0.7243E+01  0.1246E+03  0.1245E+03
      0.386  0.8181E+01  0.7282E+01  0.1262E+03  0.1259E+03
      0.576  0.5304E+01  0.5684E+01  0.1272E+03  0.1270E+03
      0.766  0.1161E+02  0.1193E+02  0.1294E+03  0.1293E+03
      0.957  0.8283E+01  0.7154E+01  0.1309E+03  0.1306E+03
      1.147  0.7310E+01  0.7836E+01  0.1323E+03  0.1321E+03
      1.337  0.9524E+01  0.9731E+01  0.1341E+03  0.1340E+03
      1.527  0.1667E+02  0.1584E+02  0.1373E+03  0.1370E+03
      1.717  0.1164E+02  0.1226E+02  0.1395E+03  0.1393E+03
      1.908  0.2477E+01  0.3671E+01  0.1400E+03  0.1400E+03
      2.098  0.1568E-03  0.4198E-03  0.1400E+03  0.1400E+03
      2.288  0.0000E+00  0.0000E+00  0.1400E+03  0.1400E+03
      2.478  0.0000E+00  0.0000E+00  0.1400E+03  0.1400E+03
      2.668  0.0000E+00  0.0000E+00  0.1400E+03  0.1400E+03
      2.859  0.0000E+00  0.0000E+00  0.1400E+03  0.1400E+03
      3.049  0.0000E+00  0.0000E+00  0.1400E+03  0.1400E+03
      3.239  0.0000E+00  0.0000E+00  0.1400E+03  0.1400E+03
      3.429  0.0000E+00  0.0000E+00  0.1400E+03  0.1400E+03
      3.619  0.0000E+00  0.0000E+00  0.1400E+03  0.1400E+03
      3.810  0.0000E+00  0.0000E+00  0.1400E+03  0.1400E+03
      4.000  0.0000E+00  0.0000E+00  0.1400E+03  0.1400E+03
      4.190  0.0000E+00  0.0000E+00  0.1400E+03  0.1400E+03
      4.380  0.0000E+00  0.0000E+00  0.1400E+03  0.1400E+03
