  55  55   0   0
  0.7146599E+02  0.1230000E-08  0.1230000E-08  0.3000000E-08  0.5000000E-15
  1.000000000000000E-004
  CAR 
 Li defective graphene MACE training lab 
      4.38133549    -52.69181148  301     -3.13297525      1.00000000
    -52.692  0.0000E+00  0.0000E+00  0.0000E+00  0.0000E+00
    -52.502  0.0000E+00  0.0000E+00  0.0000E+00  0.0000E+00
    -52.311  0.0000E+00  0.0000E+00  0.0000E+00  0.0000E+00
    -52.121  0.0000E+00  0.0000E+00  0.0000E+00  0.0000E+00
    -51.931  0.0000E+00  0.0000E+00  0.0000E+00  0.0000E+00
    -51.741  0.0000E+00  0.0000E+00  0.0000E+00  0.0000E+00
    -51.550  0.0000E+00  0.0000E+00  0.0000E+00  0.0000E+00
    -51.360  0.0000E+00  0.0000E+00  0.0000E+00  0.0000E+00
    -51.170  0.0000E+00  0.0000E+00  0.0000E+00  0.0000E+00
    -50.980  0.0000E+00  0.0000E+00  0.0000E+00  0.0000E+00
    -50.789  0.0000E+00  0.0000E+00  0.0000E+00  0.0000E+00
    -50.599  0.0000E+00  0.0000E+00  0.0000E+00  0.0000E+00
    -50.409  0.0000E+00  0.0000E+00  0.0000E+00  0.0000E+00
    -50.219  0.1620E-02  0.8785E-03  0.3083E-03  0.1671E-03
    -50.028  0.5122E+01  0.5064E+01  0.9748E+00  0.9636E+00
    -49.838  0.1324E+00  0.1915E+00  0.1000E+01  0.1000E+01
    -49.648  0.0000E+00  0.0000E+00  0.1000E+01  0.1000E+01
    -49.458  0.0000E+00  0.0000E+00  0.1000E+01  0.1000E+01
    -49.267  0.0000E+00  0.0000E+00  0.1000E+01  0.1000E+01
    -49.077  0.0000E+00  0.0000E+00  0.1000E+01  0.1000E+01
    -48.887  0.0000E+00  0.0000E+00  0.1000E+01  0.1000E+01
    -48.697  0.0000E+00  0.0000E+00  0.1000E+01  0.1000E+01
    -48.506  0.0000E+00  0.0000E+00  0.1000E+01  0.1000E+01
    -48.316  0.0000E+00  0.0000E+00  0.1000E+01  0.1000E+01
    -48.126  0.0000E+00  0.0000E+00  0.1000E+01  0.1000E+01
    -47.936  0.0000E+00  0.0000E+00  0.1000E+01  0.1000E+01
    -47.745  0.0000E+00  0.0000E+00  0.1000E+01  0.1000E+01
    -47.555  0.0000E+00  0.0000E+00  0.1000E+01  0.1000E+01
    -47.365  0.0000E+00  0.0000E+00  0.1000E+01  0.1000E+01
    -47.175  0.0000E+00  0.0000E+00  0.1000E+01  0.1000E+01
    -46.984  0.0000E+00  0.0000E+00  0.1000E+01  0.1000E+01
    -46.794  0.0000E+00  0.0000E+00  0.1000E+01  0.1000E+01
    -46.604  0.0000E+00  0.0000E+00  0.1000E+01  0.1000E+01
    -46.414  0.0000E+00  0.0000E+00  0.1000E+01  0.1000E+01
    -46.224  0.0000E+00  0.0000E+00  0.1000E+01  0.1000E+01
    -46.033  0.0000E+00  0.0000E+00  0.1000E+01  0.1000E+01
    -45.843  0.0000E+00  0.0000E+00  0.1000E+01  0.1000E+01
    -45.653  0.0000E+00  0.0000E+00  0.1000E+01  0.1000E+01
    -45.463  0.0000E+00  0.0000E+00  0.1000E+01  0.1000E+01
    -45.272  0.0000E+00  0.0000E+00  0.1000E+01  0.1000E+01
    -45.082  0.0000E+00  0.0000E+00  0.1000E+01  0.1000E+01
    -44.892  0.0000E+00  0.0000E+00  0.1000E+01  0.1000E+01
    -44.702  0.0000E+00  0.0000E+00  0.1000E+01  0.1000E+01
    -44.511  0.0000E+00  0.0000E+00  0.1000E+01  0.1000E+01
    -44.321  0.0000E+00  0.0000E+00  0.1000E+01  0.1000E+01
    -44.131  0.0000E+00  0.0000E+00  0.1000E+01  0.1000E+01
    -43.941  0.0000E+00  0.0000E+00  0.1000E+01  0.1000E+01
    -43.750  0.0000E+00  0.0000E+00  0.1000E+01  0.1000E+01
    -43.560  0.0000E+00  0.0000E+00  0.1000E+01  0.1000E+01
    -43.370  0.0000E+00  0.0000E+00  0.1000E+01  0.1000E+01
    -43.180  0.0000E+00  0.0000E+00  0.1000E+01  0.1000E+01
    -42.989  0.0000E+00  0.0000E+00  0.1000E+01  0.1000E+01
    -42.799  0.0000E+00  0.0000E+00  0.1000E+01  0.1000E+01
    -42.609  0.0000E+00  0.0000E+00  0.1000E+01  0.1000E+01
    -42.419  0.0000E+00  0.0000E+00  0.1000E+01  0.1000E+01
    -42.228  0.0000E+00  0.0000E+00  0.1000E+01  0.1000E+01
    -42.038  0.0000E+00  0.0000E+00  0.1000E+01  0.1000E+01
    -41.848  0.0000E+00  0.0000E+00  0.1000E+01  0.1000E+01
    -41.658  0.0000E+00  0.0000E+00  0.1000E+01  0.1000E+01
    -41.467  0.0000E+00  0.0000E+00  0.1000E+01  0.1000E+01
    -41.277  0.0000E+00  0.0000E+00  0.1000E+01  0.1000E+01
    -41.087  0.0000E+00  0.0000E+00  0.1000E+01  0.1000E+01
    -40.897  0.0000E+00  0.0000E+00  0.1000E+01  0.1000E+01
    -40.706  0.0000E+00  0.0000E+00  0.1000E+01  0.1000E+01
    -40.516  0.0000E+00  0.0000E+00  0.1000E+01  0.1000E+01
    -40.326  0.0000E+00  0.0000E+00  0.1000E+01  0.1000E+01
    -40.136  0.0000E+00  0.0000E+00  0.1000E+01  0.1000E+01
    -39.945  0.0000E+00  0.0000E+00  0.1000E+01  0.1000E+01
    -39.755  0.0000E+00  0.0000E+00  0.1000E+01  0.1000E+01
    -39.565  0.0000E+00  0.0000E+00  0.1000E+01  0.1000E+01
    -39.375  0.0000E+00  0.0000E+00  0.1000E+01  0.1000E+01
    -39.185  0.0000E+00  0.0000E+00  0.1000E+01  0.1000E+01
    -38.994  0.0000E+00  0.0000E+00  0.1000E+01  0.1000E+01
    -38.804  0.0000E+00  0.0000E+00  0.1000E+01  0.1000E+01
    -38.614  0.0000E+00  0.0000E+00  0.1000E+01  0.1000E+01
    -38.424  0.0000E+00  0.0000E+00  0.1000E+01  0.1000E+01
    -38.233  0.0000E+00  0.0000E+00  0.1000E+01  0.1000E+01
    -38.043  0.0000E+00  0.0000E+00  0.1000E+01  0.1000E+01
    -37.853  0.0000E+00  0.0000E+00  0.1000E+01  0.1000E+01
    -37.663  0.0000E+00  0.0000E+00  0.1000E+01  0.1000E+01
    -37.472  0.0000E+00  0.0000E+00  0.1000E+01  0.1000E+01
    -37.282  0.0000E+00  0.0000E+00  0.1000E+01  0.1000E+01
    -37.092  0.0000E+00  0.0000E+00  0.1000E+01  0.1000E+01
    -36.902  0.0000E+00  0.0000E+00  0.1000E+01  0.1000E+01
    -36.711  0.0000E+00  0.0000E+00  0.1000E+01  0.1000E+01
    -36.521  0.0000E+00  0.0000E+00  0.1000E+01  0.1000E+01
    -36.331  0.0000E+00  0.0000E+00  0.1000E+01  0.1000E+01
    -36.141  0.0000E+00  0.0000E+00  0.1000E+01  0.1000E+01
    -35.950  0.0000E+00  0.0000E+00  0.1000E+01  0.1000E+01
    -35.760  0.0000E+00  0.0000E+00  0.1000E+01  0.1000E+01
    -35.570  0.0000E+00  0.0000E+00  0.1000E+01  0.1000E+01
    -35.380  0.0000E+00  0.0000E+00  0.1000E+01  0.1000E+01
    -35.189  0.0000E+00  0.0000E+00  0.1000E+01  0.1000E+01
    -34.999  0.0000E+00  0.0000E+00  0.1000E+01  0.1000E+01
    -34.809  0.0000E+00  0.0000E+00  0.1000E+01  0.1000E+01
    -34.619  0.0000E+00  0.0000E+00  0.1000E+01  0.1000E+01
    -34.428  0.0000E+00  0.0000E+00  0.1000E+01  0.1000E+01
    -34.238  0.0000E+00  0.0000E+00  0.1000E+01  0.1000E+01
    -34.048  0.0000E+00  0.0000E+00  0.1000E+01  0.1000E+01
    -33.858  0.0000E+00  0.0000E+00  0.1000E+01  0.1000E+01
    -33.667  0.0000E+00  0.0000E+00  0.1000E+01  0.1000E+01
    -33.477  0.0000E+00  0.0000E+00  0.1000E+01  0.1000E+01
    -33.287  0.0000E+00  0.0000E+00  0.1000E+01  0.1000E+01
    -33.097  0.0000E+00  0.0000E+00  0.1000E+01  0.1000E+01
    -32.906  0.0000E+00  0.0000E+00  0.1000E+01  0.1000E+01
    -32.716  0.0000E+00  0.0000E+00  0.1000E+01  0.1000E+01
    -32.526  0.0000E+00  0.0000E+00  0.1000E+01  0.1000E+01
    -32.336  0.0000E+00  0.0000E+00  0.1000E+01  0.1000E+01
    -32.145  0.0000E+00  0.0000E+00  0.1000E+01  0.1000E+01
    -31.955  0.0000E+00  0.0000E+00  0.1000E+01  0.1000E+01
    -31.765  0.0000E+00  0.0000E+00  0.1000E+01  0.1000E+01
    -31.575  0.0000E+00  0.0000E+00  0.1000E+01  0.1000E+01
    -31.385  0.0000E+00  0.0000E+00  0.1000E+01  0.1000E+01
    -31.194  0.0000E+00  0.0000E+00  0.1000E+01  0.1000E+01
    -31.004  0.0000E+00  0.0000E+00  0.1000E+01  0.1000E+01
    -30.814  0.0000E+00  0.0000E+00  0.1000E+01  0.1000E+01
    -30.624  0.0000E+00  0.0000E+00  0.1000E+01  0.1000E+01
    -30.433  0.0000E+00  0.0000E+00  0.1000E+01  0.1000E+01
    -30.243  0.0000E+00  0.0000E+00  0.1000E+01  0.1000E+01
    -30.053  0.0000E+00  0.0000E+00  0.1000E+01  0.1000E+01
    -29.863  0.0000E+00  0.0000E+00  0.1000E+01  0.1000E+01
    -29.672  0.0000E+00  0.0000E+00  0.1000E+01  0.1000E+01
    -29.482  0.0000E+00  0.0000E+00  0.1000E+01  0.1000E+01
    -29.292  0.0000E+00  0.0000E+00  0.1000E+01  0.1000E+01
    -29.102  0.0000E+00  0.0000E+00  0.1000E+01  0.1000E+01
    -28.911  0.0000E+00  0.0000E+00  0.1000E+01  0.1000E+01
    -28.721  0.0000E+00  0.0000E+00  0.1000E+01  0.1000E+01
    -28.531  0.0000E+00  0.0000E+00  0.1000E+01  0.1000E+01
    -28.341  0.0000E+00  0.0000E+00  0.1000E+01  0.1000E+01
    -28.150  0.0000E+00  0.0000E+00  0.1000E+01  0.1000E+01
    -27.960  0.0000E+00  0.0000E+00  0.1000E+01  0.1000E+01
    -27.770  0.0000E+00  0.0000E+00  0.1000E+01  0.1000E+01
    -27.580  0.0000E+00  0.0000E+00  0.1000E+01  0.1000E+01
    -27.389  0.0000E+00  0.0000E+00  0.1000E+01  0.1000E+01
    -27.199  0.0000E+00  0.0000E+00  0.1000E+01  0.1000E+01
    -27.009  0.0000E+00  0.0000E+00  0.1000E+01  0.1000E+01
    -26.819  0.0000E+00  0.0000E+00  0.1000E+01  0.1000E+01
    -26.628  0.0000E+00  0.0000E+00  0.1000E+01  0.1000E+01
    -26.438  0.0000E+00  0.0000E+00  0.1000E+01  0.1000E+01
    -26.248  0.0000E+00  0.0000E+00  0.1000E+01  0.1000E+01
    -26.058  0.0000E+00  0.0000E+00  0.1000E+01  0.1000E+01
    -25.867  0.0000E+00  0.0000E+00  0.1000E+01  0.1000E+01
    -25.677  0.0000E+00  0.0000E+00  0.1000E+01  0.1000E+01
    -25.487  0.0000E+00  0.0000E+00  0.1000E+01  0.1000E+01
    -25.297  0.0000E+00  0.0000E+00  0.1000E+01  0.1000E+01
    -25.106  0.0000E+00  0.0000E+00  0.1000E+01  0.1000E+01
    -24.916  0.0000E+00  0.0000E+00  0.1000E+01  0.1000E+01
    -24.726  0.0000E+00  0.0000E+00  0.1000E+01  0.1000E+01
    -24.536  0.0000E+00  0.0000E+00  0.1000E+01  0.1000E+01
    -24.345  0.0000E+00  0.0000E+00  0.1000E+01  0.1000E+01
    -24.155  0.0000E+00  0.0000E+00  0.1000E+01  0.1000E+01
    -23.965  0.0000E+00  0.0000E+00  0.1000E+01  0.1000E+01
    -23.775  0.0000E+00  0.0000E+00  0.1000E+01  0.1000E+01
    -23.585  0.0000E+00  0.0000E+00  0.1000E+01  0.1000E+01
    -23.394  0.0000E+00  0.0000E+00  0.1000E+01  0.1000E+01
    -23.204  0.0000E+00  0.0000E+00  0.1000E+01  0.1000E+01
    -23.014  0.3787E-06  0.3809E-06  0.1000E+01  0.1000E+01
    -22.824  0.4757E+00  0.4761E+00  0.1091E+01  0.1091E+01
    -22.633  0.4393E+01  0.4392E+01  0.1926E+01  0.1926E+01
    -22.443  0.1984E+01  0.1988E+01  0.2304E+01  0.2304E+01
    -22.253  0.4244E+01  0.4241E+01  0.3111E+01  0.3111E+01
    -22.063  0.4391E+01  0.4396E+01  0.3946E+01  0.3947E+01
    -21.872  0.4006E+01  0.4002E+01  0.4709E+01  0.4709E+01
    -21.682  0.2122E+01  0.2121E+01  0.5112E+01  0.5112E+01
    -21.492  0.4983E+01  0.4986E+01  0.6060E+01  0.6061E+01
    -21.302  0.5523E+01  0.5520E+01  0.7111E+01  0.7111E+01
    -21.111  0.2205E+01  0.2208E+01  0.7530E+01  0.7531E+01
    -20.921  0.1487E+01  0.1485E+01  0.7813E+01  0.7813E+01
    -20.731  0.7242E+01  0.7242E+01  0.9191E+01  0.9191E+01
    -20.541  0.5784E+01  0.5785E+01  0.1029E+02  0.1029E+02
    -20.350  0.8048E+00  0.8022E+00  0.1044E+02  0.1044E+02
    -20.160  0.3236E+01  0.3237E+01  0.1106E+02  0.1106E+02
    -19.970  0.3812E+01  0.3814E+01  0.1179E+02  0.1179E+02
    -19.780  0.6969E+01  0.6966E+01  0.1311E+02  0.1311E+02
    -19.589  0.4254E+01  0.4260E+01  0.1392E+02  0.1392E+02
    -19.399  0.2755E+01  0.2749E+01  0.1444E+02  0.1444E+02
    -19.209  0.4161E-01  0.4172E-01  0.1445E+02  0.1445E+02
    -19.019  0.7038E+01  0.7041E+01  0.1579E+02  0.1579E+02
    -18.828  0.6511E+01  0.6509E+01  0.1703E+02  0.1703E+02
    -18.638  0.3930E+01  0.3928E+01  0.1778E+02  0.1778E+02
    -18.448  0.2144E+01  0.2149E+01  0.1819E+02  0.1819E+02
    -18.258  0.4865E+01  0.4861E+01  0.1911E+02  0.1911E+02
    -18.067  0.1749E-01  0.1755E-01  0.1911E+02  0.1911E+02
    -17.877  0.8754E+01  0.8760E+01  0.2078E+02  0.2078E+02
    -17.687  0.5379E+01  0.5374E+01  0.2180E+02  0.2180E+02
    -17.497  0.7382E+01  0.7383E+01  0.2321E+02  0.2321E+02
    -17.306  0.2998E+01  0.2996E+01  0.2378E+02  0.2378E+02
    -17.116  0.2365E-03  0.2362E-03  0.2378E+02  0.2378E+02
    -16.926  0.1873E+01  0.1874E+01  0.2413E+02  0.2413E+02
    -16.736  0.8526E+01  0.8525E+01  0.2576E+02  0.2576E+02
    -16.545  0.1263E+00  0.1258E+00  0.2578E+02  0.2578E+02
    -16.355  0.3478E+01  0.3478E+01  0.2644E+02  0.2644E+02
    -16.165  0.2194E+00  0.2199E+00  0.2648E+02  0.2648E+02
    -15.975  0.4424E+01  0.4425E+01  0.2733E+02  0.2733E+02
    -15.785  0.1154E+02  0.1154E+02  0.2952E+02  0.2952E+02
    -15.594  0.1865E+00  0.1859E+00  0.2956E+02  0.2956E+02
    -15.404  0.3871E+00  0.3880E+00  0.2963E+02  0.2963E+02
    -15.214  0.1352E+02  0.1352E+02  0.3220E+02  0.3220E+02
    -15.024  0.1184E+00  0.1179E+00  0.3222E+02  0.3222E+02
    -14.833  0.6662E+01  0.6663E+01  0.3349E+02  0.3349E+02
    -14.643  0.6254E+00  0.6250E+00  0.3361E+02  0.3361E+02
    -14.453  0.3872E+01  0.3872E+01  0.3435E+02  0.3435E+02
    -14.263  0.7811E+01  0.7811E+01  0.3583E+02  0.3583E+02
    -14.072  0.2047E+01  0.2045E+01  0.3622E+02  0.3622E+02
    -13.882  0.1079E+00  0.1080E+00  0.3624E+02  0.3624E+02
    -13.692  0.5637E+01  0.5634E+01  0.3732E+02  0.3731E+02
    -13.502  0.9732E+01  0.7821E+01  0.3917E+02  0.3880E+02
    -13.311  0.4992E+01  0.6907E+01  0.4012E+02  0.4012E+02
    -13.121  0.6957E+01  0.6957E+01  0.4144E+02  0.4144E+02
    -12.931  0.3613E+00  0.3620E+00  0.4151E+02  0.4151E+02
    -12.741  0.9184E+01  0.9186E+01  0.4326E+02  0.4326E+02
    -12.550  0.4479E+01  0.4476E+01  0.4411E+02  0.4411E+02
    -12.360  0.1607E-01  0.1603E-01  0.4411E+02  0.4411E+02
    -12.170  0.2898E+01  0.2899E+01  0.4466E+02  0.4466E+02
    -11.980  0.1116E+02  0.1117E+02  0.4679E+02  0.4679E+02
    -11.789  0.6964E+01  0.6960E+01  0.4811E+02  0.4811E+02
    -11.599  0.4208E+00  0.4215E+00  0.4819E+02  0.4819E+02
    -11.409  0.6587E+01  0.6586E+01  0.4944E+02  0.4944E+02
    -11.219  0.6557E+00  0.6572E+00  0.4957E+02  0.4957E+02
    -11.028  0.9850E+01  0.9849E+01  0.5144E+02  0.5144E+02
    -10.838  0.9525E+01  0.9510E+01  0.5325E+02  0.5325E+02
    -10.648  0.1044E+02  0.1015E+02  0.5524E+02  0.5518E+02
    -10.458  0.1024E+02  0.5523E+01  0.5719E+02  0.5623E+02
    -10.267  0.7461E+01  0.1248E+02  0.5861E+02  0.5861E+02
    -10.077  0.1144E+02  0.1144E+02  0.6078E+02  0.6078E+02
     -9.887  0.1453E+02  0.1453E+02  0.6355E+02  0.6355E+02
     -9.697  0.8176E+01  0.8178E+01  0.6510E+02  0.6510E+02
     -9.506  0.1610E+02  0.1610E+02  0.6817E+02  0.6817E+02
     -9.316  0.1556E+02  0.1556E+02  0.7113E+02  0.7113E+02
     -9.126  0.5300E+01  0.5295E+01  0.7213E+02  0.7213E+02
     -8.936  0.1045E+02  0.1046E+02  0.7412E+02  0.7412E+02
     -8.745  0.2827E+01  0.2770E+01  0.7466E+02  0.7465E+02
     -8.555  0.1994E+02  0.1996E+02  0.7845E+02  0.7845E+02
     -8.365  0.1501E+02  0.1503E+02  0.8131E+02  0.8131E+02
     -8.175  0.4794E+01  0.4797E+01  0.8222E+02  0.8222E+02
     -7.985  0.2940E-01  0.2937E-01  0.8223E+02  0.8223E+02
     -7.794  0.7887E+01  0.7887E+01  0.8373E+02  0.8373E+02
     -7.604  0.1307E+02  0.1307E+02  0.8621E+02  0.8621E+02
     -7.414  0.9044E+01  0.9050E+01  0.8793E+02  0.8793E+02
     -7.224  0.5290E+01  0.5267E+01  0.8894E+02  0.8894E+02
     -7.033  0.6074E+01  0.5725E+01  0.9010E+02  0.9003E+02
     -6.843  0.9515E+01  0.5838E+01  0.9191E+02  0.9114E+02
     -6.653  0.6665E+01  0.1064E+02  0.9317E+02  0.9316E+02
     -6.463  0.1187E+02  0.1194E+02  0.9543E+02  0.9543E+02
     -6.272  0.5862E+01  0.5872E+01  0.9655E+02  0.9655E+02
     -6.082  0.6655E+01  0.6654E+01  0.9781E+02  0.9781E+02
     -5.892  0.1574E+01  0.1571E+01  0.9811E+02  0.9811E+02
     -5.702  0.3489E+01  0.3488E+01  0.9878E+02  0.9878E+02
     -5.511  0.4456E+01  0.4296E+01  0.9963E+02  0.9959E+02
     -5.321  0.1880E+02  0.1415E+02  0.1032E+03  0.1023E+03
     -5.131  0.3027E+01  0.7667E+01  0.1038E+03  0.1037E+03
     -4.941  0.2998E+01  0.3742E+00  0.1043E+03  0.1038E+03
     -4.750  0.4157E+01  0.6932E+01  0.1051E+03  0.1051E+03
     -4.560  0.1605E+01  0.1622E+01  0.1054E+03  0.1054E+03
     -4.370  0.5782E+01  0.5837E+01  0.1065E+03  0.1066E+03
     -4.180  0.6573E+01  0.6428E+01  0.1078E+03  0.1078E+03
     -3.989  0.5164E+01  0.4311E+01  0.1088E+03  0.1086E+03
     -3.799  0.3005E-02  0.9459E+00  0.1088E+03  0.1088E+03
     -3.609  0.0000E+00  0.0000E+00  0.1088E+03  0.1088E+03
     -3.419  0.6688E-05  0.5195E-05  0.1088E+03  0.1088E+03
     -3.228  0.1870E+01  0.1799E+01  0.1091E+03  0.1091E+03
     -3.038  0.5710E+01  0.5371E+00  0.1102E+03  0.1092E+03
     -2.848  0.1286E-01  0.5920E-09  0.1102E+03  0.1092E+03
     -2.658  0.0000E+00  0.8775E+00  0.1102E+03  0.1094E+03
     -2.467  0.1965E-09  0.4379E+01  0.1102E+03  0.1102E+03
     -2.277  0.5257E+00  0.4930E+00  0.1103E+03  0.1103E+03
     -2.087  0.6814E+01  0.6823E+01  0.1116E+03  0.1116E+03
     -1.897  0.2273E+01  0.2290E+01  0.1121E+03  0.1120E+03
     -1.706  0.6300E+01  0.6075E+01  0.1132E+03  0.1132E+03
     -1.516  0.1109E+02  0.9873E+01  0.1154E+03  0.1151E+03
     -1.326  0.7988E+01  0.9383E+01  0.1169E+03  0.1169E+03
     -1.136  0.5838E+01  0.5890E+01  0.1180E+03  0.1180E+03
     -0.945  0.4607E+01  0.4590E+01  0.1189E+03  0.1189E+03
     -0.755  0.7136E+01  0.7127E+01  0.1202E+03  0.1202E+03
     -0.565  0.5214E+01  0.1978E-01  0.1212E+03  0.1202E+03
     -0.375  0.1121E+01  0.2611E+01  0.1214E+03  0.1207E+03
     -0.185  0.4087E+01  0.7559E+01  0.1222E+03  0.1222E+03
      0.006  0.5030E+01  0.5185E+01  0.1232E+03  0.1231E+03
      0.196  0.7528E+01  0.7229E+01  0.1246E+03  0.1245E+03
      0.386  0.8123E+01  0.7263E+01  0.1261E+03  0.1259E+03
      0.576  0.5360E+01  0.5739E+01  0.1272E+03  0.1270E+03
      0.767  0.1168E+02  0.1195E+02  0.1294E+03  0.1293E+03
      0.957  0.8197E+01  0.7114E+01  0.1309E+03  0.1306E+03
      1.147  0.7347E+01  0.7903E+01  0.1323E+03  0.1321E+03
      1.337  0.9490E+01  0.9659E+01  0.1341E+03  0.1340E+03
      1.528  0.1658E+02  0.1576E+02  0.1373E+03  0.1370E+03
      1.718  0.1173E+02  0.1241E+02  0.1395E+03  0.1393E+03
      1.908  0.2459E+01  0.3574E+01  0.1400E+03  0.1400E+03
      2.098  0.1534E-03  0.4261E-03  0.1400E+03  0.1400E+03
      2.289  0.0000E+00  0.0000E+00  0.1400E+03  0.1400E+03
      2.479  0.0000E+00  0.0000E+00  0.1400E+03  0.1400E+03
      2.669  0.0000E+00  0.0000E+00  0.1400E+03  0.1400E+03
      2.859  0.0000E+00  0.0000E+00  0.1400E+03  0.1400E+03
      3.050  0.0000E+00  0.0000E+00  0.1400E+03  0.1400E+03
      3.240  0.0000E+00  0.0000E+00  0.1400E+03  0.1400E+03
      3.430  0.0000E+00  0.0000E+00  0.1400E+03  0.1400E+03
      3.620  0.0000E+00  0.0000E+00  0.1400E+03  0.1400E+03
      3.811  0.0000E+00  0.0000E+00  0.1400E+03  0.1400E+03
      4.001  0.0000E+00  0.0000E+00  0.1400E+03  0.1400E+03
      4.191  0.0000E+00  0.0000E+00  0.1400E+03  0.1400E+03
      4.381  0.0000E+00  0.0000E+00  0.1400E+03  0.1400E+03
