       N       E                     dE             d eps       ncg     rms          rms(c)
DAV:   1     0.193820541864E+04    0.19382E+04   -0.68088E+04  3256   0.106E+03
DAV:   2     0.369862171218E+02   -0.19012E+04   -0.17572E+04  4080   0.236E+02
DAV:   3    -0.468720320369E+03   -0.50571E+03   -0.49991E+03  3488   0.128E+02
DAV:   4    -0.495161469951E+03   -0.26441E+02   -0.26162E+02  3392   0.383E+01
DAV:   5    -0.496101194327E+03   -0.93972E+00   -0.93134E+00  4040   0.617E+00    0.334E+01
DAV:   6    -0.470971114087E+03    0.25130E+02   -0.24492E+01  2964   0.112E+01    0.193E+01
DAV:   7    -0.458318432347E+03    0.12653E+02   -0.16031E+01  3020   0.927E+00    0.100E+01
DAV:   8    -0.457771860670E+03    0.54657E+00   -0.46553E+00  3000   0.476E+00    0.378E+00
DAV:   9    -0.458984255148E+03   -0.12124E+01   -0.61355E-01  3452   0.179E+00    0.140E+00
DAV:  10    -0.459256368095E+03   -0.27211E+00   -0.16870E-01  2904   0.851E-01    0.933E-01
DAV:  11    -0.459572092038E+03   -0.31572E+00   -0.59558E-02  3220   0.427E-01    0.775E-01
DAV:  12    -0.460002925048E+03   -0.43083E+00   -0.23208E-01  2808   0.763E-01    0.516E-01
DAV:  13    -0.460074255908E+03   -0.71331E-01   -0.58052E-02  2852   0.448E-01    0.411E-01
DAV:  14    -0.460975113447E+03   -0.90086E+00   -0.57726E-02  2884   0.341E-01    0.279E-01
DAV:  15    -0.461655927273E+03   -0.68081E+00   -0.24174E-02  2928   0.232E-01    0.194E-01
DAV:  16    -0.461930393901E+03   -0.27447E+00   -0.38770E-03  2976   0.139E-01    0.156E-01
DAV:  17    -0.462231314791E+03   -0.30092E+00   -0.68595E-03  2748   0.144E-01    0.102E-01
DAV:  18    -0.462309607950E+03   -0.78293E-01   -0.26910E-03  2984   0.880E-02    0.750E-02
DAV:  19    -0.462330207119E+03   -0.20599E-01   -0.12201E-03  3008   0.647E-02    0.546E-02
DAV:  20    -0.462365101077E+03   -0.34894E-01   -0.76093E-04  2868   0.555E-02    0.355E-02
DAV:  21    -0.462400243014E+03   -0.35142E-01   -0.18866E-04  2880   0.398E-02    0.230E-02
DAV:  22    -0.462422676895E+03   -0.22434E-01   -0.10705E-04  2976   0.291E-02    0.125E-02
DAV:  23    -0.462427270554E+03   -0.45937E-02   -0.32440E-05  2760   0.174E-02    0.842E-03
DAV:  24    -0.462429826500E+03   -0.25559E-02   -0.35927E-05  2344   0.150E-02    0.508E-03
DAV:  25    -0.462430716199E+03   -0.88970E-03   -0.24589E-05  2400   0.118E-02    0.311E-03
DAV:  26    -0.462431038983E+03   -0.32278E-03   -0.77695E-06  2364   0.757E-03    0.216E-03
DAV:  27    -0.462431243773E+03   -0.20479E-03   -0.31249E-06  2304   0.443E-03    0.149E-03
DAV:  28    -0.462431393343E+03   -0.14957E-03   -0.15647E-06  2256   0.284E-03    0.988E-04
DAV:  29    -0.462431496661E+03   -0.10332E-03   -0.10039E-06  2024   0.192E-03    0.684E-04
DAV:  30    -0.462431565931E+03   -0.69270E-04   -0.38613E-07  1968   0.127E-03    0.475E-04
DAV:  31    -0.462431613295E+03   -0.47363E-04   -0.32333E-07  1904   0.901E-04    0.313E-04
DAV:  32    -0.462431636739E+03   -0.23444E-04   -0.11210E-07  1960   0.606E-04    0.218E-04
DAV:  33    -0.462431646766E+03   -0.10027E-04   -0.15250E-08  1948   0.400E-04    0.158E-04
DAV:  34    -0.462431651910E+03   -0.51443E-05    0.78710E-09  1980   0.244E-04    0.133E-04
DAV:  35    -0.462431655713E+03   -0.38034E-05    0.93646E-09  1912   0.180E-04    0.121E-04
DAV:  36    -0.462431658390E+03   -0.26771E-05    0.16070E-08  1876   0.121E-04    0.114E-04
DAV:  37    -0.462431660769E+03   -0.23789E-05    0.18398E-08  1916   0.972E-05    0.110E-04
DAV:  38    -0.462431661512E+03   -0.74251E-06    0.20589E-08  1888   0.594E-05
   1 F= -.46243166E+03 E0= -.46242056E+03  d E =-.222084E-01  mag=    -0.0000
