 vasp.5.4.1 24Jun15 (build Jul 23 2024 06:15:33) complex                        
  
 executed on           IFC91_ompi date 2026.05.05  12:46:44
 running on   16 total cores
 distrk:  each k-point on   16 cores,    1 groups
 distr:  one band on NCORES_PER_BAND=   4 cores,    4 groups


--------------------------------------------------------------------------------------------------------


 INCAR:
 POTCAR:    PAW_PBE C 08Apr2002                   
 POTCAR:    PAW_PBE Li_sv 10Sep2004               
 POTCAR:    PAW_PBE C 08Apr2002                   
   VRHFIN =C: s2p2                                                              
   LEXCH  = PE                                                                  
   EATOM  =   147.1560 eV,   10.8157 Ry                                         
                                                                                
   TITEL  = PAW_PBE C 08Apr2002                                                 
   LULTRA =        F    use ultrasoft PP ?                                      
   IUNSCR =        1    unscreen: 0-lin 1-nonlin 2-no                           
   RPACOR =    1.200    partial core radius                                     
   POMASS =   12.011; ZVAL   =    4.000    mass and valenz                      
   RCORE  =    1.500    outmost cutoff radius                                   
   RWIGS  =    1.630; RWIGS  =    0.863    wigner-seitz radius (au A)           
   ENMAX  =  400.000; ENMIN  =  300.000 eV                                      
   ICORE  =        2    local potential                                         
   LCOR   =        T    correct aug charges                                     
   LPAW   =        T    paw PP                                                  
   EAUG   =  644.873                                                            
   DEXC   =    0.000                                                            
   RMAX   =    1.529    core radius for proj-oper                               
   RAUG   =    1.300    factor for augmentation sphere                          
   RDEP   =    1.501    radius for radial grids                                 
   RDEPT  =    1.300    core radius for aug-charge                              
                                                                                
   Atomic configuration                                                         
    4 entries                                                                   
     n  l   j            E        occ.                                          
     1  0  0.50      -273.3789   2.0000                                         
     2  0  0.50       -13.7508   2.0000                                         
     2  1  0.50        -5.2854   2.0000                                         
     3  2  1.50        -5.4423   0.0000                                         
   Description                                                                  
     l       E           TYP  RCUT    TYP  RCUT                                 
     0    -13.7508458     23  1.200                                             
     0     -8.2022199     23  1.200                                             
     1     -5.2854383     23  1.500                                             
     1     34.0145650     23  1.500                                             
     2     -5.4423304      7  1.500                                             
  local pseudopotential read in
  partial core-charges read in
  partial kinetic energy density read in
  atomic valenz-charges read in
  non local Contribution for L=           0  read in
    real space projection operators read in
  non local Contribution for L=           0  read in
    real space projection operators read in
  non local Contribution for L=           1  read in
    real space projection operators read in
  non local Contribution for L=           1  read in
    real space projection operators read in
    PAW grid and wavefunctions read in
 
   number of l-projection  operators is LMAX  =           4
   number of lm-projection operators is LMMAX =           8
 
 POTCAR:    PAW_PBE Li_sv 10Sep2004               
   VRHFIN =Li: 1s2s2p                                                           
   LEXCH  = PE                                                                  
   EATOM  =   202.7858 eV,   14.9043 Ry                                         
                                                                                
   TITEL  = PAW_PBE Li_sv 10Sep2004                                             
   LULTRA =        F    use ultrasoft PP ?                                      
   IUNSCR =        0    unscreen: 0-lin 1-nonlin 2-no                           
   RPACOR =    0.000    partial core radius                                     
   POMASS =    7.010; ZVAL   =    3.000    mass and valenz                      
   RCORE  =    1.700    outmost cutoff radius                                   
   RWIGS  =    2.050; RWIGS  =    1.085    wigner-seitz radius (au A)           
   ENMAX  =  499.034; ENMIN  =  374.276 eV                                      
   ICORE  =        2    local potential                                         
   LCOR   =        T    correct aug charges                                     
   LPAW   =        T    paw PP                                                  
   EAUG   =  628.945                                                            
   RMAX   =    1.732    core radius for proj-oper                               
   RAUG   =    1.300    factor for augmentation sphere                          
   RDEP   =    1.728    radius for radial grids                                 
   RDEPT  =    1.329    core radius for aug-charge                              
                                                                                
   Atomic configuration                                                         
    4 entries                                                                   
     n  l   j            E        occ.                                          
     1  0  0.50       -51.8549   2.0000                                         
     2  0  0.50        -2.8742   1.0000                                         
     2  1  0.50        -1.3606   0.0000                                         
     3  2  1.50        -1.3606   0.0000                                         
   Description                                                                  
     l       E           TYP  RCUT    TYP  RCUT                                 
     0    -51.8548813     23  1.400                                             
     0     -2.8742052     23  1.700                                             
     1     -1.3605826     23  1.400                                             
     2     -1.3605826     23  1.400                                             
  local pseudopotential read in
  atomic valenz-charges read in
  non local Contribution for L=           0  read in
    real space projection operators read in
  non local Contribution for L=           0  read in
    real space projection operators read in
  non local Contribution for L=           1  read in
    real space projection operators read in
    PAW grid and wavefunctions read in
 
   number of l-projection  operators is LMAX  =           3
   number of lm-projection operators is LMMAX =           5
 
 Optimization of the real space projectors (new method)

 maximal supplied QI-value         = 25.13
 optimisation between [QCUT,QGAM] = [ 11.56, 23.12] = [ 37.43,149.72] Ry 
 Optimized for a Real-space Cutoff    1.04 Angstroem

   l    n(q)    QCUT    max X(q) W(low)/X(q) W(high)/X(q)  e(spline) 
   0      7    11.561   115.676    0.20E-03    0.60E-03    0.21E-06
   0      7    11.561    87.132    0.20E-03    0.59E-03    0.21E-06
   1      7    11.561     4.429    0.23E-03    0.35E-03    0.15E-06
   1      7    11.561     2.733    0.18E-03    0.25E-03    0.12E-06
 Optimization of the real space projectors (new method)

 maximal supplied QI-value         = 22.11
 optimisation between [QCUT,QGAM] = [ 11.50, 23.22] = [ 37.02,150.92] Ry 
 Optimized for a Real-space Cutoff    1.08 Angstroem

   l    n(q)    QCUT    max X(q) W(low)/X(q) W(high)/X(q)  e(spline) 
   0      7    11.497    10.506    0.36E-04    0.62E-04    0.14E-07
   0      7    11.497     8.367    0.65E-04    0.14E-03    0.28E-07
   1      7    11.497     8.983    0.21E-03    0.43E-03    0.90E-07
  PAW_PBE C 08Apr2002                   :
 energy of atom  1       EATOM= -147.1560
 kinetic energy error for atom=    0.0071 (will be added to EATOM!!)
  PAW_PBE Li_sv 10Sep2004               :
 energy of atom  2       EATOM= -202.7858
 kinetic energy error for atom=    0.0130 (will be added to EATOM!!)
 
 
 POSCAR: C  Li                                   
  positions in direct lattice
  velocities in cartesian coordinates
 exchange correlation table for  LEXCH =        8
   RHO(1)=    0.500       N(1)  =     2000
   RHO(2)=  100.500       N(2)  =     4000
 


--------------------------------------------------------------------------------------------------------


 ion  position               nearest neighbor table
   1  1.000  1.000  0.501-   2 1.42  42 1.42  38 1.42
   2  0.133  0.066  0.501-  25 1.42   1 1.42  11 1.42
   3  1.000  0.200  0.501-   4 1.42  42 1.42  44 1.42
   4  0.133  0.266  0.501-  25 1.42   3 1.42  15 1.42
   5  1.000  0.399  0.500-  46 1.42  44 1.42   6 1.42
   6  0.133  0.466  0.501-  15 1.42  17 1.42   5 1.42
   7  0.000  0.600  0.499-   8 1.42  48 1.42  46 1.43
   8  0.133  0.666  0.500-   7 1.42  19 1.42  17 1.42
   9  0.000  0.800  0.500-  10 1.42  38 1.42  48 1.42
  10  0.133  0.866  0.501-  19 1.42  11 1.42   9 1.42
  11  0.200  1.000  0.501-  24 1.42  10 1.42   2 1.42
  12  0.533  0.266  0.499-  23 1.42  33 1.42  35 1.42
  13  0.400  0.399  0.500-  26 1.42  14 1.42  16 1.42
  14  0.333  0.266  0.500-  23 1.42  13 1.42  25 1.42
  15  0.200  0.400  0.501-   6 1.42  16 1.42   4 1.42
  16  0.333  0.466  0.501-  15 1.42  39 1.42  13 1.42
  17  0.200  0.600  0.501-  18 1.42   6 1.42   8 1.42
  18  0.333  0.666  0.501-  39 1.42  17 1.42  29 1.42
  19  0.200  0.800  0.501-  10 1.42  20 1.42   8 1.42
  20  0.333  0.866  0.501-  29 1.42  21 1.42  19 1.42
  21  0.400  1.000  0.500-  20 1.42  24 1.42  22 1.42
  22  0.533  0.066  0.500-  33 1.42  21 1.42  31 1.42
  23  0.399  0.199  0.500-  14 1.42  12 1.42  24 1.42
  24  0.333  0.066  0.500-  11 1.42  21 1.42  23 1.42
  25  0.200  0.200  0.501-   4 1.42   2 1.42  14 1.42
  26  0.532  0.466  0.499-  13 1.42  35 1.42  37 1.43
  27  0.600  0.800  0.501-  40 1.42  30 1.42  28 1.42
  28  0.533  0.666  0.500-  37 1.42  27 1.42  39 1.42
  29  0.400  0.800  0.501-  30 1.42  20 1.42  18 1.42
  30  0.533  0.866  0.501-  29 1.42  31 1.42  27 1.42
  31  0.600  1.000  0.500-  30 1.42  32 1.42  22 1.42
  32  0.733  0.066  0.500-  41 1.42  31 1.42  43 1.42
  33  0.600  0.199  0.499-  22 1.42  34 1.42  12 1.42
  34  0.733  0.266  0.499-  43 1.42  33 1.42  45 1.42
  35  0.599  0.399  0.498-  12 1.42  26 1.42  36 1.43
  36  0.733  0.466  0.496-  35 1.43  45 1.43  47 1.43  51 2.20
  37  0.599  0.600  0.499-  28 1.42  50 1.42  26 1.43
  38  0.933  0.867  0.500-   1 1.42  49 1.42   9 1.42
  39  0.400  0.600  0.501-  18 1.42  16 1.42  28 1.42
  40  0.733  0.866  0.501-  27 1.42  41 1.42  49 1.42
  41  0.800  1.000  0.501-  32 1.42  40 1.42  42 1.42
  42  0.933  0.066  0.501-   3 1.42   1 1.42  41 1.42
  43  0.800  0.199  0.500-  44 1.42  34 1.42  32 1.42
  44  0.933  0.266  0.500-  43 1.42   5 1.42   3 1.42
  45  0.800  0.399  0.498-  34 1.42  46 1.42  36 1.43
  46  0.934  0.466  0.499-   5 1.42  45 1.42   7 1.43
  47  0.800  0.600  0.497-  48 1.43  50 1.43  36 1.43  51 1.93
  48  0.934  0.667  0.499-   9 1.42   7 1.42  47 1.43  51 2.13
  49  0.800  0.800  0.500-  40 1.42  38 1.42  50 1.42
  50  0.733  0.667  0.499-  49 1.42  37 1.42  47 1.43
  51  0.833  0.566  0.557-  47 1.93  48 2.13  36 2.20
 

IMPORTANT INFORMATION: All symmetrisations will be switched off!
NOSYMM: (Re-)initialisation of all symmetry stuff for point group C_1.

 
 
 KPOINTS: Automatic mesh                          

Automatic generation of k-mesh.
Space group operators:
 irot       det(A)        alpha          n_x          n_y          n_z        tau_x        tau_y        tau_z
    1     1.000000     0.000001     1.000000     0.000000     0.000000     0.000000     0.000000     0.000000
 
 Subroutine IBZKPT returns following result:
 ===========================================
 
 Found      5 irreducible k-points:
 
 Following reciprocal coordinates:
            Coordinates               Weight
  0.000000  0.000000  0.000000      1.000000
  0.333333 -0.000000  0.000000      2.000000
  0.000000  0.333333  0.000000      2.000000
  0.333333  0.333333  0.000000      2.000000
 -0.333333  0.333333  0.000000      2.000000
 
 Following cartesian coordinates:
            Coordinates               Weight
  0.000000  0.000000  0.000000      1.000000
  0.027100  0.015646  0.000000      2.000000
  0.000000  0.031293  0.000000      2.000000
  0.027100  0.046939  0.000000      2.000000
 -0.027100  0.015646  0.000000      2.000000
 


--------------------------------------------------------------------------------------------------------




 Dimension of arrays:
   k-points           NKPTS =      5   k-points in BZ     NKDIM =      5   number of bands    NBANDS=    132
   number of dos      NEDOS =    301   number of ions     NIONS =     51
   non local maximal  LDIM  =      4   non local SUM 2l+1 LMDIM =      8
   total plane-waves  NPLWV = ******
   max r-space proj   IRMAX =   2789   max aug-charges    IRDMAX=  51672
   dimension x,y,z NGX =    96 NGY =   96 NGZ =  224
   dimension x,y,z NGXF=   192 NGYF=  192 NGZF=  448
   support grid    NGXF=   384 NGYF=  384 NGZF=  896
   ions per type =              50   1
 NGX,Y,Z   is equivalent  to a cutoff of  12.98, 12.98, 12.41 a.u.
 NGXF,Y,Z  is equivalent  to a cutoff of  25.95, 25.95, 24.83 a.u.


 I would recommend the setting:
   dimension x,y,z NGX =    91 NGY =   91 NGZ =  223
 SYSTEM =  Li defective graphene MACE training lab 
 POSCAR =  C  Li                                   

 Startparameter for this run:
   NWRITE =      2    write-flag & timer
   PREC   = accura    normal or accurate (medium, high low for compatibility)
   ISTART =      0    job   : 0-new  1-cont  2-samecut
   ICHARG =      2    charge: 1-file 2-atom 10-const
   ISPIN  =      2    spin polarized calculation?
   LNONCOLLINEAR =      F non collinear calculations
   LSORBIT =      F    spin-orbit coupling
   INIWAV =      1    electr: 0-lowe 1-rand  2-diag
   LASPH  =      T    aspherical Exc in radial PAW
   METAGGA=      F    non-selfconsistent MetaGGA calc.

 Electronic Relaxation 1
   ENCUT  =  520.0 eV  38.22 Ry    6.18 a.u.  22.87 22.87 55.78*2*pi/ulx,y,z
   ENINI  =  520.0     initial cutoff
   ENAUG  =  644.9 eV  augmentation charge cutoff
   NELM   =    120;   NELMIN=  2; NELMDL= -5     # of ELM steps 
   EDIFF  = 0.1E-05   stopping-criterion for ELM
   LREAL  =      T    real-space projection
   NLSPLINE    = F    spline interpolate recip. space projectors
   LCOMPAT=      F    compatible to vasp.4.4
   GGA_COMPAT  = T    GGA compatible to vasp.4.4-vasp.4.6
   LMAXPAW     = -100 max onsite density
   LMAXMIX     =    2 max onsite mixed and CHGCAR
   VOSKOWN=      0    Vosko Wilk Nusair interpolation
   ROPT   =   -0.00025  -0.00025
 Ionic relaxation
   EDIFFG = 0.1E-04   stopping-criterion for IOM
   NSW    =      0    number of steps for IOM
   NBLOCK =      1;   KBLOCK =      1    inner block; outer block 
   IBRION =     -1    ionic relax: 0-MD 1-quasi-New 2-CG
   NFREE  =      0    steps in history (QN), initial steepest desc. (CG)
   ISIF   =      2    stress and relaxation
   IWAVPR =     10    prediction:  0-non 1-charg 2-wave 3-comb
   ISYM   =      0    0-nonsym 1-usesym 2-fastsym
   LCORR  =      T    Harris-Foulkes like correction to forces

   POTIM  = 0.5000    time-step for ionic-motion
   TEIN   =    0.0    initial temperature
   TEBEG  =    0.0;   TEEND  =   0.0 temperature during run
   SMASS  =  -3.00    Nose mass-parameter (am)
   estimated Nose-frequenzy (Omega)   =  0.10E-29 period in steps =****** mass=  -0.346E-26a.u.
   SCALEE = 1.0000    scale energy and forces
   NPACO  =    256;   APACO  = 16.0  distance and # of slots for P.C.
   PSTRESS=    0.0 pullay stress

  Mass of Ions in am
   POMASS =  12.01  7.01
  Ionic Valenz
   ZVAL   =   4.00  3.00
  Atomic Wigner-Seitz radii
   RWIGS  =  -1.00 -1.00
  virtual crystal weights 
   VCA    =   1.00  1.00
   NELECT =     203.0000    total number of electrons
   NUPDOWN=      -1.0000    fix difference up-down

 DOS related values:
   EMIN   =  10.00;   EMAX   =-10.00  energy-range for DOS
   EFERMI =   0.00
   ISMEAR =     0;   SIGMA  =   0.05  broadening in eV -4-tet -1-fermi 0-gaus

 Electronic relaxation 2 (details)
   IALGO  =     38    algorithm
   LDIAG  =      T    sub-space diagonalisation (order eigenvalues)
   LSUBROT=      F    optimize rotation matrix (better conditioning)
   TURBO    =      0    0=normal 1=particle mesh
   IRESTART =      0    0=no restart 2=restart with 2 vectors
   NREBOOT  =      0    no. of reboots
   NMIN     =      0    reboot dimension
   EREF     =   0.00    reference energy to select bands
   IMIX   =      4    mixing-type and parameters
     AMIX     =   0.40;   BMIX     =  1.00
     AMIX_MAG =   1.60;   BMIX_MAG =  1.00
     AMIN     =   0.10
     WC   =   100.;   INIMIX=   1;  MIXPRE=   1;  MAXMIX= -45

 Intra band minimization:
   WEIMIN = 0.0000     energy-eigenvalue tresh-hold
   EBREAK =  0.19E-08  absolut break condition
   DEPER  =   0.30     relativ break condition  

   TIME   =   0.40     timestep for ELM

  volume/ion in A,a.u.               =      77.07       520.10
  Fermi-wavevector in a.u.,A,eV,Ry     =   0.609658  1.152086  5.057049  0.371683
  Thomas-Fermi vector in A             =   1.664934
 
 Write flags
   LWAVE  =      F    write WAVECAR
   LCHARG =      F    write CHGCAR
   LVTOT  =      F    write LOCPOT, total local potential
   LVHAR  =      F    write LOCPOT, Hartree potential only
   LELF   =      F    write electronic localiz. function (ELF)
   LORBIT =      0    0 simple, 1 ext, 2 COOP (PROOUT)


 Dipole corrections
   LMONO  =      F    monopole corrections only (constant potential shift)
   LDIPOL =      F    correct potential (dipole corrections)
   IDIPOL =      0    1-x, 2-y, 3-z, 4-all directions 
   EPSILON=  1.0000000 bulk dielectric constant

 Exchange correlation treatment:
   GGA     =    --    GGA type
   LEXCH   =     8    internal setting for exchange type
   VOSKOWN=      0    Vosko Wilk Nusair interpolation
   LHFCALC =     F    Hartree Fock is set to
   LHFONE  =     F    Hartree Fock one center treatment
   AEXX    =    0.0000 exact exchange contribution

 Linear response parameters
   LEPSILON=     F    determine dielectric tensor
   LRPA    =     F    only Hartree local field effects (RPA)
   LNABLA  =     F    use nabla operator in PAW spheres
   LVEL    =     F    velocity operator in full k-point grid
   LINTERFAST=   F  fast interpolation
   KINTER  =     0    interpolate to denser k-point grid
   CSHIFT  =0.1000    complex shift for real part using Kramers Kronig
   OMEGAMAX=  -1.0    maximum frequency
   DEG_THRESHOLD= 0.2000000E-02 threshold for treating states as degnerate
   RTIME   =    0.100 relaxation time in fs

 Orbital magnetization related:
   ORBITALMAG=     F  switch on orbital magnetization
   LCHIMAG   =     F  perturbation theory with respect to B field
   DQ        =  0.001000  dq finite difference perturbation B field



--------------------------------------------------------------------------------------------------------


 Static calculation
 charge density and potential will be updated during run
 spin polarized calculation
 Variant of blocked Davidson
 Davidson routine will perform the subspace rotation
 perform sub-space diagonalisation
    after iterative eigenvector-optimisation
 modified Broyden-mixing scheme, WC =      100.0
 initial mixing is a Kerker type mixing with AMIX =  0.4000 and BMIX =      1.0000
 Hartree-type preconditioning will be used
 using additional bands           30
 real space projection scheme for non local part
 use partial core corrections
 calculate Harris-corrections to forces 
   (improved forces if not selfconsistent)
 use gradient corrections 
 use of overlap-Matrix (Vanderbilt PP)
 Gauss-broadening in eV      SIGMA  =   0.05


--------------------------------------------------------------------------------------------------------


  energy-cutoff  :      520.00
  volume of cell :     3930.63
      direct lattice vectors                 reciprocal lattice vectors
    12.300000000  0.000000000  0.000000000     0.081300813  0.046939046  0.000000000
    -6.150000000 10.652112467  0.000000000     0.000000000  0.093878093  0.000000000
     0.000000000  0.000000000 30.000000000     0.000000000  0.000000000  0.033333333

  length of vectors
    12.300000000 12.300000000 30.000000000     0.093878093  0.093878093  0.033333333


 
 k-points in units of 2pi/SCALE and weight: Automatic mesh                          
   0.00000000  0.00000000  0.00000000       0.111
   0.02710027  0.01564635  0.00000000       0.222
   0.00000000  0.03129270  0.00000000       0.222
   0.02710027  0.04693905  0.00000000       0.222
  -0.02710027  0.01564635  0.00000000       0.222
 
 k-points in reciprocal lattice and weights: Automatic mesh                          
   0.00000000  0.00000000  0.00000000       0.111
   0.33333333 -0.00000000  0.00000000       0.222
   0.00000000  0.33333333  0.00000000       0.222
   0.33333333  0.33333333  0.00000000       0.222
  -0.33333333  0.33333333  0.00000000       0.222
 
 position of ions in fractional coordinates (direct lattice) 
   0.99988345  0.99976655  0.50070365
   0.13313835  0.06628113  0.50076414
   0.99986462  0.19951048  0.50066204
   0.13305819  0.26611600  0.50076947
   0.99990120  0.39942212  0.49998752
   0.13338012  0.46632027  0.50055545
   0.00048883  0.59983601  0.49930029
   0.13338223  0.66639362  0.50027805
   0.00013167  0.80005692  0.50007430
   0.13342895  0.86639370  0.50062777
   0.19988452  0.99968809  0.50070413
   0.53269490  0.26567077  0.49881187
   0.39952012  0.39942278  0.49998743
   0.33300586  0.26609951  0.50014356
   0.19981037  0.39962309  0.50075225
   0.33294004  0.46632029  0.50055536
   0.19997977  0.59953607  0.50060301
   0.33310144  0.66620258  0.50078017
   0.19991176  0.79974914  0.50056953
   0.33323385  0.86627322  0.50060775
   0.39973654  0.99953012  0.50025629
   0.53301150  0.06602273  0.49980551
   0.39946049  0.19938192  0.49980423
   0.33298763  0.06605684  0.50031679
   0.19964609  0.19951040  0.50066207
   0.53246359  0.46605661  0.49899750
   0.59983768  0.79974909  0.50056930
   0.53301162  0.66639344  0.50027784
   0.39984966  0.79969901  0.50068206
   0.53303957  0.86627318  0.50060762
   0.59979394  0.99953014  0.50025619
   0.73306943  0.06605683  0.50031666
   0.59959923  0.19919799  0.49887261
   0.73297608  0.26567075  0.49881183
   0.59905631  0.39903661  0.49790284
   0.73285164  0.46570284  0.49584713
   0.59934769  0.59983616  0.49930013
   0.93325060  0.86650095  0.50020757
   0.39955622  0.59953654  0.50060288
   0.73296500  0.86639367  0.50062756
   0.79980395  0.99968811  0.50070396
   0.93314298  0.06628108  0.50076405
   0.79992187  0.19938193  0.49980417
   0.93309373  0.26609919  0.50014357
   0.79998080  0.39903666  0.49790285
   0.93359301  0.46605671  0.49899760
   0.80010598  0.60021136  0.49686686
   0.93384667  0.66677439  0.49886028
   0.79992566  0.80005696  0.50007418
   0.73292796  0.66677434  0.49886021
   0.83334915  0.56623861  0.55656547
 
 position of ions in cartesian coordinates  (Angst):
   6.15000211 10.64962578 15.02110949
   1.22997271  0.70603403 15.02292424
  11.07134542  2.12520807 15.01986130
   0.00000239  2.83469752 15.02308409
   9.84233872  4.25468934 14.99962560
  -1.22729425  4.96729599 15.01666349
  -3.68297885  6.38952063 14.97900858
  -2.45771932  7.09849979 15.00834149
  -4.91873054  8.52229634 15.00222896
  -3.68714513  9.22892316 15.01883306
  -3.68950212 10.64879000 15.02112389
   4.91827198  2.82995495 14.96435597
   2.45764743  4.25469637 14.99962277
   2.45946015  2.83452188 15.00430679
  -0.00001441  4.25683011 15.02256735
   1.22729275  4.96729621 15.01666077
  -1.22739567  6.38632568 15.01809035
   0.00000180  7.09646482 15.02340501
  -2.45954255  8.51901778 15.01708584
  -1.22880397  9.22763977 15.01823262
  -1.23035082 10.64710721 15.00768869
   6.15000161  0.70328155 14.99416520
   3.68716528  2.12383862 14.99412681
   3.68949833  0.70364485 15.00950376
   1.22865795  2.12520724 15.01986198
   3.68305398  4.96448738 14.96992501
   2.45954655  8.51901725 15.01707911
   2.45772319  7.09849792 15.00833506
   0.00000192  8.51848376 15.02046185
   1.22880664  9.22763937 15.01822858
   1.23035510 10.64710749 15.00768564
   8.61050455  0.70364473 15.00949968
   6.15000287  2.12187944 14.96617823
   7.38173073  2.82995467 14.96435504
   4.91431740  4.25058289 14.93708534
   6.15000268  4.96071899 14.87541392
   3.68298417  6.38952219 14.97900395
   6.15000151  9.23006557 15.00622702
   1.22739183  6.38633065 15.01808639
   3.68714850  9.22892279 15.01882683
   3.68950666 10.64879020 15.02111874
  11.07003004  0.70603350 15.02292160
   8.61284012  2.12383879 14.99412524
   9.84054283  2.83451845 15.00430711
   7.38568835  4.25058342 14.93708542
   8.61694531  4.96448846 14.96992788
   6.15000373  6.39351893 14.90600589
   7.38565149  7.10255578 14.96580842
   4.91873534  8.52229670 15.00222554
   4.91435171  7.10255524 14.96580626
   6.76782709  6.03163738 16.69696404
 


--------------------------------------------------------------------------------------------------------


 k-point  1 :   0.0000 0.0000 0.0000  plane waves:  105831
 k-point  2 :   0.3333-0.0000 0.0000  plane waves:  105834
 k-point  3 :   0.0000 0.3333 0.0000  plane waves:  105834
 k-point  4 :   0.3333 0.3333 0.0000  plane waves:  105861
 k-point  5 :  -0.3333 0.3333 0.0000  plane waves:  105834

 maximum and minimum number of plane-waves per node :     26501    26424

 maximum number of plane-waves:    105861
 maximum index in each direction: 
   IXMAX=   23   IYMAX=   22   IZMAX=   55
   IXMIN=  -23   IYMIN=  -23   IZMIN=  -55

 NGX is ok and might be reduce to  94
 NGY is ok and might be reduce to  92
 NGZ is ok and might be reduce to 222

 real space projection operators:
  total allocation   :       7708.84 KBytes
  max/ min on nodes  :       1928.96       1925.52


 parallel 3D FFT for wavefunctions:
    minimum data exchange during FFTs selected (reduces bandwidth)
 parallel 3D FFT for charge:
    minimum data exchange during FFTs selected (reduces bandwidth)


 total amount of memory used by VASP on root node   465222. kBytes
========================================================================

   base      :      30000. kBytes
   nonlr-proj:       4760. kBytes
   fftplans  :     165810. kBytes
   grid      :     124231. kBytes
   one-center:         79. kBytes
   wavefun   :     140342. kBytes
 
     INWAV:  cpu time    0.0000: real time    0.0002
 Broyden mixing: mesh for mixing (old mesh)
   NGX = 45   NGY = 45   NGZ =111
  (NGX  =192   NGY  =192   NGZ  =448)
  gives a total of 224775 points

 initial charge density was supplied:
 charge density of overlapping atoms calculated
 number of electron     203.0000000 magnetization       6.0000000
 keeping initial charge density in first step


--------------------------------------------------------------------------------------------------------


 Maximum index for non-local projection operator          679
 Maximum index for augmentation-charges         3244 (set IRDMAX)


--------------------------------------------------------------------------------------------------------


 First call to EWALD:  gamma=   0.112
 Maximum number of real-space cells 4x 4x 2
 Maximum number of reciprocal cells 2x 2x 5

 FEWALD executed in parallel
    FEWALD:  cpu time    0.0023: real time    0.0035


----------------------------------------- Iteration    1(   1)  ---------------------------------------


    POTLOK:  cpu time    1.4861: real time    1.4862
    SETDIJ:  cpu time    1.3559: real time    1.3582
     EDDAV:  cpu time   45.6184: real time   45.6496
       DOS:  cpu time    0.0006: real time    0.0007
    --------------------------------------------
      LOOP:  cpu time   48.4621: real time   48.4982

 eigenvalue-minimisations  :  3256
 total energy-change (2. order) : 0.1938205E+04  (-0.6808754E+04)
 number of electron     203.0000000 magnetization       6.0000000
 augmentation part      203.0000000 magnetization       6.0000000

 Free energy of the ion-electron system (eV)
  ---------------------------------------------------
  alpha Z        PSCENC =        53.42782116
  Ewald energy   TEWEN  =     56959.72722881
  -Hartree energ DENC   =    -62193.69573573
  -exchange      EXHF   =         0.00000000
  -V(xc)+E(xc)   XCENC  =       672.90157251
  PAW double counting   =      5505.55773403    -5549.36347127
  entropy T*S    EENTRO =        -0.03130019
  eigenvalues    EBANDS =     -1070.53594323
  atomic energy  EATOM  =      7560.21751256
  Solvation  Ediel_sol  =         0.00000000
  ---------------------------------------------------
  free energy    TOTEN  =      1938.20541864 eV

  energy without entropy =     1938.23671883  energy(sigma->0) =     1938.22106874


--------------------------------------------------------------------------------------------------------




----------------------------------------- Iteration    1(   2)  ---------------------------------------


     EDDAV:  cpu time   54.9624: real time   54.9673
       DOS:  cpu time    0.0005: real time    0.0005
    --------------------------------------------
      LOOP:  cpu time   54.9639: real time   54.9720

 eigenvalue-minimisations  :  4080
 total energy-change (2. order) :-0.1901219E+04  (-0.1757203E+04)
 number of electron     203.0000000 magnetization       6.0000000
 augmentation part      203.0000000 magnetization       6.0000000

 Free energy of the ion-electron system (eV)
  ---------------------------------------------------
  alpha Z        PSCENC =        53.42782116
  Ewald energy   TEWEN  =     56959.72722881
  -Hartree energ DENC   =    -62193.69573573
  -exchange      EXHF   =         0.00000000
  -V(xc)+E(xc)   XCENC  =       672.90157251
  PAW double counting   =      5505.55773403    -5549.36347127
  entropy T*S    EENTRO =        -0.00500291
  eigenvalues    EBANDS =     -2971.78144203
  atomic energy  EATOM  =      7560.21751256
  Solvation  Ediel_sol  =         0.00000000
  ---------------------------------------------------
  free energy    TOTEN  =        36.98621712 eV

  energy without entropy =       36.99122003  energy(sigma->0) =       36.98871858


--------------------------------------------------------------------------------------------------------




----------------------------------------- Iteration    1(   3)  ---------------------------------------


     EDDAV:  cpu time   48.3839: real time   48.3889
       DOS:  cpu time    0.0005: real time    0.0005
    --------------------------------------------
      LOOP:  cpu time   48.3849: real time   48.3929

 eigenvalue-minimisations  :  3488
 total energy-change (2. order) :-0.5057065E+03  (-0.4999110E+03)
 number of electron     203.0000000 magnetization       6.0000000
 augmentation part      203.0000000 magnetization       6.0000000

 Free energy of the ion-electron system (eV)
  ---------------------------------------------------
  alpha Z        PSCENC =        53.42782116
  Ewald energy   TEWEN  =     56959.72722881
  -Hartree energ DENC   =    -62193.69573573
  -exchange      EXHF   =         0.00000000
  -V(xc)+E(xc)   XCENC  =       672.90157251
  PAW double counting   =      5505.55773403    -5549.36347127
  entropy T*S    EENTRO =        -0.00844077
  eigenvalues    EBANDS =     -3477.48454166
  atomic energy  EATOM  =      7560.21751256
  Solvation  Ediel_sol  =         0.00000000
  ---------------------------------------------------
  free energy    TOTEN  =      -468.72032037 eV

  energy without entropy =     -468.71187960  energy(sigma->0) =     -468.71609999


--------------------------------------------------------------------------------------------------------




----------------------------------------- Iteration    1(   4)  ---------------------------------------


     EDDAV:  cpu time   47.4869: real time   47.4905
       DOS:  cpu time    0.0005: real time    0.0005
    --------------------------------------------
      LOOP:  cpu time   47.4878: real time   47.4944

 eigenvalue-minimisations  :  3392
 total energy-change (2. order) :-0.2644115E+02  (-0.2616156E+02)
 number of electron     203.0000000 magnetization       6.0000000
 augmentation part      203.0000000 magnetization       6.0000000

 Free energy of the ion-electron system (eV)
  ---------------------------------------------------
  alpha Z        PSCENC =        53.42782116
  Ewald energy   TEWEN  =     56959.72722881
  -Hartree energ DENC   =    -62193.69573573
  -exchange      EXHF   =         0.00000000
  -V(xc)+E(xc)   XCENC  =       672.90157251
  PAW double counting   =      5505.55773403    -5549.36347127
  entropy T*S    EENTRO =        -0.01196751
  eigenvalues    EBANDS =     -3503.92216450
  atomic energy  EATOM  =      7560.21751256
  Solvation  Ediel_sol  =         0.00000000
  ---------------------------------------------------
  free energy    TOTEN  =      -495.16146995 eV

  energy without entropy =     -495.14950244  energy(sigma->0) =     -495.15548619


--------------------------------------------------------------------------------------------------------




----------------------------------------- Iteration    1(   5)  ---------------------------------------


     EDDAV:  cpu time   54.6395: real time   54.6446
       DOS:  cpu time    0.0005: real time    0.0005
    CHARGE:  cpu time    4.2897: real time    4.2899
    MIXING:  cpu time    0.0296: real time    0.0296
    --------------------------------------------
      LOOP:  cpu time   58.9598: real time   58.9673

 eigenvalue-minimisations  :  4040
 total energy-change (2. order) :-0.9397244E+00  (-0.9313444E+00)
 number of electron     203.0000000 magnetization       5.6339394
 augmentation part        6.4986971 magnetization       5.0755784

 Broyden mixing:
  rms(total) = 0.33376E+01    rms(broyden)= 0.33371E+01
  rms(prec ) = 0.34390E+01
  weight for this iteration     100.00

 Free energy of the ion-electron system (eV)
  ---------------------------------------------------
  alpha Z        PSCENC =        53.42782116
  Ewald energy   TEWEN  =     56959.72722881
  -Hartree energ DENC   =    -62193.69573573
  -exchange      EXHF   =         0.00000000
  -V(xc)+E(xc)   XCENC  =       672.90157251
  PAW double counting   =      5505.55773403    -5549.36347127
  entropy T*S    EENTRO =        -0.01298837
  eigenvalues    EBANDS =     -3504.86086802
  atomic energy  EATOM  =      7560.21751256
  Solvation  Ediel_sol  =         0.00000000
  ---------------------------------------------------
  free energy    TOTEN  =      -496.10119433 eV

  energy without entropy =     -496.08820596  energy(sigma->0) =     -496.09470014


--------------------------------------------------------------------------------------------------------




----------------------------------------- Iteration    1(   6)  ---------------------------------------


    POTLOK:  cpu time    1.2674: real time    1.2674
    SETDIJ:  cpu time    1.3793: real time    1.3794
     EDDAV:  cpu time   42.5962: real time   42.6009
       DOS:  cpu time    0.0005: real time    0.0005
    CHARGE:  cpu time    4.1967: real time    4.1969
    MIXING:  cpu time    0.0478: real time    0.0478
    --------------------------------------------
      LOOP:  cpu time   49.4885: real time   49.4959

 eigenvalue-minimisations  :  2964
 total energy-change (2. order) : 0.2513008E+02  (-0.2449216E+01)
 number of electron     203.0000000 magnetization       5.1291932
 augmentation part        6.2399172 magnetization       4.5614578

 Broyden mixing:
  rms(total) = 0.19345E+01    rms(broyden)= 0.19345E+01
  rms(prec ) = 0.19875E+01
  weight for this iteration     100.00

 eigenvalues of (default mixing * dielectric matrix)
  average eigenvalue GAMMA=   0.9908
  0.9908

 Free energy of the ion-electron system (eV)
  ---------------------------------------------------
  alpha Z        PSCENC =        53.42782116
  Ewald energy   TEWEN  =     56959.72722881
  -Hartree energ DENC   =    -62498.97621679
  -exchange      EXHF   =         0.00000000
  -V(xc)+E(xc)   XCENC  =       685.94198053
  PAW double counting   =     10123.49036410   -10171.31527657
  entropy T*S    EENTRO =        -0.01474390
  eigenvalues    EBANDS =     -3183.46978398
  atomic energy  EATOM  =      7560.21751256
  Solvation  Ediel_sol  =         0.00000000
  ---------------------------------------------------
  free energy    TOTEN  =      -470.97111409 eV

  energy without entropy =     -470.95637019  energy(sigma->0) =     -470.96374214


--------------------------------------------------------------------------------------------------------




----------------------------------------- Iteration    1(   7)  ---------------------------------------


    POTLOK:  cpu time    1.3403: real time    1.3405
    SETDIJ:  cpu time    1.4076: real time    1.4077
     EDDAV:  cpu time   43.1791: real time   43.1828
       DOS:  cpu time    0.0006: real time    0.0006
    CHARGE:  cpu time    4.0669: real time    4.0672
    MIXING:  cpu time    0.0357: real time    0.0357
    --------------------------------------------
      LOOP:  cpu time   50.0309: real time   50.0366

 eigenvalue-minimisations  :  3020
 total energy-change (2. order) : 0.1265268E+02  (-0.1603104E+01)
 number of electron     203.0000000 magnetization       4.6728327
 augmentation part        6.0305259 magnetization       4.1248792

 Broyden mixing:
  rms(total) = 0.10007E+01    rms(broyden)= 0.10007E+01
  rms(prec ) = 0.10172E+01
  weight for this iteration     100.00

 eigenvalues of (default mixing * dielectric matrix)
  average eigenvalue GAMMA=   1.4412
  0.6705  2.2119

 Free energy of the ion-electron system (eV)
  ---------------------------------------------------
  alpha Z        PSCENC =        53.42782116
  Ewald energy   TEWEN  =     56959.72722881
  -Hartree energ DENC   =    -62781.06599996
  -exchange      EXHF   =         0.00000000
  -V(xc)+E(xc)   XCENC  =       700.53691055
  PAW double counting   =     15911.75299247   -15962.10953575
  entropy T*S    EENTRO =        -0.01628259
  eigenvalues    EBANDS =     -2900.78907958
  atomic energy  EATOM  =      7560.21751256
  Solvation  Ediel_sol  =         0.00000000
  ---------------------------------------------------
  free energy    TOTEN  =      -458.31843235 eV

  energy without entropy =     -458.30214975  energy(sigma->0) =     -458.31029105


--------------------------------------------------------------------------------------------------------




----------------------------------------- Iteration    1(   8)  ---------------------------------------


    POTLOK:  cpu time    1.3698: real time    1.3701
    SETDIJ:  cpu time    1.4023: real time    1.4024
     EDDAV:  cpu time   42.9900: real time   42.9939
       DOS:  cpu time    0.0005: real time    0.0005
    CHARGE:  cpu time    4.0087: real time    4.0089
    MIXING:  cpu time    0.0458: real time    0.0458
    --------------------------------------------
      LOOP:  cpu time   49.8177: real time   49.8241

 eigenvalue-minimisations  :  3000
 total energy-change (2. order) : 0.5465717E+00  (-0.4655263E+00)
 number of electron     203.0000000 magnetization       4.1481820
 augmentation part        5.8926047 magnetization       3.6061726

 Broyden mixing:
  rms(total) = 0.37804E+00    rms(broyden)= 0.37797E+00
  rms(prec ) = 0.38997E+00
  weight for this iteration     100.00

 eigenvalues of (default mixing * dielectric matrix)
  average eigenvalue GAMMA=   1.4518
  2.3272  1.3684  0.6599

 Free energy of the ion-electron system (eV)
  ---------------------------------------------------
  alpha Z        PSCENC =        53.42782116
  Ewald energy   TEWEN  =     56959.72722881
  -Hartree energ DENC   =    -62949.67719899
  -exchange      EXHF   =         0.00000000
  -V(xc)+E(xc)   XCENC  =       706.24012755
  PAW double counting   =     19999.40546313   -20050.66146389
  entropy T*S    EENTRO =        -0.01507035
  eigenvalues    EBANDS =     -2736.43628064
  atomic energy  EATOM  =      7560.21751256
  Solvation  Ediel_sol  =         0.00000000
  ---------------------------------------------------
  free energy    TOTEN  =      -457.77186067 eV

  energy without entropy =     -457.75679032  energy(sigma->0) =     -457.76432550


--------------------------------------------------------------------------------------------------------




----------------------------------------- Iteration    1(   9)  ---------------------------------------


    POTLOK:  cpu time    1.3671: real time    1.3673
    SETDIJ:  cpu time    1.4071: real time    1.4072
     EDDAV:  cpu time   47.9208: real time   47.9254
       DOS:  cpu time    0.0005: real time    0.0005
    CHARGE:  cpu time    4.0095: real time    4.0101
    MIXING:  cpu time    0.0272: real time    0.0272
    --------------------------------------------
      LOOP:  cpu time   54.7327: real time   54.7401

 eigenvalue-minimisations  :  3452
 total energy-change (2. order) :-0.1212394E+01  (-0.6135506E-01)
 number of electron     203.0000000 magnetization       3.8794168
 augmentation part        5.8652726 magnetization       3.3449853

 Broyden mixing:
  rms(total) = 0.14013E+00    rms(broyden)= 0.14004E+00
  rms(prec ) = 0.15367E+00
  weight for this iteration     100.00

 eigenvalues of (default mixing * dielectric matrix)
  average eigenvalue GAMMA=   1.4407
  2.2489  2.1386  0.7295  0.6460

 Free energy of the ion-electron system (eV)
  ---------------------------------------------------
  alpha Z        PSCENC =        53.42782116
  Ewald energy   TEWEN  =     56959.72722881
  -Hartree energ DENC   =    -63005.78122468
  -exchange      EXHF   =         0.00000000
  -V(xc)+E(xc)   XCENC  =       705.16893375
  PAW double counting   =     21270.76839530   -21321.23637654
  entropy T*S    EENTRO =        -0.01421259
  eigenvalues    EBANDS =     -2681.26233290
  atomic energy  EATOM  =      7560.21751256
  Solvation  Ediel_sol  =         0.00000000
  ---------------------------------------------------
  free energy    TOTEN  =      -458.98425515 eV

  energy without entropy =     -458.97004255  energy(sigma->0) =     -458.97714885


--------------------------------------------------------------------------------------------------------




----------------------------------------- Iteration    1(  10)  ---------------------------------------


    POTLOK:  cpu time    1.3948: real time    1.3949
    SETDIJ:  cpu time    1.4002: real time    1.4003
     EDDAV:  cpu time   41.8602: real time   41.8631
       DOS:  cpu time    0.0005: real time    0.0005
    CHARGE:  cpu time    3.8107: real time    3.8108
    MIXING:  cpu time    0.0545: real time    0.0545
    --------------------------------------------
      LOOP:  cpu time   48.5212: real time   48.5272

 eigenvalue-minimisations  :  2904
 total energy-change (2. order) :-0.2721129E+00  (-0.1687038E-01)
 number of electron     203.0000000 magnetization       3.5504732
 augmentation part        5.8610197 magnetization       3.0368274

 Broyden mixing:
  rms(total) = 0.93266E-01    rms(broyden)= 0.93249E-01
  rms(prec ) = 0.10691E+00
  weight for this iteration     100.00

 eigenvalues of (default mixing * dielectric matrix)
  average eigenvalue GAMMA=   1.3486
  2.2214  2.2214  0.9528  0.7013  0.6461

 Free energy of the ion-electron system (eV)
  ---------------------------------------------------
  alpha Z        PSCENC =        53.42782116
  Ewald energy   TEWEN  =     56959.72722881
  -Hartree energ DENC   =    -63032.81481141
  -exchange      EXHF   =         0.00000000
  -V(xc)+E(xc)   XCENC  =       705.11602251
  PAW double counting   =     21433.17164703   -21483.46707696
  entropy T*S    EENTRO =        -0.01508300
  eigenvalues    EBANDS =     -2654.61962878
  atomic energy  EATOM  =      7560.21751256
  Solvation  Ediel_sol  =         0.00000000
  ---------------------------------------------------
  free energy    TOTEN  =      -459.25636810 eV

  energy without entropy =     -459.24128509  energy(sigma->0) =     -459.24882659


--------------------------------------------------------------------------------------------------------




----------------------------------------- Iteration    1(  11)  ---------------------------------------


    POTLOK:  cpu time    1.5103: real time    1.5112
    SETDIJ:  cpu time    1.4104: real time    1.4105
     EDDAV:  cpu time   45.3214: real time   45.3244
       DOS:  cpu time    0.0006: real time    0.0006
    CHARGE:  cpu time    3.8433: real time    3.8439
    MIXING:  cpu time    0.0478: real time    0.0478
    --------------------------------------------
      LOOP:  cpu time   52.1343: real time   52.1409

 eigenvalue-minimisations  :  3220
 total energy-change (2. order) :-0.3157239E+00  (-0.5955780E-02)
 number of electron     203.0000000 magnetization       2.7219108
 augmentation part        5.8561790 magnetization       2.2268064

 Broyden mixing:
  rms(total) = 0.77514E-01    rms(broyden)= 0.77511E-01
  rms(prec ) = 0.87884E-01
  weight for this iteration     100.00

 eigenvalues of (default mixing * dielectric matrix)
  average eigenvalue GAMMA=   1.4708
  2.4428  2.4428  1.7643  0.8506  0.6844  0.6399

 Free energy of the ion-electron system (eV)
  ---------------------------------------------------
  alpha Z        PSCENC =        53.42782116
  Ewald energy   TEWEN  =     56959.72722881
  -Hartree energ DENC   =    -63064.25579643
  -exchange      EXHF   =         0.00000000
  -V(xc)+E(xc)   XCENC  =       705.15133265
  PAW double counting   =     21379.58490739   -21429.84654852
  entropy T*S    EENTRO =        -0.01579168
  eigenvalues    EBANDS =     -2623.56275798
  atomic energy  EATOM  =      7560.21751256
  Solvation  Ediel_sol  =         0.00000000
  ---------------------------------------------------
  free energy    TOTEN  =      -459.57209204 eV

  energy without entropy =     -459.55630036  energy(sigma->0) =     -459.56419620


--------------------------------------------------------------------------------------------------------




----------------------------------------- Iteration    1(  12)  ---------------------------------------


    POTLOK:  cpu time    1.5074: real time    1.5078
    SETDIJ:  cpu time    1.3968: real time    1.3969
     EDDAV:  cpu time   40.7671: real time   40.7717
       DOS:  cpu time    0.0005: real time    0.0005
    CHARGE:  cpu time    3.8274: real time    3.8275
    MIXING:  cpu time    0.0649: real time    0.0649
    --------------------------------------------
      LOOP:  cpu time   47.5647: real time   47.5720

 eigenvalue-minimisations  :  2808
 total energy-change (2. order) :-0.4308330E+00  (-0.2320789E-01)
 number of electron     203.0000000 magnetization       2.2712052
 augmentation part        5.8495021 magnetization       1.8301548

 Broyden mixing:
  rms(total) = 0.51576E-01    rms(broyden)= 0.51573E-01
  rms(prec ) = 0.55140E-01
  weight for this iteration     100.00

 eigenvalues of (default mixing * dielectric matrix)
  average eigenvalue GAMMA=   1.6271
  3.8816  2.4209  1.9661  1.0195  0.7897  0.6794  0.6324

 Free energy of the ion-electron system (eV)
  ---------------------------------------------------
  alpha Z        PSCENC =        53.42782116
  Ewald energy   TEWEN  =     56959.72722881
  -Hartree energ DENC   =    -63135.45112694
  -exchange      EXHF   =         0.00000000
  -V(xc)+E(xc)   XCENC  =       705.47518149
  PAW double counting   =     21281.92285298   -21332.07794659
  entropy T*S    EENTRO =        -0.01718251
  eigenvalues    EBANDS =     -2553.22726601
  atomic energy  EATOM  =      7560.21751256
  Solvation  Ediel_sol  =         0.00000000
  ---------------------------------------------------
  free energy    TOTEN  =      -460.00292505 eV

  energy without entropy =     -459.98574254  energy(sigma->0) =     -459.99433379


--------------------------------------------------------------------------------------------------------




----------------------------------------- Iteration    1(  13)  ---------------------------------------


    POTLOK:  cpu time    1.5146: real time    1.5148
    SETDIJ:  cpu time    1.4089: real time    1.4098
     EDDAV:  cpu time   41.2722: real time   41.2751
       DOS:  cpu time    0.0006: real time    0.0006
    CHARGE:  cpu time    3.8402: real time    3.8403
    MIXING:  cpu time    0.0392: real time    0.0392
    --------------------------------------------
      LOOP:  cpu time   48.0764: real time   48.0825

 eigenvalue-minimisations  :  2852
 total energy-change (2. order) :-0.7133086E-01  (-0.5805247E-02)
 number of electron     203.0000000 magnetization       1.6980661
 augmentation part        5.8461247 magnetization       1.3188280

 Broyden mixing:
  rms(total) = 0.41116E-01    rms(broyden)= 0.41114E-01
  rms(prec ) = 0.42997E-01
  weight for this iteration     100.00

 eigenvalues of (default mixing * dielectric matrix)
  average eigenvalue GAMMA=   1.7254
  5.0623  2.3143  2.0720  1.2777  1.0118  0.7602  0.6308  0.6740

 Free energy of the ion-electron system (eV)
  ---------------------------------------------------
  alpha Z        PSCENC =        53.42782116
  Ewald energy   TEWEN  =     56959.72722881
  -Hartree energ DENC   =    -63165.76362075
  -exchange      EXHF   =         0.00000000
  -V(xc)+E(xc)   XCENC  =       705.65800630
  PAW double counting   =     21284.85313492   -21334.97744538
  entropy T*S    EENTRO =        -0.01844736
  eigenvalues    EBANDS =     -2523.19844617
  atomic energy  EATOM  =      7560.21751256
  Solvation  Ediel_sol  =         0.00000000
  ---------------------------------------------------
  free energy    TOTEN  =      -460.07425591 eV

  energy without entropy =     -460.05580855  energy(sigma->0) =     -460.06503223


--------------------------------------------------------------------------------------------------------




----------------------------------------- Iteration    1(  14)  ---------------------------------------


    POTLOK:  cpu time    1.5075: real time    1.5076
    SETDIJ:  cpu time    1.3980: real time    1.3998
     EDDAV:  cpu time   41.6269: real time   41.6296
       DOS:  cpu time    0.0005: real time    0.0005
    CHARGE:  cpu time    3.8473: real time    3.8474
    MIXING:  cpu time    0.0596: real time    0.0596
    --------------------------------------------
      LOOP:  cpu time   48.4404: real time   48.4472

 eigenvalue-minimisations  :  2884
 total energy-change (2. order) :-0.9008575E+00  (-0.5772635E-02)
 number of electron     203.0000000 magnetization       1.2398637
 augmentation part        5.8437693 magnetization       0.9445766

 Broyden mixing:
  rms(total) = 0.27873E-01    rms(broyden)= 0.27871E-01
  rms(prec ) = 0.29064E-01
  weight for this iteration     100.00

 eigenvalues of (default mixing * dielectric matrix)
  average eigenvalue GAMMA=   2.1058
  8.1662  2.4841  2.4841  1.8816  1.0781  0.8259  0.7371  0.6280  0.6670

 Free energy of the ion-electron system (eV)
  ---------------------------------------------------
  alpha Z        PSCENC =        53.42782116
  Ewald energy   TEWEN  =     56959.72722881
  -Hartree energ DENC   =    -63191.50998102
  -exchange      EXHF   =         0.00000000
  -V(xc)+E(xc)   XCENC  =       704.87829508
  PAW double counting   =     21265.81753819   -21315.94136591
  entropy T*S    EENTRO =        -0.01998899
  eigenvalues    EBANDS =     -2497.57217332
  atomic energy  EATOM  =      7560.21751256
  Solvation  Ediel_sol  =         0.00000000
  ---------------------------------------------------
  free energy    TOTEN  =      -460.97511345 eV

  energy without entropy =     -460.95512445  energy(sigma->0) =     -460.96511895


--------------------------------------------------------------------------------------------------------




----------------------------------------- Iteration    1(  15)  ---------------------------------------


    POTLOK:  cpu time    1.5017: real time    1.5030
    SETDIJ:  cpu time    1.4104: real time    1.4116
     EDDAV:  cpu time   42.0732: real time   42.0787
       DOS:  cpu time    0.0005: real time    0.0005
    CHARGE:  cpu time    3.9068: real time    3.9069
    MIXING:  cpu time    0.0543: real time    0.0543
    --------------------------------------------
      LOOP:  cpu time   48.9475: real time   48.9580

 eigenvalue-minimisations  :  2928
 total energy-change (2. order) :-0.6808138E+00  (-0.2417434E-02)
 number of electron     203.0000000 magnetization       1.0298265
 augmentation part        5.8418891 magnetization       0.8102518

 Broyden mixing:
  rms(total) = 0.19412E-01    rms(broyden)= 0.19409E-01
  rms(prec ) = 0.21001E-01
  weight for this iteration     100.00

 eigenvalues of (default mixing * dielectric matrix)
  average eigenvalue GAMMA=   2.1622
  9.6345  2.5878  2.5878  1.8822  1.1761  0.9401  0.8079  0.7150  0.6268  0.6636

 Free energy of the ion-electron system (eV)
  ---------------------------------------------------
  alpha Z        PSCENC =        53.42782116
  Ewald energy   TEWEN  =     56959.72722881
  -Hartree energ DENC   =    -63204.55630218
  -exchange      EXHF   =         0.00000000
  -V(xc)+E(xc)   XCENC  =       704.19844238
  PAW double counting   =     21254.05073049   -21304.18317347
  entropy T*S    EENTRO =        -0.02098465
  eigenvalues    EBANDS =     -2484.51720236
  atomic energy  EATOM  =      7560.21751256
  Solvation  Ediel_sol  =         0.00000000
  ---------------------------------------------------
  free energy    TOTEN  =      -461.65592727 eV

  energy without entropy =     -461.63494263  energy(sigma->0) =     -461.64543495


--------------------------------------------------------------------------------------------------------




----------------------------------------- Iteration    1(  16)  ---------------------------------------


    POTLOK:  cpu time    1.5029: real time    1.5042
    SETDIJ:  cpu time    1.3976: real time    1.3990
     EDDAV:  cpu time   42.6167: real time   42.6352
       DOS:  cpu time    0.0005: real time    0.0005
    CHARGE:  cpu time    3.9537: real time    3.9538
    MIXING:  cpu time    0.0701: real time    0.0701
    --------------------------------------------
      LOOP:  cpu time   49.5422: real time   49.5659

 eigenvalue-minimisations  :  2976
 total energy-change (2. order) :-0.2744666E+00  (-0.3877007E-03)
 number of electron     203.0000000 magnetization       0.6945488
 augmentation part        5.8412863 magnetization       0.5116735

 Broyden mixing:
  rms(total) = 0.15565E-01    rms(broyden)= 0.15564E-01
  rms(prec ) = 0.16917E-01
  weight for this iteration     100.00

 eigenvalues of (default mixing * dielectric matrix)
  average eigenvalue GAMMA=   2.2784
 10.9641  2.8709  2.6530  1.9198  1.9198  1.1021  0.8845  0.7727  0.6935  0.6238
  0.6586

 Free energy of the ion-electron system (eV)
  ---------------------------------------------------
  alpha Z        PSCENC =        53.42782116
  Ewald energy   TEWEN  =     56959.72722881
  -Hartree energ DENC   =    -63204.10773941
  -exchange      EXHF   =         0.00000000
  -V(xc)+E(xc)   XCENC  =       703.87245520
  PAW double counting   =     21260.76519229   -21310.90198984
  entropy T*S    EENTRO =        -0.02134202
  eigenvalues    EBANDS =     -2484.90953265
  atomic energy  EATOM  =      7560.21751256
  Solvation  Ediel_sol  =         0.00000000
  ---------------------------------------------------
  free energy    TOTEN  =      -461.93039390 eV

  energy without entropy =     -461.90905188  energy(sigma->0) =     -461.91972289


--------------------------------------------------------------------------------------------------------




----------------------------------------- Iteration    1(  17)  ---------------------------------------


    POTLOK:  cpu time    1.5028: real time    1.5028
    SETDIJ:  cpu time    1.3999: real time    1.4006
     EDDAV:  cpu time   39.9955: real time   40.0001
       DOS:  cpu time    0.0005: real time    0.0005
    CHARGE:  cpu time    4.0551: real time    4.0552
    MIXING:  cpu time    0.0445: real time    0.0445
    --------------------------------------------
      LOOP:  cpu time   46.9988: real time   47.0063

 eigenvalue-minimisations  :  2748
 total energy-change (2. order) :-0.3009209E+00  (-0.6859515E-03)
 number of electron     203.0000000 magnetization       0.4876516
 augmentation part        5.8417657 magnetization       0.3602684

 Broyden mixing:
  rms(total) = 0.10191E-01    rms(broyden)= 0.10188E-01
  rms(prec ) = 0.11325E-01
  weight for this iteration     100.00

 eigenvalues of (default mixing * dielectric matrix)
  average eigenvalue GAMMA=   2.4116
 12.4630  3.9982  2.4941  2.2072  2.0734  1.0871  1.0871  0.8064  0.7610  0.6846
  0.6229  0.6545

 Free energy of the ion-electron system (eV)
  ---------------------------------------------------
  alpha Z        PSCENC =        53.42782116
  Ewald energy   TEWEN  =     56959.72722881
  -Hartree energ DENC   =    -63201.69277507
  -exchange      EXHF   =         0.00000000
  -V(xc)+E(xc)   XCENC  =       703.49766724
  PAW double counting   =     21267.96576121   -21318.10582649
  entropy T*S    EENTRO =        -0.02177942
  eigenvalues    EBANDS =     -2487.24692478
  atomic energy  EATOM  =      7560.21751256
  Solvation  Ediel_sol  =         0.00000000
  ---------------------------------------------------
  free energy    TOTEN  =      -462.23131479 eV

  energy without entropy =     -462.20953537  energy(sigma->0) =     -462.22042508


--------------------------------------------------------------------------------------------------------




----------------------------------------- Iteration    1(  18)  ---------------------------------------


    POTLOK:  cpu time    1.5007: real time    1.5007
    SETDIJ:  cpu time    1.3950: real time    1.3951
     EDDAV:  cpu time   42.5341: real time   42.5374
       DOS:  cpu time    0.0006: real time    0.0006
    CHARGE:  cpu time    4.1816: real time    4.1829
    MIXING:  cpu time    0.0635: real time    0.0635
    --------------------------------------------
      LOOP:  cpu time   49.6760: real time   49.6832

 eigenvalue-minimisations  :  2984
 total energy-change (2. order) :-0.7829316E-01  (-0.2690972E-03)
 number of electron     203.0000000 magnetization       0.3440559
 augmentation part        5.8420891 magnetization       0.2525980

 Broyden mixing:
  rms(total) = 0.74974E-02    rms(broyden)= 0.74951E-02
  rms(prec ) = 0.85974E-02
  weight for this iteration     100.00

 eigenvalues of (default mixing * dielectric matrix)
  average eigenvalue GAMMA=   2.4383
 13.3353  4.6429  2.4082  2.4082  2.0404  1.2364  1.2364  0.8552  0.8552  0.7330
  0.6756  0.6215  0.6500

 Free energy of the ion-electron system (eV)
  ---------------------------------------------------
  alpha Z        PSCENC =        53.42782116
  Ewald energy   TEWEN  =     56959.72722881
  -Hartree energ DENC   =    -63199.17284278
  -exchange      EXHF   =         0.00000000
  -V(xc)+E(xc)   XCENC  =       703.38845542
  PAW double counting   =     21268.01932773   -21318.16222005
  entropy T*S    EENTRO =        -0.02199677
  eigenvalues    EBANDS =     -2489.73289401
  atomic energy  EATOM  =      7560.21751256
  Solvation  Ediel_sol  =         0.00000000
  ---------------------------------------------------
  free energy    TOTEN  =      -462.30960795 eV

  energy without entropy =     -462.28761118  energy(sigma->0) =     -462.29860956


--------------------------------------------------------------------------------------------------------




----------------------------------------- Iteration    1(  19)  ---------------------------------------


    POTLOK:  cpu time    1.5070: real time    1.5071
    SETDIJ:  cpu time    1.4083: real time    1.4084
     EDDAV:  cpu time   42.8371: real time   42.8401
       DOS:  cpu time    0.0006: real time    0.0006
    CHARGE:  cpu time    4.1688: real time    4.1690
    MIXING:  cpu time    0.0580: real time    0.0580
    --------------------------------------------
      LOOP:  cpu time   49.9804: real time   49.9854

 eigenvalue-minimisations  :  3008
 total energy-change (2. order) :-0.2059917E-01  (-0.1220098E-03)
 number of electron     203.0000000 magnetization       0.1969256
 augmentation part        5.8424218 magnetization       0.1322916

 Broyden mixing:
  rms(total) = 0.54558E-02    rms(broyden)= 0.54540E-02
  rms(prec ) = 0.63675E-02
  weight for this iteration     100.00

 eigenvalues of (default mixing * dielectric matrix)
  average eigenvalue GAMMA=   2.5196
 14.3737  5.3854  2.6966  2.3898  1.9235  1.9235  1.2283  1.0524  0.8651  0.7825
  0.7126  0.6223  0.6718  0.6465

 Free energy of the ion-electron system (eV)
  ---------------------------------------------------
  alpha Z        PSCENC =        53.42782116
  Ewald energy   TEWEN  =     56959.72722881
  -Hartree energ DENC   =    -63195.88450159
  -exchange      EXHF   =         0.00000000
  -V(xc)+E(xc)   XCENC  =       703.34759980
  PAW double counting   =     21269.15082046   -21319.29083574
  entropy T*S    EENTRO =        -0.02210560
  eigenvalues    EBANDS =     -2493.00374697
  atomic energy  EATOM  =      7560.21751256
  Solvation  Ediel_sol  =         0.00000000
  ---------------------------------------------------
  free energy    TOTEN  =      -462.33020712 eV

  energy without entropy =     -462.30810152  energy(sigma->0) =     -462.31915432


--------------------------------------------------------------------------------------------------------




----------------------------------------- Iteration    1(  20)  ---------------------------------------


    POTLOK:  cpu time    1.5088: real time    1.5092
    SETDIJ:  cpu time    1.4026: real time    1.4026
     EDDAV:  cpu time   41.2379: real time   41.2423
       DOS:  cpu time    0.0006: real time    0.0006
    CHARGE:  cpu time    4.2190: real time    4.2192
    MIXING:  cpu time    0.0758: real time    0.0758
    --------------------------------------------
      LOOP:  cpu time   48.4451: real time   48.4528

 eigenvalue-minimisations  :  2868
 total energy-change (2. order) :-0.3489396E-01  (-0.7609349E-04)
 number of electron     203.0000000 magnetization       0.1151403
 augmentation part        5.8426069 magnetization       0.0792477

 Broyden mixing:
  rms(total) = 0.35456E-02    rms(broyden)= 0.35428E-02
  rms(prec ) = 0.42123E-02
  weight for this iteration     100.00

 eigenvalues of (default mixing * dielectric matrix)
  average eigenvalue GAMMA=   2.5568
 15.1674  5.9856  3.1239  2.2617  2.2617  1.9942  1.2539  1.0578  1.0578  0.7920
  0.7763  0.6935  0.6216  0.6612  0.6427

 Free energy of the ion-electron system (eV)
  ---------------------------------------------------
  alpha Z        PSCENC =        53.42782116
  Ewald energy   TEWEN  =     56959.72722881
  -Hartree energ DENC   =    -63192.51865149
  -exchange      EXHF   =         0.00000000
  -V(xc)+E(xc)   XCENC  =       703.30077087
  PAW double counting   =     21269.96457719   -21320.09977709
  entropy T*S    EENTRO =        -0.02217339
  eigenvalues    EBANDS =     -2496.36240969
  atomic energy  EATOM  =      7560.21751256
  Solvation  Ediel_sol  =         0.00000000
  ---------------------------------------------------
  free energy    TOTEN  =      -462.36510108 eV

  energy without entropy =     -462.34292769  energy(sigma->0) =     -462.35401438


--------------------------------------------------------------------------------------------------------




----------------------------------------- Iteration    1(  21)  ---------------------------------------


    POTLOK:  cpu time    1.5002: real time    1.5003
    SETDIJ:  cpu time    1.4140: real time    1.4140
     EDDAV:  cpu time   41.3133: real time   41.3165
       DOS:  cpu time    0.0005: real time    0.0005
    CHARGE:  cpu time    4.3539: real time    4.3541
    MIXING:  cpu time    0.0490: real time    0.0490
    --------------------------------------------
      LOOP:  cpu time   48.6315: real time   48.6374

 eigenvalue-minimisations  :  2880
 total energy-change (2. order) :-0.3514194E-01  (-0.1886590E-04)
 number of electron     203.0000000 magnetization       0.0483302
 augmentation part        5.8426380 magnetization       0.0284094

 Broyden mixing:
  rms(total) = 0.22981E-02    rms(broyden)= 0.22963E-02
  rms(prec ) = 0.27939E-02
  weight for this iteration     100.00

 eigenvalues of (default mixing * dielectric matrix)
  average eigenvalue GAMMA=   2.6764
 16.2659  6.9962  3.8779  2.4133  2.4133  1.9234  1.5819  1.1598  1.1598  0.8973
  0.8109  0.7349  0.6850  0.6529  0.6204  0.6296

 Free energy of the ion-electron system (eV)
  ---------------------------------------------------
  alpha Z        PSCENC =        53.42782116
  Ewald energy   TEWEN  =     56959.72722881
  -Hartree energ DENC   =    -63190.79674704
  -exchange      EXHF   =         0.00000000
  -V(xc)+E(xc)   XCENC  =       703.26585233
  PAW double counting   =     21268.35916360   -21318.49436406
  entropy T*S    EENTRO =        -0.02219811
  eigenvalues    EBANDS =     -2498.08451226
  atomic energy  EATOM  =      7560.21751256
  Solvation  Ediel_sol  =         0.00000000
  ---------------------------------------------------
  free energy    TOTEN  =      -462.40024301 eV

  energy without entropy =     -462.37804491  energy(sigma->0) =     -462.38914396


--------------------------------------------------------------------------------------------------------




----------------------------------------- Iteration    1(  22)  ---------------------------------------


    POTLOK:  cpu time    1.5021: real time    1.5023
    SETDIJ:  cpu time    1.3984: real time    1.3996
     EDDAV:  cpu time   42.2920: real time   42.2951
       DOS:  cpu time    0.0005: real time    0.0005
    CHARGE:  cpu time    4.4602: real time    4.4604
    MIXING:  cpu time    0.0710: real time    0.0710
    --------------------------------------------
      LOOP:  cpu time   49.7247: real time   49.7311

 eigenvalue-minimisations  :  2976
 total energy-change (2. order) :-0.2243388E-01  (-0.1070472E-04)
 number of electron     203.0000000 magnetization       0.0245306
 augmentation part        5.8426368 magnetization       0.0189226

 Broyden mixing:
  rms(total) = 0.12471E-02    rms(broyden)= 0.12448E-02
  rms(prec ) = 0.15710E-02
  weight for this iteration     100.00

 eigenvalues of (default mixing * dielectric matrix)
  average eigenvalue GAMMA=   2.7048
 17.0509  7.7381  4.2950  2.4706  2.4706  1.8619  1.8619  1.1822  1.1137  0.9435
  0.8917  0.7879  0.7334  0.6838  0.6530  0.6275  0.6153

 Free energy of the ion-electron system (eV)
  ---------------------------------------------------
  alpha Z        PSCENC =        53.42782116
  Ewald energy   TEWEN  =     56959.72722881
  -Hartree energ DENC   =    -63188.96541098
  -exchange      EXHF   =         0.00000000
  -V(xc)+E(xc)   XCENC  =       703.23974329
  PAW double counting   =     21267.51217886   -21317.64950224
  entropy T*S    EENTRO =        -0.02220661
  eigenvalues    EBANDS =     -2499.91004173
  atomic energy  EATOM  =      7560.21751256
  Solvation  Ediel_sol  =         0.00000000
  ---------------------------------------------------
  free energy    TOTEN  =      -462.42267690 eV

  energy without entropy =     -462.40047028  energy(sigma->0) =     -462.41157359


--------------------------------------------------------------------------------------------------------




----------------------------------------- Iteration    1(  23)  ---------------------------------------


    POTLOK:  cpu time    1.5100: real time    1.5100
    SETDIJ:  cpu time    1.4072: real time    1.4077
     EDDAV:  cpu time   39.8778: real time   39.8820
       DOS:  cpu time    0.0005: real time    0.0005
    CHARGE:  cpu time    4.5198: real time    4.5202
    MIXING:  cpu time    0.0652: real time    0.0652
    --------------------------------------------
      LOOP:  cpu time   47.3811: real time   47.3879

 eigenvalue-minimisations  :  2760
 total energy-change (2. order) :-0.4593659E-02  (-0.3244031E-05)
 number of electron     203.0000000 magnetization       0.0099413
 augmentation part        5.8426790 magnetization       0.0092999

 Broyden mixing:
  rms(total) = 0.84223E-03    rms(broyden)= 0.84137E-03
  rms(prec ) = 0.10769E-02
  weight for this iteration     100.00

 eigenvalues of (default mixing * dielectric matrix)
  average eigenvalue GAMMA=   2.6908
 17.3529  8.0383  4.5236  2.5260  2.5260  2.0036  2.0036  1.2778  1.2778  1.0150
  1.0150  0.8065  0.7784  0.7172  0.6793  0.6519  0.6265  0.6144

 Free energy of the ion-electron system (eV)
  ---------------------------------------------------
  alpha Z        PSCENC =        53.42782116
  Ewald energy   TEWEN  =     56959.72722881
  -Hartree energ DENC   =    -63188.20076136
  -exchange      EXHF   =         0.00000000
  -V(xc)+E(xc)   XCENC  =       703.23150340
  PAW double counting   =     21267.83942585   -21317.97833876
  entropy T*S    EENTRO =        -0.02220557
  eigenvalues    EBANDS =     -2500.66945663
  atomic energy  EATOM  =      7560.21751256
  Solvation  Ediel_sol  =         0.00000000
  ---------------------------------------------------
  free energy    TOTEN  =      -462.42727055 eV

  energy without entropy =     -462.40506498  energy(sigma->0) =     -462.41616777


--------------------------------------------------------------------------------------------------------




----------------------------------------- Iteration    1(  24)  ---------------------------------------


    POTLOK:  cpu time    1.5101: real time    1.5102
    SETDIJ:  cpu time    1.3917: real time    1.3918
     EDDAV:  cpu time   35.3110: real time   35.3146
       DOS:  cpu time    0.0005: real time    0.0005
    CHARGE:  cpu time    4.5063: real time    4.5066
    MIXING:  cpu time    0.0843: real time    0.0843
    --------------------------------------------
      LOOP:  cpu time   42.8045: real time   42.8113

 eigenvalue-minimisations  :  2344
 total energy-change (2. order) :-0.2555946E-02  (-0.3592659E-05)
 number of electron     203.0000000 magnetization       0.0048324
 augmentation part        5.8427153 magnetization       0.0064240

 Broyden mixing:
  rms(total) = 0.50822E-03    rms(broyden)= 0.50779E-03
  rms(prec ) = 0.64461E-03
  weight for this iteration     100.00

 eigenvalues of (default mixing * dielectric matrix)
  average eigenvalue GAMMA=   2.6963
 17.5947  8.3797  4.8401  3.0172  2.4313  2.2757  2.0309  1.6116  1.2512  1.0050
  1.0050  0.9648  0.8120  0.7531  0.6955  0.6721  0.6509  0.6251  0.6131

 Free energy of the ion-electron system (eV)
  ---------------------------------------------------
  alpha Z        PSCENC =        53.42782116
  Ewald energy   TEWEN  =     56959.72722881
  -Hartree energ DENC   =    -63187.64537111
  -exchange      EXHF   =         0.00000000
  -V(xc)+E(xc)   XCENC  =       703.22653573
  PAW double counting   =     21268.25059112   -21318.39112875
  entropy T*S    EENTRO =        -0.02220620
  eigenvalues    EBANDS =     -2501.22080981
  atomic energy  EATOM  =      7560.21751256
  Solvation  Ediel_sol  =         0.00000000
  ---------------------------------------------------
  free energy    TOTEN  =      -462.42982650 eV

  energy without entropy =     -462.40762030  energy(sigma->0) =     -462.41872340


--------------------------------------------------------------------------------------------------------




----------------------------------------- Iteration    1(  25)  ---------------------------------------


    POTLOK:  cpu time    1.5149: real time    1.5150
    SETDIJ:  cpu time    1.4055: real time    1.4057
     EDDAV:  cpu time   35.9351: real time   35.9385
       DOS:  cpu time    0.0006: real time    0.0006
    CHARGE:  cpu time    4.5281: real time    4.5294
    MIXING:  cpu time    0.0630: real time    0.0630
    --------------------------------------------
      LOOP:  cpu time   43.4477: real time   43.4550

 eigenvalue-minimisations  :  2400
 total energy-change (2. order) :-0.8896987E-03  (-0.2458853E-05)
 number of electron     203.0000000 magnetization       0.0030300
 augmentation part        5.8427409 magnetization       0.0047938

 Broyden mixing:
  rms(total) = 0.31096E-03    rms(broyden)= 0.31072E-03
  rms(prec ) = 0.39081E-03
  weight for this iteration     100.00

 eigenvalues of (default mixing * dielectric matrix)
  average eigenvalue GAMMA=   2.6756
 17.7326  8.6298  5.1210  3.4014  2.4155  2.4155  1.8826  1.8826  1.1611  1.1611
  1.0480  1.0480  0.8225  0.8225  0.7330  0.6886  0.6632  0.6487  0.6234  0.6118

 Free energy of the ion-electron system (eV)
  ---------------------------------------------------
  alpha Z        PSCENC =        53.42782116
  Ewald energy   TEWEN  =     56959.72722881
  -Hartree energ DENC   =    -63187.32842577
  -exchange      EXHF   =         0.00000000
  -V(xc)+E(xc)   XCENC  =       703.22474409
  PAW double counting   =     21268.58196201   -21318.72287721
  entropy T*S    EENTRO =        -0.02220746
  eigenvalues    EBANDS =     -2501.53647439
  atomic energy  EATOM  =      7560.21751256
  Solvation  Ediel_sol  =         0.00000000
  ---------------------------------------------------
  free energy    TOTEN  =      -462.43071620 eV

  energy without entropy =     -462.40850874  energy(sigma->0) =     -462.41961247


--------------------------------------------------------------------------------------------------------




----------------------------------------- Iteration    1(  26)  ---------------------------------------


    POTLOK:  cpu time    1.5146: real time    1.5147
    SETDIJ:  cpu time    1.3966: real time    1.3968
     EDDAV:  cpu time   35.5862: real time   35.5888
       DOS:  cpu time    0.0006: real time    0.0006
    CHARGE:  cpu time    4.4797: real time    4.4799
    MIXING:  cpu time    0.0814: real time    0.0814
    --------------------------------------------
      LOOP:  cpu time   43.0597: real time   43.0654

 eigenvalue-minimisations  :  2364
 total energy-change (2. order) :-0.3227838E-03  (-0.7769537E-06)
 number of electron     203.0000000 magnetization       0.0019213
 augmentation part        5.8427504 magnetization       0.0033566

 Broyden mixing:
  rms(total) = 0.21641E-03    rms(broyden)= 0.21614E-03
  rms(prec ) = 0.27197E-03
  weight for this iteration     100.00

 eigenvalues of (default mixing * dielectric matrix)
  average eigenvalue GAMMA=   2.6533
 17.8179  8.8123  5.4020  3.6590  2.4633  2.4633  1.9063  1.9063  1.3220  1.3220
  1.0743  1.0743  0.9470  0.8330  0.7774  0.7228  0.6839  0.6576  0.6424  0.6212
  0.6110

 Free energy of the ion-electron system (eV)
  ---------------------------------------------------
  alpha Z        PSCENC =        53.42782116
  Ewald energy   TEWEN  =     56959.72722881
  -Hartree energ DENC   =    -63187.20182005
  -exchange      EXHF   =         0.00000000
  -V(xc)+E(xc)   XCENC  =       703.22455470
  PAW double counting   =     21268.69282088   -21318.83341932
  entropy T*S    EENTRO =        -0.02220763
  eigenvalues    EBANDS =     -2501.66353008
  atomic energy  EATOM  =      7560.21751256
  Solvation  Ediel_sol  =         0.00000000
  ---------------------------------------------------
  free energy    TOTEN  =      -462.43103898 eV

  energy without entropy =     -462.40883136  energy(sigma->0) =     -462.41993517


--------------------------------------------------------------------------------------------------------




----------------------------------------- Iteration    1(  27)  ---------------------------------------


    POTLOK:  cpu time    1.5182: real time    1.5183
    SETDIJ:  cpu time    1.4079: real time    1.4080
     EDDAV:  cpu time   34.9022: real time   34.9049
       DOS:  cpu time    0.0005: real time    0.0005
    CHARGE:  cpu time    4.5439: real time    4.5441
    MIXING:  cpu time    0.0781: real time    0.0781
    --------------------------------------------
      LOOP:  cpu time   42.4513: real time   42.4566

 eigenvalue-minimisations  :  2304
 total energy-change (2. order) :-0.2047899E-03  (-0.3124935E-06)
 number of electron     203.0000000 magnetization       0.0012739
 augmentation part        5.8427491 magnetization       0.0023582

 Broyden mixing:
  rms(total) = 0.14865E-03    rms(broyden)= 0.14825E-03
  rms(prec ) = 0.18850E-03
  weight for this iteration     100.00

 eigenvalues of (default mixing * dielectric matrix)
  average eigenvalue GAMMA=   2.6487
 17.8882  9.0072  5.7588  3.9614  2.5342  2.5342  2.0613  2.0613  1.6224  1.2293
  1.0794  1.0794  1.0300  0.9397  0.8198  0.7587  0.7115  0.6778  0.6517  0.6373
  0.6207  0.6082

 Free energy of the ion-electron system (eV)
  ---------------------------------------------------
  alpha Z        PSCENC =        53.42782116
  Ewald energy   TEWEN  =     56959.72722881
  -Hartree energ DENC   =    -63187.13469496
  -exchange      EXHF   =         0.00000000
  -V(xc)+E(xc)   XCENC  =       703.22484673
  PAW double counting   =     21268.69367850   -21318.83393538
  entropy T*S    EENTRO =        -0.02220773
  eigenvalues    EBANDS =     -2501.73149347
  atomic energy  EATOM  =      7560.21751256
  Solvation  Ediel_sol  =         0.00000000
  ---------------------------------------------------
  free energy    TOTEN  =      -462.43124377 eV

  energy without entropy =     -462.40903605  energy(sigma->0) =     -462.42013991


--------------------------------------------------------------------------------------------------------




----------------------------------------- Iteration    1(  28)  ---------------------------------------


    POTLOK:  cpu time    1.5205: real time    1.5206
    SETDIJ:  cpu time    1.4064: real time    1.4065
     EDDAV:  cpu time   34.3816: real time   34.3853
       DOS:  cpu time    0.0020: real time    0.0020
    CHARGE:  cpu time    4.4912: real time    4.4915
    MIXING:  cpu time    0.0924: real time    0.0924
    --------------------------------------------
      LOOP:  cpu time   41.8947: real time   41.9008

 eigenvalue-minimisations  :  2256
 total energy-change (2. order) :-0.1495707E-03  (-0.1564729E-06)
 number of electron     203.0000000 magnetization       0.0006503
 augmentation part        5.8427452 magnetization       0.0014545

 Broyden mixing:
  rms(total) = 0.98835E-04    rms(broyden)= 0.98236E-04
  rms(prec ) = 0.12573E-03
  weight for this iteration     100.00

 eigenvalues of (default mixing * dielectric matrix)
  average eigenvalue GAMMA=   2.6385
 17.9249  9.1607  6.1105  4.2386  2.8133  2.5510  2.1378  2.1378  1.4699  1.4699
  1.1097  1.1097  1.0807  1.0807  0.8391  0.8223  0.7436  0.7021  0.6743  0.6485
  0.6339  0.6198  0.6068

 Free energy of the ion-electron system (eV)
  ---------------------------------------------------
  alpha Z        PSCENC =        53.42782116
  Ewald energy   TEWEN  =     56959.72722881
  -Hartree energ DENC   =    -63187.07900357
  -exchange      EXHF   =         0.00000000
  -V(xc)+E(xc)   XCENC  =       703.22507165
  PAW double counting   =     21268.67578879   -21318.81579742
  entropy T*S    EENTRO =        -0.02220818
  eigenvalues    EBANDS =     -2501.78780714
  atomic energy  EATOM  =      7560.21751256
  Solvation  Ediel_sol  =         0.00000000
  ---------------------------------------------------
  free energy    TOTEN  =      -462.43139334 eV

  energy without entropy =     -462.40918517  energy(sigma->0) =     -462.42028926


--------------------------------------------------------------------------------------------------------




----------------------------------------- Iteration    1(  29)  ---------------------------------------


    POTLOK:  cpu time    1.5278: real time    1.5279
    SETDIJ:  cpu time    1.4132: real time    1.4134
     EDDAV:  cpu time   31.7940: real time   31.7966
       DOS:  cpu time    0.0006: real time    0.0006
    CHARGE:  cpu time    4.5400: real time    4.5401
    MIXING:  cpu time    0.0741: real time    0.0741
    --------------------------------------------
      LOOP:  cpu time   39.3504: real time   39.3556

 eigenvalue-minimisations  :  2024
 total energy-change (2. order) :-0.1033177E-03  (-0.1003852E-06)
 number of electron     203.0000000 magnetization       0.0001667
 augmentation part        5.8427416 magnetization       0.0008035

 Broyden mixing:
  rms(total) = 0.68416E-04    rms(broyden)= 0.67559E-04
  rms(prec ) = 0.85380E-04
  weight for this iteration     100.00

 eigenvalues of (default mixing * dielectric matrix)
  average eigenvalue GAMMA=   2.6297
 17.9451  9.2999  6.4408  4.5040  3.1538  2.4955  2.2811  2.0469  1.6371  1.6371
  1.2361  1.2361  1.0339  1.0339  0.8987  0.8514  0.7820  0.7304  0.6960  0.6719
  0.6453  0.6315  0.6192  0.6057

 Free energy of the ion-electron system (eV)
  ---------------------------------------------------
  alpha Z        PSCENC =        53.42782116
  Ewald energy   TEWEN  =     56959.72722881
  -Hartree energ DENC   =    -63187.04833007
  -exchange      EXHF   =         0.00000000
  -V(xc)+E(xc)   XCENC  =       703.22519866
  PAW double counting   =     21268.63350162   -21318.77341514
  entropy T*S    EENTRO =        -0.02220841
  eigenvalues    EBANDS =     -2501.81880584
  atomic energy  EATOM  =      7560.21751256
  Solvation  Ediel_sol  =         0.00000000
  ---------------------------------------------------
  free energy    TOTEN  =      -462.43149666 eV

  energy without entropy =     -462.40928825  energy(sigma->0) =     -462.42039245


--------------------------------------------------------------------------------------------------------




----------------------------------------- Iteration    1(  30)  ---------------------------------------


    POTLOK:  cpu time    1.5265: real time    1.5266
    SETDIJ:  cpu time    1.3990: real time    1.3991
     EDDAV:  cpu time   31.1672: real time   31.1696
       DOS:  cpu time    0.0006: real time    0.0006
    CHARGE:  cpu time    4.4783: real time    4.4784
    MIXING:  cpu time    0.1014: real time    0.1014
    --------------------------------------------
      LOOP:  cpu time   38.6734: real time   38.6785

 eigenvalue-minimisations  :  1968
 total energy-change (2. order) :-0.6927040E-04  (-0.3861255E-07)
 number of electron     203.0000000 magnetization      -0.0000468
 augmentation part        5.8427394 magnetization       0.0004962

 Broyden mixing:
  rms(total) = 0.47497E-04    rms(broyden)= 0.46260E-04
  rms(prec ) = 0.57014E-04
  weight for this iteration     100.00

 eigenvalues of (default mixing * dielectric matrix)
  average eigenvalue GAMMA=   2.6303
 17.9475  9.4535  6.7824  4.8286  3.4208  2.4432  2.4046  2.1126  2.0672  1.4487
  1.4487  1.2286  1.0518  1.0518  1.0121  0.9129  0.8102  0.7666  0.7202  0.6848
  0.6656  0.6427  0.6293  0.6177  0.6051

 Free energy of the ion-electron system (eV)
  ---------------------------------------------------
  alpha Z        PSCENC =        53.42782116
  Ewald energy   TEWEN  =     56959.72722881
  -Hartree energ DENC   =    -63187.03616174
  -exchange      EXHF   =         0.00000000
  -V(xc)+E(xc)   XCENC  =       703.22522506
  PAW double counting   =     21268.61251846   -21318.75249803
  entropy T*S    EENTRO =        -0.02220828
  eigenvalues    EBANDS =     -2501.83100392
  atomic energy  EATOM  =      7560.21751256
  Solvation  Ediel_sol  =         0.00000000
  ---------------------------------------------------
  free energy    TOTEN  =      -462.43156593 eV

  energy without entropy =     -462.40935765  energy(sigma->0) =     -462.42046179


--------------------------------------------------------------------------------------------------------




----------------------------------------- Iteration    1(  31)  ---------------------------------------


    POTLOK:  cpu time    1.5265: real time    1.5266
    SETDIJ:  cpu time    1.3992: real time    1.3992
     EDDAV:  cpu time   30.4630: real time   30.4666
       DOS:  cpu time    0.0005: real time    0.0005
    CHARGE:  cpu time    4.5213: real time    4.5214
    MIXING:  cpu time    0.0954: real time    0.0954
    --------------------------------------------
      LOOP:  cpu time   38.0065: real time   38.0129

 eigenvalue-minimisations  :  1904
 total energy-change (2. order) :-0.4736324E-04  (-0.3233349E-07)
 number of electron     203.0000000 magnetization      -0.0000452
 augmentation part        5.8427375 magnetization       0.0003757

 Broyden mixing:
  rms(total) = 0.31265E-04    rms(broyden)= 0.29352E-04
  rms(prec ) = 0.34754E-04
  weight for this iteration     100.00

 eigenvalues of (default mixing * dielectric matrix)
  average eigenvalue GAMMA=   2.6313
 17.9353  9.6460  7.1762  5.1752  3.6380  2.6288  2.4151  2.2968  2.0429  1.5007
  1.5007  1.2469  1.1147  1.1147  1.0125  1.0125  0.8316  0.8316  0.7424  0.7191
  0.6821  0.6588  0.6423  0.6277  0.6179  0.6041

 Free energy of the ion-electron system (eV)
  ---------------------------------------------------
  alpha Z        PSCENC =        53.42782116
  Ewald energy   TEWEN  =     56959.72722881
  -Hartree energ DENC   =    -63187.02613246
  -exchange      EXHF   =         0.00000000
  -V(xc)+E(xc)   XCENC  =       703.22516406
  PAW double counting   =     21268.60775375   -21318.74784787
  entropy T*S    EENTRO =        -0.02220822
  eigenvalues    EBANDS =     -2501.84090507
  atomic energy  EATOM  =      7560.21751256
  Solvation  Ediel_sol  =         0.00000000
  ---------------------------------------------------
  free energy    TOTEN  =      -462.43161329 eV

  energy without entropy =     -462.40940507  energy(sigma->0) =     -462.42050918


--------------------------------------------------------------------------------------------------------




----------------------------------------- Iteration    1(  32)  ---------------------------------------


    POTLOK:  cpu time    1.5311: real time    1.5312
    SETDIJ:  cpu time    1.3944: real time    1.3944
     EDDAV:  cpu time   31.1301: real time   31.1328
       DOS:  cpu time    0.0005: real time    0.0005
    CHARGE:  cpu time    4.4843: real time    4.4845
    MIXING:  cpu time    0.1150: real time    0.1150
    --------------------------------------------
      LOOP:  cpu time   38.6561: real time   38.6627

 eigenvalue-minimisations  :  1960
 total energy-change (2. order) :-0.2344424E-04  (-0.1121019E-07)
 number of electron     203.0000000 magnetization       0.0000253
 augmentation part        5.8427364 magnetization       0.0002935

 Broyden mixing:
  rms(total) = 0.21825E-04    rms(broyden)= 0.18980E-04
  rms(prec ) = 0.21791E-04
  weight for this iteration     100.00
  WARNING: grid for Broyden might be to small

 eigenvalues of (default mixing * dielectric matrix)
  average eigenvalue GAMMA=   2.6597
 17.9137 10.0565  7.7439  5.5656  3.8884  2.8580  2.4082  2.4082  1.9974  1.9974
  1.4420  1.4420  1.1203  1.1203  1.0406  1.0406  0.8771  0.8504  0.7778  0.7445
  0.7039  0.6774  0.6517  0.6404  0.6262  0.6167  0.6038

 Free energy of the ion-electron system (eV)
  ---------------------------------------------------
  alpha Z        PSCENC =        53.42782116
  Ewald energy   TEWEN  =     56959.72722881
  -Hartree energ DENC   =    -63187.02036553
  -exchange      EXHF   =         0.00000000
  -V(xc)+E(xc)   XCENC  =       703.22508669
  PAW double counting   =     21268.60748127   -21318.74760931
  entropy T*S    EENTRO =        -0.02220835
  eigenvalues    EBANDS =     -2501.84658403
  atomic energy  EATOM  =      7560.21751256
  Solvation  Ediel_sol  =         0.00000000
  ---------------------------------------------------
  free energy    TOTEN  =      -462.43163674 eV

  energy without entropy =     -462.40942839  energy(sigma->0) =     -462.42053256


--------------------------------------------------------------------------------------------------------




----------------------------------------- Iteration    1(  33)  ---------------------------------------


    POTLOK:  cpu time    1.5176: real time    1.5182
    SETDIJ:  cpu time    1.4090: real time    1.4091
     EDDAV:  cpu time   30.9821: real time   30.9847
       DOS:  cpu time    0.0005: real time    0.0005
    CHARGE:  cpu time    4.5345: real time    4.5347
    MIXING:  cpu time    0.0904: real time    0.0904
    --------------------------------------------
      LOOP:  cpu time   38.5348: real time   38.5407

 eigenvalue-minimisations  :  1948
 total energy-change (2. order) :-0.1002687E-04  (-0.1525038E-08)
 number of electron     203.0000000 magnetization       0.0000698
 augmentation part        5.8427357 magnetization       0.0002114

 Broyden mixing:
  rms(total) = 0.15848E-04    rms(broyden)= 0.11626E-04
  rms(prec ) = 0.13711E-04
  weight for this iteration     100.00
  WARNING: grid for Broyden might be to small

 eigenvalues of (default mixing * dielectric matrix)
  average eigenvalue GAMMA=   2.6620
 17.9032 10.5307  8.0649  5.8059  4.0537  3.0288  2.4778  2.4778  2.0819  2.0819
  1.4709  1.4709  1.1273  1.1273  1.0779  1.0779  0.9608  0.9075  0.8163  0.7690
  0.7266  0.6910  0.6746  0.6505  0.6367  0.6198  0.6198  0.6032

 Free energy of the ion-electron system (eV)
  ---------------------------------------------------
  alpha Z        PSCENC =        53.42782116
  Ewald energy   TEWEN  =     56959.72722881
  -Hartree energ DENC   =    -63187.02038507
  -exchange      EXHF   =         0.00000000
  -V(xc)+E(xc)   XCENC  =       703.22507788
  PAW double counting   =     21268.61287702   -21318.75297972
  entropy T*S    EENTRO =        -0.02220841
  eigenvalues    EBANDS =     -2501.84659099
  atomic energy  EATOM  =      7560.21751256
  Solvation  Ediel_sol  =         0.00000000
  ---------------------------------------------------
  free energy    TOTEN  =      -462.43164677 eV

  energy without entropy =     -462.40943835  energy(sigma->0) =     -462.42054256


--------------------------------------------------------------------------------------------------------




----------------------------------------- Iteration    1(  34)  ---------------------------------------


    POTLOK:  cpu time    1.5163: real time    1.5165
    SETDIJ:  cpu time    1.3970: real time    1.3972
     EDDAV:  cpu time   31.3250: real time   31.3278
       DOS:  cpu time    0.0006: real time    0.0006
    CHARGE:  cpu time    4.4839: real time    4.4852
    MIXING:  cpu time    0.1163: real time    0.1163
    --------------------------------------------
      LOOP:  cpu time   38.8397: real time   38.8468

 eigenvalue-minimisations  :  1980
 total energy-change (2. order) :-0.5144258E-05  ( 0.7870962E-09)
 number of electron     203.0000000 magnetization       0.0000780
 augmentation part        5.8427350 magnetization       0.0001484

 Broyden mixing:
  rms(total) = 0.13317E-04    rms(broyden)= 0.78504E-05
  rms(prec ) = 0.96286E-05
  weight for this iteration     100.00
  WARNING: grid for Broyden might be to small

 eigenvalues of (default mixing * dielectric matrix)
  average eigenvalue GAMMA=   2.6620
 17.8907 10.9603  8.2619  5.9708  4.1827  3.2831  2.5481  2.5481  2.1275  2.1275
  1.5726  1.4063  1.4063  1.2221  1.0562  1.0562  1.0446  0.9498  0.8297  0.8154
  0.7486  0.7169  0.6872  0.6662  0.6481  0.6350  0.6187  0.6159  0.6030

 Free energy of the ion-electron system (eV)
  ---------------------------------------------------
  alpha Z        PSCENC =        53.42782116
  Ewald energy   TEWEN  =     56959.72722881
  -Hartree energ DENC   =    -63187.02337451
  -exchange      EXHF   =         0.00000000
  -V(xc)+E(xc)   XCENC  =       703.22510159
  PAW double counting   =     21268.61780979   -21318.75788514
  entropy T*S    EENTRO =        -0.02220838
  eigenvalues    EBANDS =     -2501.84365778
  atomic energy  EATOM  =      7560.21751256
  Solvation  Ediel_sol  =         0.00000000
  ---------------------------------------------------
  free energy    TOTEN  =      -462.43165191 eV

  energy without entropy =     -462.40944353  energy(sigma->0) =     -462.42054772


--------------------------------------------------------------------------------------------------------




----------------------------------------- Iteration    1(  35)  ---------------------------------------


    POTLOK:  cpu time    1.5214: real time    1.5226
    SETDIJ:  cpu time    1.4078: real time    1.4079
     EDDAV:  cpu time   30.5468: real time   30.5506
       DOS:  cpu time    0.0006: real time    0.0006
    CHARGE:  cpu time    4.4979: real time    4.4982
    MIXING:  cpu time    0.1112: real time    0.1112
    --------------------------------------------
      LOOP:  cpu time   38.0863: real time   38.0942

 eigenvalue-minimisations  :  1912
 total energy-change (2. order) :-0.3803356E-05  ( 0.9364627E-09)
 number of electron     203.0000000 magnetization       0.0000515
 augmentation part        5.8427342 magnetization       0.0000809

 Broyden mixing:
  rms(total) = 0.12068E-04    rms(broyden)= 0.54803E-05
  rms(prec ) = 0.69334E-05
  weight for this iteration     100.00
  WARNING: grid for Broyden might be to small

 eigenvalues of (default mixing * dielectric matrix)
  average eigenvalue GAMMA=   2.6414
 17.8834 11.1755  8.3524  6.0594  4.2859  3.4990  2.6005  2.6005  2.1449  2.1449
  1.8710  1.4156  1.4156  1.1887  1.0747  1.0747  1.0288  1.0288  0.8552  0.8552
  0.7805  0.7368  0.7140  0.6822  0.6616  0.6425  0.6349  0.6029  0.6164  0.6164

 Free energy of the ion-electron system (eV)
  ---------------------------------------------------
  alpha Z        PSCENC =        53.42782116
  Ewald energy   TEWEN  =     56959.72722881
  -Hartree energ DENC   =    -63187.02692179
  -exchange      EXHF   =         0.00000000
  -V(xc)+E(xc)   XCENC  =       703.22511930
  PAW double counting   =     21268.61742459   -21318.75748476
  entropy T*S    EENTRO =        -0.02220836
  eigenvalues    EBANDS =     -2501.84014722
  atomic energy  EATOM  =      7560.21751256
  Solvation  Ediel_sol  =         0.00000000
  ---------------------------------------------------
  free energy    TOTEN  =      -462.43165571 eV

  energy without entropy =     -462.40944736  energy(sigma->0) =     -462.42055154


--------------------------------------------------------------------------------------------------------




----------------------------------------- Iteration    1(  36)  ---------------------------------------


    POTLOK:  cpu time    1.5182: real time    1.5182
    SETDIJ:  cpu time    1.3933: real time    1.3934
     EDDAV:  cpu time   30.1675: real time   30.1699
       DOS:  cpu time    0.0005: real time    0.0005
    CHARGE:  cpu time    4.4765: real time    4.4766
    MIXING:  cpu time    0.1330: real time    0.1330
    --------------------------------------------
      LOOP:  cpu time   37.6895: real time   37.6942

 eigenvalue-minimisations  :  1876
 total energy-change (2. order) :-0.2677076E-05  ( 0.1606953E-08)
 number of electron     203.0000000 magnetization       0.0000151
 augmentation part        5.8427337 magnetization       0.0000359

 Broyden mixing:
  rms(total) = 0.11392E-04    rms(broyden)= 0.37742E-05
  rms(prec ) = 0.49179E-05
  weight for this iteration     100.00
  WARNING: grid for Broyden might be to small

 eigenvalues of (default mixing * dielectric matrix)
  average eigenvalue GAMMA=   2.6323
 17.8837 11.2608  8.3720  6.1455  4.4185  3.7203  2.6878  2.6747  2.2798  2.2798
  1.9888  1.4046  1.4046  1.3981  1.0880  1.0880  1.1124  1.1124  0.9394  0.8867
  0.8138  0.7698  0.7279  0.7034  0.6782  0.6578  0.6407  0.6330  0.6027  0.6180
  0.6116

 Free energy of the ion-electron system (eV)
  ---------------------------------------------------
  alpha Z        PSCENC =        53.42782116
  Ewald energy   TEWEN  =     56959.72722881
  -Hartree energ DENC   =    -63187.03006520
  -exchange      EXHF   =         0.00000000
  -V(xc)+E(xc)   XCENC  =       703.22512798
  PAW double counting   =     21268.61429626   -21318.75435647
  entropy T*S    EENTRO =        -0.02220838
  eigenvalues    EBANDS =     -2501.83701510
  atomic energy  EATOM  =      7560.21751256
  Solvation  Ediel_sol  =         0.00000000
  ---------------------------------------------------
  free energy    TOTEN  =      -462.43165839 eV

  energy without entropy =     -462.40945001  energy(sigma->0) =     -462.42055420


--------------------------------------------------------------------------------------------------------




----------------------------------------- Iteration    1(  37)  ---------------------------------------


    POTLOK:  cpu time    1.5946: real time    1.5947
    SETDIJ:  cpu time    1.4040: real time    1.4041
     EDDAV:  cpu time   30.6361: real time   30.6386
       DOS:  cpu time    0.0005: real time    0.0005
    CHARGE:  cpu time    4.5238: real time    4.5239
    MIXING:  cpu time    0.1086: real time    0.1086
    --------------------------------------------
      LOOP:  cpu time   38.2681: real time   38.2744

 eigenvalue-minimisations  :  1916
 total energy-change (2. order) :-0.2378947E-05  ( 0.1839794E-08)
 number of electron     203.0000000 magnetization      -0.0000007
 augmentation part        5.8427332 magnetization       0.0000191

 Broyden mixing:
  rms(total) = 0.11050E-04    rms(broyden)= 0.25632E-05
  rms(prec ) = 0.32068E-05
  weight for this iteration     100.00
  WARNING: grid for Broyden might be to small

 eigenvalues of (default mixing * dielectric matrix)
  average eigenvalue GAMMA=   2.6224
 17.8898 11.2598  8.3159  6.2902  4.6984  4.0167  2.9666  2.7209  2.3664  2.3664
  2.0080  1.7093  1.3995  1.3995  1.0758  1.0758  1.1211  1.0394  1.0394  0.9106
  0.8540  0.8014  0.7536  0.7203  0.6964  0.6733  0.6499  0.6419  0.6282  0.6175
  0.6024  0.6095

 Free energy of the ion-electron system (eV)
  ---------------------------------------------------
  alpha Z        PSCENC =        53.42782116
  Ewald energy   TEWEN  =     56959.72722881
  -Hartree energ DENC   =    -63187.03429962
  -exchange      EXHF   =         0.00000000
  -V(xc)+E(xc)   XCENC  =       703.22514421
  PAW double counting   =     21268.61306804   -21318.75313115
  entropy T*S    EENTRO =        -0.02220841
  eigenvalues    EBANDS =     -2501.83279637
  atomic energy  EATOM  =      7560.21751256
  Solvation  Ediel_sol  =         0.00000000
  ---------------------------------------------------
  free energy    TOTEN  =      -462.43166077 eV

  energy without entropy =     -462.40945236  energy(sigma->0) =     -462.42055657


--------------------------------------------------------------------------------------------------------




----------------------------------------- Iteration    1(  38)  ---------------------------------------


    POTLOK:  cpu time    1.5236: real time    1.5240
    SETDIJ:  cpu time    1.3951: real time    1.3952
     EDDAV:  cpu time   30.7506: real time   30.7531
       DOS:  cpu time    0.0005: real time    0.0005
    --------------------------------------------
      LOOP:  cpu time   33.6704: real time   33.6759

 eigenvalue-minimisations  :  1888
 total energy-change (2. order) :-0.7425115E-06  ( 0.2058854E-08)
 number of electron     203.0000000 magnetization      -0.0000007
 augmentation part        5.8427332 magnetization       0.0000191

 Free energy of the ion-electron system (eV)
  ---------------------------------------------------
  alpha Z        PSCENC =        53.42782116
  Ewald energy   TEWEN  =     56959.72722881
  -Hartree energ DENC   =    -63187.03643642
  -exchange      EXHF   =         0.00000000
  -V(xc)+E(xc)   XCENC  =       703.22515289
  PAW double counting   =     21268.61356899   -21318.75363219
  entropy T*S    EENTRO =        -0.02220839
  eigenvalues    EBANDS =     -2501.83066892
  atomic energy  EATOM  =      7560.21751256
  Solvation  Ediel_sol  =         0.00000000
  ---------------------------------------------------
  free energy    TOTEN  =      -462.43166151 eV

  energy without entropy =     -462.40945312  energy(sigma->0) =     -462.42055732


--------------------------------------------------------------------------------------------------------




 average (electrostatic) potential at core
  the test charge radii are     0.6991  0.7079
  (the norm of the test charge is              1.0000)
       1 -58.1088       2 -58.1094       3 -58.0831       4 -58.0627       5 -58.1831
       6 -58.1439       7 -58.5060       8 -58.2328       9 -58.3523      10 -58.2055
      11 -58.1062      12 -58.2018      13 -58.1059      14 -58.1076      15 -58.0816
      16 -58.1098      17 -58.1616      18 -58.0884      19 -58.1759      20 -58.0939
      21 -58.1169      22 -58.0921      23 -58.1103      24 -58.0852      25 -58.0746
      26 -58.2153      27 -58.1175      28 -58.1246      29 -58.0906      30 -58.0784
      31 -58.0961      32 -58.0850      33 -58.1653      34 -58.2338      35 -58.3414
      36 -58.5558      37 -58.2443      38 -58.2096      39 -58.1001      40 -58.1286
      41 -58.0966      42 -58.1103      43 -58.1630      44 -58.1462      45 -58.4992
      46 -58.4430      47 -58.5468      48 -58.5536      49 -58.2442      50 -58.4250
      51 -70.6462
 
 
 
 E-fermi :  -1.8586     XC(G=0):  -1.4705     alpha+bet : -1.3130


 spin component 1

 k-point     1 :       0.0000    0.0000    0.0000
  band No.  band energies     occupation 
      1     -51.5634      1.00000
      2     -22.4262      1.00000
      3     -21.6282      1.00000
      4     -21.4770      1.00000
      5     -21.4713      1.00000
      6     -21.3682      1.00000
      7     -21.3654      1.00000
      8     -21.3302      1.00000
      9     -19.6568      1.00000
     10     -19.6152      1.00000
     11     -19.6082      1.00000
     12     -19.5651      1.00000
     13     -19.5603      1.00000
     14     -19.5467      1.00000
     15     -18.7138      1.00000
     16     -18.7040      1.00000
     17     -18.6743      1.00000
     18     -18.6691      1.00000
     19     -18.6473      1.00000
     20     -18.6365      1.00000
     21     -16.5630      1.00000
     22     -16.5462      1.00000
     23     -16.5111      1.00000
     24     -16.5031      1.00000
     25     -16.4387      1.00000
     26     -16.4245      1.00000
     27     -15.5622      1.00000
     28     -15.5422      1.00000
     29     -15.5273      1.00000
     30     -15.4992      1.00000
     31     -15.4970      1.00000
     32     -15.4913      1.00000
     33     -14.1729      1.00000
     34     -14.1636      1.00000
     35     -14.1612      1.00000
     36     -14.1467      1.00000
     37     -14.1435      1.00000
     38     -14.1388      1.00000
     39     -11.8060      1.00000
     40     -11.7899      1.00000
     41     -11.7747      1.00000
     42     -11.7665      1.00000
     43     -11.7461      1.00000
     44     -11.7236      1.00000
     45     -11.7211      1.00000
     46     -11.7099      1.00000
     47     -11.6298      1.00000
     48     -11.6277      1.00000
     49     -11.6193      1.00000
     50     -11.6169      1.00000
     51     -10.5981      1.00000
     52     -10.3047      1.00000
     53     -10.2964      1.00000
     54     -10.2858      1.00000
     55     -10.2830      1.00000
     56     -10.2788      1.00000
     57     -10.2719      1.00000
     58      -9.6705      1.00000
     59      -9.4614      1.00000
     60      -9.4566      1.00000
     61      -9.2974      1.00000
     62      -9.2945      1.00000
     63      -9.2539      1.00000
     64      -9.0488      1.00000
     65      -9.0418      1.00000
     66      -9.0309      1.00000
     67      -8.9851      1.00000
     68      -8.9809      1.00000
     69      -8.9558      1.00000
     70      -8.9406      1.00000
     71      -8.9338      1.00000
     72      -8.9287      1.00000
     73      -8.9078      1.00000
     74      -8.9055      1.00000
     75      -8.8842      1.00000
     76      -7.4039      1.00000
     77      -7.3777      1.00000
     78      -7.3582      1.00000
     79      -7.3509      1.00000
     80      -7.3382      1.00000
     81      -7.3043      1.00000
     82      -7.2947      1.00000
     83      -7.2932      1.00000
     84      -7.2595      1.00000
     85      -7.2238      1.00000
     86      -7.2112      1.00000
     87      -7.1884      1.00000
     88      -6.4294      1.00000
     89      -6.4262      1.00000
     90      -6.3575      1.00000
     91      -6.3007      1.00000
     92      -6.2726      1.00000
     93      -6.2655      1.00000
     94      -5.8230      1.00000
     95      -5.8067      1.00000
     96      -4.4559      1.00000
     97      -4.4407      1.00000
     98      -4.3713      1.00000
     99      -4.3524      1.00000
    100      -4.2624      1.00000
    101      -4.2430      1.00000
    102      -1.6881      0.00000
    103      -1.6668      0.00000
    104      -1.5865      0.00000
    105      -1.5421      0.00000
    106      -1.4961      0.00000
    107      -1.4369      0.00000
    108      -1.0431      0.00000
    109       0.1629      0.00000
    110       0.2007      0.00000
    111       0.2618      0.00000
    112       0.3729      0.00000
    113       0.3970      0.00000
    114       0.4002      0.00000
    115       0.5343      0.00000
    116       0.7266      0.00000
    117       0.7456      0.00000
    118       0.8207      0.00000
    119       1.0304      0.00000
    120       1.3632      0.00000
    121       1.4445      0.00000
    122       1.4457      0.00000
    123       1.5336      0.00000
    124       1.5422      0.00000
    125       1.9708      0.00000
    126       2.0032      0.00000
    127       2.0780      0.00000
    128       2.0954      0.00000
    129       2.0963      0.00000
    130       2.1289      0.00000
    131       2.1407      0.00000
    132       2.1587      0.00000

 k-point     2 :       0.3333   -0.0000    0.0000
  band No.  band energies     occupation 
      1     -51.5634      1.00000
      2     -22.3377      1.00000
      3     -21.9768      1.00000
      4     -21.6475      1.00000
      5     -21.6366      1.00000
      6     -21.0586      1.00000
      7     -21.0007      1.00000
      8     -20.6875      1.00000
      9     -20.4339      1.00000
     10     -20.3831      1.00000
     11     -19.7756      1.00000
     12     -19.5019      1.00000
     13     -19.4931      1.00000
     14     -19.1673      1.00000
     15     -19.1626      1.00000
     16     -18.6164      1.00000
     17     -18.5695      1.00000
     18     -17.9984      1.00000
     19     -17.9953      1.00000
     20     -17.5087      1.00000
     21     -17.4294      1.00000
     22     -17.4257      1.00000
     23     -17.1800      1.00000
     24     -17.1756      1.00000
     25     -16.3871      1.00000
     26     -16.3745      1.00000
     27     -15.6793      1.00000
     28     -15.4267      1.00000
     29     -15.4215      1.00000
     30     -14.9177      1.00000
     31     -14.9060      1.00000
     32     -14.8674      1.00000
     33     -14.8437      1.00000
     34     -14.4880      1.00000
     35     -14.4507      1.00000
     36     -13.2727      1.00000
     37     -13.2665      1.00000
     38     -13.0652      1.00000
     39     -13.0293      1.00000
     40     -12.7889      1.00000
     41     -12.7795      1.00000
     42     -12.4522      1.00000
     43     -12.3279      1.00000
     44     -12.3215      1.00000
     45     -11.5607      1.00000
     46     -11.5261      1.00000
     47     -11.1116      1.00000
     48     -11.0919      1.00000
     49     -10.7400      1.00000
     50     -10.7307      1.00000
     51     -10.6814      1.00000
     52     -10.5036      1.00000
     53     -10.4596      1.00000
     54     -10.4553      1.00000
     55     -10.0435      1.00000
     56      -9.8367      1.00000
     57      -9.8206      1.00000
     58      -9.7876      1.00000
     59      -9.7766      1.00000
     60      -9.6460      1.00000
     61      -9.6311      1.00000
     62      -9.4657      1.00000
     63      -9.4566      1.00000
     64      -9.2000      1.00000
     65      -9.1852      1.00000
     66      -9.1734      1.00000
     67      -9.0715      1.00000
     68      -9.0662      1.00000
     69      -8.9751      1.00000
     70      -8.8792      1.00000
     71      -8.5740      1.00000
     72      -8.5157      1.00000
     73      -8.2635      1.00000
     74      -8.2463      1.00000
     75      -8.2205      1.00000
     76      -8.1632      1.00000
     77      -8.0256      1.00000
     78      -7.9838      1.00000
     79      -7.9447      1.00000
     80      -7.4955      1.00000
     81      -7.4177      1.00000
     82      -7.2268      1.00000
     83      -7.2135      1.00000
     84      -7.2040      1.00000
     85      -7.1602      1.00000
     86      -6.8239      1.00000
     87      -6.8180      1.00000
     88      -6.6063      1.00000
     89      -6.2528      1.00000
     90      -6.2382      1.00000
     91      -6.1368      1.00000
     92      -6.0316      1.00000
     93      -5.7135      1.00000
     94      -5.6944      1.00000
     95      -5.4027      1.00000
     96      -5.0995      1.00000
     97      -5.0579      1.00000
     98      -4.9215      1.00000
     99      -4.9105      1.00000
    100      -3.9476      1.00000
    101      -3.9212      1.00000
    102      -1.8522      0.42826
    103      -1.7945      0.03501
    104      -1.2058      0.00000
    105      -1.1568      0.00000
    106      -1.0802      0.00000
    107      -0.9564      0.00000
    108      -0.7567      0.00000
    109      -0.7435      0.00000
    110      -0.4748      0.00000
    111      -0.4328      0.00000
    112       0.3469      0.00000
    113       0.5567      0.00000
    114       0.6222      0.00000
    115       0.6630      0.00000
    116       0.8448      0.00000
    117       0.9641      0.00000
    118       1.0963      0.00000
    119       1.1353      0.00000
    120       1.1527      0.00000
    121       1.3182      0.00000
    122       1.3898      0.00000
    123       1.5090      0.00000
    124       1.5744      0.00000
    125       1.6795      0.00000
    126       1.7053      0.00000
    127       1.8033      0.00000
    128       1.8299      0.00000
    129       1.8360      0.00000
    130       1.8505      0.00000
    131       1.8618      0.00000
    132       2.0158      0.00000

 k-point     3 :       0.0000    0.3333    0.0000
  band No.  band energies     occupation 
      1     -51.5634      1.00000
      2     -22.3374      1.00000
      3     -21.9780      1.00000
      4     -21.6489      1.00000
      5     -21.6335      1.00000
      6     -21.0616      1.00000
      7     -20.9987      1.00000
      8     -20.6872      1.00000
      9     -20.4366      1.00000
     10     -20.3809      1.00000
     11     -19.7755      1.00000
     12     -19.5056      1.00000
     13     -19.4878      1.00000
     14     -19.1684      1.00000
     15     -19.1624      1.00000
     16     -18.6197      1.00000
     17     -18.5672      1.00000
     18     -18.0011      1.00000
     19     -17.9921      1.00000
     20     -17.5130      1.00000
     21     -17.4280      1.00000
     22     -17.4252      1.00000
     23     -17.1813      1.00000
     24     -17.1722      1.00000
     25     -16.3837      1.00000
     26     -16.3754      1.00000
     27     -15.6737      1.00000
     28     -15.4306      1.00000
     29     -15.4235      1.00000
     30     -14.9224      1.00000
     31     -14.9114      1.00000
     32     -14.8650      1.00000
     33     -14.8503      1.00000
     34     -14.4826      1.00000
     35     -14.4457      1.00000
     36     -13.2785      1.00000
     37     -13.2659      1.00000
     38     -13.0594      1.00000
     39     -13.0255      1.00000
     40     -12.7832      1.00000
     41     -12.7777      1.00000
     42     -12.4473      1.00000
     43     -12.3354      1.00000
     44     -12.3220      1.00000
     45     -11.5665      1.00000
     46     -11.5318      1.00000
     47     -11.1173      1.00000
     48     -11.0985      1.00000
     49     -10.7390      1.00000
     50     -10.7295      1.00000
     51     -10.6746      1.00000
     52     -10.5015      1.00000
     53     -10.4572      1.00000
     54     -10.4539      1.00000
     55     -10.0442      1.00000
     56      -9.8365      1.00000
     57      -9.8194      1.00000
     58      -9.7842      1.00000
     59      -9.7727      1.00000
     60      -9.6454      1.00000
     61      -9.6304      1.00000
     62      -9.4644      1.00000
     63      -9.4536      1.00000
     64      -9.2052      1.00000
     65      -9.1823      1.00000
     66      -9.1707      1.00000
     67      -9.0741      1.00000
     68      -9.0634      1.00000
     69      -8.9781      1.00000
     70      -8.8787      1.00000
     71      -8.5810      1.00000
     72      -8.5168      1.00000
     73      -8.2632      1.00000
     74      -8.2565      1.00000
     75      -8.2277      1.00000
     76      -8.1632      1.00000
     77      -8.0311      1.00000
     78      -7.9818      1.00000
     79      -7.9447      1.00000
     80      -7.4962      1.00000
     81      -7.4067      1.00000
     82      -7.2203      1.00000
     83      -7.2063      1.00000
     84      -7.1946      1.00000
     85      -7.1613      1.00000
     86      -6.8232      1.00000
     87      -6.8181      1.00000
     88      -6.6177      1.00000
     89      -6.2527      1.00000
     90      -6.2289      1.00000
     91      -6.1380      1.00000
     92      -6.0434      1.00000
     93      -5.7117      1.00000
     94      -5.6942      1.00000
     95      -5.4054      1.00000
     96      -5.0977      1.00000
     97      -5.0615      1.00000
     98      -4.9203      1.00000
     99      -4.9112      1.00000
    100      -3.9377      1.00000
    101      -3.9259      1.00000
    102      -1.8540      0.44841
    103      -1.7967      0.03998
    104      -1.2221      0.00000
    105      -1.1526      0.00000
    106      -1.0827      0.00000
    107      -0.9471      0.00000
    108      -0.7481      0.00000
    109      -0.7397      0.00000
    110      -0.4734      0.00000
    111      -0.4376      0.00000
    112       0.3440      0.00000
    113       0.5577      0.00000
    114       0.6265      0.00000
    115       0.6684      0.00000
    116       0.8433      0.00000
    117       0.9647      0.00000
    118       1.1122      0.00000
    119       1.1201      0.00000
    120       1.1505      0.00000
    121       1.3100      0.00000
    122       1.3891      0.00000
    123       1.5069      0.00000
    124       1.5742      0.00000
    125       1.6793      0.00000
    126       1.7040      0.00000
    127       1.7986      0.00000
    128       1.8209      0.00000
    129       1.8328      0.00000
    130       1.8508      0.00000
    131       1.8588      0.00000
    132       2.0093      0.00000

 k-point     4 :       0.3333    0.3333    0.0000
  band No.  band energies     occupation 
      1     -51.5634      1.00000
      2     -22.2500      1.00000
      3     -22.0068      1.00000
      4     -22.0023      1.00000
      5     -21.1609      1.00000
      6     -21.1169      1.00000
      7     -21.1128      1.00000
      8     -20.2859      1.00000
      9     -20.2511      1.00000
     10     -20.2409      1.00000
     11     -20.1316      1.00000
     12     -20.1291      1.00000
     13     -20.1204      1.00000
     14     -18.4831      1.00000
     15     -18.4699      1.00000
     16     -18.4173      1.00000
     17     -18.3346      1.00000
     18     -18.3149      1.00000
     19     -18.3119      1.00000
     20     -17.5592      1.00000
     21     -17.5542      1.00000
     22     -17.4819      1.00000
     23     -17.0306      1.00000
     24     -17.0254      1.00000
     25     -17.0155      1.00000
     26     -16.0290      1.00000
     27     -16.0149      1.00000
     28     -16.0077      1.00000
     29     -15.4233      1.00000
     30     -15.4177      1.00000
     31     -13.9971      1.00000
     32     -13.9870      1.00000
     33     -13.9572      1.00000
     34     -13.9535      1.00000
     35     -13.9147      1.00000
     36     -13.9124      1.00000
     37     -13.8433      1.00000
     38     -13.8396      1.00000
     39     -13.7636      1.00000
     40     -13.3994      1.00000
     41     -12.3329      1.00000
     42     -12.2028      1.00000
     43     -12.1967      1.00000
     44     -11.5868      1.00000
     45     -11.5714      1.00000
     46     -11.5665      1.00000
     47     -11.5180      1.00000
     48     -11.5145      1.00000
     49     -11.5086      1.00000
     50     -10.4186      1.00000
     51     -10.3195      1.00000
     52     -10.2862      1.00000
     53     -10.2829      1.00000
     54     -10.1816      1.00000
     55     -10.1767      1.00000
     56     -10.1532      1.00000
     57     -10.0613      1.00000
     58     -10.0566      1.00000
     59      -9.5712      1.00000
     60      -9.5660      1.00000
     61      -9.5621      1.00000
     62      -9.3479      1.00000
     63      -9.3404      1.00000
     64      -9.3174      1.00000
     65      -9.0848      1.00000
     66      -9.0280      1.00000
     67      -9.0206      1.00000
     68      -8.6797      1.00000
     69      -8.6736      1.00000
     70      -8.6621      1.00000
     71      -8.6311      1.00000
     72      -8.6279      1.00000
     73      -8.6056      1.00000
     74      -8.1983      1.00000
     75      -8.1940      1.00000
     76      -8.1774      1.00000
     77      -8.0837      1.00000
     78      -8.0605      1.00000
     79      -8.0275      1.00000
     80      -7.8701      1.00000
     81      -7.8648      1.00000
     82      -7.8520      1.00000
     83      -7.0204      1.00000
     84      -7.0081      1.00000
     85      -6.9076      1.00000
     86      -6.5090      1.00000
     87      -6.5018      1.00000
     88      -6.4405      1.00000
     89      -6.1875      1.00000
     90      -6.1761      1.00000
     91      -5.9976      1.00000
     92      -5.9420      1.00000
     93      -5.8821      1.00000
     94      -5.8808      1.00000
     95      -5.2398      1.00000
     96      -5.2260      1.00000
     97      -5.0778      1.00000
     98      -4.9579      1.00000
     99      -4.9549      1.00000
    100      -4.9367      1.00000
    101      -2.8592      1.00000
    102      -2.8491      1.00000
    103      -1.3041      0.00000
    104      -1.2889      0.00000
    105      -1.2464      0.00000
    106      -1.0227      0.00000
    107      -0.6771      0.00000
    108      -0.6486      0.00000
    109      -0.5562      0.00000
    110      -0.0053      0.00000
    111       0.0337      0.00000
    112       0.1738      0.00000
    113       0.1903      0.00000
    114       0.2837      0.00000
    115       0.2868      0.00000
    116       0.4122      0.00000
    117       0.4208      0.00000
    118       1.0997      0.00000
    119       1.2362      0.00000
    120       1.2700      0.00000
    121       1.2767      0.00000
    122       1.3101      0.00000
    123       1.3153      0.00000
    124       1.4916      0.00000
    125       1.4935      0.00000
    126       1.5203      0.00000
    127       1.7975      0.00000
    128       1.8133      0.00000
    129       1.8136      0.00000
    130       1.9163      0.00000
    131       2.0142      0.00000
    132       2.0145      0.00000

 k-point     5 :      -0.3333    0.3333    0.0000
  band No.  band energies     occupation 
      1     -51.5634      1.00000
      2     -22.3377      1.00000
      3     -21.9769      1.00000
      4     -21.6501      1.00000
      5     -21.6338      1.00000
      6     -21.0609      1.00000
      7     -20.9983      1.00000
      8     -20.6877      1.00000
      9     -20.4364      1.00000
     10     -20.3806      1.00000
     11     -19.7757      1.00000
     12     -19.4986      1.00000
     13     -19.4963      1.00000
     14     -19.1665      1.00000
     15     -19.1630      1.00000
     16     -18.6196      1.00000
     17     -18.5669      1.00000
     18     -17.9977      1.00000
     19     -17.9959      1.00000
     20     -17.5126      1.00000
     21     -17.4283      1.00000
     22     -17.4234      1.00000
     23     -17.1802      1.00000
     24     -17.1751      1.00000
     25     -16.3843      1.00000
     26     -16.3762      1.00000
     27     -15.6771      1.00000
     28     -15.4287      1.00000
     29     -15.4218      1.00000
     30     -14.9191      1.00000
     31     -14.9117      1.00000
     32     -14.8642      1.00000
     33     -14.8456      1.00000
     34     -14.4855      1.00000
     35     -14.4492      1.00000
     36     -13.2729      1.00000
     37     -13.2680      1.00000
     38     -13.0618      1.00000
     39     -13.0289      1.00000
     40     -12.7869      1.00000
     41     -12.7790      1.00000
     42     -12.4508      1.00000
     43     -12.3286      1.00000
     44     -12.3237      1.00000
     45     -11.5638      1.00000
     46     -11.5278      1.00000
     47     -11.1131      1.00000
     48     -11.0942      1.00000
     49     -10.7405      1.00000
     50     -10.7280      1.00000
     51     -10.6790      1.00000
     52     -10.5022      1.00000
     53     -10.4600      1.00000
     54     -10.4550      1.00000
     55     -10.0427      1.00000
     56      -9.8365      1.00000
     57      -9.8189      1.00000
     58      -9.7861      1.00000
     59      -9.7779      1.00000
     60      -9.6470      1.00000
     61      -9.6313      1.00000
     62      -9.4652      1.00000
     63      -9.4565      1.00000
     64      -9.2010      1.00000
     65      -9.1839      1.00000
     66      -9.1719      1.00000
     67      -9.0743      1.00000
     68      -9.0650      1.00000
     69      -8.9762      1.00000
     70      -8.8791      1.00000
     71      -8.5754      1.00000
     72      -8.5151      1.00000
     73      -8.2640      1.00000
     74      -8.2479      1.00000
     75      -8.2203      1.00000
     76      -8.1636      1.00000
     77      -8.0258      1.00000
     78      -7.9844      1.00000
     79      -7.9448      1.00000
     80      -7.4929      1.00000
     81      -7.4148      1.00000
     82      -7.2282      1.00000
     83      -7.2142      1.00000
     84      -7.1997      1.00000
     85      -7.1672      1.00000
     86      -6.8240      1.00000
     87      -6.8201      1.00000
     88      -6.6081      1.00000
     89      -6.2462      1.00000
     90      -6.2363      1.00000
     91      -6.1369      1.00000
     92      -6.0331      1.00000
     93      -5.7151      1.00000
     94      -5.6987      1.00000
     95      -5.3906      1.00000
     96      -5.0924      1.00000
     97      -5.0702      1.00000
     98      -4.9194      1.00000
     99      -4.9125      1.00000
    100      -3.9473      1.00000
    101      -3.9269      1.00000
    102      -1.8254      0.17436
    103      -1.8177      0.12394
    104      -1.1914      0.00000
    105      -1.1290      0.00000
    106      -1.1020      0.00000
    107      -0.9837      0.00000
    108      -0.7570      0.00000
    109      -0.7520      0.00000
    110      -0.4585      0.00000
    111      -0.4297      0.00000
    112       0.3421      0.00000
    113       0.5629      0.00000
    114       0.6003      0.00000
    115       0.6823      0.00000
    116       0.8416      0.00000
    117       0.9642      0.00000
    118       1.1183      0.00000
    119       1.1286      0.00000
    120       1.1509      0.00000
    121       1.3035      0.00000
    122       1.3893      0.00000
    123       1.5045      0.00000
    124       1.5744      0.00000
    125       1.6777      0.00000
    126       1.7140      0.00000
    127       1.7956      0.00000
    128       1.8245      0.00000
    129       1.8358      0.00000
    130       1.8476      0.00000
    131       1.8628      0.00000
    132       2.0218      0.00000

 spin component 2

 k-point     1 :       0.0000    0.0000    0.0000
  band No.  band energies     occupation 
      1     -51.5634      1.00000
      2     -22.4262      1.00000
      3     -21.6282      1.00000
      4     -21.4770      1.00000
      5     -21.4713      1.00000
      6     -21.3682      1.00000
      7     -21.3654      1.00000
      8     -21.3302      1.00000
      9     -19.6568      1.00000
     10     -19.6152      1.00000
     11     -19.6082      1.00000
     12     -19.5651      1.00000
     13     -19.5603      1.00000
     14     -19.5467      1.00000
     15     -18.7138      1.00000
     16     -18.7040      1.00000
     17     -18.6743      1.00000
     18     -18.6691      1.00000
     19     -18.6473      1.00000
     20     -18.6365      1.00000
     21     -16.5630      1.00000
     22     -16.5462      1.00000
     23     -16.5111      1.00000
     24     -16.5031      1.00000
     25     -16.4387      1.00000
     26     -16.4245      1.00000
     27     -15.5622      1.00000
     28     -15.5422      1.00000
     29     -15.5273      1.00000
     30     -15.4992      1.00000
     31     -15.4970      1.00000
     32     -15.4913      1.00000
     33     -14.1729      1.00000
     34     -14.1636      1.00000
     35     -14.1612      1.00000
     36     -14.1467      1.00000
     37     -14.1435      1.00000
     38     -14.1388      1.00000
     39     -11.8060      1.00000
     40     -11.7899      1.00000
     41     -11.7747      1.00000
     42     -11.7665      1.00000
     43     -11.7461      1.00000
     44     -11.7236      1.00000
     45     -11.7211      1.00000
     46     -11.7099      1.00000
     47     -11.6298      1.00000
     48     -11.6277      1.00000
     49     -11.6193      1.00000
     50     -11.6169      1.00000
     51     -10.5981      1.00000
     52     -10.3047      1.00000
     53     -10.2964      1.00000
     54     -10.2858      1.00000
     55     -10.2830      1.00000
     56     -10.2788      1.00000
     57     -10.2719      1.00000
     58      -9.6705      1.00000
     59      -9.4614      1.00000
     60      -9.4566      1.00000
     61      -9.2974      1.00000
     62      -9.2945      1.00000
     63      -9.2539      1.00000
     64      -9.0488      1.00000
     65      -9.0418      1.00000
     66      -9.0309      1.00000
     67      -8.9851      1.00000
     68      -8.9809      1.00000
     69      -8.9558      1.00000
     70      -8.9406      1.00000
     71      -8.9338      1.00000
     72      -8.9287      1.00000
     73      -8.9078      1.00000
     74      -8.9055      1.00000
     75      -8.8842      1.00000
     76      -7.4039      1.00000
     77      -7.3777      1.00000
     78      -7.3582      1.00000
     79      -7.3509      1.00000
     80      -7.3382      1.00000
     81      -7.3043      1.00000
     82      -7.2947      1.00000
     83      -7.2932      1.00000
     84      -7.2595      1.00000
     85      -7.2238      1.00000
     86      -7.2112      1.00000
     87      -7.1884      1.00000
     88      -6.4294      1.00000
     89      -6.4262      1.00000
     90      -6.3575      1.00000
     91      -6.3007      1.00000
     92      -6.2726      1.00000
     93      -6.2655      1.00000
     94      -5.8230      1.00000
     95      -5.8067      1.00000
     96      -4.4559      1.00000
     97      -4.4408      1.00000
     98      -4.3713      1.00000
     99      -4.3524      1.00000
    100      -4.2624      1.00000
    101      -4.2430      1.00000
    102      -1.6881      0.00000
    103      -1.6668      0.00000
    104      -1.5865      0.00000
    105      -1.5421      0.00000
    106      -1.4961      0.00000
    107      -1.4369      0.00000
    108      -1.0431      0.00000
    109       0.1629      0.00000
    110       0.2007      0.00000
    111       0.2618      0.00000
    112       0.3729      0.00000
    113       0.3970      0.00000
    114       0.4002      0.00000
    115       0.5340      0.00000
    116       0.7265      0.00000
    117       0.7455      0.00000
    118       0.8341      0.00000
    119       1.0585      0.00000
    120       1.3906      0.00000
    121       1.4442      0.00000
    122       1.4454      0.00000
    123       1.5419      0.00000
    124       1.5494      0.00000
    125       1.9730      0.00000
    126       2.0036      0.00000
    127       2.0334      0.00000
    128       2.0846      0.00000
    129       2.1028      0.00000
    130       2.1282      0.00000
    131       2.1289      0.00000
    132       2.1528      0.00000

 k-point     2 :       0.3333   -0.0000    0.0000
  band No.  band energies     occupation 
      1     -51.5634      1.00000
      2     -22.3377      1.00000
      3     -21.9768      1.00000
      4     -21.6475      1.00000
      5     -21.6366      1.00000
      6     -21.0586      1.00000
      7     -21.0007      1.00000
      8     -20.6875      1.00000
      9     -20.4339      1.00000
     10     -20.3831      1.00000
     11     -19.7756      1.00000
     12     -19.5019      1.00000
     13     -19.4931      1.00000
     14     -19.1673      1.00000
     15     -19.1626      1.00000
     16     -18.6164      1.00000
     17     -18.5695      1.00000
     18     -17.9984      1.00000
     19     -17.9953      1.00000
     20     -17.5087      1.00000
     21     -17.4294      1.00000
     22     -17.4257      1.00000
     23     -17.1800      1.00000
     24     -17.1756      1.00000
     25     -16.3871      1.00000
     26     -16.3745      1.00000
     27     -15.6793      1.00000
     28     -15.4267      1.00000
     29     -15.4215      1.00000
     30     -14.9177      1.00000
     31     -14.9060      1.00000
     32     -14.8674      1.00000
     33     -14.8437      1.00000
     34     -14.4880      1.00000
     35     -14.4507      1.00000
     36     -13.2727      1.00000
     37     -13.2665      1.00000
     38     -13.0652      1.00000
     39     -13.0293      1.00000
     40     -12.7889      1.00000
     41     -12.7795      1.00000
     42     -12.4522      1.00000
     43     -12.3279      1.00000
     44     -12.3215      1.00000
     45     -11.5607      1.00000
     46     -11.5261      1.00000
     47     -11.1116      1.00000
     48     -11.0919      1.00000
     49     -10.7400      1.00000
     50     -10.7307      1.00000
     51     -10.6814      1.00000
     52     -10.5036      1.00000
     53     -10.4596      1.00000
     54     -10.4553      1.00000
     55     -10.0435      1.00000
     56      -9.8367      1.00000
     57      -9.8206      1.00000
     58      -9.7876      1.00000
     59      -9.7766      1.00000
     60      -9.6460      1.00000
     61      -9.6311      1.00000
     62      -9.4657      1.00000
     63      -9.4566      1.00000
     64      -9.2000      1.00000
     65      -9.1852      1.00000
     66      -9.1734      1.00000
     67      -9.0715      1.00000
     68      -9.0662      1.00000
     69      -8.9751      1.00000
     70      -8.8793      1.00000
     71      -8.5740      1.00000
     72      -8.5157      1.00000
     73      -8.2635      1.00000
     74      -8.2463      1.00000
     75      -8.2205      1.00000
     76      -8.1632      1.00000
     77      -8.0256      1.00000
     78      -7.9838      1.00000
     79      -7.9447      1.00000
     80      -7.4955      1.00000
     81      -7.4177      1.00000
     82      -7.2268      1.00000
     83      -7.2135      1.00000
     84      -7.2040      1.00000
     85      -7.1602      1.00000
     86      -6.8239      1.00000
     87      -6.8180      1.00000
     88      -6.6063      1.00000
     89      -6.2528      1.00000
     90      -6.2382      1.00000
     91      -6.1368      1.00000
     92      -6.0316      1.00000
     93      -5.7135      1.00000
     94      -5.6944      1.00000
     95      -5.4027      1.00000
     96      -5.0995      1.00000
     97      -5.0579      1.00000
     98      -4.9215      1.00000
     99      -4.9105      1.00000
    100      -3.9476      1.00000
    101      -3.9212      1.00000
    102      -1.8522      0.42829
    103      -1.7945      0.03501
    104      -1.2058      0.00000
    105      -1.1568      0.00000
    106      -1.0803      0.00000
    107      -0.9564      0.00000
    108      -0.7567      0.00000
    109      -0.7435      0.00000
    110      -0.4748      0.00000
    111      -0.4328      0.00000
    112       0.3466      0.00000
    113       0.5566      0.00000
    114       0.6222      0.00000
    115       0.6629      0.00000
    116       0.8441      0.00000
    117       0.9768      0.00000
    118       1.0982      0.00000
    119       1.1359      0.00000
    120       1.1724      0.00000
    121       1.3287      0.00000
    122       1.3979      0.00000
    123       1.5318      0.00000
    124       1.6012      0.00000
    125       1.6951      0.00000
    126       1.7057      0.00000
    127       1.8122      0.00000
    128       1.8281      0.00000
    129       1.8350      0.00000
    130       1.8599      0.00000
    131       1.8772      0.00000
    132       2.0521      0.00000

 k-point     3 :       0.0000    0.3333    0.0000
  band No.  band energies     occupation 
      1     -51.5634      1.00000
      2     -22.3375      1.00000
      3     -21.9780      1.00000
      4     -21.6489      1.00000
      5     -21.6335      1.00000
      6     -21.0616      1.00000
      7     -20.9987      1.00000
      8     -20.6872      1.00000
      9     -20.4366      1.00000
     10     -20.3809      1.00000
     11     -19.7755      1.00000
     12     -19.5056      1.00000
     13     -19.4878      1.00000
     14     -19.1684      1.00000
     15     -19.1624      1.00000
     16     -18.6197      1.00000
     17     -18.5672      1.00000
     18     -18.0011      1.00000
     19     -17.9921      1.00000
     20     -17.5130      1.00000
     21     -17.4280      1.00000
     22     -17.4252      1.00000
     23     -17.1814      1.00000
     24     -17.1722      1.00000
     25     -16.3837      1.00000
     26     -16.3754      1.00000
     27     -15.6737      1.00000
     28     -15.4306      1.00000
     29     -15.4235      1.00000
     30     -14.9224      1.00000
     31     -14.9114      1.00000
     32     -14.8650      1.00000
     33     -14.8503      1.00000
     34     -14.4826      1.00000
     35     -14.4457      1.00000
     36     -13.2785      1.00000
     37     -13.2659      1.00000
     38     -13.0594      1.00000
     39     -13.0255      1.00000
     40     -12.7832      1.00000
     41     -12.7777      1.00000
     42     -12.4473      1.00000
     43     -12.3354      1.00000
     44     -12.3220      1.00000
     45     -11.5665      1.00000
     46     -11.5318      1.00000
     47     -11.1173      1.00000
     48     -11.0985      1.00000
     49     -10.7390      1.00000
     50     -10.7295      1.00000
     51     -10.6746      1.00000
     52     -10.5015      1.00000
     53     -10.4572      1.00000
     54     -10.4539      1.00000
     55     -10.0442      1.00000
     56      -9.8365      1.00000
     57      -9.8194      1.00000
     58      -9.7842      1.00000
     59      -9.7727      1.00000
     60      -9.6454      1.00000
     61      -9.6304      1.00000
     62      -9.4644      1.00000
     63      -9.4536      1.00000
     64      -9.2052      1.00000
     65      -9.1823      1.00000
     66      -9.1707      1.00000
     67      -9.0741      1.00000
     68      -9.0634      1.00000
     69      -8.9781      1.00000
     70      -8.8787      1.00000
     71      -8.5810      1.00000
     72      -8.5168      1.00000
     73      -8.2632      1.00000
     74      -8.2565      1.00000
     75      -8.2277      1.00000
     76      -8.1632      1.00000
     77      -8.0311      1.00000
     78      -7.9818      1.00000
     79      -7.9447      1.00000
     80      -7.4962      1.00000
     81      -7.4067      1.00000
     82      -7.2203      1.00000
     83      -7.2063      1.00000
     84      -7.1946      1.00000
     85      -7.1613      1.00000
     86      -6.8232      1.00000
     87      -6.8181      1.00000
     88      -6.6177      1.00000
     89      -6.2527      1.00000
     90      -6.2289      1.00000
     91      -6.1380      1.00000
     92      -6.0434      1.00000
     93      -5.7117      1.00000
     94      -5.6942      1.00000
     95      -5.4054      1.00000
     96      -5.0977      1.00000
     97      -5.0615      1.00000
     98      -4.9203      1.00000
     99      -4.9112      1.00000
    100      -3.9377      1.00000
    101      -3.9259      1.00000
    102      -1.8540      0.44843
    103      -1.7967      0.03998
    104      -1.2221      0.00000
    105      -1.1526      0.00000
    106      -1.0827      0.00000
    107      -0.9471      0.00000
    108      -0.7481      0.00000
    109      -0.7397      0.00000
    110      -0.4734      0.00000
    111      -0.4376      0.00000
    112       0.3437      0.00000
    113       0.5577      0.00000
    114       0.6264      0.00000
    115       0.6683      0.00000
    116       0.8426      0.00000
    117       0.9776      0.00000
    118       1.1143      0.00000
    119       1.1203      0.00000
    120       1.1694      0.00000
    121       1.3209      0.00000
    122       1.3972      0.00000
    123       1.5297      0.00000
    124       1.6012      0.00000
    125       1.6955      0.00000
    126       1.7042      0.00000
    127       1.8063      0.00000
    128       1.8236      0.00000
    129       1.8360      0.00000
    130       1.8617      0.00000
    131       1.8760      0.00000
    132       2.0530      0.00000

 k-point     4 :       0.3333    0.3333    0.0000
  band No.  band energies     occupation 
      1     -51.5634      1.00000
      2     -22.2500      1.00000
      3     -22.0068      1.00000
      4     -22.0023      1.00000
      5     -21.1609      1.00000
      6     -21.1169      1.00000
      7     -21.1128      1.00000
      8     -20.2859      1.00000
      9     -20.2511      1.00000
     10     -20.2409      1.00000
     11     -20.1316      1.00000
     12     -20.1291      1.00000
     13     -20.1204      1.00000
     14     -18.4831      1.00000
     15     -18.4699      1.00000
     16     -18.4173      1.00000
     17     -18.3346      1.00000
     18     -18.3149      1.00000
     19     -18.3119      1.00000
     20     -17.5592      1.00000
     21     -17.5542      1.00000
     22     -17.4819      1.00000
     23     -17.0306      1.00000
     24     -17.0254      1.00000
     25     -17.0155      1.00000
     26     -16.0290      1.00000
     27     -16.0149      1.00000
     28     -16.0077      1.00000
     29     -15.4233      1.00000
     30     -15.4177      1.00000
     31     -13.9971      1.00000
     32     -13.9870      1.00000
     33     -13.9572      1.00000
     34     -13.9535      1.00000
     35     -13.9147      1.00000
     36     -13.9124      1.00000
     37     -13.8433      1.00000
     38     -13.8396      1.00000
     39     -13.7636      1.00000
     40     -13.3994      1.00000
     41     -12.3329      1.00000
     42     -12.2028      1.00000
     43     -12.1967      1.00000
     44     -11.5868      1.00000
     45     -11.5714      1.00000
     46     -11.5665      1.00000
     47     -11.5180      1.00000
     48     -11.5145      1.00000
     49     -11.5086      1.00000
     50     -10.4186      1.00000
     51     -10.3195      1.00000
     52     -10.2862      1.00000
     53     -10.2829      1.00000
     54     -10.1816      1.00000
     55     -10.1767      1.00000
     56     -10.1532      1.00000
     57     -10.0613      1.00000
     58     -10.0566      1.00000
     59      -9.5712      1.00000
     60      -9.5660      1.00000
     61      -9.5621      1.00000
     62      -9.3479      1.00000
     63      -9.3404      1.00000
     64      -9.3174      1.00000
     65      -9.0848      1.00000
     66      -9.0280      1.00000
     67      -9.0206      1.00000
     68      -8.6797      1.00000
     69      -8.6736      1.00000
     70      -8.6621      1.00000
     71      -8.6311      1.00000
     72      -8.6279      1.00000
     73      -8.6056      1.00000
     74      -8.1983      1.00000
     75      -8.1940      1.00000
     76      -8.1774      1.00000
     77      -8.0837      1.00000
     78      -8.0605      1.00000
     79      -8.0275      1.00000
     80      -7.8701      1.00000
     81      -7.8648      1.00000
     82      -7.8520      1.00000
     83      -7.0204      1.00000
     84      -7.0081      1.00000
     85      -6.9076      1.00000
     86      -6.5090      1.00000
     87      -6.5018      1.00000
     88      -6.4405      1.00000
     89      -6.1875      1.00000
     90      -6.1761      1.00000
     91      -5.9976      1.00000
     92      -5.9420      1.00000
     93      -5.8821      1.00000
     94      -5.8808      1.00000
     95      -5.2398      1.00000
     96      -5.2260      1.00000
     97      -5.0778      1.00000
     98      -4.9579      1.00000
     99      -4.9549      1.00000
    100      -4.9367      1.00000
    101      -2.8592      1.00000
    102      -2.8491      1.00000
    103      -1.3041      0.00000
    104      -1.2889      0.00000
    105      -1.2464      0.00000
    106      -1.0227      0.00000
    107      -0.6771      0.00000
    108      -0.6486      0.00000
    109      -0.5562      0.00000
    110      -0.0053      0.00000
    111       0.0337      0.00000
    112       0.1738      0.00000
    113       0.1903      0.00000
    114       0.2837      0.00000
    115       0.2868      0.00000
    116       0.4119      0.00000
    117       0.4206      0.00000
    118       1.0995      0.00000
    119       1.2536      0.00000
    120       1.2694      0.00000
    121       1.2774      0.00000
    122       1.3278      0.00000
    123       1.3330      0.00000
    124       1.5150      0.00000
    125       1.5165      0.00000
    126       1.5490      0.00000
    127       1.8191      0.00000
    128       1.8410      0.00000
    129       1.8413      0.00000
    130       1.9358      0.00000
    131       2.0288      0.00000
    132       2.0292      0.00000

 k-point     5 :      -0.3333    0.3333    0.0000
  band No.  band energies     occupation 
      1     -51.5634      1.00000
      2     -22.3377      1.00000
      3     -21.9769      1.00000
      4     -21.6501      1.00000
      5     -21.6338      1.00000
      6     -21.0609      1.00000
      7     -20.9983      1.00000
      8     -20.6877      1.00000
      9     -20.4364      1.00000
     10     -20.3806      1.00000
     11     -19.7757      1.00000
     12     -19.4986      1.00000
     13     -19.4963      1.00000
     14     -19.1665      1.00000
     15     -19.1630      1.00000
     16     -18.6196      1.00000
     17     -18.5669      1.00000
     18     -17.9977      1.00000
     19     -17.9959      1.00000
     20     -17.5126      1.00000
     21     -17.4283      1.00000
     22     -17.4234      1.00000
     23     -17.1802      1.00000
     24     -17.1751      1.00000
     25     -16.3843      1.00000
     26     -16.3762      1.00000
     27     -15.6771      1.00000
     28     -15.4287      1.00000
     29     -15.4218      1.00000
     30     -14.9191      1.00000
     31     -14.9117      1.00000
     32     -14.8642      1.00000
     33     -14.8456      1.00000
     34     -14.4855      1.00000
     35     -14.4492      1.00000
     36     -13.2729      1.00000
     37     -13.2680      1.00000
     38     -13.0618      1.00000
     39     -13.0289      1.00000
     40     -12.7869      1.00000
     41     -12.7790      1.00000
     42     -12.4508      1.00000
     43     -12.3286      1.00000
     44     -12.3237      1.00000
     45     -11.5638      1.00000
     46     -11.5278      1.00000
     47     -11.1131      1.00000
     48     -11.0942      1.00000
     49     -10.7405      1.00000
     50     -10.7280      1.00000
     51     -10.6790      1.00000
     52     -10.5022      1.00000
     53     -10.4600      1.00000
     54     -10.4550      1.00000
     55     -10.0427      1.00000
     56      -9.8365      1.00000
     57      -9.8189      1.00000
     58      -9.7861      1.00000
     59      -9.7779      1.00000
     60      -9.6470      1.00000
     61      -9.6313      1.00000
     62      -9.4652      1.00000
     63      -9.4565      1.00000
     64      -9.2010      1.00000
     65      -9.1839      1.00000
     66      -9.1719      1.00000
     67      -9.0743      1.00000
     68      -9.0650      1.00000
     69      -8.9762      1.00000
     70      -8.8791      1.00000
     71      -8.5754      1.00000
     72      -8.5151      1.00000
     73      -8.2640      1.00000
     74      -8.2479      1.00000
     75      -8.2203      1.00000
     76      -8.1636      1.00000
     77      -8.0258      1.00000
     78      -7.9844      1.00000
     79      -7.9448      1.00000
     80      -7.4929      1.00000
     81      -7.4148      1.00000
     82      -7.2282      1.00000
     83      -7.2142      1.00000
     84      -7.1997      1.00000
     85      -7.1672      1.00000
     86      -6.8240      1.00000
     87      -6.8201      1.00000
     88      -6.6081      1.00000
     89      -6.2462      1.00000
     90      -6.2363      1.00000
     91      -6.1369      1.00000
     92      -6.0331      1.00000
     93      -5.7151      1.00000
     94      -5.6987      1.00000
     95      -5.3906      1.00000
     96      -5.0924      1.00000
     97      -5.0702      1.00000
     98      -4.9194      1.00000
     99      -4.9125      1.00000
    100      -3.9473      1.00000
    101      -3.9269      1.00000
    102      -1.8254      0.17438
    103      -1.8177      0.12395
    104      -1.1914      0.00000
    105      -1.1291      0.00000
    106      -1.1020      0.00000
    107      -0.9837      0.00000
    108      -0.7570      0.00000
    109      -0.7520      0.00000
    110      -0.4585      0.00000
    111      -0.4297      0.00000
    112       0.3419      0.00000
    113       0.5628      0.00000
    114       0.6002      0.00000
    115       0.6822      0.00000
    116       0.8409      0.00000
    117       0.9771      0.00000
    118       1.1191      0.00000
    119       1.1323      0.00000
    120       1.1674      0.00000
    121       1.3146      0.00000
    122       1.3974      0.00000
    123       1.5274      0.00000
    124       1.6009      0.00000
    125       1.6940      0.00000
    126       1.7142      0.00000
    127       1.8058      0.00000
    128       1.8249      0.00000
    129       1.8364      0.00000
    130       1.8582      0.00000
    131       1.8745      0.00000
    132       2.0331      0.00000


--------------------------------------------------------------------------------------------------------


 soft charge-density along one line, spin component           1
         0         1         2         3         4         5         6         7         8         9
 total charge-density along one line
 
 soft charge-density along one line, spin component           2
         0         1         2         3         4         5         6         7         8         9
 total charge-density along one line
 
 pseudopotential strength for first ion, spin component:           1
 10.216  13.585  -0.000   0.000  -0.000   0.001  -0.000   0.000
 13.585  18.065  -0.000   0.000  -0.000   0.001  -0.000   0.000
 -0.000  -0.000  -4.347  -0.000   0.000   8.502   0.000  -0.000
  0.000   0.000  -0.000  -4.326  -0.000   0.000   8.468   0.000
 -0.000  -0.000   0.000  -0.000  -4.347  -0.000   0.000   8.502
  0.001   0.001   8.502   0.000  -0.000 -18.763  -0.000   0.000
 -0.000  -0.000   0.000   8.468   0.000  -0.000 -18.710  -0.000
  0.000   0.000  -0.000   0.000   8.502   0.000  -0.000 -18.763
 pseudopotential strength for first ion, spin component:           2
 10.216  13.585  -0.000   0.000  -0.000   0.001  -0.000   0.000
 13.585  18.065  -0.000   0.000  -0.000   0.001  -0.000   0.000
 -0.000  -0.000  -4.347  -0.000   0.000   8.502   0.000  -0.000
  0.000   0.000  -0.000  -4.326  -0.000   0.000   8.468   0.000
 -0.000  -0.000   0.000  -0.000  -4.347  -0.000   0.000   8.502
  0.001   0.001   8.502   0.000  -0.000 -18.763  -0.000   0.000
 -0.000  -0.000   0.000   8.468   0.000  -0.000 -18.710  -0.000
  0.000   0.000  -0.000   0.000   8.502   0.000  -0.000 -18.763
 total augmentation occupancy for first ion, spin component:           1
  8.143  -3.617  -0.003  -0.004   0.000  -0.001  -0.001   0.000
 -3.617   1.664   0.004   0.002  -0.000   0.000   0.000  -0.000
 -0.003   0.004   1.821   0.004   0.000   0.168   0.001  -0.000
 -0.004   0.002   0.004   1.207  -0.000   0.001   0.072   0.000
  0.000  -0.000   0.000  -0.000   1.826  -0.000   0.000   0.168
 -0.001   0.000   0.168   0.001  -0.000   0.017   0.000  -0.000
 -0.001   0.000   0.001   0.072   0.000   0.000   0.005   0.000
  0.000  -0.000  -0.000   0.000   0.168  -0.000   0.000   0.017
 total augmentation occupancy for first ion, spin component:           2
 -0.000   0.000   0.000   0.000  -0.000   0.000   0.000  -0.000
  0.000  -0.000  -0.000  -0.000   0.000  -0.000  -0.000   0.000
  0.000  -0.000   0.000   0.000   0.000  -0.000  -0.000  -0.000
  0.000  -0.000   0.000  -0.000   0.000  -0.000  -0.000  -0.000
 -0.000   0.000   0.000   0.000   0.000  -0.000   0.000  -0.000
  0.000  -0.000  -0.000  -0.000  -0.000  -0.000  -0.000  -0.000
  0.000  -0.000  -0.000  -0.000   0.000  -0.000  -0.000  -0.000
 -0.000   0.000  -0.000  -0.000  -0.000  -0.000  -0.000  -0.000


------------------------ aborting loop because EDIFF is reached ----------------------------------------


    CHARGE:  cpu time    4.3814: real time    4.3827
    FORLOC:  cpu time    0.2043: real time    0.2043
    FORNL :  cpu time   16.8744: real time   16.8751
    STRESS:  cpu time   48.2521: real time   48.2570
    FORCOR:  cpu time    1.1236: real time    1.1237
    FORHAR:  cpu time    0.2474: real time    0.2474
    MIXING:  cpu time    0.0686: real time    0.0686
    OFIELD:  cpu time    0.0000: real time    0.0000

  FORCE on cell =-STRESS in cart. coord.  units (eV):
  Direction    XX          YY          ZZ          XY          YZ          ZX
  --------------------------------------------------------------------------------------
  Alpha Z    53.42782    53.42782    53.42782
  Ewald   63717.34219 63712.32339-70469.96318     1.12537    -5.09230     3.91062
  Hartree 62859.14486 62858.72670-62530.83120     0.37082    -1.51430     1.91116
  E(xc)    -758.55089  -758.57035  -785.93620    -0.00001    -0.02120     0.01370
  Local  ************************130432.21716    -1.38341     6.37959    -5.70909
  n-local  -195.31707  -195.41260  -182.50314    -0.04158     0.32652    -0.36659
  augment    -1.31889    -1.30485     0.31559     0.00338     0.00018     0.00415
  Kinetic  3053.71213  3055.12107  3484.23559     0.26125    -0.69915     1.02811
  Fock        0.00000     0.00000     0.00000     0.00000     0.00000     0.00000
  -------------------------------------------------------------------------------------
  Total      15.40113    15.65173     0.96242     0.33583    -0.62066     0.79207
  in kB       6.27771     6.37986     0.39230     0.13689    -0.25299     0.32286
  external pressure =        4.35 kB  Pullay stress =        0.00 kB


 VOLUME and BASIS-vectors are now :
 -----------------------------------------------------------------------------
  energy-cutoff  :      520.00
  volume of cell :     3930.63
      direct lattice vectors                 reciprocal lattice vectors
    12.300000000  0.000000000  0.000000000     0.081300813  0.046939046  0.000000000
    -6.150000000 10.652112467  0.000000000     0.000000000  0.093878093  0.000000000
     0.000000000  0.000000000 30.000000000     0.000000000  0.000000000  0.033333333

  length of vectors
    12.300000000 12.300000000 30.000000000     0.093878093  0.093878093  0.033333333


 FORCES acting on ions
    electron-ion (+dipol)            ewald-force                    non-local-force                 convergence-correction
 -----------------------------------------------------------------------------------------------
   0.502E+00 -.373E+01 -.167E+01   -.469E+00 0.388E+01 0.163E+01   0.161E-01 -.208E+00 0.339E-01   0.835E-06 -.487E-05 -.207E-05
   -.306E+00 -.211E+01 -.254E+01   0.328E+00 0.214E+01 0.248E+01   0.108E-02 -.788E-01 0.600E-01   0.186E-05 -.304E-05 -.185E-05
   -.913E+00 0.289E+00 -.206E+01   0.973E+00 -.314E+00 0.203E+01   -.130E+00 0.421E-03 0.304E-01   0.372E-05 -.163E-05 -.176E-05
   -.618E+00 -.347E+00 -.287E+01   0.694E+00 0.346E+00 0.282E+01   -.325E-03 0.335E-01 0.446E-01   0.308E-05 -.180E-05 -.168E-05
   -.696E+01 0.397E+01 0.404E+01   0.737E+01 -.417E+01 -.411E+01   -.401E+00 0.253E+00 0.884E-01   0.205E-05 0.135E-05 -.240E-05
   -.345E+01 0.139E+01 -.993E+00   0.362E+01 -.140E+01 0.935E+00   -.184E+00 0.370E-01 0.537E-01   -.358E-05 0.112E-05 -.197E-05
   -.149E+02 -.174E+01 0.210E+02   0.158E+02 0.186E+01 -.220E+02   -.870E+00 -.159E+00 0.113E+01   -.404E-05 0.105E-04 -.300E-05
   -.892E+01 -.297E+01 0.341E+01   0.950E+01 0.327E+01 -.350E+01   -.446E+00 -.218E+00 0.115E+00   -.400E-05 0.472E-05 -.260E-05
   -.250E+01 -.119E+02 0.746E+01   0.255E+01 0.127E+02 -.777E+01   -.586E-01 -.628E+00 0.336E+00   -.118E-05 -.461E-05 -.315E-05
   -.312E+01 -.590E+01 -.942E+00   0.333E+01 0.619E+01 0.854E+00   -.248E+00 -.266E+00 0.780E-01   -.227E-05 -.339E-05 -.247E-05
   -.433E+00 -.268E+01 -.260E+01   0.412E+00 0.286E+01 0.256E+01   -.397E-01 -.180E+00 0.384E-01   0.231E-05 -.207E-05 -.200E-05
   0.275E+01 0.513E+01 0.114E+02   -.282E+01 -.543E+01 -.115E+02   0.113E+00 0.385E+00 0.774E-01   0.178E-05 -.421E-06 -.263E-05
   0.387E+01 0.161E+01 0.184E+01   -.406E+01 -.172E+01 -.188E+01   0.162E+00 0.990E-01 0.445E-01   -.454E-06 0.152E-05 -.215E-05
   0.191E+01 0.861E+00 0.126E+01   -.197E+01 -.884E+00 -.133E+01   0.571E-01 0.421E-01 0.795E-01   -.582E-06 -.177E-05 -.187E-05
   -.115E+01 0.166E+01 -.311E+01   0.122E+01 -.176E+01 0.307E+01   -.528E-01 0.646E-01 0.319E-01   0.281E-05 -.121E-05 -.171E-05
   0.312E+00 0.730E+00 -.195E+01   -.353E+00 -.745E+00 0.192E+01   0.582E-01 -.364E-02 0.335E-01   0.224E-05 0.160E-05 -.179E-05
   -.393E+01 -.571E+00 -.742E+00   0.413E+01 0.512E+00 0.663E+00   -.246E+00 0.215E-01 0.742E-01   -.343E-05 0.138E-05 -.203E-05
   -.130E+01 -.142E+01 -.305E+01   0.142E+01 0.149E+01 0.303E+01   -.726E-01 -.492E-01 0.658E-02   0.375E-06 0.187E-05 -.174E-05
   -.489E+01 -.343E+01 -.890E-01   0.508E+01 0.356E+01 -.428E-01   -.165E+00 -.172E+00 0.116E+00   -.502E-05 -.405E-06 -.236E-05
   -.180E+01 -.109E+01 -.158E+01   0.194E+01 0.114E+01 0.155E+01   -.129E+00 -.420E-01 0.309E-01   -.427E-05 0.300E-05 -.193E-05
   -.544E+00 -.439E-01 0.622E+00   0.532E+00 0.494E-01 -.676E+00   0.494E-02 -.225E-03 0.575E-01   -.644E-05 0.999E-06 -.184E-05
   0.153E+00 0.216E+01 0.365E+01   -.115E+00 -.230E+01 -.368E+01   -.101E-01 0.108E+00 0.256E-01   -.524E-05 -.453E-06 -.196E-05
   0.159E+01 0.181E+01 0.301E+01   -.173E+01 -.194E+01 -.305E+01   0.152E+00 0.899E-01 0.399E-01   -.586E-06 -.465E-05 -.201E-05
   -.468E+00 -.355E+00 -.239E+00   0.495E+00 0.374E+00 0.201E+00   0.979E-02 0.292E-01 0.377E-01   0.190E-05 -.457E-05 -.185E-05
   0.167E-01 -.508E+00 -.228E+01   -.965E-01 0.584E+00 0.226E+01   0.526E-01 -.187E-01 0.252E-01   -.265E-06 -.165E-06 -.166E-05
   0.615E+01 0.160E+01 0.115E+02   -.641E+01 -.166E+01 -.118E+02   0.433E+00 0.667E-01 0.187E+00   0.304E-05 0.926E-06 -.293E-05
   0.282E+01 -.117E+01 -.152E+01   -.290E+01 0.116E+01 0.144E+01   0.804E-01 -.693E-01 0.795E-01   0.956E-06 -.153E-05 -.197E-05
   0.469E+01 -.115E+01 0.443E+00   -.492E+01 0.130E+01 -.479E+00   0.206E+00 -.825E-01 0.362E-01   0.120E-05 -.152E-06 -.218E-05
   -.934E+00 -.801E-01 -.173E+01   0.960E+00 0.869E-01 0.166E+01   -.305E-01 -.254E-01 0.731E-01   -.347E-06 0.308E-06 -.176E-05
   0.457E+00 -.132E+00 -.196E+01   -.514E+00 0.179E+00 0.194E+01   0.422E-01 -.257E-02 0.183E-01   -.154E-05 -.561E-07 -.170E-05
   0.941E-01 0.768E+00 0.544E+00   -.142E+00 -.832E+00 -.596E+00   -.271E-01 0.211E-01 0.559E-01   -.680E-06 -.239E-05 -.181E-05
   0.355E+00 0.107E+01 -.195E+00   -.308E+00 -.116E+01 0.156E+00   0.125E-01 0.125E+00 0.374E-01   0.102E-05 -.276E-05 -.184E-05
   0.894E+00 0.469E+01 0.122E+02   -.965E+00 -.488E+01 -.124E+02   0.461E-01 0.249E+00 0.169E+00   -.227E-05 0.958E-06 -.262E-05
   -.872E+00 0.784E+01 0.128E+02   0.869E+00 -.837E+01 -.130E+02   -.337E-01 0.572E+00 0.123E+00   -.367E-05 -.146E-05 -.279E-05
   0.787E+01 0.686E+01 0.230E+02   -.847E+01 -.721E+01 -.232E+02   0.547E+00 0.404E+00 0.958E-01   0.147E-05 0.432E-05 -.314E-05
   0.911E+01 0.142E+02 0.687E+02   -.971E+01 -.150E+02 -.706E+02   0.450E+00 0.856E+00 0.235E+01   -.418E-05 0.114E-04 -.258E-05
   0.741E+01 0.400E+00 0.106E+02   -.779E+01 -.486E+00 -.108E+02   0.511E+00 0.186E-01 0.234E+00   0.751E-05 0.256E-05 -.292E-05
   0.175E+01 -.793E+01 0.490E+01   -.183E+01 0.835E+01 -.515E+01   0.142E+00 -.325E+00 0.258E+00   0.470E-05 -.450E-05 -.278E-05
   0.432E+00 -.275E+00 -.182E+01   -.513E+00 0.267E+00 0.176E+01   0.678E-01 0.157E-01 0.585E-01   0.148E-05 -.220E-05 -.183E-05
   0.280E+01 -.288E+01 -.242E+01   -.294E+01 0.298E+01 0.237E+01   0.211E+00 -.153E+00 0.444E-01   0.344E-05 -.448E-06 -.221E-05
   0.311E+00 -.985E+00 -.292E+01   -.334E+00 0.109E+01 0.289E+01   0.226E-01 -.579E-01 0.275E-01   0.410E-05 -.123E-05 -.180E-05
   0.333E+00 -.110E+01 -.261E+01   -.397E+00 0.116E+01 0.255E+01   0.890E-02 -.338E-01 0.564E-01   0.396E-06 -.491E-05 -.178E-05
   -.167E+01 0.402E+01 0.377E+01   0.184E+01 -.422E+01 -.382E+01   -.146E+00 0.170E+00 0.472E-01   -.436E-06 0.792E-06 -.219E-05
   -.316E+01 0.276E+01 0.215E+01   0.329E+01 -.295E+01 -.224E+01   -.114E+00 0.116E+00 0.945E-01   -.771E-06 0.263E-05 -.208E-05
   -.448E+01 0.141E+02 0.299E+02   0.471E+01 -.150E+02 -.308E+02   -.386E+00 0.759E+00 0.816E+00   -.601E-05 0.148E-05 -.317E-05
   -.111E+02 0.646E+01 0.194E+02   0.119E+02 -.689E+01 -.202E+02   -.650E+00 0.342E+00 0.804E+00   0.284E-05 0.276E-05 -.304E-05
   0.136E+02 -.630E+01 0.693E+02   -.146E+02 0.670E+01 -.720E+02   0.545E+00 -.459E+00 0.195E+01   -.487E-06 0.570E-05 -.112E-05
   -.901E+01 -.154E+02 0.354E+02   0.954E+01 0.165E+02 -.371E+02   -.539E+00 -.884E+00 0.144E+01   -.796E-05 0.342E-05 -.225E-05
   0.525E+01 -.719E+01 0.418E+01   -.551E+01 0.759E+01 -.438E+01   0.134E+00 -.443E+00 0.179E+00   0.539E-05 -.688E-05 -.298E-05
   0.124E+02 -.569E+01 0.198E+02   -.132E+02 0.609E+01 -.204E+02   0.699E+00 -.413E+00 0.528E+00   0.930E-05 -.190E-05 -.334E-05
   -.748E+00 0.534E+01 -.362E+03   0.517E+00 -.502E+01 0.358E+03   0.657E+00 -.683E+00 0.471E+01   -.190E-05 0.247E-05 0.552E-05
 -----------------------------------------------------------------------------------------------
   -.462E+00 0.765E+00 -.172E+02   -.384E-12 0.135E-12 0.000E+00   0.462E+00 -.775E+00 0.172E+02   -.182E-05 0.225E-05 -.106E-03
 
 
 POSITION                                       TOTAL-FORCE (eV/Angst)
 -----------------------------------------------------------------------------------
      6.15000     10.64963     15.02111         0.048457     -0.065846      0.002295
      1.22997      0.70603     15.02292         0.022402     -0.045346     -0.004336
     11.07135      2.12521     15.01986        -0.070700     -0.023843      0.003547
      0.00000      2.83470     15.02308         0.075225      0.032505     -0.006247
      9.84234      4.25469     14.99963         0.008755      0.052804      0.012078
     -1.22729      4.96730     15.01666        -0.012433      0.022509     -0.003919
     -3.68298      6.38952     14.97901         0.020428     -0.038008      0.099930
     -2.45772      7.09850     15.00834         0.135098      0.078902      0.033183
     -4.91873      8.52230     15.00223        -0.011402      0.201479      0.032021
     -3.68715      9.22892     15.01883        -0.040455      0.018538     -0.009203
     -3.68950     10.64879     15.02112        -0.060877      0.002749     -0.004294
      4.91827      2.82995     14.96436         0.045300      0.088020     -0.028055
      2.45765      4.25470     14.99962        -0.026214     -0.012975      0.003226
      2.45946      2.83452     15.00431        -0.007725      0.018662      0.007876
     -0.00001      4.25683     15.02257         0.015928     -0.037050     -0.003369
      1.22729      4.96730     15.01666         0.017004     -0.017899     -0.002150
     -1.22740      6.38633     15.01809        -0.043135     -0.037111     -0.004204
      0.00000      7.09646     15.02341         0.044584      0.029245     -0.012016
     -2.45954      8.51902     15.01709         0.032220     -0.039758     -0.015343
     -1.22880      9.22764     15.01823         0.005962      0.001048      0.001230
     -1.23035     10.64711     15.00769        -0.006318      0.005516      0.003364
      6.15000      0.70328     14.99417         0.027864     -0.027290     -0.001858
      3.68717      2.12384     14.99413         0.003590     -0.033791      0.005057
      3.68950      0.70364     15.00950         0.036870      0.047823     -0.000617
      1.22866      2.12521     15.01986        -0.027178      0.056881      0.003797
      3.68305      4.96449     14.96993         0.169974      0.003960     -0.047182
      2.45955      8.51902     15.01708        -0.007045     -0.077067      0.000847
      2.45772      7.09850     15.00834        -0.018524      0.068562      0.000927
      0.00000      8.51848     15.02046        -0.003985     -0.018407      0.005336
      1.22881      9.22764     15.01823        -0.015532      0.044732     -0.000367
      1.23036     10.64711     15.00769        -0.075045     -0.042712      0.004108
      8.61050      0.70364     15.00950         0.060024      0.043344     -0.001346
      6.15000      2.12188     14.96618        -0.025413      0.057226      0.013913
      7.38173      2.82995     14.96436        -0.036368      0.048045      0.006772
      4.91432      4.25058     14.93709        -0.054951      0.057189     -0.100409
      6.15000      4.96072     14.87541        -0.142964      0.064493      0.438955
      3.68298      6.38952     14.97900         0.132933     -0.067661     -0.000622
      6.15000      9.23007     15.00623         0.068959      0.094292      0.004583
      1.22739      6.38633     15.01809        -0.012654      0.008194     -0.000381
      3.68715      9.22892     15.01883         0.069495     -0.052032     -0.004989
      3.68951     10.64879     15.02112        -0.000127      0.050187     -0.004954
     11.07003      0.70603     15.02292        -0.055374      0.031114     -0.004555
      8.61284      2.12384     14.99413         0.020413     -0.027985      0.001412
      9.84054      2.83452     15.00431         0.016522     -0.068984      0.003437
      7.38569      4.25058     14.93709        -0.156006     -0.081253     -0.037841
      8.61695      4.96449     14.96993         0.107071     -0.091727      0.013662
      6.15000      6.39352     14.90601        -0.482379     -0.057670     -0.800125
      7.38565      7.10256     14.96581        -0.001750      0.145116     -0.254926
      4.91874      8.52230     15.00223        -0.125403     -0.046554     -0.014624
      4.91435      7.10256     14.96581        -0.091230     -0.006420     -0.046095
      6.76783      6.03164     16.69696         0.426111     -0.355746      0.712471
 -----------------------------------------------------------------------------------
    total drift:                               -0.000040     -0.010692     -0.010224


--------------------------------------------------------------------------------------------------------



  FREE ENERGIE OF THE ION-ELECTRON SYSTEM (eV)
  ---------------------------------------------------
  free  energy   TOTEN  =      -462.43166151 eV

  energy  without entropy=     -462.40945312  energy(sigma->0) =     -462.42055732
 


--------------------------------------------------------------------------------------------------------


    POTLOK:  cpu time    2.0451: real time    2.0452


--------------------------------------------------------------------------------------------------------


     LOOP+:  cpu time 1814.4353: real time 1814.7489
    4ORBIT:  cpu time    0.0000: real time    0.0000

 total amount of memory used by VASP on root node   465222. kBytes
========================================================================

   base      :      30000. kBytes
   nonlr-proj:       4760. kBytes
   fftplans  :     165810. kBytes
   grid      :     124231. kBytes
   one-center:         79. kBytes
   wavefun   :     140342. kBytes
 
  
  
 General timing and accounting informations for this job:
 ========================================================
  
                  Total CPU time used (sec):     1838.986
                            User time (sec):     1757.288
                          System time (sec):       81.698
                         Elapsed time (sec):     1841.246
  
                   Maximum memory used (kb):      873072.
                   Average memory used (kb):           0.
  
                          Minor page faults:       189809
                          Major page faults:          505
                 Voluntary context switches:         2170
