C  Li                                   
   1.00000000000000     
    12.3000000000000007    0.0000000000000000    0.0000000000000000
    -6.1500000000000004   10.6521124665485960    0.0000000000000000
     0.0000000000000000    0.0000000000000000   30.0000000000000000
   C    Li
    50     1
Direct
  0.9998834489086761  0.9997665542525098  0.5007036495621762
  0.1331383454803827  0.0662811281074838  0.5007641412798520
  0.9998646236676194  0.1995104798375564  0.5006620432347546
  0.1330581924329977  0.2661159963495834  0.5007694696635525
  0.9999011998378933  0.3994221195278271  0.4999875198788715
  0.1333801159561290  0.4663202723522346  0.5005554496148221
  0.0004888299171171  0.5998360090275199  0.4993002861077827
  0.1333822311966557  0.6663936202050422  0.5002780497753747
  0.0001316702734115  0.8000569247759302  0.5000742985788023
  0.1334289543134233  0.8663937028199413  0.5006277686551996
  0.1998845243523206  0.9996880932831189  0.5007041297635908
  0.5326948968086143  0.2656707728979271  0.4988118657005316
  0.3995201237276191  0.3994227794123972  0.4999874255912786
  0.3330058633958473  0.2660995071405807  0.5001435595123951
  0.1998103736158754  0.3996230911016809  0.5007522451602355
  0.3329400447797966  0.4663202935066835  0.5005553591453946
  0.1999797711342310  0.5995360734901851  0.5006030117586064
  0.3331014366342231  0.6662025811540531  0.5007801669167975
  0.1999117607380825  0.7997491391966207  0.5005695280009803
  0.3332338481411981  0.8662732199259295  0.5006077541119893
  0.3997365359876639  0.9995301160656354  0.5002562898112046
  0.5330114958858445  0.0660227307230414  0.4998055067891372
  0.3994604944978732  0.1993819186434962  0.4998042270156375
  0.3329876325311503  0.0660568366408896  0.5003167918915068
  0.1996460910358451  0.1995104023232201  0.5006620660049066
  0.5324635857173448  0.4660566057207447  0.4989975003464906
  0.5998376792333033  0.7997490900900672  0.5005693036443262
  0.5330116159055578  0.6663934448339575  0.5002778352193147
  0.3998496597040315  0.7996990068279928  0.5006820615719718
  0.5330395699764665  0.8662731829677597  0.5006076193837359
  0.5997939412388789  0.9995301424814542  0.5002561879396126
  0.7330694330433190  0.0660568253620610  0.5003166561651824
  0.5995992304864046  0.1991979944511542  0.4988726075740573
  0.7329760833231873  0.2656707464182091  0.4988118346168164
  0.5990563067872898  0.3990366143755324  0.4979028445330655
  0.7328516361302988  0.4657028362976234  0.4958471307199090
  0.5993476850930008  0.5998361556452849  0.4993001316260006
  0.9332505981203596  0.8665009500277847  0.5002075674615654
  0.3995562238038488  0.5995365396536627  0.5006028797713000
  0.7329650047144511  0.8663936681079392  0.5006275609511164
  0.7998039470007683  0.9996881121128638  0.5007039580568033
  0.9331429808830833  0.0662810778941321  0.5007640533589779
  0.7999218707749733  0.1993819341990459  0.4998041747951874
  0.9330937252158051  0.2660991852067198  0.5001435702417680
  0.7999807995088162  0.3990366639523018  0.4979028474270137
  0.9335930127515439  0.4660567073458424  0.4989975960144761
  0.8001059843131486  0.6002113614761697  0.4968668630442750
  0.9338466655895417  0.6667743889654716  0.4988602807050881
  0.7999256610564487  0.8000569581378443  0.5000741845320391
  0.7329279586265969  0.6667743385799128  0.4988602085872742
  0.7190160857448191  0.4938454099482641  0.5565654679029208
 
  0.00000000E+00  0.00000000E+00  0.00000000E+00
  0.00000000E+00  0.00000000E+00  0.00000000E+00
  0.00000000E+00  0.00000000E+00  0.00000000E+00
  0.00000000E+00  0.00000000E+00  0.00000000E+00
  0.00000000E+00  0.00000000E+00  0.00000000E+00
  0.00000000E+00  0.00000000E+00  0.00000000E+00
  0.00000000E+00  0.00000000E+00  0.00000000E+00
  0.00000000E+00  0.00000000E+00  0.00000000E+00
  0.00000000E+00  0.00000000E+00  0.00000000E+00
  0.00000000E+00  0.00000000E+00  0.00000000E+00
  0.00000000E+00  0.00000000E+00  0.00000000E+00
  0.00000000E+00  0.00000000E+00  0.00000000E+00
  0.00000000E+00  0.00000000E+00  0.00000000E+00
  0.00000000E+00  0.00000000E+00  0.00000000E+00
  0.00000000E+00  0.00000000E+00  0.00000000E+00
  0.00000000E+00  0.00000000E+00  0.00000000E+00
  0.00000000E+00  0.00000000E+00  0.00000000E+00
  0.00000000E+00  0.00000000E+00  0.00000000E+00
  0.00000000E+00  0.00000000E+00  0.00000000E+00
  0.00000000E+00  0.00000000E+00  0.00000000E+00
  0.00000000E+00  0.00000000E+00  0.00000000E+00
  0.00000000E+00  0.00000000E+00  0.00000000E+00
  0.00000000E+00  0.00000000E+00  0.00000000E+00
  0.00000000E+00  0.00000000E+00  0.00000000E+00
  0.00000000E+00  0.00000000E+00  0.00000000E+00
  0.00000000E+00  0.00000000E+00  0.00000000E+00
  0.00000000E+00  0.00000000E+00  0.00000000E+00
  0.00000000E+00  0.00000000E+00  0.00000000E+00
  0.00000000E+00  0.00000000E+00  0.00000000E+00
  0.00000000E+00  0.00000000E+00  0.00000000E+00
  0.00000000E+00  0.00000000E+00  0.00000000E+00
  0.00000000E+00  0.00000000E+00  0.00000000E+00
  0.00000000E+00  0.00000000E+00  0.00000000E+00
  0.00000000E+00  0.00000000E+00  0.00000000E+00
  0.00000000E+00  0.00000000E+00  0.00000000E+00
  0.00000000E+00  0.00000000E+00  0.00000000E+00
  0.00000000E+00  0.00000000E+00  0.00000000E+00
  0.00000000E+00  0.00000000E+00  0.00000000E+00
  0.00000000E+00  0.00000000E+00  0.00000000E+00
  0.00000000E+00  0.00000000E+00  0.00000000E+00
  0.00000000E+00  0.00000000E+00  0.00000000E+00
  0.00000000E+00  0.00000000E+00  0.00000000E+00
  0.00000000E+00  0.00000000E+00  0.00000000E+00
  0.00000000E+00  0.00000000E+00  0.00000000E+00
  0.00000000E+00  0.00000000E+00  0.00000000E+00
  0.00000000E+00  0.00000000E+00  0.00000000E+00
  0.00000000E+00  0.00000000E+00  0.00000000E+00
  0.00000000E+00  0.00000000E+00  0.00000000E+00
  0.00000000E+00  0.00000000E+00  0.00000000E+00
  0.00000000E+00  0.00000000E+00  0.00000000E+00
  0.00000000E+00  0.00000000E+00  0.00000000E+00
