  51  51   0   0
  0.7707117E+02  0.1230000E-08  0.1230000E-08  0.3000000E-08  0.5000000E-15
  1.000000000000000E-004
  CAR 
 Li defective graphene MACE training lab 
      4.85590048    -54.27299286  301     -1.86654954      1.00000000
    -54.273  0.0000E+00  0.0000E+00  0.0000E+00  0.0000E+00
    -54.076  0.0000E+00  0.0000E+00  0.0000E+00  0.0000E+00
    -53.879  0.0000E+00  0.0000E+00  0.0000E+00  0.0000E+00
    -53.682  0.0000E+00  0.0000E+00  0.0000E+00  0.0000E+00
    -53.485  0.0000E+00  0.0000E+00  0.0000E+00  0.0000E+00
    -53.288  0.0000E+00  0.0000E+00  0.0000E+00  0.0000E+00
    -53.090  0.0000E+00  0.0000E+00  0.0000E+00  0.0000E+00
    -52.893  0.0000E+00  0.0000E+00  0.0000E+00  0.0000E+00
    -52.696  0.0000E+00  0.0000E+00  0.0000E+00  0.0000E+00
    -52.499  0.0000E+00  0.0000E+00  0.0000E+00  0.0000E+00
    -52.302  0.0000E+00  0.0000E+00  0.0000E+00  0.0000E+00
    -52.105  0.0000E+00  0.0000E+00  0.0000E+00  0.0000E+00
    -51.908  0.0000E+00  0.0000E+00  0.0000E+00  0.0000E+00
    -51.711  0.9860E-03  0.9863E-03  0.1943E-03  0.1944E-03
    -51.514  0.4964E+01  0.4964E+01  0.9787E+00  0.9787E+00
    -51.317  0.1082E+00  0.1082E+00  0.1000E+01  0.1000E+01
    -51.119  0.0000E+00  0.0000E+00  0.1000E+01  0.1000E+01
    -50.922  0.0000E+00  0.0000E+00  0.1000E+01  0.1000E+01
    -50.725  0.0000E+00  0.0000E+00  0.1000E+01  0.1000E+01
    -50.528  0.0000E+00  0.0000E+00  0.1000E+01  0.1000E+01
    -50.331  0.0000E+00  0.0000E+00  0.1000E+01  0.1000E+01
    -50.134  0.0000E+00  0.0000E+00  0.1000E+01  0.1000E+01
    -49.937  0.0000E+00  0.0000E+00  0.1000E+01  0.1000E+01
    -49.740  0.0000E+00  0.0000E+00  0.1000E+01  0.1000E+01
    -49.543  0.0000E+00  0.0000E+00  0.1000E+01  0.1000E+01
    -49.346  0.0000E+00  0.0000E+00  0.1000E+01  0.1000E+01
    -49.148  0.0000E+00  0.0000E+00  0.1000E+01  0.1000E+01
    -48.951  0.0000E+00  0.0000E+00  0.1000E+01  0.1000E+01
    -48.754  0.0000E+00  0.0000E+00  0.1000E+01  0.1000E+01
    -48.557  0.0000E+00  0.0000E+00  0.1000E+01  0.1000E+01
    -48.360  0.0000E+00  0.0000E+00  0.1000E+01  0.1000E+01
    -48.163  0.0000E+00  0.0000E+00  0.1000E+01  0.1000E+01
    -47.966  0.0000E+00  0.0000E+00  0.1000E+01  0.1000E+01
    -47.769  0.0000E+00  0.0000E+00  0.1000E+01  0.1000E+01
    -47.572  0.0000E+00  0.0000E+00  0.1000E+01  0.1000E+01
    -47.375  0.0000E+00  0.0000E+00  0.1000E+01  0.1000E+01
    -47.178  0.0000E+00  0.0000E+00  0.1000E+01  0.1000E+01
    -46.980  0.0000E+00  0.0000E+00  0.1000E+01  0.1000E+01
    -46.783  0.0000E+00  0.0000E+00  0.1000E+01  0.1000E+01
    -46.586  0.0000E+00  0.0000E+00  0.1000E+01  0.1000E+01
    -46.389  0.0000E+00  0.0000E+00  0.1000E+01  0.1000E+01
    -46.192  0.0000E+00  0.0000E+00  0.1000E+01  0.1000E+01
    -45.995  0.0000E+00  0.0000E+00  0.1000E+01  0.1000E+01
    -45.798  0.0000E+00  0.0000E+00  0.1000E+01  0.1000E+01
    -45.601  0.0000E+00  0.0000E+00  0.1000E+01  0.1000E+01
    -45.404  0.0000E+00  0.0000E+00  0.1000E+01  0.1000E+01
    -45.207  0.0000E+00  0.0000E+00  0.1000E+01  0.1000E+01
    -45.009  0.0000E+00  0.0000E+00  0.1000E+01  0.1000E+01
    -44.812  0.0000E+00  0.0000E+00  0.1000E+01  0.1000E+01
    -44.615  0.0000E+00  0.0000E+00  0.1000E+01  0.1000E+01
    -44.418  0.0000E+00  0.0000E+00  0.1000E+01  0.1000E+01
    -44.221  0.0000E+00  0.0000E+00  0.1000E+01  0.1000E+01
    -44.024  0.0000E+00  0.0000E+00  0.1000E+01  0.1000E+01
    -43.827  0.0000E+00  0.0000E+00  0.1000E+01  0.1000E+01
    -43.630  0.0000E+00  0.0000E+00  0.1000E+01  0.1000E+01
    -43.433  0.0000E+00  0.0000E+00  0.1000E+01  0.1000E+01
    -43.236  0.0000E+00  0.0000E+00  0.1000E+01  0.1000E+01
    -43.039  0.0000E+00  0.0000E+00  0.1000E+01  0.1000E+01
    -42.841  0.0000E+00  0.0000E+00  0.1000E+01  0.1000E+01
    -42.644  0.0000E+00  0.0000E+00  0.1000E+01  0.1000E+01
    -42.447  0.0000E+00  0.0000E+00  0.1000E+01  0.1000E+01
    -42.250  0.0000E+00  0.0000E+00  0.1000E+01  0.1000E+01
    -42.053  0.0000E+00  0.0000E+00  0.1000E+01  0.1000E+01
    -41.856  0.0000E+00  0.0000E+00  0.1000E+01  0.1000E+01
    -41.659  0.0000E+00  0.0000E+00  0.1000E+01  0.1000E+01
    -41.462  0.0000E+00  0.0000E+00  0.1000E+01  0.1000E+01
    -41.265  0.0000E+00  0.0000E+00  0.1000E+01  0.1000E+01
    -41.068  0.0000E+00  0.0000E+00  0.1000E+01  0.1000E+01
    -40.870  0.0000E+00  0.0000E+00  0.1000E+01  0.1000E+01
    -40.673  0.0000E+00  0.0000E+00  0.1000E+01  0.1000E+01
    -40.476  0.0000E+00  0.0000E+00  0.1000E+01  0.1000E+01
    -40.279  0.0000E+00  0.0000E+00  0.1000E+01  0.1000E+01
    -40.082  0.0000E+00  0.0000E+00  0.1000E+01  0.1000E+01
    -39.885  0.0000E+00  0.0000E+00  0.1000E+01  0.1000E+01
    -39.688  0.0000E+00  0.0000E+00  0.1000E+01  0.1000E+01
    -39.491  0.0000E+00  0.0000E+00  0.1000E+01  0.1000E+01
    -39.294  0.0000E+00  0.0000E+00  0.1000E+01  0.1000E+01
    -39.097  0.0000E+00  0.0000E+00  0.1000E+01  0.1000E+01
    -38.899  0.0000E+00  0.0000E+00  0.1000E+01  0.1000E+01
    -38.702  0.0000E+00  0.0000E+00  0.1000E+01  0.1000E+01
    -38.505  0.0000E+00  0.0000E+00  0.1000E+01  0.1000E+01
    -38.308  0.0000E+00  0.0000E+00  0.1000E+01  0.1000E+01
    -38.111  0.0000E+00  0.0000E+00  0.1000E+01  0.1000E+01
    -37.914  0.0000E+00  0.0000E+00  0.1000E+01  0.1000E+01
    -37.717  0.0000E+00  0.0000E+00  0.1000E+01  0.1000E+01
    -37.520  0.0000E+00  0.0000E+00  0.1000E+01  0.1000E+01
    -37.323  0.0000E+00  0.0000E+00  0.1000E+01  0.1000E+01
    -37.126  0.0000E+00  0.0000E+00  0.1000E+01  0.1000E+01
    -36.929  0.0000E+00  0.0000E+00  0.1000E+01  0.1000E+01
    -36.731  0.0000E+00  0.0000E+00  0.1000E+01  0.1000E+01
    -36.534  0.0000E+00  0.0000E+00  0.1000E+01  0.1000E+01
    -36.337  0.0000E+00  0.0000E+00  0.1000E+01  0.1000E+01
    -36.140  0.0000E+00  0.0000E+00  0.1000E+01  0.1000E+01
    -35.943  0.0000E+00  0.0000E+00  0.1000E+01  0.1000E+01
    -35.746  0.0000E+00  0.0000E+00  0.1000E+01  0.1000E+01
    -35.549  0.0000E+00  0.0000E+00  0.1000E+01  0.1000E+01
    -35.352  0.0000E+00  0.0000E+00  0.1000E+01  0.1000E+01
    -35.155  0.0000E+00  0.0000E+00  0.1000E+01  0.1000E+01
    -34.958  0.0000E+00  0.0000E+00  0.1000E+01  0.1000E+01
    -34.760  0.0000E+00  0.0000E+00  0.1000E+01  0.1000E+01
    -34.563  0.0000E+00  0.0000E+00  0.1000E+01  0.1000E+01
    -34.366  0.0000E+00  0.0000E+00  0.1000E+01  0.1000E+01
    -34.169  0.0000E+00  0.0000E+00  0.1000E+01  0.1000E+01
    -33.972  0.0000E+00  0.0000E+00  0.1000E+01  0.1000E+01
    -33.775  0.0000E+00  0.0000E+00  0.1000E+01  0.1000E+01
    -33.578  0.0000E+00  0.0000E+00  0.1000E+01  0.1000E+01
    -33.381  0.0000E+00  0.0000E+00  0.1000E+01  0.1000E+01
    -33.184  0.0000E+00  0.0000E+00  0.1000E+01  0.1000E+01
    -32.987  0.0000E+00  0.0000E+00  0.1000E+01  0.1000E+01
    -32.789  0.0000E+00  0.0000E+00  0.1000E+01  0.1000E+01
    -32.592  0.0000E+00  0.0000E+00  0.1000E+01  0.1000E+01
    -32.395  0.0000E+00  0.0000E+00  0.1000E+01  0.1000E+01
    -32.198  0.0000E+00  0.0000E+00  0.1000E+01  0.1000E+01
    -32.001  0.0000E+00  0.0000E+00  0.1000E+01  0.1000E+01
    -31.804  0.0000E+00  0.0000E+00  0.1000E+01  0.1000E+01
    -31.607  0.0000E+00  0.0000E+00  0.1000E+01  0.1000E+01
    -31.410  0.0000E+00  0.0000E+00  0.1000E+01  0.1000E+01
    -31.213  0.0000E+00  0.0000E+00  0.1000E+01  0.1000E+01
    -31.016  0.0000E+00  0.0000E+00  0.1000E+01  0.1000E+01
    -30.819  0.0000E+00  0.0000E+00  0.1000E+01  0.1000E+01
    -30.621  0.0000E+00  0.0000E+00  0.1000E+01  0.1000E+01
    -30.424  0.0000E+00  0.0000E+00  0.1000E+01  0.1000E+01
    -30.227  0.0000E+00  0.0000E+00  0.1000E+01  0.1000E+01
    -30.030  0.0000E+00  0.0000E+00  0.1000E+01  0.1000E+01
    -29.833  0.0000E+00  0.0000E+00  0.1000E+01  0.1000E+01
    -29.636  0.0000E+00  0.0000E+00  0.1000E+01  0.1000E+01
    -29.439  0.0000E+00  0.0000E+00  0.1000E+01  0.1000E+01
    -29.242  0.0000E+00  0.0000E+00  0.1000E+01  0.1000E+01
    -29.045  0.0000E+00  0.0000E+00  0.1000E+01  0.1000E+01
    -28.848  0.0000E+00  0.0000E+00  0.1000E+01  0.1000E+01
    -28.650  0.0000E+00  0.0000E+00  0.1000E+01  0.1000E+01
    -28.453  0.0000E+00  0.0000E+00  0.1000E+01  0.1000E+01
    -28.256  0.0000E+00  0.0000E+00  0.1000E+01  0.1000E+01
    -28.059  0.0000E+00  0.0000E+00  0.1000E+01  0.1000E+01
    -27.862  0.0000E+00  0.0000E+00  0.1000E+01  0.1000E+01
    -27.665  0.0000E+00  0.0000E+00  0.1000E+01  0.1000E+01
    -27.468  0.0000E+00  0.0000E+00  0.1000E+01  0.1000E+01
    -27.271  0.0000E+00  0.0000E+00  0.1000E+01  0.1000E+01
    -27.074  0.0000E+00  0.0000E+00  0.1000E+01  0.1000E+01
    -26.877  0.0000E+00  0.0000E+00  0.1000E+01  0.1000E+01
    -26.680  0.0000E+00  0.0000E+00  0.1000E+01  0.1000E+01
    -26.482  0.0000E+00  0.0000E+00  0.1000E+01  0.1000E+01
    -26.285  0.0000E+00  0.0000E+00  0.1000E+01  0.1000E+01
    -26.088  0.0000E+00  0.0000E+00  0.1000E+01  0.1000E+01
    -25.891  0.0000E+00  0.0000E+00  0.1000E+01  0.1000E+01
    -25.694  0.0000E+00  0.0000E+00  0.1000E+01  0.1000E+01
    -25.497  0.0000E+00  0.0000E+00  0.1000E+01  0.1000E+01
    -25.300  0.0000E+00  0.0000E+00  0.1000E+01  0.1000E+01
    -25.103  0.0000E+00  0.0000E+00  0.1000E+01  0.1000E+01
    -24.906  0.0000E+00  0.0000E+00  0.1000E+01  0.1000E+01
    -24.709  0.0000E+00  0.0000E+00  0.1000E+01  0.1000E+01
    -24.511  0.0000E+00  0.0000E+00  0.1000E+01  0.1000E+01
    -24.314  0.0000E+00  0.0000E+00  0.1000E+01  0.1000E+01
    -24.117  0.0000E+00  0.0000E+00  0.1000E+01  0.1000E+01
    -23.920  0.0000E+00  0.0000E+00  0.1000E+01  0.1000E+01
    -23.723  0.0000E+00  0.0000E+00  0.1000E+01  0.1000E+01
    -23.526  0.0000E+00  0.0000E+00  0.1000E+01  0.1000E+01
    -23.329  0.0000E+00  0.0000E+00  0.1000E+01  0.1000E+01
    -23.132  0.0000E+00  0.0000E+00  0.1000E+01  0.1000E+01
    -22.935  0.0000E+00  0.0000E+00  0.1000E+01  0.1000E+01
    -22.738  0.0000E+00  0.0000E+00  0.1000E+01  0.1000E+01
    -22.540  0.2521E-03  0.2521E-03  0.1000E+01  0.1000E+01
    -22.343  0.1847E+01  0.1847E+01  0.1364E+01  0.1364E+01
    -22.146  0.3222E+01  0.3222E+01  0.1999E+01  0.1999E+01
    -21.949  0.4818E+01  0.4819E+01  0.2949E+01  0.2949E+01
    -21.752  0.8315E+00  0.8314E+00  0.3113E+01  0.3113E+01
    -21.555  0.7267E+01  0.7268E+01  0.4545E+01  0.4545E+01
    -21.358  0.2056E+01  0.2056E+01  0.4950E+01  0.4950E+01
    -21.161  0.1608E+01  0.1608E+01  0.5267E+01  0.5267E+01
    -20.964  0.8882E+01  0.8882E+01  0.7018E+01  0.7018E+01
    -20.767  0.5261E+00  0.5260E+00  0.7121E+01  0.7121E+01
    -20.570  0.3329E+01  0.3329E+01  0.7778E+01  0.7778E+01
    -20.372  0.5397E+01  0.5397E+01  0.8841E+01  0.8841E+01
    -20.175  0.5056E+01  0.5056E+01  0.9838E+01  0.9838E+01
    -19.978  0.3078E+01  0.3077E+01  0.1044E+02  0.1044E+02
    -19.781  0.1556E+01  0.1556E+01  0.1075E+02  0.1075E+02
    -19.584  0.3709E+01  0.3709E+01  0.1148E+02  0.1148E+02
    -19.387  0.8257E+01  0.8257E+01  0.1311E+02  0.1311E+02
    -19.190  0.1784E+01  0.1784E+01  0.1346E+02  0.1346E+02
    -18.993  0.4988E+01  0.4988E+01  0.1444E+02  0.1444E+02
    -18.796  0.1005E-01  0.1005E-01  0.1445E+02  0.1445E+02
    -18.599  0.6318E+01  0.6319E+01  0.1569E+02  0.1569E+02
    -18.401  0.6791E+01  0.6790E+01  0.1703E+02  0.1703E+02
    -18.204  0.3792E+01  0.3792E+01  0.1778E+02  0.1778E+02
    -18.007  0.2712E+01  0.2712E+01  0.1831E+02  0.1831E+02
    -17.810  0.4055E+01  0.4054E+01  0.1911E+02  0.1911E+02
    -17.613  0.1324E+00  0.1324E+00  0.1914E+02  0.1914E+02
    -17.416  0.1090E+02  0.1090E+02  0.2128E+02  0.2128E+02
    -17.219  0.3411E+01  0.3411E+01  0.2196E+02  0.2196E+02
    -17.022  0.7701E+01  0.7701E+01  0.2347E+02  0.2347E+02
    -16.825  0.1537E+01  0.1537E+01  0.2378E+02  0.2378E+02
    -16.628  0.1567E-01  0.1568E-01  0.2378E+02  0.2378E+02
    -16.431  0.3408E+01  0.3408E+01  0.2445E+02  0.2445E+02
    -16.233  0.6724E+01  0.6724E+01  0.2578E+02  0.2578E+02
    -16.036  0.1039E+01  0.1039E+01  0.2598E+02  0.2598E+02
    -15.839  0.2344E+01  0.2344E+01  0.2644E+02  0.2644E+02
    -15.642  0.2855E+01  0.2855E+01  0.2701E+02  0.2701E+02
    -15.445  0.6389E+01  0.6389E+01  0.2827E+02  0.2827E+02
    -15.248  0.6541E+01  0.6541E+01  0.2956E+02  0.2956E+02
    -15.051  0.4816E-03  0.4818E-03  0.2956E+02  0.2956E+02
    -14.854  0.1011E+02  0.1011E+02  0.3155E+02  0.3155E+02
    -14.657  0.3417E+01  0.3417E+01  0.3222E+02  0.3222E+02
    -14.460  0.3981E+01  0.3981E+01  0.3301E+02  0.3301E+02
    -14.262  0.2791E+01  0.2791E+01  0.3356E+02  0.3356E+02
    -14.065  0.3394E+01  0.3394E+01  0.3423E+02  0.3423E+02
    -13.868  0.7032E+01  0.7032E+01  0.3561E+02  0.3561E+02
    -13.671  0.3093E+01  0.3093E+01  0.3622E+02  0.3622E+02
    -13.474  0.2532E-01  0.2532E-01  0.3623E+02  0.3623E+02
    -13.277  0.4089E+01  0.4089E+01  0.3703E+02  0.3703E+02
    -13.080  0.5062E+01  0.5062E+01  0.3803E+02  0.3803E+02
    -12.883  0.5502E+01  0.5501E+01  0.3911E+02  0.3911E+02
    -12.686  0.6728E+01  0.6728E+01  0.4044E+02  0.4044E+02
    -12.489  0.5044E+00  0.5044E+00  0.4054E+02  0.4054E+02
    -12.291  0.9601E+01  0.9601E+01  0.4243E+02  0.4243E+02
    -12.094  0.3442E+01  0.3442E+01  0.4311E+02  0.4311E+02
    -11.897  0.4864E-02  0.4864E-02  0.4311E+02  0.4311E+02
    -11.700  0.3934E+01  0.3934E+01  0.4389E+02  0.4389E+02
    -11.503  0.1410E+02  0.1410E+02  0.4667E+02  0.4667E+02
    -11.306  0.2257E+01  0.2257E+01  0.4711E+02  0.4711E+02
    -11.109  0.3131E+01  0.3132E+01  0.4773E+02  0.4773E+02
    -10.912  0.3633E+01  0.3633E+01  0.4844E+02  0.4844E+02
    -10.715  0.5390E+01  0.5390E+01  0.4951E+02  0.4951E+02
    -10.518  0.6613E+01  0.6613E+01  0.5081E+02  0.5081E+02
    -10.321  0.1140E+02  0.1140E+02  0.5306E+02  0.5306E+02
    -10.123  0.8581E+01  0.8581E+01  0.5475E+02  0.5475E+02
     -9.926  0.5806E+01  0.5806E+01  0.5589E+02  0.5589E+02
     -9.729  0.1310E+02  0.1310E+02  0.5847E+02  0.5847E+02
     -9.532  0.1075E+02  0.1075E+02  0.6059E+02  0.6059E+02
     -9.335  0.1019E+02  0.1019E+02  0.6260E+02  0.6260E+02
     -9.138  0.1261E+02  0.1261E+02  0.6509E+02  0.6509E+02
     -8.941  0.1797E+02  0.1797E+02  0.6863E+02  0.6863E+02
     -8.744  0.6483E+01  0.6482E+01  0.6991E+02  0.6991E+02
     -8.547  0.1010E+02  0.1010E+02  0.7190E+02  0.7190E+02
     -8.350  0.3376E+01  0.3376E+01  0.7256E+02  0.7256E+02
     -8.152  0.1512E+02  0.1512E+02  0.7554E+02  0.7554E+02
     -7.955  0.1255E+02  0.1255E+02  0.7801E+02  0.7801E+02
     -7.758  0.6120E+01  0.6120E+01  0.7922E+02  0.7922E+02
     -7.561  0.1185E+00  0.1185E+00  0.7924E+02  0.7924E+02
     -7.364  0.7781E+01  0.7782E+01  0.8078E+02  0.8078E+02
     -7.167  0.1628E+02  0.1628E+02  0.8399E+02  0.8399E+02
     -6.970  0.4948E+01  0.4948E+01  0.8496E+02  0.8496E+02
     -6.773  0.7561E+01  0.7561E+01  0.8645E+02  0.8645E+02
     -6.576  0.3436E+01  0.3436E+01  0.8713E+02  0.8713E+02
     -6.379  0.5048E+01  0.5048E+01  0.8813E+02  0.8813E+02
     -6.181  0.9886E+01  0.9886E+01  0.9007E+02  0.9007E+02
     -5.984  0.8824E+01  0.8824E+01  0.9181E+02  0.9181E+02
     -5.787  0.4731E+01  0.4731E+01  0.9275E+02  0.9275E+02
     -5.590  0.6925E+01  0.6925E+01  0.9411E+02  0.9411E+02
     -5.393  0.1900E+01  0.1900E+01  0.9448E+02  0.9448E+02
     -5.196  0.3314E+01  0.3314E+01  0.9514E+02  0.9514E+02
     -4.999  0.8618E+01  0.8618E+01  0.9684E+02  0.9684E+02
     -4.802  0.9846E+01  0.9846E+01  0.9878E+02  0.9878E+02
     -4.605  0.3314E-02  0.3312E-02  0.9878E+02  0.9878E+02
     -4.408  0.1088E+01  0.1088E+01  0.9899E+02  0.9899E+02
     -4.211  0.2177E+01  0.2177E+01  0.9942E+02  0.9942E+02
     -4.013  0.2244E+00  0.2244E+00  0.9947E+02  0.9947E+02
     -3.816  0.6655E+01  0.6655E+01  0.1008E+03  0.1008E+03
     -3.619  0.3187E-02  0.3185E-02  0.1008E+03  0.1008E+03
     -3.422  0.0000E+00  0.0000E+00  0.1008E+03  0.1008E+03
     -3.225  0.0000E+00  0.0000E+00  0.1008E+03  0.1008E+03
     -3.028  0.1792E-05  0.1794E-05  0.1008E+03  0.1008E+03
     -2.831  0.1704E+01  0.1704E+01  0.1011E+03  0.1011E+03
     -2.634  0.5511E+00  0.5509E+00  0.1012E+03  0.1012E+03
     -2.437  0.0000E+00  0.0000E+00  0.1012E+03  0.1012E+03
     -2.240  0.0000E+00  0.0000E+00  0.1012E+03  0.1012E+03
     -2.042  0.5153E-06  0.5159E-06  0.1012E+03  0.1012E+03
     -1.845  0.2465E+01  0.2466E+01  0.1017E+03  0.1017E+03
     -1.648  0.5382E+01  0.5381E+01  0.1028E+03  0.1028E+03
     -1.451  0.1887E+01  0.1887E+01  0.1031E+03  0.1031E+03
     -1.254  0.5156E+01  0.5155E+01  0.1042E+03  0.1042E+03
     -1.057  0.9401E+01  0.9400E+01  0.1060E+03  0.1060E+03
     -0.860  0.4459E+01  0.4460E+01  0.1069E+03  0.1069E+03
     -0.663  0.7753E+01  0.7753E+01  0.1084E+03  0.1084E+03
     -0.466  0.5193E+01  0.5193E+01  0.1094E+03  0.1094E+03
     -0.269  0.3967E+01  0.3967E+01  0.1102E+03  0.1102E+03
     -0.072  0.6914E-01  0.6908E-01  0.1102E+03  0.1102E+03
      0.126  0.2774E+01  0.2773E+01  0.1108E+03  0.1108E+03
      0.323  0.6806E+01  0.6726E+01  0.1121E+03  0.1121E+03
      0.520  0.6893E+01  0.6946E+01  0.1135E+03  0.1135E+03
      0.717  0.1025E+02  0.1027E+02  0.1155E+03  0.1155E+03
      0.914  0.5274E+01  0.4874E+01  0.1165E+03  0.1165E+03
      1.111  0.8070E+01  0.7767E+01  0.1181E+03  0.1180E+03
      1.308  0.1333E+02  0.1239E+02  0.1208E+03  0.1204E+03
      1.505  0.1217E+02  0.1098E+02  0.1232E+03  0.1226E+03
      1.702  0.1140E+02  0.1270E+02  0.1254E+03  0.1251E+03
      1.899  0.2213E+02  0.2193E+02  0.1298E+03  0.1294E+03
      2.097  0.9492E+01  0.1051E+02  0.1316E+03  0.1315E+03
      2.294  0.1831E+01  0.2558E+01  0.1320E+03  0.1320E+03
      2.491  0.1176E-03  0.4443E-04  0.1320E+03  0.1320E+03
      2.688  0.0000E+00  0.0000E+00  0.1320E+03  0.1320E+03
      2.885  0.0000E+00  0.0000E+00  0.1320E+03  0.1320E+03
      3.082  0.0000E+00  0.0000E+00  0.1320E+03  0.1320E+03
      3.279  0.0000E+00  0.0000E+00  0.1320E+03  0.1320E+03
      3.476  0.0000E+00  0.0000E+00  0.1320E+03  0.1320E+03
      3.673  0.0000E+00  0.0000E+00  0.1320E+03  0.1320E+03
      3.870  0.0000E+00  0.0000E+00  0.1320E+03  0.1320E+03
      4.068  0.0000E+00  0.0000E+00  0.1320E+03  0.1320E+03
      4.265  0.0000E+00  0.0000E+00  0.1320E+03  0.1320E+03
      4.462  0.0000E+00  0.0000E+00  0.1320E+03  0.1320E+03
      4.659  0.0000E+00  0.0000E+00  0.1320E+03  0.1320E+03
      4.856  0.0000E+00  0.0000E+00  0.1320E+03  0.1320E+03
