 vasp.5.4.1 24Jun15 (build Jul 23 2024 06:15:33) complex                        
  
 executed on           IFC91_ompi date 2026.05.05  18:05:16
 running on   16 total cores
 distrk:  each k-point on   16 cores,    1 groups
 distr:  one band on NCORES_PER_BAND=   4 cores,    4 groups


--------------------------------------------------------------------------------------------------------


 INCAR:
 POTCAR:    PAW_PBE C 08Apr2002                   
 POTCAR:    PAW_PBE Li_sv 10Sep2004               
 POTCAR:    PAW_PBE C 08Apr2002                   
   VRHFIN =C: s2p2                                                              
   LEXCH  = PE                                                                  
   EATOM  =   147.1560 eV,   10.8157 Ry                                         
                                                                                
   TITEL  = PAW_PBE C 08Apr2002                                                 
   LULTRA =        F    use ultrasoft PP ?                                      
   IUNSCR =        1    unscreen: 0-lin 1-nonlin 2-no                           
   RPACOR =    1.200    partial core radius                                     
   POMASS =   12.011; ZVAL   =    4.000    mass and valenz                      
   RCORE  =    1.500    outmost cutoff radius                                   
   RWIGS  =    1.630; RWIGS  =    0.863    wigner-seitz radius (au A)           
   ENMAX  =  400.000; ENMIN  =  300.000 eV                                      
   ICORE  =        2    local potential                                         
   LCOR   =        T    correct aug charges                                     
   LPAW   =        T    paw PP                                                  
   EAUG   =  644.873                                                            
   DEXC   =    0.000                                                            
   RMAX   =    1.529    core radius for proj-oper                               
   RAUG   =    1.300    factor for augmentation sphere                          
   RDEP   =    1.501    radius for radial grids                                 
   RDEPT  =    1.300    core radius for aug-charge                              
                                                                                
   Atomic configuration                                                         
    4 entries                                                                   
     n  l   j            E        occ.                                          
     1  0  0.50      -273.3789   2.0000                                         
     2  0  0.50       -13.7508   2.0000                                         
     2  1  0.50        -5.2854   2.0000                                         
     3  2  1.50        -5.4423   0.0000                                         
   Description                                                                  
     l       E           TYP  RCUT    TYP  RCUT                                 
     0    -13.7508458     23  1.200                                             
     0     -8.2022199     23  1.200                                             
     1     -5.2854383     23  1.500                                             
     1     34.0145650     23  1.500                                             
     2     -5.4423304      7  1.500                                             
  local pseudopotential read in
  partial core-charges read in
  partial kinetic energy density read in
  atomic valenz-charges read in
  non local Contribution for L=           0  read in
    real space projection operators read in
  non local Contribution for L=           0  read in
    real space projection operators read in
  non local Contribution for L=           1  read in
    real space projection operators read in
  non local Contribution for L=           1  read in
    real space projection operators read in
    PAW grid and wavefunctions read in
 
   number of l-projection  operators is LMAX  =           4
   number of lm-projection operators is LMMAX =           8
 
 POTCAR:    PAW_PBE Li_sv 10Sep2004               
   VRHFIN =Li: 1s2s2p                                                           
   LEXCH  = PE                                                                  
   EATOM  =   202.7858 eV,   14.9043 Ry                                         
                                                                                
   TITEL  = PAW_PBE Li_sv 10Sep2004                                             
   LULTRA =        F    use ultrasoft PP ?                                      
   IUNSCR =        0    unscreen: 0-lin 1-nonlin 2-no                           
   RPACOR =    0.000    partial core radius                                     
   POMASS =    7.010; ZVAL   =    3.000    mass and valenz                      
   RCORE  =    1.700    outmost cutoff radius                                   
   RWIGS  =    2.050; RWIGS  =    1.085    wigner-seitz radius (au A)           
   ENMAX  =  499.034; ENMIN  =  374.276 eV                                      
   ICORE  =        2    local potential                                         
   LCOR   =        T    correct aug charges                                     
   LPAW   =        T    paw PP                                                  
   EAUG   =  628.945                                                            
   RMAX   =    1.732    core radius for proj-oper                               
   RAUG   =    1.300    factor for augmentation sphere                          
   RDEP   =    1.728    radius for radial grids                                 
   RDEPT  =    1.329    core radius for aug-charge                              
                                                                                
   Atomic configuration                                                         
    4 entries                                                                   
     n  l   j            E        occ.                                          
     1  0  0.50       -51.8549   2.0000                                         
     2  0  0.50        -2.8742   1.0000                                         
     2  1  0.50        -1.3606   0.0000                                         
     3  2  1.50        -1.3606   0.0000                                         
   Description                                                                  
     l       E           TYP  RCUT    TYP  RCUT                                 
     0    -51.8548813     23  1.400                                             
     0     -2.8742052     23  1.700                                             
     1     -1.3605826     23  1.400                                             
     2     -1.3605826     23  1.400                                             
  local pseudopotential read in
  atomic valenz-charges read in
  non local Contribution for L=           0  read in
    real space projection operators read in
  non local Contribution for L=           0  read in
    real space projection operators read in
  non local Contribution for L=           1  read in
    real space projection operators read in
    PAW grid and wavefunctions read in
 
   number of l-projection  operators is LMAX  =           3
   number of lm-projection operators is LMMAX =           5
 
 Optimization of the real space projectors (new method)

 maximal supplied QI-value         = 25.13
 optimisation between [QCUT,QGAM] = [ 11.56, 23.12] = [ 37.43,149.72] Ry 
 Optimized for a Real-space Cutoff    1.04 Angstroem

   l    n(q)    QCUT    max X(q) W(low)/X(q) W(high)/X(q)  e(spline) 
   0      7    11.561   115.676    0.20E-03    0.60E-03    0.21E-06
   0      7    11.561    87.132    0.20E-03    0.59E-03    0.21E-06
   1      7    11.561     4.429    0.23E-03    0.35E-03    0.15E-06
   1      7    11.561     2.733    0.18E-03    0.25E-03    0.12E-06
 Optimization of the real space projectors (new method)

 maximal supplied QI-value         = 22.11
 optimisation between [QCUT,QGAM] = [ 11.50, 23.22] = [ 37.02,150.92] Ry 
 Optimized for a Real-space Cutoff    1.08 Angstroem

   l    n(q)    QCUT    max X(q) W(low)/X(q) W(high)/X(q)  e(spline) 
   0      7    11.497    10.506    0.36E-04    0.62E-04    0.14E-07
   0      7    11.497     8.367    0.65E-04    0.14E-03    0.28E-07
   1      7    11.497     8.983    0.21E-03    0.43E-03    0.90E-07
  PAW_PBE C 08Apr2002                   :
 energy of atom  1       EATOM= -147.1560
 kinetic energy error for atom=    0.0071 (will be added to EATOM!!)
  PAW_PBE Li_sv 10Sep2004               :
 energy of atom  2       EATOM= -202.7858
 kinetic energy error for atom=    0.0130 (will be added to EATOM!!)
 
 
 POSCAR: C  Li                                   
  positions in direct lattice
  velocities in cartesian coordinates
 exchange correlation table for  LEXCH =        8
   RHO(1)=    0.500       N(1)  =     2000
   RHO(2)=  100.500       N(2)  =     4000
 


--------------------------------------------------------------------------------------------------------


 ion  position               nearest neighbor table
   1  0.998  0.005  0.505-  38 1.42   2 1.42  42 1.44
   2  0.131  0.069  0.510-  25 1.42   1 1.42  11 1.45
   3  0.995  0.205  0.495-  42 1.43   4 1.43  44 1.46
   4  0.129  0.269  0.498-  15 1.41   3 1.43  25 1.44
   5  0.995  0.409  0.490-  44 1.45   6 1.46  46 1.48
   6  0.131  0.470  0.496-  17 1.43  15 1.45   5 1.46
   7  0.017  0.617  0.501-   8 1.37  46 1.40  48 1.42
   8  0.144  0.673  0.509-   7 1.37  19 1.40  17 1.42
   9  0.007  0.810  0.509-  48 1.37  10 1.40  38 1.42
  10  0.136  0.871  0.517-  11 1.40   9 1.40  19 1.45
  11  0.198  0.002  0.517-  10 1.40  24 1.40   2 1.45
  12  0.517  0.250  0.502-  23 1.38  35 1.40  33 1.42
  13  0.402  0.397  0.497-  14 1.43  16 1.45  26 1.46
  14  0.328  0.265  0.504-  25 1.42  23 1.42  13 1.43
  15  0.199  0.402  0.497-   4 1.41   6 1.45  16 1.45
  16  0.335  0.465  0.497-  39 1.41  13 1.45  15 1.45
  17  0.205  0.602  0.504-  18 1.42   8 1.42   6 1.43
  18  0.338  0.665  0.505-  17 1.42  29 1.42  39 1.44
  19  0.204  0.803  0.517-  20 1.40   8 1.40  10 1.45
  20  0.336  0.864  0.517-  19 1.40  21 1.40  29 1.45
  21  0.397  0.996  0.518-  20 1.40  22 1.40  24 1.45
  22  0.527  0.056  0.510-  33 1.38  21 1.40  31 1.42
  23  0.390  0.193  0.510-  12 1.38  24 1.40  14 1.42
  24  0.329  0.064  0.518-  11 1.40  23 1.40  21 1.45
  25  0.195  0.202  0.505-  14 1.42   2 1.42   4 1.44
  26  0.538  0.457  0.490-  37 1.45  13 1.46  35 1.48
  27  0.602  0.795  0.498-  40 1.41  28 1.43  30 1.44
  28  0.539  0.661  0.495-  39 1.43  27 1.43  37 1.46
  29  0.403  0.797  0.510-  30 1.42  18 1.42  20 1.45
  30  0.535  0.862  0.505-  31 1.42  29 1.42  27 1.44
  31  0.598  0.995  0.504-  30 1.42  22 1.42  32 1.43
  32  0.730  0.069  0.497-  31 1.43  41 1.45  43 1.46
  33  0.583  0.183  0.502-  22 1.38  34 1.40  12 1.42
  34  0.708  0.259  0.489-  33 1.40  36 1.47  43 1.48
  35  0.593  0.374  0.489-  12 1.40  36 1.47  26 1.48
  36  0.711  0.378  0.479-  45 1.37  35 1.47  34 1.47
  37  0.607  0.593  0.490-  50 1.45  26 1.45  28 1.46
  38  0.935  0.872  0.504-   1 1.42   9 1.42  49 1.43
  39  0.405  0.598  0.498-  16 1.41  28 1.43  18 1.44
  40  0.735  0.865  0.497-  27 1.41  49 1.45  41 1.45
  41  0.798  0.001  0.497-  42 1.41  32 1.45  40 1.45
  42  0.931  0.071  0.498-  41 1.41   3 1.43   1 1.44
  43  0.791  0.204  0.490-  44 1.45  32 1.46  34 1.48
  44  0.926  0.273  0.490-   5 1.45  43 1.45   3 1.46
  45  0.822  0.489  0.478-  36 1.37  46 1.47  47 1.47
  46  0.941  0.492  0.488-   7 1.40  45 1.47   5 1.48
  47  0.825  0.607  0.488-  48 1.40  45 1.47  50 1.48
  48  0.950  0.684  0.501-   9 1.37  47 1.40   7 1.42
  49  0.803  0.798  0.496-  38 1.43  40 1.45  50 1.46
  50  0.743  0.662  0.490-  37 1.45  49 1.46  47 1.48
  51  0.767  0.434  0.557-
 

IMPORTANT INFORMATION: All symmetrisations will be switched off!
NOSYMM: (Re-)initialisation of all symmetry stuff for point group C_1.

 
 
 KPOINTS: Automatic mesh                          

Automatic generation of k-mesh.
Space group operators:
 irot       det(A)        alpha          n_x          n_y          n_z        tau_x        tau_y        tau_z
    1     1.000000     0.000001     1.000000     0.000000     0.000000     0.000000     0.000000     0.000000
 
 Subroutine IBZKPT returns following result:
 ===========================================
 
 Found      5 irreducible k-points:
 
 Following reciprocal coordinates:
            Coordinates               Weight
  0.000000  0.000000  0.000000      1.000000
  0.333333 -0.000000  0.000000      2.000000
  0.000000  0.333333  0.000000      2.000000
  0.333333  0.333333  0.000000      2.000000
 -0.333333  0.333333  0.000000      2.000000
 
 Following cartesian coordinates:
            Coordinates               Weight
  0.000000  0.000000  0.000000      1.000000
  0.027100  0.015646  0.000000      2.000000
  0.000000  0.031293  0.000000      2.000000
  0.027100  0.046939  0.000000      2.000000
 -0.027100  0.015646  0.000000      2.000000
 


--------------------------------------------------------------------------------------------------------




 Dimension of arrays:
   k-points           NKPTS =      5   k-points in BZ     NKDIM =      5   number of bands    NBANDS=    132
   number of dos      NEDOS =    301   number of ions     NIONS =     51
   non local maximal  LDIM  =      4   non local SUM 2l+1 LMDIM =      8
   total plane-waves  NPLWV = ******
   max r-space proj   IRMAX =   2789   max aug-charges    IRDMAX=  51672
   dimension x,y,z NGX =    96 NGY =   96 NGZ =  224
   dimension x,y,z NGXF=   192 NGYF=  192 NGZF=  448
   support grid    NGXF=   384 NGYF=  384 NGZF=  896
   ions per type =              50   1
 NGX,Y,Z   is equivalent  to a cutoff of  12.98, 12.98, 12.41 a.u.
 NGXF,Y,Z  is equivalent  to a cutoff of  25.95, 25.95, 24.83 a.u.


 I would recommend the setting:
   dimension x,y,z NGX =    91 NGY =   91 NGZ =  223
 SYSTEM =  Li defective graphene MACE training lab 
 POSCAR =  C  Li                                   

 Startparameter for this run:
   NWRITE =      2    write-flag & timer
   PREC   = accura    normal or accurate (medium, high low for compatibility)
   ISTART =      0    job   : 0-new  1-cont  2-samecut
   ICHARG =      2    charge: 1-file 2-atom 10-const
   ISPIN  =      2    spin polarized calculation?
   LNONCOLLINEAR =      F non collinear calculations
   LSORBIT =      F    spin-orbit coupling
   INIWAV =      1    electr: 0-lowe 1-rand  2-diag
   LASPH  =      T    aspherical Exc in radial PAW
   METAGGA=      F    non-selfconsistent MetaGGA calc.

 Electronic Relaxation 1
   ENCUT  =  520.0 eV  38.22 Ry    6.18 a.u.  22.87 22.87 55.78*2*pi/ulx,y,z
   ENINI  =  520.0     initial cutoff
   ENAUG  =  644.9 eV  augmentation charge cutoff
   NELM   =    120;   NELMIN=  2; NELMDL= -5     # of ELM steps 
   EDIFF  = 0.1E-05   stopping-criterion for ELM
   LREAL  =      T    real-space projection
   NLSPLINE    = F    spline interpolate recip. space projectors
   LCOMPAT=      F    compatible to vasp.4.4
   GGA_COMPAT  = T    GGA compatible to vasp.4.4-vasp.4.6
   LMAXPAW     = -100 max onsite density
   LMAXMIX     =    2 max onsite mixed and CHGCAR
   VOSKOWN=      0    Vosko Wilk Nusair interpolation
   ROPT   =   -0.00025  -0.00025
 Ionic relaxation
   EDIFFG = 0.1E-04   stopping-criterion for IOM
   NSW    =      0    number of steps for IOM
   NBLOCK =      1;   KBLOCK =      1    inner block; outer block 
   IBRION =     -1    ionic relax: 0-MD 1-quasi-New 2-CG
   NFREE  =      0    steps in history (QN), initial steepest desc. (CG)
   ISIF   =      2    stress and relaxation
   IWAVPR =     10    prediction:  0-non 1-charg 2-wave 3-comb
   ISYM   =      0    0-nonsym 1-usesym 2-fastsym
   LCORR  =      T    Harris-Foulkes like correction to forces

   POTIM  = 0.5000    time-step for ionic-motion
   TEIN   =    0.0    initial temperature
   TEBEG  =    0.0;   TEEND  =   0.0 temperature during run
   SMASS  =  -3.00    Nose mass-parameter (am)
   estimated Nose-frequenzy (Omega)   =  0.10E-29 period in steps =****** mass=  -0.346E-26a.u.
   SCALEE = 1.0000    scale energy and forces
   NPACO  =    256;   APACO  = 16.0  distance and # of slots for P.C.
   PSTRESS=    0.0 pullay stress

  Mass of Ions in am
   POMASS =  12.01  7.01
  Ionic Valenz
   ZVAL   =   4.00  3.00
  Atomic Wigner-Seitz radii
   RWIGS  =  -1.00 -1.00
  virtual crystal weights 
   VCA    =   1.00  1.00
   NELECT =     203.0000    total number of electrons
   NUPDOWN=      -1.0000    fix difference up-down

 DOS related values:
   EMIN   =  10.00;   EMAX   =-10.00  energy-range for DOS
   EFERMI =   0.00
   ISMEAR =     0;   SIGMA  =   0.05  broadening in eV -4-tet -1-fermi 0-gaus

 Electronic relaxation 2 (details)
   IALGO  =     38    algorithm
   LDIAG  =      T    sub-space diagonalisation (order eigenvalues)
   LSUBROT=      F    optimize rotation matrix (better conditioning)
   TURBO    =      0    0=normal 1=particle mesh
   IRESTART =      0    0=no restart 2=restart with 2 vectors
   NREBOOT  =      0    no. of reboots
   NMIN     =      0    reboot dimension
   EREF     =   0.00    reference energy to select bands
   IMIX   =      4    mixing-type and parameters
     AMIX     =   0.40;   BMIX     =  1.00
     AMIX_MAG =   1.60;   BMIX_MAG =  1.00
     AMIN     =   0.10
     WC   =   100.;   INIMIX=   1;  MIXPRE=   1;  MAXMIX= -45

 Intra band minimization:
   WEIMIN = 0.0000     energy-eigenvalue tresh-hold
   EBREAK =  0.19E-08  absolut break condition
   DEPER  =   0.30     relativ break condition  

   TIME   =   0.40     timestep for ELM

  volume/ion in A,a.u.               =      77.07       520.10
  Fermi-wavevector in a.u.,A,eV,Ry     =   0.609658  1.152086  5.057049  0.371683
  Thomas-Fermi vector in A             =   1.664934
 
 Write flags
   LWAVE  =      F    write WAVECAR
   LCHARG =      F    write CHGCAR
   LVTOT  =      F    write LOCPOT, total local potential
   LVHAR  =      F    write LOCPOT, Hartree potential only
   LELF   =      F    write electronic localiz. function (ELF)
   LORBIT =      0    0 simple, 1 ext, 2 COOP (PROOUT)


 Dipole corrections
   LMONO  =      F    monopole corrections only (constant potential shift)
   LDIPOL =      F    correct potential (dipole corrections)
   IDIPOL =      0    1-x, 2-y, 3-z, 4-all directions 
   EPSILON=  1.0000000 bulk dielectric constant

 Exchange correlation treatment:
   GGA     =    --    GGA type
   LEXCH   =     8    internal setting for exchange type
   VOSKOWN=      0    Vosko Wilk Nusair interpolation
   LHFCALC =     F    Hartree Fock is set to
   LHFONE  =     F    Hartree Fock one center treatment
   AEXX    =    0.0000 exact exchange contribution

 Linear response parameters
   LEPSILON=     F    determine dielectric tensor
   LRPA    =     F    only Hartree local field effects (RPA)
   LNABLA  =     F    use nabla operator in PAW spheres
   LVEL    =     F    velocity operator in full k-point grid
   LINTERFAST=   F  fast interpolation
   KINTER  =     0    interpolate to denser k-point grid
   CSHIFT  =0.1000    complex shift for real part using Kramers Kronig
   OMEGAMAX=  -1.0    maximum frequency
   DEG_THRESHOLD= 0.2000000E-02 threshold for treating states as degnerate
   RTIME   =    0.100 relaxation time in fs

 Orbital magnetization related:
   ORBITALMAG=     F  switch on orbital magnetization
   LCHIMAG   =     F  perturbation theory with respect to B field
   DQ        =  0.001000  dq finite difference perturbation B field



--------------------------------------------------------------------------------------------------------


 Static calculation
 charge density and potential will be updated during run
 spin polarized calculation
 Variant of blocked Davidson
 Davidson routine will perform the subspace rotation
 perform sub-space diagonalisation
    after iterative eigenvector-optimisation
 modified Broyden-mixing scheme, WC =      100.0
 initial mixing is a Kerker type mixing with AMIX =  0.4000 and BMIX =      1.0000
 Hartree-type preconditioning will be used
 using additional bands           30
 real space projection scheme for non local part
 use partial core corrections
 calculate Harris-corrections to forces 
   (improved forces if not selfconsistent)
 use gradient corrections 
 use of overlap-Matrix (Vanderbilt PP)
 Gauss-broadening in eV      SIGMA  =   0.05


--------------------------------------------------------------------------------------------------------


  energy-cutoff  :      520.00
  volume of cell :     3930.63
      direct lattice vectors                 reciprocal lattice vectors
    12.300000000  0.000000000  0.000000000     0.081300813  0.046939046  0.000000000
    -6.150000000 10.652112467  0.000000000     0.000000000  0.093878093  0.000000000
     0.000000000  0.000000000 30.000000000     0.000000000  0.000000000  0.033333333

  length of vectors
    12.300000000 12.300000000 30.000000000     0.093878093  0.093878093  0.033333333


 
 k-points in units of 2pi/SCALE and weight: Automatic mesh                          
   0.00000000  0.00000000  0.00000000       0.111
   0.02710027  0.01564635  0.00000000       0.222
   0.00000000  0.03129270  0.00000000       0.222
   0.02710027  0.04693905  0.00000000       0.222
  -0.02710027  0.01564635  0.00000000       0.222
 
 k-points in reciprocal lattice and weights: Automatic mesh                          
   0.00000000  0.00000000  0.00000000       0.111
   0.33333333 -0.00000000  0.00000000       0.222
   0.00000000  0.33333333  0.00000000       0.222
   0.33333333  0.33333333  0.00000000       0.222
  -0.33333333  0.33333333  0.00000000       0.222
 
 position of ions in fractional coordinates (direct lattice) 
   0.99824632  0.00451485  0.50456974
   0.13064214  0.06937547  0.51014723
   0.99450334  0.20543693  0.49533941
   0.12874344  0.26897822  0.49821997
   0.99549924  0.40924387  0.48997498
   0.13111623  0.47011518  0.49608251
   0.01694627  0.61707021  0.50086202
   0.14368459  0.67346735  0.50906859
   0.00680056  0.81035110  0.50906906
   0.13634663  0.87093284  0.51710703
   0.19769422  0.00223603  0.51731135
   0.51663516  0.24987308  0.50229483
   0.40218667  0.39650253  0.49661258
   0.32847798  0.26460571  0.50429262
   0.19857260  0.40161433  0.49668863
   0.33464895  0.46494607  0.49678961
   0.20488481  0.60214560  0.50352156
   0.33784857  0.66491353  0.50456968
   0.20426646  0.80301336  0.51710687
   0.33556953  0.86436090  0.51731135
   0.39697042  0.99568090  0.51793013
   0.52677657  0.05640753  0.51029899
   0.38974075  0.19344334  0.51029902
   0.32901416  0.06363699  0.51793012
   0.19546749  0.20182835  0.50490773
   0.53776641  0.45732263  0.49044788
   0.60231162  0.79541019  0.49821990
   0.53877040  0.66117011  0.49533946
   0.40270914  0.79730880  0.51014714
   0.53516185  0.86213429  0.50490773
   0.59793910  0.99514473  0.50429256
   0.72983580  0.06885333  0.49661244
   0.58320626  0.18330190  0.50229480
   0.70782687  0.25920486  0.48900840
   0.59253813  0.37449369  0.48900842
   0.71088039  0.37754721  0.47886008
   0.60677497  0.59312172  0.48985965
   0.93547874  0.87155144  0.50352185
   0.40452511  0.59760148  0.49815080
   0.73494768  0.86523935  0.49668863
   0.79827934  0.00131561  0.49678948
   0.93093470  0.07119166  0.49815081
   0.79065586  0.20443305  0.49044784
   0.92645497  0.27344147  0.48985966
   0.82194826  0.48861487  0.47841955
   0.94070656  0.49201793  0.48816656
   0.82535155  0.60737341  0.48816659
   0.95040365  0.68361294  0.50086218
   0.80344850  0.79778282  0.49608286
   0.74257744  0.66216589  0.48997508
   0.76728363  0.43395037  0.55691839
 
 position of ions in cartesian coordinates  (Angst):
  12.25066345  0.04809267 15.13709213
   1.18023914  0.73899535 15.30441681
  10.96895395  2.18833724 14.86018242
  -0.07067176  2.86518624 14.94659910
   9.72779081  4.35931172 14.69924936
  -1.27847871  5.00771979 14.88247526
  -3.58654271  6.57310123 15.02586069
  -2.37450376  7.17384995 15.27205779
  -4.90001236  8.63195107 15.27207176
  -3.67917338  9.27727452 15.51321085
   2.41788737  0.02381841 15.51934053
   4.81789300  2.66167616 15.06884487
   2.50840547  4.22358955 14.89837726
   2.41295395  2.81860983 15.12877852
  -0.02748511  4.27804103 14.90065899
   1.25676375  4.95265780 14.90368841
  -1.18311232  6.41412265 15.10564670
   0.06631924  7.08273371 15.13709045
  -2.42605473  8.55378864 15.51320609
  -1.18831428  9.20726949 15.51934038
  -1.24070143 10.60610493 15.53790393
   6.13244552  0.60085932 15.30896967
   3.60413469  2.06058018 15.30897065
   3.65550668  0.67786837 15.53790345
   1.16300575  2.14989824 15.14723199
   3.80199267  4.87145209 14.71343648
   2.51666023  8.47279877 14.94659692
   2.56067971  7.04285839 14.86018376
   0.04987332  8.49302299 15.30441435
   1.28036491  9.18355145 15.14723182
   1.23451077 10.60039360 15.12877676
   8.55353232  0.73343339 14.89837318
   6.04613028  1.95255246 15.06884403
   7.11216056  2.76107933 14.67025196
   4.98508284  3.98914888 14.67025271
   6.42191350  4.02167537 14.36580231
   3.81563353  6.31799930 14.69578952
   6.14634719  9.28386394 15.10565544
   1.30040977  6.36571813 14.94452396
   3.71863441  9.21662691 14.90065885
   9.81074486  0.01401397 14.90368426
  11.01266809  0.75834162 14.94452419
   8.46780378  2.17764382 14.71343523
   9.71373112  2.91272932 14.69578990
   7.10498215  5.20478057 14.35258636
   8.54478041  5.24103032 14.64499686
   6.41647763  6.46980984 14.64499757
   7.48574532  7.28192191 15.02586532
   4.97605225  8.49807234 14.88248578
   5.06138228  7.05346551 14.69925235
   6.76879387  4.62248813 16.70755156
 


--------------------------------------------------------------------------------------------------------


 k-point  1 :   0.0000 0.0000 0.0000  plane waves:  105831
 k-point  2 :   0.3333-0.0000 0.0000  plane waves:  105834
 k-point  3 :   0.0000 0.3333 0.0000  plane waves:  105834
 k-point  4 :   0.3333 0.3333 0.0000  plane waves:  105861
 k-point  5 :  -0.3333 0.3333 0.0000  plane waves:  105834

 maximum and minimum number of plane-waves per node :     26501    26424

 maximum number of plane-waves:    105861
 maximum index in each direction: 
   IXMAX=   23   IYMAX=   22   IZMAX=   55
   IXMIN=  -23   IYMIN=  -23   IZMIN=  -55

 NGX is ok and might be reduce to  94
 NGY is ok and might be reduce to  92
 NGZ is ok and might be reduce to 222

 real space projection operators:
  total allocation   :       7704.95 KBytes
  max/ min on nodes  :       1927.75       1924.33


 parallel 3D FFT for wavefunctions:
    minimum data exchange during FFTs selected (reduces bandwidth)
 parallel 3D FFT for charge:
    minimum data exchange during FFTs selected (reduces bandwidth)


 total amount of memory used by VASP on root node   465217. kBytes
========================================================================

   base      :      30000. kBytes
   nonlr-proj:       4755. kBytes
   fftplans  :     165810. kBytes
   grid      :     124231. kBytes
   one-center:         79. kBytes
   wavefun   :     140342. kBytes
 
     INWAV:  cpu time    0.0000: real time    0.0002
 Broyden mixing: mesh for mixing (old mesh)
   NGX = 45   NGY = 45   NGZ =111
  (NGX  =192   NGY  =192   NGZ  =448)
  gives a total of 224775 points

 initial charge density was supplied:
 charge density of overlapping atoms calculated
 number of electron     203.0000000 magnetization       6.0000000
 keeping initial charge density in first step


--------------------------------------------------------------------------------------------------------


 Maximum index for non-local projection operator          650
 Maximum index for augmentation-charges         3147 (set IRDMAX)


--------------------------------------------------------------------------------------------------------


 First call to EWALD:  gamma=   0.112
 Maximum number of real-space cells 4x 4x 2
 Maximum number of reciprocal cells 2x 2x 5

 FEWALD executed in parallel
    FEWALD:  cpu time    0.0023: real time    0.0023


----------------------------------------- Iteration    1(   1)  ---------------------------------------


    POTLOK:  cpu time    1.3966: real time    1.3970
    SETDIJ:  cpu time    1.2893: real time    1.2894
     EDDAV:  cpu time   44.1295: real time   44.1364
       DOS:  cpu time    0.0010: real time    0.0010
    --------------------------------------------
      LOOP:  cpu time   46.8174: real time   46.8266

 eigenvalue-minimisations  :  3232
 total energy-change (2. order) : 0.1944231E+04  (-0.6759012E+04)
 number of electron     203.0000000 magnetization       6.0000000
 augmentation part      203.0000000 magnetization       6.0000000

 Free energy of the ion-electron system (eV)
  ---------------------------------------------------
  alpha Z        PSCENC =        53.42782116
  Ewald energy   TEWEN  =     56420.91031532
  -Hartree energ DENC   =    -61689.10354115
  -exchange      EXHF   =         0.00000000
  -V(xc)+E(xc)   XCENC  =       670.78662196
  PAW double counting   =      5505.55773403    -5549.36347127
  entropy T*S    EENTRO =        -0.03071565
  eigenvalues    EBANDS =     -1028.17147448
  atomic energy  EATOM  =      7560.21751256
  Solvation  Ediel_sol  =         0.00000000
  ---------------------------------------------------
  free energy    TOTEN  =      1944.23080247 eV

  energy without entropy =     1944.26151812  energy(sigma->0) =     1944.24616030


--------------------------------------------------------------------------------------------------------




----------------------------------------- Iteration    1(   2)  ---------------------------------------


     EDDAV:  cpu time   53.4585: real time   53.5673
       DOS:  cpu time    0.0005: real time    0.0005
    --------------------------------------------
      LOOP:  cpu time   53.4599: real time   53.5728

 eigenvalue-minimisations  :  4080
 total energy-change (2. order) :-0.1901488E+04  (-0.1757845E+04)
 number of electron     203.0000000 magnetization       6.0000000
 augmentation part      203.0000000 magnetization       6.0000000

 Free energy of the ion-electron system (eV)
  ---------------------------------------------------
  alpha Z        PSCENC =        53.42782116
  Ewald energy   TEWEN  =     56420.91031532
  -Hartree energ DENC   =    -61689.10354115
  -exchange      EXHF   =         0.00000000
  -V(xc)+E(xc)   XCENC  =       670.78662196
  PAW double counting   =      5505.55773403    -5549.36347127
  entropy T*S    EENTRO =        -0.00407412
  eigenvalues    EBANDS =     -2929.68621185
  atomic energy  EATOM  =      7560.21751256
  Solvation  Ediel_sol  =         0.00000000
  ---------------------------------------------------
  free energy    TOTEN  =        42.74270663 eV

  energy without entropy =       42.74678075  energy(sigma->0) =       42.74474369


--------------------------------------------------------------------------------------------------------




----------------------------------------- Iteration    1(   3)  ---------------------------------------


     EDDAV:  cpu time   46.7848: real time   46.7911
       DOS:  cpu time    0.0005: real time    0.0005
    --------------------------------------------
      LOOP:  cpu time   46.7862: real time   46.7945

 eigenvalue-minimisations  :  3440
 total energy-change (2. order) :-0.5052735E+03  (-0.5004972E+03)
 number of electron     203.0000000 magnetization       6.0000000
 augmentation part      203.0000000 magnetization       6.0000000

 Free energy of the ion-electron system (eV)
  ---------------------------------------------------
  alpha Z        PSCENC =        53.42782116
  Ewald energy   TEWEN  =     56420.91031532
  -Hartree energ DENC   =    -61689.10354115
  -exchange      EXHF   =         0.00000000
  -V(xc)+E(xc)   XCENC  =       670.78662196
  PAW double counting   =      5505.55773403    -5549.36347127
  entropy T*S    EENTRO =        -0.00536748
  eigenvalues    EBANDS =     -3434.95837025
  atomic energy  EATOM  =      7560.21751256
  Solvation  Ediel_sol  =         0.00000000
  ---------------------------------------------------
  free energy    TOTEN  =      -462.53074512 eV

  energy without entropy =     -462.52537764  energy(sigma->0) =     -462.52806138


--------------------------------------------------------------------------------------------------------




----------------------------------------- Iteration    1(   4)  ---------------------------------------


     EDDAV:  cpu time   45.7981: real time   45.8037
       DOS:  cpu time    0.0005: real time    0.0005
    --------------------------------------------
      LOOP:  cpu time   45.7993: real time   45.8078

 eigenvalue-minimisations  :  3384
 total energy-change (2. order) :-0.2708227E+02  (-0.2678714E+02)
 number of electron     203.0000000 magnetization       6.0000000
 augmentation part      203.0000000 magnetization       6.0000000

 Free energy of the ion-electron system (eV)
  ---------------------------------------------------
  alpha Z        PSCENC =        53.42782116
  Ewald energy   TEWEN  =     56420.91031532
  -Hartree energ DENC   =    -61689.10354115
  -exchange      EXHF   =         0.00000000
  -V(xc)+E(xc)   XCENC  =       670.78662196
  PAW double counting   =      5505.55773403    -5549.36347127
  entropy T*S    EENTRO =        -0.00487067
  eigenvalues    EBANDS =     -3462.04113869
  atomic energy  EATOM  =      7560.21751256
  Solvation  Ediel_sol  =         0.00000000
  ---------------------------------------------------
  free energy    TOTEN  =      -489.61301676 eV

  energy without entropy =     -489.60814609  energy(sigma->0) =     -489.61058143


--------------------------------------------------------------------------------------------------------




----------------------------------------- Iteration    1(   5)  ---------------------------------------


     EDDAV:  cpu time   49.4158: real time   49.4208
       DOS:  cpu time    0.0005: real time    0.0005
    CHARGE:  cpu time    4.3343: real time    4.3355
    MIXING:  cpu time    0.0242: real time    0.0242
    --------------------------------------------
      LOOP:  cpu time   53.7754: real time   53.7840

 eigenvalue-minimisations  :  3704
 total energy-change (2. order) :-0.9273403E+00  (-0.9204428E+00)
 number of electron     203.0000000 magnetization       5.6274161
 augmentation part        6.4418018 magnetization       5.1673476

 Broyden mixing:
  rms(total) = 0.32951E+01    rms(broyden)= 0.32946E+01
  rms(prec ) = 0.33980E+01
  weight for this iteration     100.00

 Free energy of the ion-electron system (eV)
  ---------------------------------------------------
  alpha Z        PSCENC =        53.42782116
  Ewald energy   TEWEN  =     56420.91031532
  -Hartree energ DENC   =    -61689.10354115
  -exchange      EXHF   =         0.00000000
  -V(xc)+E(xc)   XCENC  =       670.78662196
  PAW double counting   =      5505.55773403    -5549.36347127
  entropy T*S    EENTRO =        -0.00459881
  eigenvalues    EBANDS =     -3462.96875083
  atomic energy  EATOM  =      7560.21751256
  Solvation  Ediel_sol  =         0.00000000
  ---------------------------------------------------
  free energy    TOTEN  =      -490.54035704 eV

  energy without entropy =     -490.53575823  energy(sigma->0) =     -490.53805764


--------------------------------------------------------------------------------------------------------




----------------------------------------- Iteration    1(   6)  ---------------------------------------


    POTLOK:  cpu time    1.4300: real time    1.4300
    SETDIJ:  cpu time    1.3306: real time    1.3306
     EDDAV:  cpu time   41.4262: real time   41.4298
       DOS:  cpu time    0.0005: real time    0.0005
    CHARGE:  cpu time    4.3155: real time    4.3157
    MIXING:  cpu time    0.0469: real time    0.0469
    --------------------------------------------
      LOOP:  cpu time   48.5502: real time   48.5568

 eigenvalue-minimisations  :  2976
 total energy-change (2. order) : 0.2511681E+02  (-0.2499871E+01)
 number of electron     203.0000000 magnetization       5.1246787
 augmentation part        6.2054903 magnetization       4.6259042

 Broyden mixing:
  rms(total) = 0.19002E+01    rms(broyden)= 0.19002E+01
  rms(prec ) = 0.19534E+01
  weight for this iteration     100.00

 eigenvalues of (default mixing * dielectric matrix)
  average eigenvalue GAMMA=   0.9791
  0.9791

 Free energy of the ion-electron system (eV)
  ---------------------------------------------------
  alpha Z        PSCENC =        53.42782116
  Ewald energy   TEWEN  =     56420.91031532
  -Hartree energ DENC   =    -61991.57007240
  -exchange      EXHF   =         0.00000000
  -V(xc)+E(xc)   XCENC  =       683.73845788
  PAW double counting   =      9995.50254782   -10043.30405267
  entropy T*S    EENTRO =        -0.00449254
  eigenvalues    EBANDS =     -3144.34158152
  atomic energy  EATOM  =      7560.21751256
  Solvation  Ediel_sol  =         0.00000000
  ---------------------------------------------------
  free energy    TOTEN  =      -465.42354440 eV

  energy without entropy =     -465.41905186  energy(sigma->0) =     -465.42129813


--------------------------------------------------------------------------------------------------------




----------------------------------------- Iteration    1(   7)  ---------------------------------------


    POTLOK:  cpu time    1.3979: real time    1.3980
    SETDIJ:  cpu time    1.2579: real time    1.2581
     EDDAV:  cpu time   41.6302: real time   41.6351
       DOS:  cpu time    0.0005: real time    0.0005
    CHARGE:  cpu time    4.3184: real time    4.3187
    MIXING:  cpu time    0.0385: real time    0.0385
    --------------------------------------------
      LOOP:  cpu time   48.6441: real time   48.6519

 eigenvalue-minimisations  :  3028
 total energy-change (2. order) : 0.1203998E+02  (-0.1704355E+01)
 number of electron     203.0000000 magnetization       4.6601540
 augmentation part        5.9997770 magnetization       4.2458731

 Broyden mixing:
  rms(total) = 0.99854E+00    rms(broyden)= 0.99849E+00
  rms(prec ) = 0.10154E+01
  weight for this iteration     100.00

 eigenvalues of (default mixing * dielectric matrix)
  average eigenvalue GAMMA=   1.4262
  0.6713  2.1811

 Free energy of the ion-electron system (eV)
  ---------------------------------------------------
  alpha Z        PSCENC =        53.42782116
  Ewald energy   TEWEN  =     56420.91031532
  -Hartree energ DENC   =    -62264.15234820
  -exchange      EXHF   =         0.00000000
  -V(xc)+E(xc)   XCENC  =       697.77796146
  PAW double counting   =     15449.65489168   -15499.92113660
  entropy T*S    EENTRO =        -0.00574604
  eigenvalues    EBANDS =     -2871.29283200
  atomic energy  EATOM  =      7560.21751256
  Solvation  Ediel_sol  =         0.00000000
  ---------------------------------------------------
  free energy    TOTEN  =      -453.38356068 eV

  energy without entropy =     -453.37781464  energy(sigma->0) =     -453.38068766


--------------------------------------------------------------------------------------------------------




----------------------------------------- Iteration    1(   8)  ---------------------------------------


    POTLOK:  cpu time    1.3974: real time    1.3975
    SETDIJ:  cpu time    1.2435: real time    1.2436
     EDDAV:  cpu time   42.0019: real time   42.0056
       DOS:  cpu time    0.0005: real time    0.0005
    CHARGE:  cpu time    4.3206: real time    4.3209
    MIXING:  cpu time    0.0555: real time    0.0555
    --------------------------------------------
      LOOP:  cpu time   49.0202: real time   49.0282

 eigenvalue-minimisations  :  3060
 total energy-change (2. order) : 0.6325369E+00  (-0.4488473E+00)
 number of electron     203.0000000 magnetization       4.1400667
 augmentation part        5.8598050 magnetization       3.7629041

 Broyden mixing:
  rms(total) = 0.38829E+00    rms(broyden)= 0.38823E+00
  rms(prec ) = 0.40047E+00
  weight for this iteration     100.00

 eigenvalues of (default mixing * dielectric matrix)
  average eigenvalue GAMMA=   1.4494
  2.3095  1.3729  0.6658

 Free energy of the ion-electron system (eV)
  ---------------------------------------------------
  alpha Z        PSCENC =        53.42782116
  Ewald energy   TEWEN  =     56420.91031532
  -Hartree energ DENC   =    -62427.19649751
  -exchange      EXHF   =         0.00000000
  -V(xc)+E(xc)   XCENC  =       703.33520491
  PAW double counting   =     19367.74559704   -19418.90835067
  entropy T*S    EENTRO =        -0.00563416
  eigenvalues    EBANDS =     -2712.27699242
  atomic energy  EATOM  =      7560.21751256
  Solvation  Ediel_sol  =         0.00000000
  ---------------------------------------------------
  free energy    TOTEN  =      -452.75102377 eV

  energy without entropy =     -452.74538962  energy(sigma->0) =     -452.74820669


--------------------------------------------------------------------------------------------------------




----------------------------------------- Iteration    1(   9)  ---------------------------------------


    POTLOK:  cpu time    1.4098: real time    1.4099
    SETDIJ:  cpu time    1.2985: real time    1.2997
     EDDAV:  cpu time   45.9110: real time   45.9155
       DOS:  cpu time    0.0005: real time    0.0005
    CHARGE:  cpu time    4.3216: real time    4.3218
    MIXING:  cpu time    0.0268: real time    0.0268
    --------------------------------------------
      LOOP:  cpu time   52.9688: real time   52.9769

 eigenvalue-minimisations  :  3400
 total energy-change (2. order) :-0.1044388E+01  (-0.5706103E-01)
 number of electron     203.0000000 magnetization       3.8196275
 augmentation part        5.8448214 magnetization       3.4554979

 Broyden mixing:
  rms(total) = 0.14346E+00    rms(broyden)= 0.14342E+00
  rms(prec ) = 0.15802E+00
  weight for this iteration     100.00

 eigenvalues of (default mixing * dielectric matrix)
  average eigenvalue GAMMA=   1.4396
  2.3147  2.0243  0.7557  0.6639

 Free energy of the ion-electron system (eV)
  ---------------------------------------------------
  alpha Z        PSCENC =        53.42782116
  Ewald energy   TEWEN  =     56420.91031532
  -Hartree energ DENC   =    -62481.92205599
  -exchange      EXHF   =         0.00000000
  -V(xc)+E(xc)   XCENC  =       702.51496273
  PAW double counting   =     20652.18786739   -20702.73143316
  entropy T*S    EENTRO =        -0.00553866
  eigenvalues    EBANDS =     -2658.39486333
  atomic energy  EATOM  =      7560.21751256
  Solvation  Ediel_sol  =         0.00000000
  ---------------------------------------------------
  free energy    TOTEN  =      -453.79541200 eV

  energy without entropy =     -453.78987334  energy(sigma->0) =     -453.79264267


--------------------------------------------------------------------------------------------------------




----------------------------------------- Iteration    1(  10)  ---------------------------------------


    POTLOK:  cpu time    1.4082: real time    1.4087
    SETDIJ:  cpu time    1.3133: real time    1.3134
     EDDAV:  cpu time   39.2269: real time   39.2321
       DOS:  cpu time    0.0005: real time    0.0005
    CHARGE:  cpu time    4.3262: real time    4.3265
    MIXING:  cpu time    0.0489: real time    0.0489
    --------------------------------------------
      LOOP:  cpu time   46.3245: real time   46.3337

 eigenvalue-minimisations  :  2800
 total energy-change (2. order) :-0.3395915E+00  (-0.1823880E-01)
 number of electron     203.0000000 magnetization       3.5678247
 augmentation part        5.8400926 magnetization       3.2242899

 Broyden mixing:
  rms(total) = 0.98211E-01    rms(broyden)= 0.98206E-01
  rms(prec ) = 0.11143E+00
  weight for this iteration     100.00

 eigenvalues of (default mixing * dielectric matrix)
  average eigenvalue GAMMA=   1.3374
  2.1927  2.1927  0.9548  0.6980  0.6486

 Free energy of the ion-electron system (eV)
  ---------------------------------------------------
  alpha Z        PSCENC =        53.42782116
  Ewald energy   TEWEN  =     56420.91031532
  -Hartree energ DENC   =    -62513.27703294
  -exchange      EXHF   =         0.00000000
  -V(xc)+E(xc)   XCENC  =       702.43993983
  PAW double counting   =     20888.00378637   -20938.37421530
  entropy T*S    EENTRO =        -0.00538740
  eigenvalues    EBANDS =     -2627.47774310
  atomic energy  EATOM  =      7560.21751256
  Solvation  Ediel_sol  =         0.00000000
  ---------------------------------------------------
  free energy    TOTEN  =      -454.13500351 eV

  energy without entropy =     -454.12961612  energy(sigma->0) =     -454.13230981


--------------------------------------------------------------------------------------------------------




----------------------------------------- Iteration    1(  11)  ---------------------------------------


    POTLOK:  cpu time    1.4255: real time    1.4255
    SETDIJ:  cpu time    1.3364: real time    1.3365
     EDDAV:  cpu time   46.4205: real time   46.4254
       DOS:  cpu time    0.0005: real time    0.0005
    CHARGE:  cpu time    4.3183: real time    4.3196
    MIXING:  cpu time    0.0413: real time    0.0413
    --------------------------------------------
      LOOP:  cpu time   53.5431: real time   53.5517

 eigenvalue-minimisations  :  3320
 total energy-change (2. order) :-0.3044375E+00  (-0.4733523E-02)
 number of electron     203.0000000 magnetization       2.8858779
 augmentation part        5.8359329 magnetization       2.5506502

 Broyden mixing:
  rms(total) = 0.83707E-01    rms(broyden)= 0.83705E-01
  rms(prec ) = 0.94604E-01
  weight for this iteration     100.00

 eigenvalues of (default mixing * dielectric matrix)
  average eigenvalue GAMMA=   1.3829
  2.2580  2.2580  1.4919  0.9617  0.6838  0.6440

 Free energy of the ion-electron system (eV)
  ---------------------------------------------------
  alpha Z        PSCENC =        53.42782116
  Ewald energy   TEWEN  =     56420.91031532
  -Hartree energ DENC   =    -62535.53305969
  -exchange      EXHF   =         0.00000000
  -V(xc)+E(xc)   XCENC  =       702.37164905
  PAW double counting   =     20852.06446517   -20902.40584511
  entropy T*S    EENTRO =        -0.00530613
  eigenvalues    EBANDS =     -2605.48699330
  atomic energy  EATOM  =      7560.21751256
  Solvation  Ediel_sol  =         0.00000000
  ---------------------------------------------------
  free energy    TOTEN  =      -454.43944099 eV

  energy without entropy =     -454.43413485  energy(sigma->0) =     -454.43678792


--------------------------------------------------------------------------------------------------------




----------------------------------------- Iteration    1(  12)  ---------------------------------------


    POTLOK:  cpu time    1.4433: real time    1.4435
    SETDIJ:  cpu time    1.3374: real time    1.3375
     EDDAV:  cpu time   39.2986: real time   39.3026
       DOS:  cpu time    0.0006: real time    0.0006
    CHARGE:  cpu time    4.2834: real time    4.2836
    MIXING:  cpu time    0.0586: real time    0.0586
    --------------------------------------------
      LOOP:  cpu time   46.4225: real time   46.4288

 eigenvalue-minimisations  :  2812
 total energy-change (2. order) :-0.7338367E+00  (-0.2150840E-01)
 number of electron     203.0000000 magnetization       2.2544497
 augmentation part        5.8313864 magnetization       1.9294891

 Broyden mixing:
  rms(total) = 0.59315E-01    rms(broyden)= 0.59313E-01
  rms(prec ) = 0.64647E-01
  weight for this iteration     100.00

 eigenvalues of (default mixing * dielectric matrix)
  average eigenvalue GAMMA=   1.5684
  3.4188  2.5459  1.8553  1.0654  0.7852  0.6747  0.6337

 Free energy of the ion-electron system (eV)
  ---------------------------------------------------
  alpha Z        PSCENC =        53.42782116
  Ewald energy   TEWEN  =     56420.91031532
  -Hartree energ DENC   =    -62588.95941928
  -exchange      EXHF   =         0.00000000
  -V(xc)+E(xc)   XCENC  =       702.15194554
  PAW double counting   =     20736.48883250   -20786.75546188
  entropy T*S    EENTRO =        -0.00526468
  eigenvalues    EBANDS =     -2552.64955889
  atomic energy  EATOM  =      7560.21751256
  Solvation  Ediel_sol  =         0.00000000
  ---------------------------------------------------
  free energy    TOTEN  =      -455.17327767 eV

  energy without entropy =     -455.16801299  energy(sigma->0) =     -455.17064533


--------------------------------------------------------------------------------------------------------




----------------------------------------- Iteration    1(  13)  ---------------------------------------


    POTLOK:  cpu time    1.4729: real time    1.4730
    SETDIJ:  cpu time    1.3500: real time    1.3506
     EDDAV:  cpu time   39.0557: real time   39.0593
       DOS:  cpu time    0.0005: real time    0.0005
    CHARGE:  cpu time    4.2753: real time    4.2766
    MIXING:  cpu time    0.0334: real time    0.0334
    --------------------------------------------
      LOOP:  cpu time   46.1884: real time   46.1963

 eigenvalue-minimisations  :  2804
 total energy-change (2. order) : 0.2765176E-01  (-0.1277170E-01)
 number of electron     203.0000000 magnetization       1.7487457
 augmentation part        5.8253987 magnetization       1.4341276

 Broyden mixing:
  rms(total) = 0.42695E-01    rms(broyden)= 0.42693E-01
  rms(prec ) = 0.44740E-01
  weight for this iteration     100.00

 eigenvalues of (default mixing * dielectric matrix)
  average eigenvalue GAMMA=   1.6731
  4.7818  2.3461  1.9680  1.1177  1.1177  0.7558  0.6697  0.6276

 Free energy of the ion-electron system (eV)
  ---------------------------------------------------
  alpha Z        PSCENC =        53.42782116
  Ewald energy   TEWEN  =     56420.91031532
  -Hartree energ DENC   =    -62633.71317718
  -exchange      EXHF   =         0.00000000
  -V(xc)+E(xc)   XCENC  =       702.62241900
  PAW double counting   =     20715.74094538   -20765.97002355
  entropy T*S    EENTRO =        -0.00551169
  eigenvalues    EBANDS =     -2508.37592690
  atomic energy  EATOM  =      7560.21751256
  Solvation  Ediel_sol  =         0.00000000
  ---------------------------------------------------
  free energy    TOTEN  =      -455.14562591 eV

  energy without entropy =     -455.14011422  energy(sigma->0) =     -455.14287007


--------------------------------------------------------------------------------------------------------




----------------------------------------- Iteration    1(  14)  ---------------------------------------


    POTLOK:  cpu time    1.4755: real time    1.4755
    SETDIJ:  cpu time    1.3524: real time    1.3530
     EDDAV:  cpu time   39.9907: real time   39.9944
       DOS:  cpu time    0.0005: real time    0.0005
    CHARGE:  cpu time    4.2471: real time    4.2474
    MIXING:  cpu time    0.0533: real time    0.0533
    --------------------------------------------
      LOOP:  cpu time   47.1201: real time   47.1270

 eigenvalue-minimisations  :  2888
 total energy-change (2. order) :-0.6279742E+00  (-0.5672861E-02)
 number of electron     203.0000000 magnetization       1.3468919
 augmentation part        5.8214469 magnetization       1.0400551

 Broyden mixing:
  rms(total) = 0.29329E-01    rms(broyden)= 0.29326E-01
  rms(prec ) = 0.30716E-01
  weight for this iteration     100.00

 eigenvalues of (default mixing * dielectric matrix)
  average eigenvalue GAMMA=   1.9217
  6.9969  2.2728  2.2728  1.7083  1.1438  0.8970  0.7197  0.6616  0.6229

 Free energy of the ion-electron system (eV)
  ---------------------------------------------------
  alpha Z        PSCENC =        53.42782116
  Ewald energy   TEWEN  =     56420.91031532
  -Hartree energ DENC   =    -62659.32184314
  -exchange      EXHF   =         0.00000000
  -V(xc)+E(xc)   XCENC  =       702.18917363
  PAW double counting   =     20717.00103100   -20767.23645838
  entropy T*S    EENTRO =        -0.00576021
  eigenvalues    EBANDS =     -2482.95539208
  atomic energy  EATOM  =      7560.21751256
  Solvation  Ediel_sol  =         0.00000000
  ---------------------------------------------------
  free energy    TOTEN  =      -455.77360015 eV

  energy without entropy =     -455.76783994  energy(sigma->0) =     -455.77072004


--------------------------------------------------------------------------------------------------------




----------------------------------------- Iteration    1(  15)  ---------------------------------------


    POTLOK:  cpu time    1.4690: real time    1.4691
    SETDIJ:  cpu time    1.3700: real time    1.3704
     EDDAV:  cpu time   43.0063: real time   43.3995
       DOS:  cpu time    0.0005: real time    0.0006
    CHARGE:  cpu time    4.6501: real time    4.6503
    MIXING:  cpu time    0.0410: real time    0.0410
    --------------------------------------------
      LOOP:  cpu time   50.5377: real time   50.9329

 eigenvalue-minimisations  :  2928
 total energy-change (2. order) :-0.7146853E+00  (-0.3221693E-02)
 number of electron     203.0000000 magnetization       1.1148804
 augmentation part        5.8199934 magnetization       0.8160836

 Broyden mixing:
  rms(total) = 0.20017E-01    rms(broyden)= 0.20016E-01
  rms(prec ) = 0.21391E-01
  weight for this iteration     100.00

 eigenvalues of (default mixing * dielectric matrix)
  average eigenvalue GAMMA=   2.0141
  8.4842  2.4549  2.4549  1.8171  1.0732  1.0732  0.8096  0.6973  0.6559  0.6205

 Free energy of the ion-electron system (eV)
  ---------------------------------------------------
  alpha Z        PSCENC =        53.42782116
  Ewald energy   TEWEN  =     56420.91031532
  -Hartree energ DENC   =    -62670.49851627
  -exchange      EXHF   =         0.00000000
  -V(xc)+E(xc)   XCENC  =       701.47434514
  PAW double counting   =     20696.44931913   -20746.68872730
  entropy T*S    EENTRO =        -0.00605993
  eigenvalues    EBANDS =     -2471.77429525
  atomic energy  EATOM  =      7560.21751256
  Solvation  Ediel_sol  =         0.00000000
  ---------------------------------------------------
  free energy    TOTEN  =      -456.48828545 eV

  energy without entropy =     -456.48222552  energy(sigma->0) =     -456.48525549


--------------------------------------------------------------------------------------------------------




----------------------------------------- Iteration    1(  16)  ---------------------------------------


    POTLOK:  cpu time    1.2881: real time    1.2882
    SETDIJ:  cpu time    1.2044: real time    1.3464
     EDDAV:  cpu time   42.0384: real time   42.5779
       DOS:  cpu time    0.0006: real time    0.0006
    CHARGE:  cpu time    3.9925: real time    3.9929
    MIXING:  cpu time    0.0664: real time    0.0664
    --------------------------------------------
      LOOP:  cpu time   48.5907: real time   49.2755

 eigenvalue-minimisations  :  2948
 total energy-change (2. order) :-0.3941827E+00  (-0.7961969E-03)
 number of electron     203.0000000 magnetization       0.8559704
 augmentation part        5.8197834 magnetization       0.5619425

 Broyden mixing:
  rms(total) = 0.15081E-01    rms(broyden)= 0.15080E-01
  rms(prec ) = 0.16231E-01
  weight for this iteration     100.00

 eigenvalues of (default mixing * dielectric matrix)
  average eigenvalue GAMMA=   2.1234
  9.5725  2.9888  2.4948  1.7975  1.5449  1.3023  0.9093  0.7818  0.6891  0.6568
  0.6200

 Free energy of the ion-electron system (eV)
  ---------------------------------------------------
  alpha Z        PSCENC =        53.42782116
  Ewald energy   TEWEN  =     56420.91031532
  -Hartree energ DENC   =    -62671.80355672
  -exchange      EXHF   =         0.00000000
  -V(xc)+E(xc)   XCENC  =       701.02403279
  PAW double counting   =     20695.84572279   -20746.08714101
  entropy T*S    EENTRO =        -0.00624898
  eigenvalues    EBANDS =     -2470.41092606
  atomic energy  EATOM  =      7560.21751256
  Solvation  Ediel_sol  =         0.00000000
  ---------------------------------------------------
  free energy    TOTEN  =      -456.88246816 eV

  energy without entropy =     -456.87621918  energy(sigma->0) =     -456.87934367


--------------------------------------------------------------------------------------------------------




----------------------------------------- Iteration    1(  17)  ---------------------------------------


    POTLOK:  cpu time    1.1955: real time    1.1955
    SETDIJ:  cpu time    1.3780: real time    1.3782
     EDDAV:  cpu time   40.9216: real time   40.9390
       DOS:  cpu time    0.0005: real time    0.0005
    CHARGE:  cpu time    3.9964: real time    3.9977
    MIXING:  cpu time    0.0367: real time    0.0367
    --------------------------------------------
      LOOP:  cpu time   47.5293: real time   47.5505

 eigenvalue-minimisations  :  2920
 total energy-change (2. order) :-0.3419458E+00  (-0.7104357E-03)
 number of electron     203.0000000 magnetization       0.7014062
 augmentation part        5.8202127 magnetization       0.4117725

 Broyden mixing:
  rms(total) = 0.98823E-02    rms(broyden)= 0.98820E-02
  rms(prec ) = 0.10713E-01
  weight for this iteration     100.00

 eigenvalues of (default mixing * dielectric matrix)
  average eigenvalue GAMMA=   2.2071
 10.5588  3.8668  2.4369  1.9075  1.9075  1.1060  1.1060  0.8755  0.7666  0.6837
  0.6191  0.6508

 Free energy of the ion-electron system (eV)
  ---------------------------------------------------
  alpha Z        PSCENC =        53.42782116
  Ewald energy   TEWEN  =     56420.91031532
  -Hartree energ DENC   =    -62670.00183299
  -exchange      EXHF   =         0.00000000
  -V(xc)+E(xc)   XCENC  =       700.60792309
  PAW double counting   =     20704.26438365   -20754.50543822
  entropy T*S    EENTRO =        -0.00642466
  eigenvalues    EBANDS =     -2472.13867387
  atomic energy  EATOM  =      7560.21751256
  Solvation  Ediel_sol  =         0.00000000
  ---------------------------------------------------
  free energy    TOTEN  =      -457.22441397 eV

  energy without entropy =     -457.21798931  energy(sigma->0) =     -457.22120164


--------------------------------------------------------------------------------------------------------




----------------------------------------- Iteration    1(  18)  ---------------------------------------


    POTLOK:  cpu time    1.2455: real time    1.2456
    SETDIJ:  cpu time    1.3625: real time    1.3639
     EDDAV:  cpu time   41.4099: real time   41.4161
       DOS:  cpu time    0.0005: real time    0.0005
    CHARGE:  cpu time    3.9858: real time    3.9865
    MIXING:  cpu time    0.0590: real time    0.0590
    --------------------------------------------
      LOOP:  cpu time   48.0638: real time   48.0745

 eigenvalue-minimisations  :  2944
 total energy-change (2. order) :-0.1113509E+00  (-0.2289106E-03)
 number of electron     203.0000000 magnetization       0.5866432
 augmentation part        5.8204130 magnetization       0.2998810

 Broyden mixing:
  rms(total) = 0.74285E-02    rms(broyden)= 0.74283E-02
  rms(prec ) = 0.81230E-02
  weight for this iteration     100.00

 eigenvalues of (default mixing * dielectric matrix)
  average eigenvalue GAMMA=   2.2174
 11.1185  4.3607  2.3572  2.0035  1.9590  1.2472  1.2472  0.9997  0.8387  0.7481
  0.6796  0.6189  0.6476

 Free energy of the ion-electron system (eV)
  ---------------------------------------------------
  alpha Z        PSCENC =        53.42782116
  Ewald energy   TEWEN  =     56420.91031532
  -Hartree energ DENC   =    -62668.14478196
  -exchange      EXHF   =         0.00000000
  -V(xc)+E(xc)   XCENC  =       700.46650575
  PAW double counting   =     20706.97755805   -20757.21837585
  entropy T*S    EENTRO =        -0.00653897
  eigenvalues    EBANDS =     -2473.96578094
  atomic energy  EATOM  =      7560.21751256
  Solvation  Ediel_sol  =         0.00000000
  ---------------------------------------------------
  free energy    TOTEN  =      -457.33576490 eV

  energy without entropy =     -457.32922593  energy(sigma->0) =     -457.33249542


--------------------------------------------------------------------------------------------------------




----------------------------------------- Iteration    1(  19)  ---------------------------------------


    POTLOK:  cpu time    1.2480: real time    1.2481
    SETDIJ:  cpu time    1.3737: real time    1.3740
     EDDAV:  cpu time   42.3283: real time   42.4277
       DOS:  cpu time    0.0005: real time    0.0005
    CHARGE:  cpu time    3.9746: real time    3.9751
    MIXING:  cpu time    0.0536: real time    0.0536
    --------------------------------------------
      LOOP:  cpu time   48.9793: real time   49.0819

 eigenvalue-minimisations  :  3056
 total energy-change (2. order) :-0.3997476E-01  (-0.1202978E-03)
 number of electron     203.0000000 magnetization       0.4796274
 augmentation part        5.8207217 magnetization       0.1946641

 Broyden mixing:
  rms(total) = 0.54776E-02    rms(broyden)= 0.54775E-02
  rms(prec ) = 0.60302E-02
  weight for this iteration     100.00

 eigenvalues of (default mixing * dielectric matrix)
  average eigenvalue GAMMA=   2.2831
 11.7225  5.0715  2.4482  2.4482  1.7749  1.7749  1.1786  1.1786  0.9039  0.8133
  0.7127  0.6742  0.6191  0.6426

 Free energy of the ion-electron system (eV)
  ---------------------------------------------------
  alpha Z        PSCENC =        53.42782116
  Ewald energy   TEWEN  =     56420.91031532
  -Hartree energ DENC   =    -62665.88108555
  -exchange      EXHF   =         0.00000000
  -V(xc)+E(xc)   XCENC  =       700.40795311
  PAW double counting   =     20706.49700627   -20756.73613762
  entropy T*S    EENTRO =        -0.00660982
  eigenvalues    EBANDS =     -2476.21251507
  atomic energy  EATOM  =      7560.21751256
  Solvation  Ediel_sol  =         0.00000000
  ---------------------------------------------------
  free energy    TOTEN  =      -457.37573966 eV

  energy without entropy =     -457.36912984  energy(sigma->0) =     -457.37243475


--------------------------------------------------------------------------------------------------------




----------------------------------------- Iteration    1(  20)  ---------------------------------------


    POTLOK:  cpu time    1.2458: real time    1.2462
    SETDIJ:  cpu time    1.3683: real time    1.3684
     EDDAV:  cpu time   42.1537: real time   42.3115
       DOS:  cpu time    0.0005: real time    0.0005
    CHARGE:  cpu time    3.9985: real time    3.9989
    MIXING:  cpu time    0.0739: real time    0.0739
    --------------------------------------------
      LOOP:  cpu time   48.8413: real time   49.0023

 eigenvalue-minimisations  :  3000
 total energy-change (2. order) :-0.1450197E-01  (-0.7723357E-04)
 number of electron     203.0000000 magnetization       0.4051545
 augmentation part        5.8208272 magnetization       0.1222419

 Broyden mixing:
  rms(total) = 0.37567E-02    rms(broyden)= 0.37566E-02
  rms(prec ) = 0.41459E-02
  weight for this iteration     100.00

 eigenvalues of (default mixing * dielectric matrix)
  average eigenvalue GAMMA=   2.3327
 12.2530  5.8702  3.0400  2.3732  1.9331  1.5237  1.5237  1.1062  1.1062  0.8504
  0.7855  0.6991  0.6691  0.6191  0.6382

 Free energy of the ion-electron system (eV)
  ---------------------------------------------------
  alpha Z        PSCENC =        53.42782116
  Ewald energy   TEWEN  =     56420.91031532
  -Hartree energ DENC   =    -62663.59878838
  -exchange      EXHF   =         0.00000000
  -V(xc)+E(xc)   XCENC  =       700.38838671
  PAW double counting   =     20707.88929262   -20758.12738938
  entropy T*S    EENTRO =        -0.00669165
  eigenvalues    EBANDS =     -2478.49070058
  atomic energy  EATOM  =      7560.21751256
  Solvation  Ediel_sol  =         0.00000000
  ---------------------------------------------------
  free energy    TOTEN  =      -457.39024163 eV

  energy without entropy =     -457.38354998  energy(sigma->0) =     -457.38689581


--------------------------------------------------------------------------------------------------------




----------------------------------------- Iteration    1(  21)  ---------------------------------------


    POTLOK:  cpu time    1.1866: real time    1.1869
    SETDIJ:  cpu time    1.3726: real time    1.3728
     EDDAV:  cpu time   41.2040: real time   41.2082
       DOS:  cpu time    0.0005: real time    0.0005
    CHARGE:  cpu time    4.0534: real time    4.0538
    MIXING:  cpu time    0.0428: real time    0.0428
    --------------------------------------------
      LOOP:  cpu time   47.8606: real time   47.8677

 eigenvalue-minimisations  :  2960
 total energy-change (2. order) :-0.1603252E-01  (-0.3384868E-04)
 number of electron     203.0000000 magnetization       0.3517391
 augmentation part        5.8208385 magnetization       0.0700629

 Broyden mixing:
  rms(total) = 0.25381E-02    rms(broyden)= 0.25380E-02
  rms(prec ) = 0.28090E-02
  weight for this iteration     100.00

 eigenvalues of (default mixing * dielectric matrix)
  average eigenvalue GAMMA=   2.4062
 12.8473  6.7917  3.6221  2.3215  2.0984  1.5524  1.5524  1.4170  1.1215  0.9991
  0.8138  0.7557  0.6915  0.6599  0.6194  0.6349

 Free energy of the ion-electron system (eV)
  ---------------------------------------------------
  alpha Z        PSCENC =        53.42782116
  Ewald energy   TEWEN  =     56420.91031532
  -Hartree energ DENC   =    -62662.04466192
  -exchange      EXHF   =         0.00000000
  -V(xc)+E(xc)   XCENC  =       700.37508540
  PAW double counting   =     20707.55349724   -20757.79177303
  entropy T*S    EENTRO =        -0.00674086
  eigenvalues    EBANDS =     -2480.04733001
  atomic energy  EATOM  =      7560.21751256
  Solvation  Ediel_sol  =         0.00000000
  ---------------------------------------------------
  free energy    TOTEN  =      -457.40627415 eV

  energy without entropy =     -457.39953329  energy(sigma->0) =     -457.40290372


--------------------------------------------------------------------------------------------------------




----------------------------------------- Iteration    1(  22)  ---------------------------------------


    POTLOK:  cpu time    1.2071: real time    1.2072
    SETDIJ:  cpu time    1.2882: real time    1.2884
     EDDAV:  cpu time   40.8934: real time   40.8973
       DOS:  cpu time    0.0005: real time    0.0005
    CHARGE:  cpu time    4.1363: real time    4.1366
    MIXING:  cpu time    0.0493: real time    0.0493
    --------------------------------------------
      LOOP:  cpu time   47.5755: real time   47.5821

 eigenvalue-minimisations  :  2932
 total energy-change (2. order) :-0.2830892E-01  (-0.1737526E-04)
 number of electron     203.0000000 magnetization       0.3240051
 augmentation part        5.8208944 magnetization       0.0431333

 Broyden mixing:
  rms(total) = 0.15241E-02    rms(broyden)= 0.15240E-02
  rms(prec ) = 0.17136E-02
  weight for this iteration     100.00

 eigenvalues of (default mixing * dielectric matrix)
  average eigenvalue GAMMA=   2.5043
 13.6243  7.9369  4.1598  2.3893  2.3893  1.9413  1.4854  1.4854  1.0831  1.0831
  0.8856  0.8025  0.7288  0.6839  0.6492  0.6197  0.6257

 Free energy of the ion-electron system (eV)
  ---------------------------------------------------
  alpha Z        PSCENC =        53.42782116
  Ewald energy   TEWEN  =     56420.91031532
  -Hartree energ DENC   =    -62660.70753151
  -exchange      EXHF   =         0.00000000
  -V(xc)+E(xc)   XCENC  =       700.34219557
  PAW double counting   =     20706.09264151   -20756.33141019
  entropy T*S    EENTRO =        -0.00677219
  eigenvalues    EBANDS =     -2481.37935530
  atomic energy  EATOM  =      7560.21751256
  Solvation  Ediel_sol  =         0.00000000
  ---------------------------------------------------
  free energy    TOTEN  =      -457.43458308 eV

  energy without entropy =     -457.42781089  energy(sigma->0) =     -457.43119698


--------------------------------------------------------------------------------------------------------




----------------------------------------- Iteration    1(  23)  ---------------------------------------


    POTLOK:  cpu time    1.3401: real time    1.3402
    SETDIJ:  cpu time    1.1913: real time    1.1915
     EDDAV:  cpu time   40.2505: real time   40.2541
       DOS:  cpu time    0.0005: real time    0.0005
    CHARGE:  cpu time    4.3256: real time    4.3264
    MIXING:  cpu time    0.0541: real time    0.0541
    --------------------------------------------
      LOOP:  cpu time   47.1627: real time   47.1695

 eigenvalue-minimisations  :  2868
 total energy-change (2. order) :-0.1405194E-01  (-0.8890430E-05)
 number of electron     203.0000000 magnetization       0.3114337
 augmentation part        5.8209346 magnetization       0.0308799

 Broyden mixing:
  rms(total) = 0.95283E-03    rms(broyden)= 0.95272E-03
  rms(prec ) = 0.10918E-02
  weight for this iteration     100.00

 eigenvalues of (default mixing * dielectric matrix)
  average eigenvalue GAMMA=   2.5216
 14.0984  8.5614  4.4134  2.6583  2.4144  1.9443  1.5070  1.5070  1.1794  1.1794
  1.0136  0.8405  0.7901  0.7149  0.6795  0.6483  0.6175  0.6222

 Free energy of the ion-electron system (eV)
  ---------------------------------------------------
  alpha Z        PSCENC =        53.42782116
  Ewald energy   TEWEN  =     56420.91031532
  -Hartree energ DENC   =    -62659.95793738
  -exchange      EXHF   =         0.00000000
  -V(xc)+E(xc)   XCENC  =       700.32346942
  PAW double counting   =     20706.25259283   -20756.49213497
  entropy T*S    EENTRO =        -0.00678462
  eigenvalues    EBANDS =     -2482.12348933
  atomic energy  EATOM  =      7560.21751256
  Solvation  Ediel_sol  =         0.00000000
  ---------------------------------------------------
  free energy    TOTEN  =      -457.44863501 eV

  energy without entropy =     -457.44185040  energy(sigma->0) =     -457.44524271


--------------------------------------------------------------------------------------------------------




----------------------------------------- Iteration    1(  24)  ---------------------------------------


    POTLOK:  cpu time    1.2855: real time    1.2856
    SETDIJ:  cpu time    1.3356: real time    1.3357
     EDDAV:  cpu time   39.3589: real time   39.4312
       DOS:  cpu time    0.0005: real time    0.0005
    CHARGE:  cpu time    3.6867: real time    3.6869
    MIXING:  cpu time    0.0783: real time    0.0783
    --------------------------------------------
      LOOP:  cpu time   45.7459: real time   45.8205

 eigenvalue-minimisations  :  2556
 total energy-change (2. order) :-0.4539599E-02  (-0.5864819E-05)
 number of electron     203.0000000 magnetization       0.3044315
 augmentation part        5.8209387 magnetization       0.0238807

 Broyden mixing:
  rms(total) = 0.61467E-03    rms(broyden)= 0.61452E-03
  rms(prec ) = 0.70177E-03
  weight for this iteration     100.00

 eigenvalues of (default mixing * dielectric matrix)
  average eigenvalue GAMMA=   2.5468
 14.4698  9.0188  4.6944  3.0364  2.3879  2.0147  2.0147  1.4448  1.4448  1.0720
  1.0720  0.9114  0.8137  0.7488  0.6938  0.6683  0.6473  0.6147  0.6217

 Free energy of the ion-electron system (eV)
  ---------------------------------------------------
  alpha Z        PSCENC =        53.42782116
  Ewald energy   TEWEN  =     56420.91031532
  -Hartree energ DENC   =    -62659.68650053
  -exchange      EXHF   =         0.00000000
  -V(xc)+E(xc)   XCENC  =       700.31799059
  PAW double counting   =     20706.61406793   -20756.85428987
  entropy T*S    EENTRO =        -0.00678467
  eigenvalues    EBANDS =     -2482.39330708
  atomic energy  EATOM  =      7560.21751256
  Solvation  Ediel_sol  =         0.00000000
  ---------------------------------------------------
  free energy    TOTEN  =      -457.45317461 eV

  energy without entropy =     -457.44638994  energy(sigma->0) =     -457.44978228


--------------------------------------------------------------------------------------------------------




----------------------------------------- Iteration    1(  25)  ---------------------------------------


    POTLOK:  cpu time    1.4674: real time    1.4675
    SETDIJ:  cpu time    1.3733: real time    1.3735
     EDDAV:  cpu time   35.4463: real time   35.4510
       DOS:  cpu time    0.0005: real time    0.0005
    CHARGE:  cpu time    3.6361: real time    3.6366
    MIXING:  cpu time    0.0536: real time    0.0536
    --------------------------------------------
      LOOP:  cpu time   41.9779: real time   41.9849

 eigenvalue-minimisations  :  2424
 total energy-change (2. order) :-0.2070608E-02  (-0.4169889E-05)
 number of electron     203.0000000 magnetization       0.3011233
 augmentation part        5.8209397 magnetization       0.0205025

 Broyden mixing:
  rms(total) = 0.37184E-03    rms(broyden)= 0.37161E-03
  rms(prec ) = 0.42691E-03
  weight for this iteration     100.00

 eigenvalues of (default mixing * dielectric matrix)
  average eigenvalue GAMMA=   2.5578
 14.7206  9.3353  5.0719  3.4720  2.4037  2.4037  1.9431  1.4743  1.4743  1.1166
  1.1166  1.0081  0.8794  0.7951  0.7294  0.6867  0.6575  0.6394  0.6184  0.6099

 Free energy of the ion-electron system (eV)
  ---------------------------------------------------
  alpha Z        PSCENC =        53.42782116
  Ewald energy   TEWEN  =     56420.91031532
  -Hartree energ DENC   =    -62659.57129972
  -exchange      EXHF   =         0.00000000
  -V(xc)+E(xc)   XCENC  =       700.31604086
  PAW double counting   =     20706.66549479   -20756.90588365
  entropy T*S    EENTRO =        -0.00678194
  eigenvalues    EBANDS =     -2482.50846460
  atomic energy  EATOM  =      7560.21751256
  Solvation  Ediel_sol  =         0.00000000
  ---------------------------------------------------
  free energy    TOTEN  =      -457.45524522 eV

  energy without entropy =     -457.44846328  energy(sigma->0) =     -457.45185425


--------------------------------------------------------------------------------------------------------




----------------------------------------- Iteration    1(  26)  ---------------------------------------


    POTLOK:  cpu time    1.4649: real time    1.4650
    SETDIJ:  cpu time    1.5356: real time    1.5357
     EDDAV:  cpu time   36.1168: real time   36.1204
       DOS:  cpu time    0.0005: real time    0.0005
    CHARGE:  cpu time    3.6297: real time    3.6299
    MIXING:  cpu time    0.0748: real time    0.0748
    --------------------------------------------
      LOOP:  cpu time   42.8229: real time   42.8297

 eigenvalue-minimisations  :  2416
 total energy-change (2. order) :-0.8979215E-03  (-0.1455649E-05)
 number of electron     203.0000000 magnetization       0.2996505
 augmentation part        5.8209429 magnetization       0.0189341

 Broyden mixing:
  rms(total) = 0.23931E-03    rms(broyden)= 0.23896E-03
  rms(prec ) = 0.28029E-03
  weight for this iteration     100.00

 eigenvalues of (default mixing * dielectric matrix)
  average eigenvalue GAMMA=   2.5497
 14.8506  9.5210  5.4381  3.7667  2.4678  2.4678  1.7905  1.7905  1.4129  1.4129
  1.0651  1.0651  0.9677  0.8340  0.7790  0.7197  0.6844  0.6529  0.6347  0.6184
  0.6038

 Free energy of the ion-electron system (eV)
  ---------------------------------------------------
  alpha Z        PSCENC =        53.42782116
  Ewald energy   TEWEN  =     56420.91031532
  -Hartree energ DENC   =    -62659.54156036
  -exchange      EXHF   =         0.00000000
  -V(xc)+E(xc)   XCENC  =       700.31556795
  PAW double counting   =     20706.87144108   -20757.11167067
  entropy T*S    EENTRO =        -0.00677817
  eigenvalues    EBANDS =     -2482.53879200
  atomic energy  EATOM  =      7560.21751256
  Solvation  Ediel_sol  =         0.00000000
  ---------------------------------------------------
  free energy    TOTEN  =      -457.45614314 eV

  energy without entropy =     -457.44936498  energy(sigma->0) =     -457.45275406


--------------------------------------------------------------------------------------------------------




----------------------------------------- Iteration    1(  27)  ---------------------------------------


    POTLOK:  cpu time    1.4669: real time    1.4671
    SETDIJ:  cpu time    1.3654: real time    1.3665
     EDDAV:  cpu time   34.2123: real time   34.2157
       DOS:  cpu time    0.0005: real time    0.0005
    CHARGE:  cpu time    3.6955: real time    3.6956
    MIXING:  cpu time    0.0491: real time    0.0491
    --------------------------------------------
      LOOP:  cpu time   40.7902: real time   40.7973

 eigenvalue-minimisations  :  2280
 total energy-change (2. order) :-0.3925161E-03  (-0.3944439E-06)
 number of electron     203.0000000 magnetization       0.2987925
 augmentation part        5.8209374 magnetization       0.0179773

 Broyden mixing:
  rms(total) = 0.14988E-03    rms(broyden)= 0.14932E-03
  rms(prec ) = 0.18207E-03
  weight for this iteration     100.00

 eigenvalues of (default mixing * dielectric matrix)
  average eigenvalue GAMMA=   2.5413
 14.9284  9.6274  5.7883  3.9731  2.5254  2.5254  2.0308  2.0308  1.4369  1.4369
  1.0920  1.0920  1.0547  0.8985  0.8154  0.7584  0.7131  0.6819  0.6512  0.6292
  0.6185  0.6006

 Free energy of the ion-electron system (eV)
  ---------------------------------------------------
  alpha Z        PSCENC =        53.42782116
  Ewald energy   TEWEN  =     56420.91031532
  -Hartree energ DENC   =    -62659.56429136
  -exchange      EXHF   =         0.00000000
  -V(xc)+E(xc)   XCENC  =       700.31599307
  PAW double counting   =     20707.02636428   -20757.26649902
  entropy T*S    EENTRO =        -0.00677425
  eigenvalues    EBANDS =     -2482.51697740
  atomic energy  EATOM  =      7560.21751256
  Solvation  Ediel_sol  =         0.00000000
  ---------------------------------------------------
  free energy    TOTEN  =      -457.45653566 eV

  energy without entropy =     -457.44976141  energy(sigma->0) =     -457.45314853


--------------------------------------------------------------------------------------------------------




----------------------------------------- Iteration    1(  28)  ---------------------------------------


    POTLOK:  cpu time    1.3690: real time    1.3691
    SETDIJ:  cpu time    1.3609: real time    1.3622
     EDDAV:  cpu time   33.4394: real time   33.4427
       DOS:  cpu time    0.0018: real time    0.0018
    CHARGE:  cpu time    3.8674: real time    3.8676
    MIXING:  cpu time    0.0668: real time    0.0668
    --------------------------------------------
      LOOP:  cpu time   40.1058: real time   40.1130

 eigenvalue-minimisations  :  2224
 total energy-change (2. order) :-0.2256614E-03  (-0.1724179E-06)
 number of electron     203.0000000 magnetization       0.2982565
 augmentation part        5.8209287 magnetization       0.0173799

 Broyden mixing:
  rms(total) = 0.99360E-04    rms(broyden)= 0.98525E-04
  rms(prec ) = 0.12130E-03
  weight for this iteration     100.00

 eigenvalues of (default mixing * dielectric matrix)
  average eigenvalue GAMMA=   2.5289
 14.9781  9.6980  6.1629  4.1738  2.7471  2.6086  2.0584  2.0584  1.4304  1.4304
  1.3751  1.0913  1.0913  0.9904  0.8664  0.7957  0.7396  0.6988  0.6775  0.6480
  0.6276  0.6189  0.5986

 Free energy of the ion-electron system (eV)
  ---------------------------------------------------
  alpha Z        PSCENC =        53.42782116
  Ewald energy   TEWEN  =     56420.91031532
  -Hartree energ DENC   =    -62659.59656965
  -exchange      EXHF   =         0.00000000
  -V(xc)+E(xc)   XCENC  =       700.31650058
  PAW double counting   =     20706.87585536   -20757.11594532
  entropy T*S    EENTRO =        -0.00677180
  eigenvalues    EBANDS =     -2482.48547952
  atomic energy  EATOM  =      7560.21751256
  Solvation  Ediel_sol  =         0.00000000
  ---------------------------------------------------
  free energy    TOTEN  =      -457.45676132 eV

  energy without entropy =     -457.44998952  energy(sigma->0) =     -457.45337542


--------------------------------------------------------------------------------------------------------




----------------------------------------- Iteration    1(  29)  ---------------------------------------


    POTLOK:  cpu time    1.3188: real time    1.3189
    SETDIJ:  cpu time    1.3785: real time    1.3787
     EDDAV:  cpu time   32.0877: real time   32.0911
       DOS:  cpu time    0.0006: real time    0.0006
    CHARGE:  cpu time    3.7912: real time    3.7914
    MIXING:  cpu time    0.0455: real time    0.0455
    --------------------------------------------
      LOOP:  cpu time   38.6227: real time   38.6281

 eigenvalue-minimisations  :  2084
 total energy-change (2. order) :-0.1134835E-03  (-0.6714389E-07)
 number of electron     203.0000000 magnetization       0.2979348
 augmentation part        5.8209255 magnetization       0.0170298

 Broyden mixing:
  rms(total) = 0.65645E-04    rms(broyden)= 0.64379E-04
  rms(prec ) = 0.80852E-04
  weight for this iteration     100.00

 eigenvalues of (default mixing * dielectric matrix)
  average eigenvalue GAMMA=   2.5193
 15.0004  9.7629  6.4548  4.3806  3.0729  2.5120  2.0759  2.0759  1.8621  1.4025
  1.4025  1.0985  1.0985  1.1293  0.9302  0.8420  0.7865  0.7263  0.6898  0.6712
  0.6452  0.6272  0.6190  0.5978

 Free energy of the ion-electron system (eV)
  ---------------------------------------------------
  alpha Z        PSCENC =        53.42782116
  Ewald energy   TEWEN  =     56420.91031532
  -Hartree energ DENC   =    -62659.61400982
  -exchange      EXHF   =         0.00000000
  -V(xc)+E(xc)   XCENC  =       700.31662750
  PAW double counting   =     20706.75890182   -20756.99892435
  entropy T*S    EENTRO =        -0.00677067
  eigenvalues    EBANDS =     -2482.46834830
  atomic energy  EATOM  =      7560.21751256
  Solvation  Ediel_sol  =         0.00000000
  ---------------------------------------------------
  free energy    TOTEN  =      -457.45687480 eV

  energy without entropy =     -457.45010413  energy(sigma->0) =     -457.45348947


--------------------------------------------------------------------------------------------------------




----------------------------------------- Iteration    1(  30)  ---------------------------------------


    POTLOK:  cpu time    1.3184: real time    1.3184
    SETDIJ:  cpu time    1.3621: real time    1.3627
     EDDAV:  cpu time   30.9320: real time   30.9358
       DOS:  cpu time    0.0006: real time    0.0006
    CHARGE:  cpu time    3.8496: real time    3.8498
    MIXING:  cpu time    0.0614: real time    0.0614
    --------------------------------------------
      LOOP:  cpu time   37.5244: real time   37.5313

 eigenvalue-minimisations  :  2000
 total energy-change (2. order) :-0.7123009E-04  (-0.4028618E-07)
 number of electron     203.0000000 magnetization       0.2977891
 augmentation part        5.8209237 magnetization       0.0168625

 Broyden mixing:
  rms(total) = 0.41924E-04    rms(broyden)= 0.39914E-04
  rms(prec ) = 0.50104E-04
  weight for this iteration     100.00

 eigenvalues of (default mixing * dielectric matrix)
  average eigenvalue GAMMA=   2.5245
 15.0160  9.8442  6.7620  4.7033  3.4080  2.4836  2.4836  1.9812  1.9812  1.4208
  1.4208  1.3652  1.1053  1.1053  1.0039  0.8936  0.8220  0.7623  0.7188  0.6867
  0.6605  0.6435  0.6261  0.6183  0.5973

 Free energy of the ion-electron system (eV)
  ---------------------------------------------------
  alpha Z        PSCENC =        53.42782116
  Ewald energy   TEWEN  =     56420.91031532
  -Hartree energ DENC   =    -62659.62851170
  -exchange      EXHF   =         0.00000000
  -V(xc)+E(xc)   XCENC  =       700.31659781
  PAW double counting   =     20706.78625029   -20757.02623625
  entropy T*S    EENTRO =        -0.00676981
  eigenvalues    EBANDS =     -2482.45392539
  atomic energy  EATOM  =      7560.21751256
  Solvation  Ediel_sol  =         0.00000000
  ---------------------------------------------------
  free energy    TOTEN  =      -457.45694603 eV

  energy without entropy =     -457.45017622  energy(sigma->0) =     -457.45356113


--------------------------------------------------------------------------------------------------------




----------------------------------------- Iteration    1(  31)  ---------------------------------------


    POTLOK:  cpu time    1.3222: real time    1.3225
    SETDIJ:  cpu time    1.3742: real time    1.3744
     EDDAV:  cpu time   31.2306: real time   31.2341
       DOS:  cpu time    0.0006: real time    0.0006
    CHARGE:  cpu time    4.0745: real time    4.0758
    MIXING:  cpu time    0.0699: real time    0.0699
    --------------------------------------------
      LOOP:  cpu time   38.0725: real time   38.0797

 eigenvalue-minimisations  :  2028
 total energy-change (2. order) :-0.4186465E-04  (-0.2305099E-07)
 number of electron     203.0000000 magnetization       0.2977166
 augmentation part        5.8209216 magnetization       0.0167750

 Broyden mixing:
  rms(total) = 0.27149E-04    rms(broyden)= 0.23930E-04
  rms(prec ) = 0.29302E-04
  weight for this iteration     100.00
  WARNING: grid for Broyden might be to small

 eigenvalues of (default mixing * dielectric matrix)
  average eigenvalue GAMMA=   2.5285
 15.0286  9.9137  7.1096  5.0956  3.7298  2.7570  2.4466  2.0026  2.0026  1.6501
  1.3830  1.3830  1.1128  1.1128  1.1512  0.9372  0.8655  0.7947  0.7404  0.7090
  0.6838  0.6505  0.6430  0.6249  0.6175  0.5967

 Free energy of the ion-electron system (eV)
  ---------------------------------------------------
  alpha Z        PSCENC =        53.42782116
  Ewald energy   TEWEN  =     56420.91031532
  -Hartree energ DENC   =    -62659.64278872
  -exchange      EXHF   =         0.00000000
  -V(xc)+E(xc)   XCENC  =       700.31660699
  PAW double counting   =     20706.79409807   -20757.03411279
  entropy T*S    EENTRO =        -0.00676923
  eigenvalues    EBANDS =     -2482.43967125
  atomic energy  EATOM  =      7560.21751256
  Solvation  Ediel_sol  =         0.00000000
  ---------------------------------------------------
  free energy    TOTEN  =      -457.45698790 eV

  energy without entropy =     -457.45021867  energy(sigma->0) =     -457.45360328


--------------------------------------------------------------------------------------------------------




----------------------------------------- Iteration    1(  32)  ---------------------------------------


    POTLOK:  cpu time    1.5901: real time    1.5904
    SETDIJ:  cpu time    1.3668: real time    1.3670
     EDDAV:  cpu time   31.0463: real time   31.0498
       DOS:  cpu time    0.0005: real time    0.0005
    CHARGE:  cpu time    3.9886: real time    3.9890
    MIXING:  cpu time    0.0925: real time    0.0925
    --------------------------------------------
      LOOP:  cpu time   38.0854: real time   38.0917

 eigenvalue-minimisations  :  2008
 total energy-change (2. order) :-0.1696200E-04  (-0.7979036E-08)
 number of electron     203.0000000 magnetization       0.2976732
 augmentation part        5.8209203 magnetization       0.0167248

 Broyden mixing:
  rms(total) = 0.18476E-04    rms(broyden)= 0.13305E-04
  rms(prec ) = 0.16418E-04
  weight for this iteration     100.00
  WARNING: grid for Broyden might be to small

 eigenvalues of (default mixing * dielectric matrix)
  average eigenvalue GAMMA=   2.5349
 15.0359  9.9808  7.5124  5.4747  3.9616  2.9248  2.3432  2.3432  2.0100  1.6888
  1.3954  1.3954  1.4097  1.1104  1.1104  0.9496  0.9496  0.8382  0.7793  0.7276
  0.6994  0.6796  0.6516  0.6330  0.6201  0.6217  0.5964

 Free energy of the ion-electron system (eV)
  ---------------------------------------------------
  alpha Z        PSCENC =        53.42782116
  Ewald energy   TEWEN  =     56420.91031532
  -Hartree energ DENC   =    -62659.65094357
  -exchange      EXHF   =         0.00000000
  -V(xc)+E(xc)   XCENC  =       700.31659836
  PAW double counting   =     20706.76285512   -20757.00289766
  entropy T*S    EENTRO =        -0.00676897
  eigenvalues    EBANDS =     -2482.43149716
  atomic energy  EATOM  =      7560.21751256
  Solvation  Ediel_sol  =         0.00000000
  ---------------------------------------------------
  free energy    TOTEN  =      -457.45700486 eV

  energy without entropy =     -457.45023589  energy(sigma->0) =     -457.45362037


--------------------------------------------------------------------------------------------------------




----------------------------------------- Iteration    1(  33)  ---------------------------------------


    POTLOK:  cpu time    1.2953: real time    1.2955
    SETDIJ:  cpu time    1.3765: real time    1.3767
     EDDAV:  cpu time   30.9098: real time   30.9131
       DOS:  cpu time    0.0006: real time    0.0006
    CHARGE:  cpu time    3.9515: real time    3.9518
    MIXING:  cpu time    0.0709: real time    0.0709
    --------------------------------------------
      LOOP:  cpu time   37.6052: real time   37.6113

 eigenvalue-minimisations  :  1968
 total energy-change (2. order) :-0.7026880E-05  (-0.2551875E-08)
 number of electron     203.0000000 magnetization       0.2976585
 augmentation part        5.8209199 magnetization       0.0167098

 Broyden mixing:
  rms(total) = 0.14913E-04    rms(broyden)= 0.76200E-05
  rms(prec ) = 0.93066E-05
  weight for this iteration     100.00
  WARNING: grid for Broyden might be to small

 eigenvalues of (default mixing * dielectric matrix)
  average eigenvalue GAMMA=   2.5331
 15.0390 10.0517  7.8693  5.7685  4.1313  3.1210  2.4731  2.4731  1.7683  1.7661
  1.7661  1.3890  1.3890  1.1235  1.1235  1.0706  0.9755  0.8633  0.8107  0.7574
  0.7192  0.6907  0.6734  0.6493  0.5960  0.6285  0.6195  0.6195

 Free energy of the ion-electron system (eV)
  ---------------------------------------------------
  alpha Z        PSCENC =        53.42782116
  Ewald energy   TEWEN  =     56420.91031532
  -Hartree energ DENC   =    -62659.65558369
  -exchange      EXHF   =         0.00000000
  -V(xc)+E(xc)   XCENC  =       700.31657644
  PAW double counting   =     20706.75951673   -20756.99955592
  entropy T*S    EENTRO =        -0.00676898
  eigenvalues    EBANDS =     -2482.42684551
  atomic energy  EATOM  =      7560.21751256
  Solvation  Ediel_sol  =         0.00000000
  ---------------------------------------------------
  free energy    TOTEN  =      -457.45701189 eV

  energy without entropy =     -457.45024291  energy(sigma->0) =     -457.45362740


--------------------------------------------------------------------------------------------------------




----------------------------------------- Iteration    1(  34)  ---------------------------------------


    POTLOK:  cpu time    1.3660: real time    1.3661
    SETDIJ:  cpu time    1.3612: real time    1.3612
     EDDAV:  cpu time   30.5592: real time   30.5626
       DOS:  cpu time    0.0005: real time    0.0005
    CHARGE:  cpu time    3.9617: real time    3.9621
    MIXING:  cpu time    0.0971: real time    0.0971
    --------------------------------------------
      LOOP:  cpu time   37.3462: real time   37.3533

 eigenvalue-minimisations  :  1964
 total energy-change (2. order) :-0.2412975E-05  ( 0.9996672E-10)
 number of electron     203.0000000 magnetization       0.2976559
 augmentation part        5.8209197 magnetization       0.0167070

 Broyden mixing:
  rms(total) = 0.13548E-04    rms(broyden)= 0.43837E-05
  rms(prec ) = 0.55800E-05
  weight for this iteration     100.00
  WARNING: grid for Broyden might be to small

 eigenvalues of (default mixing * dielectric matrix)
  average eigenvalue GAMMA=   2.5119
 15.0397 10.0917  8.0737  5.8937  4.2350  3.2418  2.5496  2.4411  1.9731  1.9731
  1.6404  1.3723  1.3723  1.2972  1.1016  1.1016  0.9538  0.9538  0.8490  0.7900
  0.7359  0.7146  0.6854  0.6639  0.6451  0.5960  0.6274  0.6164  0.6164

 Free energy of the ion-electron system (eV)
  ---------------------------------------------------
  alpha Z        PSCENC =        53.42782116
  Ewald energy   TEWEN  =     56420.91031532
  -Hartree energ DENC   =    -62659.65843759
  -exchange      EXHF   =         0.00000000
  -V(xc)+E(xc)   XCENC  =       700.31657504
  PAW double counting   =     20706.77377918   -20757.01380723
  entropy T*S    EENTRO =        -0.00676898
  eigenvalues    EBANDS =     -2482.42400375
  atomic energy  EATOM  =      7560.21751256
  Solvation  Ediel_sol  =         0.00000000
  ---------------------------------------------------
  free energy    TOTEN  =      -457.45701430 eV

  energy without entropy =     -457.45024532  energy(sigma->0) =     -457.45362981


--------------------------------------------------------------------------------------------------------




----------------------------------------- Iteration    1(  35)  ---------------------------------------


    POTLOK:  cpu time    1.2697: real time    1.2698
    SETDIJ:  cpu time    1.3749: real time    1.3762
     EDDAV:  cpu time   30.4869: real time   30.4906
       DOS:  cpu time    0.0005: real time    0.0005
    CHARGE:  cpu time    3.9752: real time    3.9765
    MIXING:  cpu time    0.0896: real time    0.0896
    --------------------------------------------
      LOOP:  cpu time   37.1974: real time   37.2062

 eigenvalue-minimisations  :  1960
 total energy-change (2. order) :-0.1006711E-05  ( 0.1217915E-08)
 number of electron     203.0000000 magnetization       0.2976540
 augmentation part        5.8209195 magnetization       0.0167042

 Broyden mixing:
  rms(total) = 0.13077E-04    rms(broyden)= 0.25858E-05
  rms(prec ) = 0.34891E-05
  weight for this iteration     100.00
  WARNING: grid for Broyden might be to small

 eigenvalues of (default mixing * dielectric matrix)
  average eigenvalue GAMMA=   2.4956
 15.0404 10.1135  8.2386  5.9528  4.3405  3.3404  2.5540  2.5540  2.2355  1.9825
  1.5627  1.5627  1.3863  1.3863  1.1164  1.1164  1.0239  1.0239  0.8715  0.8306
  0.7765  0.7150  0.7150  0.6833  0.6559  0.6409  0.6283  0.6174  0.5962  0.6080

 Free energy of the ion-electron system (eV)
  ---------------------------------------------------
  alpha Z        PSCENC =        53.42782116
  Ewald energy   TEWEN  =     56420.91031532
  -Hartree energ DENC   =    -62659.66082967
  -exchange      EXHF   =         0.00000000
  -V(xc)+E(xc)   XCENC  =       700.31659221
  PAW double counting   =     20706.77585646   -20757.01587954
  entropy T*S    EENTRO =        -0.00676894
  eigenvalues    EBANDS =     -2482.42163485
  atomic energy  EATOM  =      7560.21751256
  Solvation  Ediel_sol  =         0.00000000
  ---------------------------------------------------
  free energy    TOTEN  =      -457.45701531 eV

  energy without entropy =     -457.45024637  energy(sigma->0) =     -457.45363084


--------------------------------------------------------------------------------------------------------




----------------------------------------- Iteration    1(  36)  ---------------------------------------


    POTLOK:  cpu time    1.2765: real time    1.2767
    SETDIJ:  cpu time    1.3619: real time    1.3620
     EDDAV:  cpu time   29.7505: real time   29.7540
       DOS:  cpu time    0.0005: real time    0.0005
    --------------------------------------------
      LOOP:  cpu time   32.3899: real time   32.3957

 eigenvalue-minimisations  :  1884
 total energy-change (2. order) :-0.5158454E-06  ( 0.1559517E-08)
 number of electron     203.0000000 magnetization       0.2976540
 augmentation part        5.8209195 magnetization       0.0167042

 Free energy of the ion-electron system (eV)
  ---------------------------------------------------
  alpha Z        PSCENC =        53.42782116
  Ewald energy   TEWEN  =     56420.91031532
  -Hartree energ DENC   =    -62659.66272419
  -exchange      EXHF   =         0.00000000
  -V(xc)+E(xc)   XCENC  =       700.31660751
  PAW double counting   =     20706.76992536   -20757.00994677
  entropy T*S    EENTRO =        -0.00676890
  eigenvalues    EBANDS =     -2482.41975786
  atomic energy  EATOM  =      7560.21751256
  Solvation  Ediel_sol  =         0.00000000
  ---------------------------------------------------
  free energy    TOTEN  =      -457.45701582 eV

  energy without entropy =     -457.45024692  energy(sigma->0) =     -457.45363137


--------------------------------------------------------------------------------------------------------




 average (electrostatic) potential at core
  the test charge radii are     0.6991  0.7079
  (the norm of the test charge is              1.0000)
       1 -58.1772       2 -58.1446       3 -58.2900       4 -58.2260       5 -58.6095
       6 -58.3273       7 -57.8421       8 -58.0300       9 -58.0300      10 -58.0865
      11 -58.1213      12 -57.8482      13 -58.3269      14 -58.1724      15 -58.2736
      16 -58.2736      17 -58.1697      18 -58.1772      19 -58.0865      20 -58.1213
      21 -58.0920      22 -58.0369      23 -58.0369      24 -58.0920      25 -58.1790
      26 -58.6087      27 -58.2260      28 -58.2900      29 -58.1446      30 -58.1790
      31 -58.1724      32 -58.3269      33 -57.8482      34 -58.1790      35 -58.1790
      36 -58.4294      37 -58.4103      38 -58.1697      39 -58.2252      40 -58.2736
      41 -58.2736      42 -58.2252      43 -58.6087      44 -58.4103      45 -58.4309
      46 -58.1789      47 -58.1789      48 -57.8421      49 -58.3273      50 -58.6095
      51 -71.6748
 
 
 
 E-fermi :  -2.5742     XC(G=0):  -1.4897     alpha+bet : -1.3130


 spin component 1

 k-point     1 :       0.0000    0.0000    0.0000
  band No.  band energies     occupation 
      1     -52.5920      1.00000
      2     -22.3592      1.00000
      3     -21.7409      1.00000
      4     -21.5490      1.00000
      5     -21.3305      1.00000
      6     -21.3074      1.00000
      7     -21.2378      1.00000
      8     -21.0150      1.00000
      9     -19.9523      1.00000
     10     -19.5783      1.00000
     11     -19.5308      1.00000
     12     -19.4265      1.00000
     13     -19.3529      1.00000
     14     -19.2790      1.00000
     15     -18.7889      1.00000
     16     -18.6494      1.00000
     17     -18.6199      1.00000
     18     -18.5354      1.00000
     19     -18.4841      1.00000
     20     -18.1260      1.00000
     21     -16.6032      1.00000
     22     -16.5519      1.00000
     23     -16.4730      1.00000
     24     -16.3175      1.00000
     25     -16.2486      1.00000
     26     -16.2200      1.00000
     27     -16.0887      1.00000
     28     -15.5514      1.00000
     29     -15.4027      1.00000
     30     -15.3345      1.00000
     31     -15.1617      1.00000
     32     -14.9918      1.00000
     33     -14.3103      1.00000
     34     -14.2695      1.00000
     35     -14.0674      1.00000
     36     -14.0047      1.00000
     37     -13.9243      1.00000
     38     -13.3676      1.00000
     39     -12.1539      1.00000
     40     -11.9780      1.00000
     41     -11.7977      1.00000
     42     -11.7786      1.00000
     43     -11.7039      1.00000
     44     -11.6306      1.00000
     45     -11.6227      1.00000
     46     -11.6118      1.00000
     47     -11.4524      1.00000
     48     -11.4486      1.00000
     49     -11.1242      1.00000
     50     -11.0689      1.00000
     51     -10.6546      1.00000
     52     -10.4811      1.00000
     53     -10.4100      1.00000
     54     -10.2126      1.00000
     55     -10.1612      1.00000
     56     -10.1189      1.00000
     57      -9.8839      1.00000
     58      -9.6148      1.00000
     59      -9.5586      1.00000
     60      -9.3005      1.00000
     61      -9.2825      1.00000
     62      -9.2122      1.00000
     63      -9.1114      1.00000
     64      -9.0721      1.00000
     65      -9.0321      1.00000
     66      -9.0217      1.00000
     67      -9.0107      1.00000
     68      -8.9348      1.00000
     69      -8.8560      1.00000
     70      -8.8534      1.00000
     71      -8.7257      1.00000
     72      -8.6232      1.00000
     73      -8.6196      1.00000
     74      -8.6141      1.00000
     75      -7.9873      1.00000
     76      -7.4692      1.00000
     77      -7.4596      1.00000
     78      -7.3713      1.00000
     79      -7.3116      1.00000
     80      -7.2947      1.00000
     81      -7.2753      1.00000
     82      -7.2392      1.00000
     83      -7.1823      1.00000
     84      -7.0681      1.00000
     85      -6.9866      1.00000
     86      -6.9680      1.00000
     87      -6.9573      1.00000
     88      -6.3614      1.00000
     89      -6.3526      1.00000
     90      -6.2681      1.00000
     91      -6.1988      1.00000
     92      -6.1763      1.00000
     93      -6.1031      1.00000
     94      -5.9627      1.00000
     95      -5.6819      1.00000
     96      -4.3760      1.00000
     97      -4.2669      1.00000
     98      -4.2617      1.00000
     99      -4.2585      1.00000
    100      -4.1405      1.00000
    101      -3.9077      1.00000
    102      -2.7628      1.00000
    103      -1.7344      0.00000
    104      -1.6440      0.00000
    105      -1.5146      0.00000
    106      -1.3561      0.00000
    107      -1.3141      0.00000
    108      -0.9961      0.00000
    109      -0.5724      0.00000
    110       0.1631      0.00000
    111       0.2691      0.00000
    112       0.3638      0.00000
    113       0.3799      0.00000
    114       0.3811      0.00000
    115       0.3997      0.00000
    116       0.5036      0.00000
    117       0.7708      0.00000
    118       0.9629      0.00000
    119       1.0193      0.00000
    120       1.3533      0.00000
    121       1.4249      0.00000
    122       1.4302      0.00000
    123       1.5071      0.00000
    124       1.5323      0.00000
    125       1.6602      0.00000
    126       1.7220      0.00000
    127       1.7249      0.00000
    128       1.8425      0.00000
    129       1.9293      0.00000
    130       2.0631      0.00000
    131       2.0787      0.00000
    132       2.1298      0.00000

 k-point     2 :       0.3333   -0.0000    0.0000
  band No.  band energies     occupation 
      1     -52.5920      1.00000
      2     -22.2665      1.00000
      3     -22.0070      1.00000
      4     -21.6088      1.00000
      5     -21.4705      1.00000
      6     -21.1092      1.00000
      7     -20.8847      1.00000
      8     -20.5681      1.00000
      9     -20.4396      1.00000
     10     -20.1931      1.00000
     11     -19.7160      1.00000
     12     -19.4470      1.00000
     13     -19.3147      1.00000
     14     -19.1264      1.00000
     15     -18.9872      1.00000
     16     -18.5417      1.00000
     17     -18.4157      1.00000
     18     -17.9594      1.00000
     19     -17.8247      1.00000
     20     -17.4844      1.00000
     21     -17.3669      1.00000
     22     -17.3092      1.00000
     23     -17.0821      1.00000
     24     -16.9481      1.00000
     25     -16.3171      1.00000
     26     -16.1909      1.00000
     27     -15.7721      1.00000
     28     -15.2708      1.00000
     29     -15.2264      1.00000
     30     -14.9891      1.00000
     31     -14.8426      1.00000
     32     -14.7075      1.00000
     33     -14.6131      1.00000
     34     -14.3801      1.00000
     35     -14.0970      1.00000
     36     -13.2967      1.00000
     37     -13.2133      1.00000
     38     -13.1262      1.00000
     39     -12.9970      1.00000
     40     -12.7649      1.00000
     41     -12.5045      1.00000
     42     -12.2822      1.00000
     43     -12.1181      1.00000
     44     -12.0380      1.00000
     45     -11.5176      1.00000
     46     -11.4029      1.00000
     47     -11.2009      1.00000
     48     -10.8917      1.00000
     49     -10.6908      1.00000
     50     -10.6003      1.00000
     51     -10.5638      1.00000
     52     -10.4375      1.00000
     53     -10.3511      1.00000
     54     -10.2465      1.00000
     55     -10.0143      1.00000
     56      -9.9131      1.00000
     57      -9.7565      1.00000
     58      -9.7018      1.00000
     59      -9.6638      1.00000
     60      -9.5916      1.00000
     61      -9.4409      1.00000
     62      -9.3268      1.00000
     63      -9.2564      1.00000
     64      -9.1966      1.00000
     65      -9.1175      1.00000
     66      -9.0428      1.00000
     67      -8.9699      1.00000
     68      -8.9031      1.00000
     69      -8.7681      1.00000
     70      -8.7082      1.00000
     71      -8.4445      1.00000
     72      -8.3854      1.00000
     73      -8.2514      1.00000
     74      -8.2110      1.00000
     75      -8.0833      1.00000
     76      -8.0057      1.00000
     77      -7.9827      1.00000
     78      -7.9140      1.00000
     79      -7.5236      1.00000
     80      -7.4296      1.00000
     81      -7.3076      1.00000
     82      -7.1835      1.00000
     83      -7.0790      1.00000
     84      -7.0068      1.00000
     85      -6.8290      1.00000
     86      -6.7753      1.00000
     87      -6.7631      1.00000
     88      -6.6291      1.00000
     89      -6.3287      1.00000
     90      -6.1261      1.00000
     91      -6.0642      1.00000
     92      -5.9904      1.00000
     93      -5.6693      1.00000
     94      -5.5299      1.00000
     95      -5.2119      1.00000
     96      -5.0003      1.00000
     97      -4.9471      1.00000
     98      -4.7884      1.00000
     99      -4.7062      1.00000
    100      -3.9198      1.00000
    101      -3.6079      1.00000
    102      -2.5937      0.70958
    103      -1.8478      0.00000
    104      -1.5444      0.00000
    105      -1.3620      0.00000
    106      -1.0221      0.00000
    107      -0.9576      0.00000
    108      -0.8062      0.00000
    109      -0.8000      0.00000
    110      -0.4514      0.00000
    111      -0.0760      0.00000
    112       0.1791      0.00000
    113       0.3299      0.00000
    114       0.4412      0.00000
    115       0.5682      0.00000
    116       0.7830      0.00000
    117       0.8505      0.00000
    118       0.9800      0.00000
    119       1.1031      0.00000
    120       1.1767      0.00000
    121       1.3100      0.00000
    122       1.3662      0.00000
    123       1.4764      0.00000
    124       1.5221      0.00000
    125       1.5785      0.00000
    126       1.6100      0.00000
    127       1.6588      0.00000
    128       1.7042      0.00000
    129       1.7904      0.00000
    130       1.8209      0.00000
    131       1.8411      0.00000
    132       2.0045      0.00000

 k-point     3 :       0.0000    0.3333    0.0000
  band No.  band energies     occupation 
      1     -52.5920      1.00000
      2     -22.2665      1.00000
      3     -22.0070      1.00000
      4     -21.6088      1.00000
      5     -21.4705      1.00000
      6     -21.1092      1.00000
      7     -20.8847      1.00000
      8     -20.5681      1.00000
      9     -20.4396      1.00000
     10     -20.1931      1.00000
     11     -19.7160      1.00000
     12     -19.4470      1.00000
     13     -19.3147      1.00000
     14     -19.1264      1.00000
     15     -18.9872      1.00000
     16     -18.5417      1.00000
     17     -18.4157      1.00000
     18     -17.9594      1.00000
     19     -17.8247      1.00000
     20     -17.4844      1.00000
     21     -17.3669      1.00000
     22     -17.3092      1.00000
     23     -17.0821      1.00000
     24     -16.9481      1.00000
     25     -16.3171      1.00000
     26     -16.1909      1.00000
     27     -15.7721      1.00000
     28     -15.2708      1.00000
     29     -15.2264      1.00000
     30     -14.9891      1.00000
     31     -14.8426      1.00000
     32     -14.7075      1.00000
     33     -14.6131      1.00000
     34     -14.3801      1.00000
     35     -14.0970      1.00000
     36     -13.2967      1.00000
     37     -13.2133      1.00000
     38     -13.1262      1.00000
     39     -12.9970      1.00000
     40     -12.7649      1.00000
     41     -12.5045      1.00000
     42     -12.2822      1.00000
     43     -12.1181      1.00000
     44     -12.0380      1.00000
     45     -11.5176      1.00000
     46     -11.4029      1.00000
     47     -11.2009      1.00000
     48     -10.8917      1.00000
     49     -10.6908      1.00000
     50     -10.6003      1.00000
     51     -10.5638      1.00000
     52     -10.4375      1.00000
     53     -10.3511      1.00000
     54     -10.2465      1.00000
     55     -10.0143      1.00000
     56      -9.9131      1.00000
     57      -9.7565      1.00000
     58      -9.7018      1.00000
     59      -9.6638      1.00000
     60      -9.5916      1.00000
     61      -9.4409      1.00000
     62      -9.3268      1.00000
     63      -9.2564      1.00000
     64      -9.1966      1.00000
     65      -9.1175      1.00000
     66      -9.0428      1.00000
     67      -8.9699      1.00000
     68      -8.9031      1.00000
     69      -8.7681      1.00000
     70      -8.7082      1.00000
     71      -8.4445      1.00000
     72      -8.3854      1.00000
     73      -8.2514      1.00000
     74      -8.2110      1.00000
     75      -8.0833      1.00000
     76      -8.0057      1.00000
     77      -7.9827      1.00000
     78      -7.9140      1.00000
     79      -7.5236      1.00000
     80      -7.4296      1.00000
     81      -7.3076      1.00000
     82      -7.1835      1.00000
     83      -7.0790      1.00000
     84      -7.0068      1.00000
     85      -6.8290      1.00000
     86      -6.7753      1.00000
     87      -6.7631      1.00000
     88      -6.6291      1.00000
     89      -6.3287      1.00000
     90      -6.1261      1.00000
     91      -6.0642      1.00000
     92      -5.9904      1.00000
     93      -5.6693      1.00000
     94      -5.5299      1.00000
     95      -5.2119      1.00000
     96      -5.0003      1.00000
     97      -4.9471      1.00000
     98      -4.7884      1.00000
     99      -4.7062      1.00000
    100      -3.9198      1.00000
    101      -3.6079      1.00000
    102      -2.5937      0.70958
    103      -1.8478      0.00000
    104      -1.5444      0.00000
    105      -1.3620      0.00000
    106      -1.0221      0.00000
    107      -0.9576      0.00000
    108      -0.8062      0.00000
    109      -0.8000      0.00000
    110      -0.4514      0.00000
    111      -0.0760      0.00000
    112       0.1791      0.00000
    113       0.3299      0.00000
    114       0.4412      0.00000
    115       0.5682      0.00000
    116       0.7830      0.00000
    117       0.8505      0.00000
    118       0.9800      0.00000
    119       1.1031      0.00000
    120       1.1767      0.00000
    121       1.3100      0.00000
    122       1.3662      0.00000
    123       1.4764      0.00000
    124       1.5221      0.00000
    125       1.5785      0.00000
    126       1.6100      0.00000
    127       1.6588      0.00000
    128       1.7042      0.00000
    129       1.7904      0.00000
    130       1.8209      0.00000
    131       1.8411      0.00000
    132       2.0050      0.00000

 k-point     4 :       0.3333    0.3333    0.0000
  band No.  band energies     occupation 
      1     -52.5920      1.00000
      2     -22.1879      1.00000
      3     -22.0675      1.00000
      4     -21.8308      1.00000
      5     -21.2296      1.00000
      6     -21.0841      1.00000
      7     -20.9106      1.00000
      8     -20.3927      1.00000
      9     -20.2036      1.00000
     10     -20.1387      1.00000
     11     -20.0637      1.00000
     12     -19.9600      1.00000
     13     -19.7393      1.00000
     14     -18.6132      1.00000
     15     -18.3841      1.00000
     16     -18.3577      1.00000
     17     -18.2993      1.00000
     18     -18.1401      1.00000
     19     -17.9985      1.00000
     20     -17.5030      1.00000
     21     -17.4400      1.00000
     22     -17.4139      1.00000
     23     -16.9309      1.00000
     24     -16.8955      1.00000
     25     -16.7836      1.00000
     26     -16.2724      1.00000
     27     -15.7782      1.00000
     28     -15.6493      1.00000
     29     -15.3063      1.00000
     30     -15.2448      1.00000
     31     -14.3223      1.00000
     32     -14.0911      1.00000
     33     -13.8943      1.00000
     34     -13.8640      1.00000
     35     -13.8250      1.00000
     36     -13.7874      1.00000
     37     -13.6956      1.00000
     38     -13.6372      1.00000
     39     -13.2621      1.00000
     40     -13.0292      1.00000
     41     -12.5366      1.00000
     42     -12.0785      1.00000
     43     -12.0728      1.00000
     44     -11.6870      1.00000
     45     -11.5477      1.00000
     46     -11.5043      1.00000
     47     -11.3432      1.00000
     48     -11.2599      1.00000
     49     -11.0012      1.00000
     50     -10.4358      1.00000
     51     -10.2710      1.00000
     52     -10.2610      1.00000
     53     -10.2490      1.00000
     54     -10.1019      1.00000
     55     -10.0787      1.00000
     56     -10.0725      1.00000
     57      -9.9615      1.00000
     58      -9.9310      1.00000
     59      -9.5257      1.00000
     60      -9.4025      1.00000
     61      -9.3723      1.00000
     62      -9.2314      1.00000
     63      -9.1690      1.00000
     64      -9.1678      1.00000
     65      -9.0656      1.00000
     66      -8.9959      1.00000
     67      -8.8617      1.00000
     68      -8.7411      1.00000
     69      -8.6413      1.00000
     70      -8.5889      1.00000
     71      -8.5738      1.00000
     72      -8.4463      1.00000
     73      -8.3211      1.00000
     74      -8.1925      1.00000
     75      -8.0689      1.00000
     76      -8.0269      1.00000
     77      -7.9855      1.00000
     78      -7.8796      1.00000
     79      -7.8301      1.00000
     80      -7.7824      1.00000
     81      -7.6023      1.00000
     82      -7.3675      1.00000
     83      -7.0983      1.00000
     84      -6.9490      1.00000
     85      -6.8814      1.00000
     86      -6.7141      1.00000
     87      -6.4030      1.00000
     88      -6.3278      1.00000
     89      -6.0953      1.00000
     90      -6.0250      1.00000
     91      -5.9594      1.00000
     92      -5.8731      1.00000
     93      -5.7601      1.00000
     94      -5.6974      1.00000
     95      -5.1293      1.00000
     96      -5.0701      1.00000
     97      -4.9529      1.00000
     98      -4.9154      1.00000
     99      -4.8484      1.00000
    100      -4.5123      1.00000
    101      -2.9072      1.00000
    102      -2.7504      1.00000
    103      -2.3646      0.00000
    104      -1.4152      0.00000
    105      -1.1259      0.00000
    106      -1.0380      0.00000
    107      -0.6677      0.00000
    108      -0.6548      0.00000
    109      -0.5409      0.00000
    110      -0.4659      0.00000
    111       0.0520      0.00000
    112       0.1431      0.00000
    113       0.1804      0.00000
    114       0.1961      0.00000
    115       0.2152      0.00000
    116       0.3088      0.00000
    117       0.9964      0.00000
    118       1.0474      0.00000
    119       1.1108      0.00000
    120       1.1854      0.00000
    121       1.2619      0.00000
    122       1.2810      0.00000
    123       1.2998      0.00000
    124       1.4724      0.00000
    125       1.4803      0.00000
    126       1.4860      0.00000
    127       1.7327      0.00000
    128       1.7914      0.00000
    129       1.8134      0.00000
    130       1.8220      0.00000
    131       1.8796      0.00000
    132       2.0220      0.00000

 k-point     5 :      -0.3333    0.3333    0.0000
  band No.  band energies     occupation 
      1     -52.5920      1.00000
      2     -22.2931      1.00000
      3     -21.8290      1.00000
      4     -21.7974      1.00000
      5     -21.5206      1.00000
      6     -20.9951      1.00000
      7     -20.8603      1.00000
      8     -20.6354      1.00000
      9     -20.4031      1.00000
     10     -20.1336      1.00000
     11     -19.7137      1.00000
     12     -19.6649      1.00000
     13     -19.2613      1.00000
     14     -19.0882      1.00000
     15     -18.9584      1.00000
     16     -18.5380      1.00000
     17     -18.3717      1.00000
     18     -17.9739      1.00000
     19     -17.8579      1.00000
     20     -17.5393      1.00000
     21     -17.4074      1.00000
     22     -17.1968      1.00000
     23     -17.1311      1.00000
     24     -16.7498      1.00000
     25     -16.3915      1.00000
     26     -16.2556      1.00000
     27     -15.5563      1.00000
     28     -15.4935      1.00000
     29     -15.3799      1.00000
     30     -15.0467      1.00000
     31     -14.8512      1.00000
     32     -14.7767      1.00000
     33     -14.4256      1.00000
     34     -14.3362      1.00000
     35     -14.0920      1.00000
     36     -13.3431      1.00000
     37     -13.1413      1.00000
     38     -12.9130      1.00000
     39     -12.8714      1.00000
     40     -12.8041      1.00000
     41     -12.4970      1.00000
     42     -12.3225      1.00000
     43     -12.2890      1.00000
     44     -12.0056      1.00000
     45     -11.5955      1.00000
     46     -11.5519      1.00000
     47     -11.1291      1.00000
     48     -10.9483      1.00000
     49     -10.7050      1.00000
     50     -10.5421      1.00000
     51     -10.5391      1.00000
     52     -10.4514      1.00000
     53     -10.4081      1.00000
     54     -10.2936      1.00000
     55      -9.9587      1.00000
     56      -9.8338      1.00000
     57      -9.8170      1.00000
     58      -9.7433      1.00000
     59      -9.6137      1.00000
     60      -9.5537      1.00000
     61      -9.5263      1.00000
     62      -9.4318      1.00000
     63      -9.3191      1.00000
     64      -9.2672      1.00000
     65      -9.1965      1.00000
     66      -8.9235      1.00000
     67      -8.8645      1.00000
     68      -8.8126      1.00000
     69      -8.7667      1.00000
     70      -8.4839      1.00000
     71      -8.3564      1.00000
     72      -8.3071      1.00000
     73      -8.2313      1.00000
     74      -8.1854      1.00000
     75      -8.0816      1.00000
     76      -7.9809      1.00000
     77      -7.8845      1.00000
     78      -7.7651      1.00000
     79      -7.7552      1.00000
     80      -7.4886      1.00000
     81      -7.4337      1.00000
     82      -7.2574      1.00000
     83      -7.2507      1.00000
     84      -7.1055      1.00000
     85      -6.9888      1.00000
     86      -6.7229      1.00000
     87      -6.6505      1.00000
     88      -6.4807      1.00000
     89      -6.4474      1.00000
     90      -6.1060      1.00000
     91      -6.0141      1.00000
     92      -5.9364      1.00000
     93      -5.5990      1.00000
     94      -5.5511      1.00000
     95      -5.3955      1.00000
     96      -4.9870      1.00000
     97      -4.8705      1.00000
     98      -4.8297      1.00000
     99      -4.4683      1.00000
    100      -3.9545      1.00000
    101      -3.7904      1.00000
    102      -2.4590      0.00056
    103      -1.8278      0.00000
    104      -1.6783      0.00000
    105      -1.4251      0.00000
    106      -0.9485      0.00000
    107      -0.8328      0.00000
    108      -0.8090      0.00000
    109      -0.7194      0.00000
    110      -0.6508      0.00000
    111      -0.0661      0.00000
    112       0.2022      0.00000
    113       0.3218      0.00000
    114       0.5073      0.00000
    115       0.5632      0.00000
    116       0.7912      0.00000
    117       0.8320      0.00000
    118       0.9012      0.00000
    119       1.0950      0.00000
    120       1.1904      0.00000
    121       1.2523      0.00000
    122       1.3553      0.00000
    123       1.4773      0.00000
    124       1.5078      0.00000
    125       1.5767      0.00000
    126       1.6299      0.00000
    127       1.6715      0.00000
    128       1.7753      0.00000
    129       1.8232      0.00000
    130       1.8251      0.00000
    131       1.9370      0.00000
    132       2.0017      0.00000

 spin component 2

 k-point     1 :       0.0000    0.0000    0.0000
  band No.  band energies     occupation 
      1     -52.5918      1.00000
      2     -22.3481      1.00000
      3     -21.7284      1.00000
      4     -21.5330      1.00000
      5     -21.3261      1.00000
      6     -21.3028      1.00000
      7     -21.2340      1.00000
      8     -21.0100      1.00000
      9     -19.9398      1.00000
     10     -19.5664      1.00000
     11     -19.5275      1.00000
     12     -19.4208      1.00000
     13     -19.3440      1.00000
     14     -19.2758      1.00000
     15     -18.7847      1.00000
     16     -18.6422      1.00000
     17     -18.6156      1.00000
     18     -18.5260      1.00000
     19     -18.4765      1.00000
     20     -18.1201      1.00000
     21     -16.5905      1.00000
     22     -16.5464      1.00000
     23     -16.4697      1.00000
     24     -16.3077      1.00000
     25     -16.2462      1.00000
     26     -16.2161      1.00000
     27     -16.0724      1.00000
     28     -15.5481      1.00000
     29     -15.3959      1.00000
     30     -15.3301      1.00000
     31     -15.1588      1.00000
     32     -14.9866      1.00000
     33     -14.3041      1.00000
     34     -14.2605      1.00000
     35     -14.0622      1.00000
     36     -14.0011      1.00000
     37     -13.9210      1.00000
     38     -13.3605      1.00000
     39     -12.1464      1.00000
     40     -11.9642      1.00000
     41     -11.7929      1.00000
     42     -11.7748      1.00000
     43     -11.6991      1.00000
     44     -11.6272      1.00000
     45     -11.6197      1.00000
     46     -11.6038      1.00000
     47     -11.4482      1.00000
     48     -11.4450      1.00000
     49     -11.1212      1.00000
     50     -11.0595      1.00000
     51     -10.6493      1.00000
     52     -10.4584      1.00000
     53     -10.4042      1.00000
     54     -10.2094      1.00000
     55     -10.1582      1.00000
     56     -10.1133      1.00000
     57      -9.8810      1.00000
     58      -9.5913      1.00000
     59      -9.5248      1.00000
     60      -9.2849      1.00000
     61      -9.2724      1.00000
     62      -9.2035      1.00000
     63      -9.1062      1.00000
     64      -9.0605      1.00000
     65      -9.0296      1.00000
     66      -9.0193      1.00000
     67      -9.0075      1.00000
     68      -8.9319      1.00000
     69      -8.8506      1.00000
     70      -8.8494      1.00000
     71      -8.7225      1.00000
     72      -8.6163      1.00000
     73      -8.6141      1.00000
     74      -8.6097      1.00000
     75      -7.9832      1.00000
     76      -7.4449      1.00000
     77      -7.4337      1.00000
     78      -7.3700      1.00000
     79      -7.3040      1.00000
     80      -7.2838      1.00000
     81      -7.2521      1.00000
     82      -7.2365      1.00000
     83      -7.1754      1.00000
     84      -7.0459      1.00000
     85      -6.9819      1.00000
     86      -6.9600      1.00000
     87      -6.9477      1.00000
     88      -6.3452      1.00000
     89      -6.3430      1.00000
     90      -6.2567      1.00000
     91      -6.1793      1.00000
     92      -6.1578      1.00000
     93      -6.0989      1.00000
     94      -5.9496      1.00000
     95      -5.6764      1.00000
     96      -4.3604      1.00000
     97      -4.2533      1.00000
     98      -4.2381      1.00000
     99      -4.2252      1.00000
    100      -4.1364      1.00000
    101      -3.8959      1.00000
    102      -2.6884      0.99938
    103      -1.7198      0.00000
    104      -1.6194      0.00000
    105      -1.5099      0.00000
    106      -1.3438      0.00000
    107      -1.3089      0.00000
    108      -0.9789      0.00000
    109      -0.5484      0.00000
    110       0.1846      0.00000
    111       0.2843      0.00000
    112       0.3681      0.00000
    113       0.3884      0.00000
    114       0.3907      0.00000
    115       0.4108      0.00000
    116       0.5073      0.00000
    117       0.7836      0.00000
    118       0.9737      0.00000
    119       1.0350      0.00000
    120       1.3756      0.00000
    121       1.4278      0.00000
    122       1.4332      0.00000
    123       1.5206      0.00000
    124       1.5352      0.00000
    125       1.6762      0.00000
    126       1.7395      0.00000
    127       1.7524      0.00000
    128       1.8571      0.00000
    129       1.9428      0.00000
    130       2.0776      0.00000
    131       2.0920      0.00000
    132       2.1821      0.00000

 k-point     2 :       0.3333   -0.0000    0.0000
  band No.  band energies     occupation 
      1     -52.5918      1.00000
      2     -22.2552      1.00000
      3     -21.9939      1.00000
      4     -21.6028      1.00000
      5     -21.4653      1.00000
      6     -21.0972      1.00000
      7     -20.8794      1.00000
      8     -20.5636      1.00000
      9     -20.4268      1.00000
     10     -20.1876      1.00000
     11     -19.7104      1.00000
     12     -19.4407      1.00000
     13     -19.3096      1.00000
     14     -19.1201      1.00000
     15     -18.9791      1.00000
     16     -18.5301      1.00000
     17     -18.4113      1.00000
     18     -17.9542      1.00000
     19     -17.8192      1.00000
     20     -17.4706      1.00000
     21     -17.3622      1.00000
     22     -17.3030      1.00000
     23     -17.0764      1.00000
     24     -16.9423      1.00000
     25     -16.3114      1.00000
     26     -16.1861      1.00000
     27     -15.7601      1.00000
     28     -15.2665      1.00000
     29     -15.2224      1.00000
     30     -14.9828      1.00000
     31     -14.8373      1.00000
     32     -14.7029      1.00000
     33     -14.6070      1.00000
     34     -14.3749      1.00000
     35     -14.0906      1.00000
     36     -13.2908      1.00000
     37     -13.1993      1.00000
     38     -13.1214      1.00000
     39     -12.9923      1.00000
     40     -12.7611      1.00000
     41     -12.5006      1.00000
     42     -12.2761      1.00000
     43     -12.1134      1.00000
     44     -12.0317      1.00000
     45     -11.5126      1.00000
     46     -11.4000      1.00000
     47     -11.1977      1.00000
     48     -10.8872      1.00000
     49     -10.6842      1.00000
     50     -10.5938      1.00000
     51     -10.5596      1.00000
     52     -10.4244      1.00000
     53     -10.3301      1.00000
     54     -10.2418      1.00000
     55      -9.9907      1.00000
     56      -9.9093      1.00000
     57      -9.7517      1.00000
     58      -9.6943      1.00000
     59      -9.6579      1.00000
     60      -9.5783      1.00000
     61      -9.4323      1.00000
     62      -9.3233      1.00000
     63      -9.2509      1.00000
     64      -9.1923      1.00000
     65      -9.1132      1.00000
     66      -9.0372      1.00000
     67      -8.9589      1.00000
     68      -8.8850      1.00000
     69      -8.7565      1.00000
     70      -8.7049      1.00000
     71      -8.4339      1.00000
     72      -8.3796      1.00000
     73      -8.2475      1.00000
     74      -8.1831      1.00000
     75      -8.0753      1.00000
     76      -7.9962      1.00000
     77      -7.9781      1.00000
     78      -7.9091      1.00000
     79      -7.5122      1.00000
     80      -7.4195      1.00000
     81      -7.2971      1.00000
     82      -7.1766      1.00000
     83      -7.0671      1.00000
     84      -6.9956      1.00000
     85      -6.8195      1.00000
     86      -6.7609      1.00000
     87      -6.7581      1.00000
     88      -6.6131      1.00000
     89      -6.3259      1.00000
     90      -6.0977      1.00000
     91      -6.0587      1.00000
     92      -5.9801      1.00000
     93      -5.6546      1.00000
     94      -5.5176      1.00000
     95      -5.1949      1.00000
     96      -4.9724      1.00000
     97      -4.9285      1.00000
     98      -4.7822      1.00000
     99      -4.6867      1.00000
    100      -3.9028      1.00000
    101      -3.5965      1.00000
    102      -2.5124      0.04030
    103      -1.8287      0.00000
    104      -1.5282      0.00000
    105      -1.3571      0.00000
    106      -1.0075      0.00000
    107      -0.9527      0.00000
    108      -0.7942      0.00000
    109      -0.7877      0.00000
    110      -0.4346      0.00000
    111      -0.0638      0.00000
    112       0.1852      0.00000
    113       0.3369      0.00000
    114       0.4550      0.00000
    115       0.5944      0.00000
    116       0.7877      0.00000
    117       0.8667      0.00000
    118       0.9989      0.00000
    119       1.1100      0.00000
    120       1.1909      0.00000
    121       1.3238      0.00000
    122       1.3810      0.00000
    123       1.4968      0.00000
    124       1.5434      0.00000
    125       1.5926      0.00000
    126       1.6192      0.00000
    127       1.6710      0.00000
    128       1.7175      0.00000
    129       1.8027      0.00000
    130       1.8359      0.00000
    131       1.8526      0.00000
    132       2.0233      0.00000

 k-point     3 :       0.0000    0.3333    0.0000
  band No.  band energies     occupation 
      1     -52.5918      1.00000
      2     -22.2552      1.00000
      3     -21.9939      1.00000
      4     -21.6028      1.00000
      5     -21.4653      1.00000
      6     -21.0972      1.00000
      7     -20.8794      1.00000
      8     -20.5636      1.00000
      9     -20.4268      1.00000
     10     -20.1876      1.00000
     11     -19.7104      1.00000
     12     -19.4407      1.00000
     13     -19.3096      1.00000
     14     -19.1201      1.00000
     15     -18.9791      1.00000
     16     -18.5301      1.00000
     17     -18.4113      1.00000
     18     -17.9542      1.00000
     19     -17.8192      1.00000
     20     -17.4706      1.00000
     21     -17.3622      1.00000
     22     -17.3030      1.00000
     23     -17.0764      1.00000
     24     -16.9423      1.00000
     25     -16.3114      1.00000
     26     -16.1861      1.00000
     27     -15.7601      1.00000
     28     -15.2665      1.00000
     29     -15.2224      1.00000
     30     -14.9828      1.00000
     31     -14.8373      1.00000
     32     -14.7029      1.00000
     33     -14.6070      1.00000
     34     -14.3749      1.00000
     35     -14.0906      1.00000
     36     -13.2908      1.00000
     37     -13.1993      1.00000
     38     -13.1214      1.00000
     39     -12.9923      1.00000
     40     -12.7611      1.00000
     41     -12.5006      1.00000
     42     -12.2761      1.00000
     43     -12.1134      1.00000
     44     -12.0317      1.00000
     45     -11.5126      1.00000
     46     -11.4000      1.00000
     47     -11.1977      1.00000
     48     -10.8872      1.00000
     49     -10.6842      1.00000
     50     -10.5938      1.00000
     51     -10.5596      1.00000
     52     -10.4244      1.00000
     53     -10.3301      1.00000
     54     -10.2418      1.00000
     55      -9.9907      1.00000
     56      -9.9093      1.00000
     57      -9.7517      1.00000
     58      -9.6943      1.00000
     59      -9.6579      1.00000
     60      -9.5783      1.00000
     61      -9.4323      1.00000
     62      -9.3233      1.00000
     63      -9.2509      1.00000
     64      -9.1923      1.00000
     65      -9.1132      1.00000
     66      -9.0372      1.00000
     67      -8.9589      1.00000
     68      -8.8850      1.00000
     69      -8.7565      1.00000
     70      -8.7049      1.00000
     71      -8.4339      1.00000
     72      -8.3796      1.00000
     73      -8.2475      1.00000
     74      -8.1831      1.00000
     75      -8.0753      1.00000
     76      -7.9962      1.00000
     77      -7.9781      1.00000
     78      -7.9091      1.00000
     79      -7.5122      1.00000
     80      -7.4195      1.00000
     81      -7.2971      1.00000
     82      -7.1766      1.00000
     83      -7.0671      1.00000
     84      -6.9956      1.00000
     85      -6.8195      1.00000
     86      -6.7609      1.00000
     87      -6.7581      1.00000
     88      -6.6131      1.00000
     89      -6.3259      1.00000
     90      -6.0977      1.00000
     91      -6.0587      1.00000
     92      -5.9801      1.00000
     93      -5.6546      1.00000
     94      -5.5176      1.00000
     95      -5.1949      1.00000
     96      -4.9724      1.00000
     97      -4.9285      1.00000
     98      -4.7822      1.00000
     99      -4.6868      1.00000
    100      -3.9028      1.00000
    101      -3.5965      1.00000
    102      -2.5124      0.04030
    103      -1.8287      0.00000
    104      -1.5282      0.00000
    105      -1.3571      0.00000
    106      -1.0075      0.00000
    107      -0.9527      0.00000
    108      -0.7942      0.00000
    109      -0.7877      0.00000
    110      -0.4346      0.00000
    111      -0.0638      0.00000
    112       0.1852      0.00000
    113       0.3369      0.00000
    114       0.4550      0.00000
    115       0.5944      0.00000
    116       0.7877      0.00000
    117       0.8667      0.00000
    118       0.9989      0.00000
    119       1.1100      0.00000
    120       1.1909      0.00000
    121       1.3238      0.00000
    122       1.3810      0.00000
    123       1.4968      0.00000
    124       1.5434      0.00000
    125       1.5926      0.00000
    126       1.6192      0.00000
    127       1.6710      0.00000
    128       1.7175      0.00000
    129       1.8028      0.00000
    130       1.8359      0.00000
    131       1.8526      0.00000
    132       2.0225      0.00000

 k-point     4 :       0.3333    0.3333    0.0000
  band No.  band energies     occupation 
      1     -52.5918      1.00000
      2     -22.1745      1.00000
      3     -22.0557      1.00000
      4     -21.8273      1.00000
      5     -21.2207      1.00000
      6     -21.0741      1.00000
      7     -20.9047      1.00000
      8     -20.3843      1.00000
      9     -20.1928      1.00000
     10     -20.1351      1.00000
     11     -20.0571      1.00000
     12     -19.9556      1.00000
     13     -19.7334      1.00000
     14     -18.6025      1.00000
     15     -18.3818      1.00000
     16     -18.3442      1.00000
     17     -18.2913      1.00000
     18     -18.1367      1.00000
     19     -17.9934      1.00000
     20     -17.4972      1.00000
     21     -17.4278      1.00000
     22     -17.4116      1.00000
     23     -16.9265      1.00000
     24     -16.8895      1.00000
     25     -16.7760      1.00000
     26     -16.2599      1.00000
     27     -15.7750      1.00000
     28     -15.6455      1.00000
     29     -15.2995      1.00000
     30     -15.2400      1.00000
     31     -14.3153      1.00000
     32     -14.0817      1.00000
     33     -13.8893      1.00000
     34     -13.8586      1.00000
     35     -13.8189      1.00000
     36     -13.7842      1.00000
     37     -13.6902      1.00000
     38     -13.6295      1.00000
     39     -13.2585      1.00000
     40     -13.0205      1.00000
     41     -12.5302      1.00000
     42     -12.0764      1.00000
     43     -12.0677      1.00000
     44     -11.6817      1.00000
     45     -11.5408      1.00000
     46     -11.5003      1.00000
     47     -11.3385      1.00000
     48     -11.2544      1.00000
     49     -10.9959      1.00000
     50     -10.4200      1.00000
     51     -10.2663      1.00000
     52     -10.2583      1.00000
     53     -10.2191      1.00000
     54     -10.0976      1.00000
     55     -10.0699      1.00000
     56     -10.0599      1.00000
     57      -9.9575      1.00000
     58      -9.9247      1.00000
     59      -9.5225      1.00000
     60      -9.3961      1.00000
     61      -9.3660      1.00000
     62      -9.2274      1.00000
     63      -9.1637      1.00000
     64      -9.1623      1.00000
     65      -9.0520      1.00000
     66      -8.9717      1.00000
     67      -8.8500      1.00000
     68      -8.7364      1.00000
     69      -8.6374      1.00000
     70      -8.5826      1.00000
     71      -8.5711      1.00000
     72      -8.4406      1.00000
     73      -8.3165      1.00000
     74      -8.1870      1.00000
     75      -8.0496      1.00000
     76      -8.0223      1.00000
     77      -7.9537      1.00000
     78      -7.8710      1.00000
     79      -7.8173      1.00000
     80      -7.7714      1.00000
     81      -7.5895      1.00000
     82      -7.3600      1.00000
     83      -7.0913      1.00000
     84      -6.9472      1.00000
     85      -6.8754      1.00000
     86      -6.7101      1.00000
     87      -6.3971      1.00000
     88      -6.3251      1.00000
     89      -6.0730      1.00000
     90      -5.9888      1.00000
     91      -5.9530      1.00000
     92      -5.8550      1.00000
     93      -5.7538      1.00000
     94      -5.6827      1.00000
     95      -5.1200      1.00000
     96      -5.0399      1.00000
     97      -4.9297      1.00000
     98      -4.9007      1.00000
     99      -4.8426      1.00000
    100      -4.4968      1.00000
    101      -2.8623      1.00000
    102      -2.7370      1.00000
    103      -2.3093      0.00000
    104      -1.4092      0.00000
    105      -1.1123      0.00000
    106      -1.0357      0.00000
    107      -0.6496      0.00000
    108      -0.6442      0.00000
    109      -0.5177      0.00000
    110      -0.4473      0.00000
    111       0.0648      0.00000
    112       0.1598      0.00000
    113       0.1926      0.00000
    114       0.2034      0.00000
    115       0.2228      0.00000
    116       0.3155      0.00000
    117       1.0064      0.00000
    118       1.0584      0.00000
    119       1.1183      0.00000
    120       1.1957      0.00000
    121       1.2790      0.00000
    122       1.2923      0.00000
    123       1.3108      0.00000
    124       1.4874      0.00000
    125       1.4942      0.00000
    126       1.5001      0.00000
    127       1.7675      0.00000
    128       1.8186      0.00000
    129       1.8345      0.00000
    130       1.8459      0.00000
    131       1.8957      0.00000
    132       2.0371      0.00000

 k-point     5 :      -0.3333    0.3333    0.0000
  band No.  band energies     occupation 
      1     -52.5918      1.00000
      2     -22.2805      1.00000
      3     -21.8238      1.00000
      4     -21.7862      1.00000
      5     -21.5085      1.00000
      6     -20.9897      1.00000
      7     -20.8547      1.00000
      8     -20.6288      1.00000
      9     -20.3959      1.00000
     10     -20.1280      1.00000
     11     -19.7043      1.00000
     12     -19.6582      1.00000
     13     -19.2486      1.00000
     14     -19.0837      1.00000
     15     -18.9520      1.00000
     16     -18.5328      1.00000
     17     -18.3670      1.00000
     18     -17.9670      1.00000
     19     -17.8490      1.00000
     20     -17.5343      1.00000
     21     -17.4020      1.00000
     22     -17.1910      1.00000
     23     -17.1247      1.00000
     24     -16.7418      1.00000
     25     -16.3857      1.00000
     26     -16.2435      1.00000
     27     -15.5464      1.00000
     28     -15.4894      1.00000
     29     -15.3760      1.00000
     30     -15.0376      1.00000
     31     -14.8495      1.00000
     32     -14.7733      1.00000
     33     -14.4196      1.00000
     34     -14.3309      1.00000
     35     -14.0848      1.00000
     36     -13.3359      1.00000
     37     -13.1353      1.00000
     38     -12.9086      1.00000
     39     -12.8667      1.00000
     40     -12.7988      1.00000
     41     -12.4939      1.00000
     42     -12.3168      1.00000
     43     -12.2849      1.00000
     44     -11.9994      1.00000
     45     -11.5883      1.00000
     46     -11.5363      1.00000
     47     -11.1265      1.00000
     48     -10.9440      1.00000
     49     -10.7000      1.00000
     50     -10.5363      1.00000
     51     -10.5344      1.00000
     52     -10.4484      1.00000
     53     -10.3812      1.00000
     54     -10.2897      1.00000
     55      -9.9466      1.00000
     56      -9.8261      1.00000
     57      -9.8102      1.00000
     58      -9.7316      1.00000
     59      -9.6046      1.00000
     60      -9.5486      1.00000
     61      -9.5028      1.00000
     62      -9.4285      1.00000
     63      -9.3171      1.00000
     64      -9.2644      1.00000
     65      -9.1937      1.00000
     66      -8.9182      1.00000
     67      -8.8531      1.00000
     68      -8.8075      1.00000
     69      -8.7497      1.00000
     70      -8.4681      1.00000
     71      -8.3503      1.00000
     72      -8.3029      1.00000
     73      -8.2257      1.00000
     74      -8.1752      1.00000
     75      -8.0727      1.00000
     76      -7.9650      1.00000
     77      -7.8775      1.00000
     78      -7.7614      1.00000
     79      -7.7478      1.00000
     80      -7.4851      1.00000
     81      -7.4168      1.00000
     82      -7.2430      1.00000
     83      -7.2365      1.00000
     84      -7.1000      1.00000
     85      -6.9585      1.00000
     86      -6.7127      1.00000
     87      -6.6359      1.00000
     88      -6.4784      1.00000
     89      -6.4435      1.00000
     90      -6.0927      1.00000
     91      -5.9985      1.00000
     92      -5.9321      1.00000
     93      -5.5777      1.00000
     94      -5.5360      1.00000
     95      -5.3821      1.00000
     96      -4.9715      1.00000
     97      -4.8566      1.00000
     98      -4.8158      1.00000
     99      -4.4495      1.00000
    100      -3.9252      1.00000
    101      -3.7711      1.00000
    102      -2.3920      0.00000
    103      -1.8018      0.00000
    104      -1.6732      0.00000
    105      -1.4192      0.00000
    106      -0.9299      0.00000
    107      -0.8186      0.00000
    108      -0.7981      0.00000
    109      -0.7086      0.00000
    110      -0.6360      0.00000
    111      -0.0506      0.00000
    112       0.2065      0.00000
    113       0.3317      0.00000
    114       0.5260      0.00000
    115       0.5785      0.00000
    116       0.7955      0.00000
    117       0.8468      0.00000
    118       0.9137      0.00000
    119       1.1023      0.00000
    120       1.2030      0.00000
    121       1.2632      0.00000
    122       1.3666      0.00000
    123       1.4971      0.00000
    124       1.5307      0.00000
    125       1.5914      0.00000
    126       1.6362      0.00000
    127       1.6863      0.00000
    128       1.7863      0.00000
    129       1.8355      0.00000
    130       1.8401      0.00000
    131       1.9466      0.00000
    132       2.0440      0.00000


--------------------------------------------------------------------------------------------------------


 soft charge-density along one line, spin component           1
         0         1         2         3         4         5         6         7         8         9
 total charge-density along one line
 
 soft charge-density along one line, spin component           2
         0         1         2         3         4         5         6         7         8         9
 total charge-density along one line
 
 pseudopotential strength for first ion, spin component:           1
 10.218  13.589   0.000   0.000  -0.001  -0.000   0.000   0.001
 13.589  18.070   0.000   0.000  -0.001  -0.000   0.000   0.001
  0.000   0.000  -4.351  -0.000  -0.000   8.511   0.000   0.000
  0.000   0.000  -0.000  -4.331  -0.003   0.000   8.478   0.004
 -0.001  -0.001  -0.000  -0.003  -4.350   0.000   0.004   8.509
 -0.000  -0.000   8.511   0.000   0.000 -18.782  -0.001  -0.000
  0.000   0.000   0.000   8.478   0.004  -0.001 -18.732  -0.007
  0.001   0.001   0.000   0.004   8.509  -0.000  -0.007 -18.780
 pseudopotential strength for first ion, spin component:           2
 10.219  13.589   0.000   0.000  -0.001  -0.000   0.000   0.001
 13.589  18.071   0.000   0.000  -0.001   0.000   0.000   0.001
  0.000   0.000  -4.351  -0.000  -0.000   8.511   0.000   0.000
  0.000   0.000  -0.000  -4.331  -0.003   0.000   8.478   0.004
 -0.001  -0.001  -0.000  -0.003  -4.351   0.000   0.004   8.509
 -0.000   0.000   8.511   0.000   0.000 -18.783  -0.001  -0.000
  0.000   0.000   0.000   8.478   0.004  -0.001 -18.732  -0.007
  0.001   0.001   0.000   0.004   8.509  -0.000  -0.007 -18.781
 total augmentation occupancy for first ion, spin component:           1
  8.005  -3.538  -0.041  -0.021   0.058  -0.007  -0.003   0.010
 -3.538   1.622   0.025   0.013  -0.033   0.004   0.002  -0.005
 -0.041   0.025   1.812   0.005   0.010   0.165   0.001  -0.001
 -0.021   0.013   0.005   1.205   0.085   0.001   0.072   0.014
  0.058  -0.033   0.010   0.085   1.787  -0.001   0.014   0.163
 -0.007   0.004   0.165   0.001  -0.001   0.016   0.000  -0.000
 -0.003   0.002   0.001   0.072   0.014   0.000   0.005   0.002
  0.010  -0.005  -0.001   0.014   0.163  -0.000   0.002   0.016
 total augmentation occupancy for first ion, spin component:           2
  0.000  -0.000  -0.000  -0.000   0.000  -0.000  -0.000   0.000
 -0.000   0.000   0.000   0.000  -0.000   0.000   0.000  -0.000
 -0.000   0.000  -0.000   0.000  -0.000   0.000   0.000   0.000
 -0.000   0.000   0.000  -0.002   0.000   0.000  -0.000   0.000
  0.000  -0.000  -0.000   0.000  -0.000   0.000   0.000   0.000
 -0.000   0.000   0.000   0.000   0.000   0.000   0.000   0.000
 -0.000   0.000   0.000  -0.000   0.000   0.000   0.000  -0.000
  0.000  -0.000   0.000   0.000   0.000   0.000  -0.000   0.000


------------------------ aborting loop because EDIFF is reached ----------------------------------------


    CHARGE:  cpu time    4.1552: real time    4.1556
    FORLOC:  cpu time    0.2070: real time    0.2071
    FORNL :  cpu time   16.2776: real time   16.2788
    STRESS:  cpu time   50.1468: real time   50.1547
    FORCOR:  cpu time    1.3664: real time    1.3666
    FORHAR:  cpu time    0.3235: real time    0.3235
    MIXING:  cpu time    0.0784: real time    0.0785
    OFIELD:  cpu time    0.0000: real time    0.0000

  FORCE on cell =-STRESS in cart. coord.  units (eV):
  Direction    XX          YY          ZZ          XY          YZ          ZX
  --------------------------------------------------------------------------------------
  Alpha Z    53.42782    53.42782    53.42782
  Ewald   62911.30462 62868.69417-69359.11321   -36.90052     4.72502     2.72733
  Hartree 62180.48635 62152.38942-61673.20878   -24.33169     2.59717     1.49888
  E(xc)    -755.70442  -756.19284  -782.09303    -0.42298     0.00963     0.00556
  Local  ************************128481.43347    61.84837    -7.15664    -4.13062
  n-local  -182.91527  -189.84470  -174.11966    -6.00176    -0.01464    -0.00798
  augment     0.43235     0.42915     1.90743    -0.00278    -0.00095    -0.00055
  Kinetic  3014.39817  3063.71362  3448.82913    42.70867    -0.19444    -0.11226
  Fock        0.00000     0.00000     0.00000     0.00000     0.00000     0.00000
  -------------------------------------------------------------------------------------
  Total     -18.63194    23.97395    -2.93683    36.89730    -0.03485    -0.01965
  in kB      -7.59463     9.77211    -1.19709    15.03984    -0.01421    -0.00801
  external pressure =        0.33 kB  Pullay stress =        0.00 kB


 VOLUME and BASIS-vectors are now :
 -----------------------------------------------------------------------------
  energy-cutoff  :      520.00
  volume of cell :     3930.63
      direct lattice vectors                 reciprocal lattice vectors
    12.300000000  0.000000000  0.000000000     0.081300813  0.046939046  0.000000000
    -6.150000000 10.652112467  0.000000000     0.000000000  0.093878093  0.000000000
     0.000000000  0.000000000 30.000000000     0.000000000  0.000000000  0.033333333

  length of vectors
    12.300000000 12.300000000 30.000000000     0.093878093  0.093878093  0.033333333


 FORCES acting on ions
    electron-ion (+dipol)            ewald-force                    non-local-force                 convergence-correction
 -----------------------------------------------------------------------------------------------
   0.137E+02 -.747E+01 -.244E+02   -.138E+02 0.763E+01 0.244E+02   0.613E-01 -.146E+00 -.705E-01   0.527E-05 0.359E-05 -.449E-05
   0.614E+01 -.333E+01 -.631E+02   -.614E+01 0.332E+01 0.630E+02   -.566E-02 -.155E-02 0.789E-01   0.220E-05 -.114E-05 -.243E-05
   0.869E+01 -.508E+01 0.339E+02   -.892E+01 0.521E+01 -.337E+02   0.237E+00 -.141E+00 -.198E+00   0.375E-05 -.217E-05 -.858E-05
   0.367E+01 0.384E+01 0.196E+02   -.378E+01 -.390E+01 -.199E+02   0.123E+00 0.527E-01 0.304E+00   0.495E-05 -.328E-05 -.675E-05
   0.539E+01 0.113E+02 0.783E+02   -.523E+01 -.119E+02 -.787E+02   -.194E+00 0.668E+00 0.381E+00   0.242E-05 -.853E-06 -.125E-04
   -.374E+00 0.136E+02 0.337E+02   0.181E+00 -.137E+02 -.341E+02   0.211E+00 0.127E+00 0.307E+00   0.182E-05 0.218E-05 -.872E-05
   -.174E+02 0.113E+01 -.134E+02   0.178E+02 -.117E+01 0.131E+02   -.440E+00 0.483E-02 0.259E+00   0.747E-05 0.555E-05 -.632E-05
   -.209E+02 0.962E+01 -.674E+02   0.216E+02 -.945E+01 0.675E+02   -.647E+00 -.163E+00 -.153E+00   0.533E-05 0.102E-04 -.215E-05
   0.188E+02 -.133E+02 -.674E+02   -.190E+02 0.140E+02 0.675E+02   0.182E+00 -.642E+00 -.153E+00   0.589E-05 0.967E-05 -.216E-05
   -.329E+01 0.443E+01 -.118E+03   0.354E+01 -.440E+01 0.118E+03   -.232E+00 -.246E-01 -.156E+00   0.395E-05 0.407E-05 -.648E-06
   0.197E+02 -.110E+02 -.113E+03   -.199E+02 0.111E+02 0.113E+03   0.178E+00 -.114E+00 -.100E+00   0.272E-05 -.162E-05 -.481E-06
   0.169E+02 -.211E+01 -.244E+02   -.173E+02 0.214E+01 0.242E+02   0.441E+00 -.641E-03 0.222E+00   -.798E-05 -.545E-05 -.565E-05
   0.280E+00 -.137E+02 0.305E+02   -.820E-01 0.138E+02 -.308E+02   -.214E+00 -.117E+00 0.294E+00   -.172E-05 -.221E-05 -.853E-05
   0.923E+01 -.112E+02 -.234E+02   -.952E+01 0.113E+02 0.232E+02   0.290E+00 -.133E+00 0.226E+00   -.909E-06 -.359E-05 -.504E-05
   -.278E+00 -.611E+01 0.277E+02   0.303E+00 0.609E+01 -.277E+02   -.261E-01 0.394E-01 0.193E-01   0.781E-06 0.367E-06 -.799E-05
   0.253E+00 0.620E+01 0.272E+02   -.282E+00 -.619E+01 -.273E+02   0.339E-01 -.276E-01 0.359E-01   -.496E-06 -.429E-06 -.793E-05
   -.922E+01 0.111E+02 -.184E+02   0.952E+01 -.112E+02 0.181E+02   -.293E+00 0.149E+00 0.211E+00   0.785E-06 0.366E-05 -.538E-05
   -.133E+02 0.814E+01 -.244E+02   0.135E+02 -.814E+01 0.244E+02   -.157E+00 -.202E-01 -.706E-01   0.832E-06 0.622E-05 -.452E-05
   0.548E+01 -.640E+00 -.118E+03   -.558E+01 0.863E+00 0.118E+03   0.949E-01 -.214E+00 -.156E+00   0.133E-05 0.556E-05 -.659E-06
   -.194E+02 0.116E+02 -.113E+03   0.196E+02 -.117E+02 0.113E+03   -.187E+00 0.973E-01 -.100E+00   -.289E-05 0.144E-05 -.481E-06
   0.340E+01 -.404E+01 -.124E+03   -.364E+01 0.402E+01 0.124E+03   0.228E+00 0.189E-01 -.163E+00   -.421E-05 -.413E-05 -.368E-06
   -.195E+02 0.131E+02 -.765E+02   0.196E+02 -.137E+02 0.767E+02   -.177E+00 0.651E+00 -.184E+00   -.593E-05 -.989E-05 -.173E-05
   0.210E+02 -.103E+02 -.765E+02   -.217E+02 0.101E+02 0.767E+02   0.653E+00 0.172E+00 -.184E+00   -.573E-05 -.101E-04 -.168E-05
   -.520E+01 0.922E+00 -.124E+03   0.530E+01 -.114E+01 0.124E+03   -.976E-01 0.207E+00 -.163E+00   -.183E-05 -.540E-05 -.366E-06
   0.135E+02 -.841E+01 -.266E+02   -.136E+02 0.841E+01 0.267E+02   0.161E+00 -.135E-02 -.775E-01   -.518E-06 -.625E-05 -.441E-05
   -.550E+01 -.110E+02 0.757E+02   0.534E+01 0.117E+02 -.761E+02   0.198E+00 -.667E+00 0.397E+00   -.274E-05 0.927E-06 -.123E-04
   0.149E+01 0.510E+01 0.196E+02   -.149E+01 -.522E+01 -.199E+02   -.159E-01 0.133E+00 0.304E+00   -.516E-05 0.217E-05 -.681E-05
   -.874E+01 0.498E+01 0.339E+02   0.897E+01 -.512E+01 -.337E+02   -.241E+00 0.135E+00 -.198E+00   -.369E-05 0.202E-05 -.860E-05
   -.595E+01 0.366E+01 -.631E+02   0.595E+01 -.366E+01 0.630E+02   0.142E-02 -.563E-02 0.790E-01   -.203E-05 0.117E-05 -.243E-05
   -.140E+02 0.745E+01 -.266E+02   0.141E+02 -.760E+01 0.267E+02   -.818E-01 0.139E+00 -.775E-01   -.511E-05 -.382E-05 -.440E-05
   -.143E+02 0.240E+01 -.234E+02   0.146E+02 -.258E+01 0.232E+02   -.260E+00 0.185E+00 0.226E+00   -.264E-05 -.256E-05 -.504E-05
   -.120E+02 -.658E+01 0.305E+02   0.120E+02 0.682E+01 -.308E+02   0.571E-02 -.244E+00 0.294E+00   -.110E-05 -.243E-05 -.857E-05
   -.103E+02 0.136E+02 -.244E+02   0.105E+02 -.139E+02 0.242E+02   -.221E+00 0.382E+00 0.222E+00   -.103E-05 -.939E-05 -.569E-05
   -.590E+02 -.658E+01 0.100E+03   0.599E+02 0.663E+01 -.101E+03   -.922E+00 -.717E-01 0.836E+00   0.520E-05 -.109E-05 -.138E-04
   0.238E+02 -.544E+02 0.100E+03   -.242E+02 0.552E+02 -.101E+03   0.399E+00 -.834E+00 0.836E+00   -.372E-05 0.384E-05 -.137E-04
   0.317E+01 0.549E+01 0.213E+03   -.315E+01 -.546E+01 -.215E+03   0.705E-01 0.122E+00 0.318E+01   0.800E-06 0.154E-05 -.185E-04
   -.600E+00 0.499E+00 0.784E+02   0.643E+00 -.524E+00 -.789E+02   -.436E-01 0.201E-01 0.515E+00   0.975E-06 -.472E-06 -.123E-04
   0.142E+02 -.244E+01 -.184E+02   -.145E+02 0.263E+01 0.181E+02   0.275E+00 -.179E+00 0.210E+00   0.286E-05 0.231E-05 -.537E-05
   -.370E+01 -.377E+01 0.200E+02   0.380E+01 0.384E+01 -.203E+02   -.132E+00 -.530E-01 0.296E+00   -.450E-05 0.335E-05 -.682E-05
   -.515E+01 -.329E+01 0.277E+02   0.512E+01 0.331E+01 -.277E+02   0.472E-01 -.288E-02 0.194E-01   0.998E-07 0.396E-06 -.795E-05
   0.525E+01 0.332E+01 0.272E+02   -.522E+01 -.334E+01 -.273E+02   -.408E-01 0.155E-01 0.359E-01   -.629E-07 -.692E-06 -.796E-05
   -.142E+01 -.509E+01 0.200E+02   0.143E+01 0.521E+01 -.203E+02   0.199E-01 -.140E+00 0.296E+00   0.541E-05 -.233E-05 -.680E-05
   -.680E+01 -.103E+02 0.757E+02   0.743E+01 0.105E+02 -.761E+02   -.677E+00 -.162E+00 0.397E+00   0.215E-05 -.183E-05 -.123E-04
   0.733E+00 -.270E+00 0.784E+02   -.775E+00 0.294E+00 -.789E+02   0.392E-01 -.277E-01 0.515E+00   -.108E-05 0.537E-06 -.124E-04
   -.229E+01 -.397E+01 0.215E+03   0.226E+01 0.391E+01 -.218E+03   -.493E-01 -.853E-01 0.314E+01   -.686E-06 -.130E-05 -.184E-04
   -.236E+02 0.548E+02 0.105E+03   0.240E+02 -.557E+02 -.106E+03   -.392E+00 0.857E+00 0.827E+00   0.342E-05 -.358E-05 -.140E-04
   0.593E+02 0.694E+01 0.105E+03   -.602E+02 -.701E+01 -.106E+03   0.938E+00 0.894E-01 0.827E+00   -.491E-05 0.140E-05 -.138E-04
   0.966E+01 -.145E+02 -.134E+02   -.991E+01 0.148E+02 0.132E+02   0.224E+00 -.378E+00 0.259E+00   0.889E-06 0.954E-05 -.619E-05
   0.120E+02 0.649E+01 0.337E+02   -.120E+02 -.672E+01 -.340E+02   0.425E-02 0.246E+00 0.307E+00   0.122E-05 0.239E-05 -.868E-05
   0.705E+01 0.103E+02 0.783E+02   -.768E+01 -.105E+02 -.787E+02   0.675E+00 0.166E+00 0.381E+00   -.217E-05 0.189E-05 -.124E-04
   -.676E+00 -.117E+01 -.322E+03   0.649E+00 0.112E+01 0.318E+03   0.192E-01 0.333E-01 0.276E+01   -.235E-07 0.245E-07 -.179E-05
 -----------------------------------------------------------------------------------------------
   -.641E-01 -.111E+00 -.173E+02   0.109E-12 0.826E-13 0.568E-13   0.652E-01 0.115E+00 0.173E+02   -.356E-06 -.830E-07 -.357E-03
 
 
 POSITION                                       TOTAL-FORCE (eV/Angst)
 -----------------------------------------------------------------------------------
     12.25066      0.04809     15.13709        -0.018865      0.009123      0.005078
      1.18024      0.73900     15.30442        -0.004790     -0.006402      0.007103
     10.96895      2.18834     14.86018         0.002907     -0.008932     -0.010643
     -0.07067      2.86519     14.94660         0.014239     -0.011616      0.008140
      9.72779      4.35931     14.69925        -0.035917      0.027317      0.002088
     -1.27848      5.00772     14.88248         0.017398      0.008100      0.005272
     -3.58654      6.57310     15.02586         0.001128     -0.029146      0.014765
     -2.37450      7.17385     15.27206         0.020715      0.008879      0.011211
     -4.90001      8.63195     15.27207        -0.002653      0.022367      0.011150
     -3.67917      9.27727     15.51321         0.011431     -0.000851      0.002643
      2.41789      0.02382     15.51934        -0.011644     -0.002029      0.006835
      4.81789      2.66168     15.06884        -0.000768      0.035741      0.013101
      2.50841      4.22359     14.89838        -0.016006      0.006144      0.001821
      2.41295      2.81861     15.12878         0.003109      0.000129      0.002649
     -0.02749      4.27804     14.90066        -0.000418      0.019422     -0.005967
      1.25676      4.95266     14.90369         0.004848     -0.013551     -0.007282
     -1.18311      6.41412     15.10565         0.000654      0.006085      0.003973
      0.06632      7.08273     15.13709         0.017318     -0.012103      0.005011
     -2.42605      8.55379     15.51321        -0.006482      0.009390      0.002638
     -1.18831      9.20727     15.51934         0.004140     -0.011095      0.006799
     -1.24070     10.60610     15.53790        -0.009047     -0.001036      0.001403
      6.13245      0.60086     15.30897         0.003544     -0.012659      0.006553
      3.60413      2.06058     15.30897        -0.012641     -0.003365      0.006559
      3.65551      0.67787     15.53790         0.003679     -0.008301      0.001393
      1.16301      2.14990     15.14723        -0.008786     -0.004266      0.006521
      3.80199      4.87145     14.71344         0.035852     -0.030512      0.002760
      2.51666      8.47280     14.94660        -0.017143      0.006519      0.008165
      2.56068      7.04286     14.86018        -0.009148     -0.001996     -0.010674
      0.04987      8.49302     15.30441        -0.003264     -0.007196      0.007158
      1.28036      9.18355     15.14723         0.000780     -0.009759      0.006484
      1.23451     10.60039     15.12878        -0.001468      0.002758      0.002652
      8.55353      0.73343     14.89837         0.013350     -0.010796      0.001826
      6.04613      1.95255     15.06884         0.031379      0.017206      0.013098
      7.11216      2.76108     14.67025         0.026022     -0.020918     -0.015814
      4.98508      3.98915     14.67025        -0.031089      0.012043     -0.015810
      6.42191      4.02168     14.36580         0.088253      0.152776      0.552900
      3.81563      6.31800     14.69579        -0.001378     -0.005163     -0.009768
      6.14635      9.28386     15.10566         0.004420      0.004267      0.003564
      1.30041      6.36572     14.94452        -0.025270      0.016760      0.010204
      3.71863      9.21663     14.90066         0.017101      0.009287     -0.005955
      9.81074      0.01401     14.90368        -0.014135     -0.002592     -0.007257
     11.01267      0.75834     14.94452         0.027154     -0.013530      0.010173
      8.46780      2.17764     14.71344        -0.044334      0.015797      0.002752
      9.71373      2.91273     14.69579        -0.003762     -0.003791     -0.009795
      7.10498      5.20478     14.35259        -0.087600     -0.151698      0.529754
      8.54478      5.24103     14.64500         0.028772     -0.004413     -0.020968
      6.41648      6.46981     14.64500        -0.018194      0.022626     -0.020954
      7.48575      7.28192     15.02587        -0.025781     -0.013649      0.014761
      4.97605      8.49807     14.88249        -0.001705      0.019086      0.005197
      5.06138      7.05347     14.69925         0.041583     -0.017452      0.002115
      6.76879      4.62249     16.70755        -0.007486     -0.013004     -1.165381
 -----------------------------------------------------------------------------------
    total drift:                                0.001049      0.003700     -0.002001


--------------------------------------------------------------------------------------------------------



  FREE ENERGIE OF THE ION-ELECTRON SYSTEM (eV)
  ---------------------------------------------------
  free  energy   TOTEN  =      -457.45701582 eV

  energy  without entropy=     -457.45024692  energy(sigma->0) =     -457.45363137
 


--------------------------------------------------------------------------------------------------------


    POTLOK:  cpu time    2.1841: real time    2.1843


--------------------------------------------------------------------------------------------------------


     LOOP+:  cpu time 1704.9652: real time 1706.7521
    4ORBIT:  cpu time    0.0000: real time    0.0000

 total amount of memory used by VASP on root node   465217. kBytes
========================================================================

   base      :      30000. kBytes
   nonlr-proj:       4755. kBytes
   fftplans  :     165810. kBytes
   grid      :     124231. kBytes
   one-center:         79. kBytes
   wavefun   :     140342. kBytes
 
  
  
 General timing and accounting informations for this job:
 ========================================================
  
                  Total CPU time used (sec):     1728.469
                            User time (sec):     1653.310
                          System time (sec):       75.159
                         Elapsed time (sec):     1730.793
  
                   Maximum memory used (kb):      874356.
                   Average memory used (kb):           0.
  
                          Minor page faults:       213932
                          Major page faults:           25
                 Voluntary context switches:         1493
