  49  49   0   0
  0.8021693E+02  0.1230000E-08  0.1230000E-08  0.3000000E-08  0.5000000E-15
  1.000000000000000E-004
  CAR 
 Li defective graphene MACE training lab 
      4.77407978    -53.94697495  301     -3.07292455      1.00000000
    -53.947  0.0000E+00  0.0000E+00  0.0000E+00  0.0000E+00
    -53.751  0.0000E+00  0.0000E+00  0.0000E+00  0.0000E+00
    -53.556  0.0000E+00  0.0000E+00  0.0000E+00  0.0000E+00
    -53.360  0.0000E+00  0.0000E+00  0.0000E+00  0.0000E+00
    -53.164  0.0000E+00  0.0000E+00  0.0000E+00  0.0000E+00
    -52.968  0.0000E+00  0.0000E+00  0.0000E+00  0.0000E+00
    -52.773  0.0000E+00  0.0000E+00  0.0000E+00  0.0000E+00
    -52.577  0.0000E+00  0.0000E+00  0.0000E+00  0.0000E+00
    -52.381  0.0000E+00  0.0000E+00  0.0000E+00  0.0000E+00
    -52.185  0.0000E+00  0.0000E+00  0.0000E+00  0.0000E+00
    -51.990  0.0000E+00  0.0000E+00  0.0000E+00  0.0000E+00
    -51.794  0.0000E+00  0.0000E+00  0.0000E+00  0.0000E+00
    -51.598  0.0000E+00  0.0000E+00  0.0000E+00  0.0000E+00
    -51.402  0.1090E-02  0.1089E-02  0.2133E-03  0.2132E-03
    -51.207  0.4995E+01  0.4995E+01  0.9780E+00  0.9780E+00
    -51.011  0.1126E+00  0.1127E+00  0.1000E+01  0.1000E+01
    -50.815  0.0000E+00  0.0000E+00  0.1000E+01  0.1000E+01
    -50.619  0.0000E+00  0.0000E+00  0.1000E+01  0.1000E+01
    -50.424  0.0000E+00  0.0000E+00  0.1000E+01  0.1000E+01
    -50.228  0.0000E+00  0.0000E+00  0.1000E+01  0.1000E+01
    -50.032  0.0000E+00  0.0000E+00  0.1000E+01  0.1000E+01
    -49.837  0.0000E+00  0.0000E+00  0.1000E+01  0.1000E+01
    -49.641  0.0000E+00  0.0000E+00  0.1000E+01  0.1000E+01
    -49.445  0.0000E+00  0.0000E+00  0.1000E+01  0.1000E+01
    -49.249  0.0000E+00  0.0000E+00  0.1000E+01  0.1000E+01
    -49.054  0.0000E+00  0.0000E+00  0.1000E+01  0.1000E+01
    -48.858  0.0000E+00  0.0000E+00  0.1000E+01  0.1000E+01
    -48.662  0.0000E+00  0.0000E+00  0.1000E+01  0.1000E+01
    -48.466  0.0000E+00  0.0000E+00  0.1000E+01  0.1000E+01
    -48.271  0.0000E+00  0.0000E+00  0.1000E+01  0.1000E+01
    -48.075  0.0000E+00  0.0000E+00  0.1000E+01  0.1000E+01
    -47.879  0.0000E+00  0.0000E+00  0.1000E+01  0.1000E+01
    -47.683  0.0000E+00  0.0000E+00  0.1000E+01  0.1000E+01
    -47.488  0.0000E+00  0.0000E+00  0.1000E+01  0.1000E+01
    -47.292  0.0000E+00  0.0000E+00  0.1000E+01  0.1000E+01
    -47.096  0.0000E+00  0.0000E+00  0.1000E+01  0.1000E+01
    -46.900  0.0000E+00  0.0000E+00  0.1000E+01  0.1000E+01
    -46.705  0.0000E+00  0.0000E+00  0.1000E+01  0.1000E+01
    -46.509  0.0000E+00  0.0000E+00  0.1000E+01  0.1000E+01
    -46.313  0.0000E+00  0.0000E+00  0.1000E+01  0.1000E+01
    -46.118  0.0000E+00  0.0000E+00  0.1000E+01  0.1000E+01
    -45.922  0.0000E+00  0.0000E+00  0.1000E+01  0.1000E+01
    -45.726  0.0000E+00  0.0000E+00  0.1000E+01  0.1000E+01
    -45.530  0.0000E+00  0.0000E+00  0.1000E+01  0.1000E+01
    -45.335  0.0000E+00  0.0000E+00  0.1000E+01  0.1000E+01
    -45.139  0.0000E+00  0.0000E+00  0.1000E+01  0.1000E+01
    -44.943  0.0000E+00  0.0000E+00  0.1000E+01  0.1000E+01
    -44.747  0.0000E+00  0.0000E+00  0.1000E+01  0.1000E+01
    -44.552  0.0000E+00  0.0000E+00  0.1000E+01  0.1000E+01
    -44.356  0.0000E+00  0.0000E+00  0.1000E+01  0.1000E+01
    -44.160  0.0000E+00  0.0000E+00  0.1000E+01  0.1000E+01
    -43.964  0.0000E+00  0.0000E+00  0.1000E+01  0.1000E+01
    -43.769  0.0000E+00  0.0000E+00  0.1000E+01  0.1000E+01
    -43.573  0.0000E+00  0.0000E+00  0.1000E+01  0.1000E+01
    -43.377  0.0000E+00  0.0000E+00  0.1000E+01  0.1000E+01
    -43.181  0.0000E+00  0.0000E+00  0.1000E+01  0.1000E+01
    -42.986  0.0000E+00  0.0000E+00  0.1000E+01  0.1000E+01
    -42.790  0.0000E+00  0.0000E+00  0.1000E+01  0.1000E+01
    -42.594  0.0000E+00  0.0000E+00  0.1000E+01  0.1000E+01
    -42.399  0.0000E+00  0.0000E+00  0.1000E+01  0.1000E+01
    -42.203  0.0000E+00  0.0000E+00  0.1000E+01  0.1000E+01
    -42.007  0.0000E+00  0.0000E+00  0.1000E+01  0.1000E+01
    -41.811  0.0000E+00  0.0000E+00  0.1000E+01  0.1000E+01
    -41.616  0.0000E+00  0.0000E+00  0.1000E+01  0.1000E+01
    -41.420  0.0000E+00  0.0000E+00  0.1000E+01  0.1000E+01
    -41.224  0.0000E+00  0.0000E+00  0.1000E+01  0.1000E+01
    -41.028  0.0000E+00  0.0000E+00  0.1000E+01  0.1000E+01
    -40.833  0.0000E+00  0.0000E+00  0.1000E+01  0.1000E+01
    -40.637  0.0000E+00  0.0000E+00  0.1000E+01  0.1000E+01
    -40.441  0.0000E+00  0.0000E+00  0.1000E+01  0.1000E+01
    -40.245  0.0000E+00  0.0000E+00  0.1000E+01  0.1000E+01
    -40.050  0.0000E+00  0.0000E+00  0.1000E+01  0.1000E+01
    -39.854  0.0000E+00  0.0000E+00  0.1000E+01  0.1000E+01
    -39.658  0.0000E+00  0.0000E+00  0.1000E+01  0.1000E+01
    -39.462  0.0000E+00  0.0000E+00  0.1000E+01  0.1000E+01
    -39.267  0.0000E+00  0.0000E+00  0.1000E+01  0.1000E+01
    -39.071  0.0000E+00  0.0000E+00  0.1000E+01  0.1000E+01
    -38.875  0.0000E+00  0.0000E+00  0.1000E+01  0.1000E+01
    -38.680  0.0000E+00  0.0000E+00  0.1000E+01  0.1000E+01
    -38.484  0.0000E+00  0.0000E+00  0.1000E+01  0.1000E+01
    -38.288  0.0000E+00  0.0000E+00  0.1000E+01  0.1000E+01
    -38.092  0.0000E+00  0.0000E+00  0.1000E+01  0.1000E+01
    -37.897  0.0000E+00  0.0000E+00  0.1000E+01  0.1000E+01
    -37.701  0.0000E+00  0.0000E+00  0.1000E+01  0.1000E+01
    -37.505  0.0000E+00  0.0000E+00  0.1000E+01  0.1000E+01
    -37.309  0.0000E+00  0.0000E+00  0.1000E+01  0.1000E+01
    -37.114  0.0000E+00  0.0000E+00  0.1000E+01  0.1000E+01
    -36.918  0.0000E+00  0.0000E+00  0.1000E+01  0.1000E+01
    -36.722  0.0000E+00  0.0000E+00  0.1000E+01  0.1000E+01
    -36.526  0.0000E+00  0.0000E+00  0.1000E+01  0.1000E+01
    -36.331  0.0000E+00  0.0000E+00  0.1000E+01  0.1000E+01
    -36.135  0.0000E+00  0.0000E+00  0.1000E+01  0.1000E+01
    -35.939  0.0000E+00  0.0000E+00  0.1000E+01  0.1000E+01
    -35.743  0.0000E+00  0.0000E+00  0.1000E+01  0.1000E+01
    -35.548  0.0000E+00  0.0000E+00  0.1000E+01  0.1000E+01
    -35.352  0.0000E+00  0.0000E+00  0.1000E+01  0.1000E+01
    -35.156  0.0000E+00  0.0000E+00  0.1000E+01  0.1000E+01
    -34.961  0.0000E+00  0.0000E+00  0.1000E+01  0.1000E+01
    -34.765  0.0000E+00  0.0000E+00  0.1000E+01  0.1000E+01
    -34.569  0.0000E+00  0.0000E+00  0.1000E+01  0.1000E+01
    -34.373  0.0000E+00  0.0000E+00  0.1000E+01  0.1000E+01
    -34.178  0.0000E+00  0.0000E+00  0.1000E+01  0.1000E+01
    -33.982  0.0000E+00  0.0000E+00  0.1000E+01  0.1000E+01
    -33.786  0.0000E+00  0.0000E+00  0.1000E+01  0.1000E+01
    -33.590  0.0000E+00  0.0000E+00  0.1000E+01  0.1000E+01
    -33.395  0.0000E+00  0.0000E+00  0.1000E+01  0.1000E+01
    -33.199  0.0000E+00  0.0000E+00  0.1000E+01  0.1000E+01
    -33.003  0.0000E+00  0.0000E+00  0.1000E+01  0.1000E+01
    -32.807  0.0000E+00  0.0000E+00  0.1000E+01  0.1000E+01
    -32.612  0.0000E+00  0.0000E+00  0.1000E+01  0.1000E+01
    -32.416  0.0000E+00  0.0000E+00  0.1000E+01  0.1000E+01
    -32.220  0.0000E+00  0.0000E+00  0.1000E+01  0.1000E+01
    -32.024  0.0000E+00  0.0000E+00  0.1000E+01  0.1000E+01
    -31.829  0.0000E+00  0.0000E+00  0.1000E+01  0.1000E+01
    -31.633  0.0000E+00  0.0000E+00  0.1000E+01  0.1000E+01
    -31.437  0.0000E+00  0.0000E+00  0.1000E+01  0.1000E+01
    -31.242  0.0000E+00  0.0000E+00  0.1000E+01  0.1000E+01
    -31.046  0.0000E+00  0.0000E+00  0.1000E+01  0.1000E+01
    -30.850  0.0000E+00  0.0000E+00  0.1000E+01  0.1000E+01
    -30.654  0.0000E+00  0.0000E+00  0.1000E+01  0.1000E+01
    -30.459  0.0000E+00  0.0000E+00  0.1000E+01  0.1000E+01
    -30.263  0.0000E+00  0.0000E+00  0.1000E+01  0.1000E+01
    -30.067  0.0000E+00  0.0000E+00  0.1000E+01  0.1000E+01
    -29.871  0.0000E+00  0.0000E+00  0.1000E+01  0.1000E+01
    -29.676  0.0000E+00  0.0000E+00  0.1000E+01  0.1000E+01
    -29.480  0.0000E+00  0.0000E+00  0.1000E+01  0.1000E+01
    -29.284  0.0000E+00  0.0000E+00  0.1000E+01  0.1000E+01
    -29.088  0.0000E+00  0.0000E+00  0.1000E+01  0.1000E+01
    -28.893  0.0000E+00  0.0000E+00  0.1000E+01  0.1000E+01
    -28.697  0.0000E+00  0.0000E+00  0.1000E+01  0.1000E+01
    -28.501  0.0000E+00  0.0000E+00  0.1000E+01  0.1000E+01
    -28.305  0.0000E+00  0.0000E+00  0.1000E+01  0.1000E+01
    -28.110  0.0000E+00  0.0000E+00  0.1000E+01  0.1000E+01
    -27.914  0.0000E+00  0.0000E+00  0.1000E+01  0.1000E+01
    -27.718  0.0000E+00  0.0000E+00  0.1000E+01  0.1000E+01
    -27.523  0.0000E+00  0.0000E+00  0.1000E+01  0.1000E+01
    -27.327  0.0000E+00  0.0000E+00  0.1000E+01  0.1000E+01
    -27.131  0.0000E+00  0.0000E+00  0.1000E+01  0.1000E+01
    -26.935  0.0000E+00  0.0000E+00  0.1000E+01  0.1000E+01
    -26.740  0.0000E+00  0.0000E+00  0.1000E+01  0.1000E+01
    -26.544  0.0000E+00  0.0000E+00  0.1000E+01  0.1000E+01
    -26.348  0.0000E+00  0.0000E+00  0.1000E+01  0.1000E+01
    -26.152  0.0000E+00  0.0000E+00  0.1000E+01  0.1000E+01
    -25.957  0.0000E+00  0.0000E+00  0.1000E+01  0.1000E+01
    -25.761  0.0000E+00  0.0000E+00  0.1000E+01  0.1000E+01
    -25.565  0.0000E+00  0.0000E+00  0.1000E+01  0.1000E+01
    -25.369  0.0000E+00  0.0000E+00  0.1000E+01  0.1000E+01
    -25.174  0.0000E+00  0.0000E+00  0.1000E+01  0.1000E+01
    -24.978  0.0000E+00  0.0000E+00  0.1000E+01  0.1000E+01
    -24.782  0.0000E+00  0.0000E+00  0.1000E+01  0.1000E+01
    -24.586  0.0000E+00  0.0000E+00  0.1000E+01  0.1000E+01
    -24.391  0.0000E+00  0.0000E+00  0.1000E+01  0.1000E+01
    -24.195  0.0000E+00  0.0000E+00  0.1000E+01  0.1000E+01
    -23.999  0.0000E+00  0.0000E+00  0.1000E+01  0.1000E+01
    -23.804  0.0000E+00  0.0000E+00  0.1000E+01  0.1000E+01
    -23.608  0.0000E+00  0.0000E+00  0.1000E+01  0.1000E+01
    -23.412  0.0000E+00  0.0000E+00  0.1000E+01  0.1000E+01
    -23.216  0.0000E+00  0.0000E+00  0.1000E+01  0.1000E+01
    -23.021  0.0000E+00  0.0000E+00  0.1000E+01  0.1000E+01
    -22.825  0.0000E+00  0.0000E+00  0.1000E+01  0.1000E+01
    -22.629  0.0000E+00  0.0000E+00  0.1000E+01  0.1000E+01
    -22.433  0.5913E-03  0.5914E-03  0.1000E+01  0.1000E+01
    -22.238  0.2534E+01  0.2534E+01  0.1496E+01  0.1496E+01
    -22.042  0.2725E+01  0.2725E+01  0.2030E+01  0.2030E+01
    -21.846  0.3261E+01  0.3261E+01  0.2668E+01  0.2668E+01
    -21.650  0.2997E+01  0.2997E+01  0.3255E+01  0.3255E+01
    -21.455  0.4739E+01  0.4739E+01  0.4182E+01  0.4182E+01
    -21.259  0.3438E+01  0.3438E+01  0.4855E+01  0.4855E+01
    -21.063  0.2810E+01  0.2810E+01  0.5405E+01  0.5405E+01
    -20.867  0.3858E+01  0.3858E+01  0.6161E+01  0.6161E+01
    -20.672  0.4840E+01  0.4840E+01  0.7108E+01  0.7108E+01
    -20.476  0.3147E+01  0.3147E+01  0.7724E+01  0.7724E+01
    -20.280  0.3402E+01  0.3402E+01  0.8390E+01  0.8390E+01
    -20.085  0.4640E+01  0.4640E+01  0.9298E+01  0.9298E+01
    -19.889  0.4290E+01  0.4290E+01  0.1014E+02  0.1014E+02
    -19.693  0.7824E+00  0.7824E+00  0.1029E+02  0.1029E+02
    -19.497  0.4498E+01  0.4498E+01  0.1117E+02  0.1117E+02
    -19.302  0.6726E+01  0.6726E+01  0.1249E+02  0.1249E+02
    -19.106  0.3072E+01  0.3072E+01  0.1309E+02  0.1309E+02
    -18.910  0.4558E+01  0.4558E+01  0.1398E+02  0.1398E+02
    -18.714  0.2155E+01  0.2155E+01  0.1440E+02  0.1440E+02
    -18.519  0.4045E+01  0.4045E+01  0.1519E+02  0.1519E+02
    -18.323  0.5569E+01  0.5569E+01  0.1629E+02  0.1629E+02
    -18.127  0.4787E+01  0.4787E+01  0.1722E+02  0.1722E+02
    -17.931  0.1108E+01  0.1108E+01  0.1744E+02  0.1744E+02
    -17.736  0.4820E+01  0.4820E+01  0.1838E+02  0.1838E+02
    -17.540  0.4789E+01  0.4789E+01  0.1932E+02  0.1932E+02
    -17.344  0.5203E+01  0.5203E+01  0.2034E+02  0.2034E+02
    -17.148  0.4844E+01  0.4844E+01  0.2129E+02  0.2129E+02
    -16.953  0.4525E+01  0.4525E+01  0.2217E+02  0.2217E+02
    -16.757  0.2533E+01  0.2533E+01  0.2267E+02  0.2267E+02
    -16.561  0.2066E+01  0.2066E+01  0.2307E+02  0.2307E+02
    -16.365  0.4523E+01  0.4523E+01  0.2396E+02  0.2396E+02
    -16.170  0.2311E+01  0.2311E+01  0.2441E+02  0.2441E+02
    -15.974  0.3105E+01  0.3105E+01  0.2502E+02  0.2502E+02
    -15.778  0.4489E+01  0.4489E+01  0.2590E+02  0.2590E+02
    -15.583  0.2068E+01  0.2068E+01  0.2630E+02  0.2630E+02
    -15.387  0.3935E+01  0.3935E+01  0.2707E+02  0.2707E+02
    -15.191  0.5767E+01  0.5767E+01  0.2820E+02  0.2820E+02
    -14.995  0.4419E+01  0.4419E+01  0.2907E+02  0.2907E+02
    -14.800  0.4787E+01  0.4787E+01  0.3000E+02  0.3000E+02
    -14.604  0.3848E+01  0.3848E+01  0.3076E+02  0.3076E+02
    -14.408  0.3691E+01  0.3691E+01  0.3148E+02  0.3148E+02
    -14.212  0.4052E+01  0.4052E+01  0.3227E+02  0.3227E+02
    -14.017  0.4651E+01  0.4651E+01  0.3318E+02  0.3318E+02
    -13.821  0.3609E+01  0.3609E+01  0.3389E+02  0.3389E+02
    -13.625  0.3787E+01  0.3787E+01  0.3463E+02  0.3463E+02
    -13.429  0.5291E+01  0.5291E+01  0.3566E+02  0.3566E+02
    -13.234  0.9760E-02  0.9760E-02  0.3567E+02  0.3567E+02
    -13.038  0.2893E+01  0.2893E+01  0.3623E+02  0.3623E+02
    -12.842  0.7136E+01  0.7136E+01  0.3763E+02  0.3763E+02
    -12.646  0.6186E+01  0.6186E+01  0.3884E+02  0.3884E+02
    -12.451  0.2891E+01  0.2891E+01  0.3941E+02  0.3941E+02
    -12.255  0.4671E+01  0.4671E+01  0.4032E+02  0.4032E+02
    -12.059  0.2611E+01  0.2611E+01  0.4083E+02  0.4083E+02
    -11.864  0.5118E+01  0.5118E+01  0.4183E+02  0.4183E+02
    -11.668  0.4710E+01  0.4710E+01  0.4276E+02  0.4276E+02
    -11.472  0.5523E+01  0.5523E+01  0.4384E+02  0.4384E+02
    -11.276  0.5112E+01  0.5112E+01  0.4484E+02  0.4484E+02
    -11.081  0.7327E+01  0.7327E+01  0.4627E+02  0.4627E+02
    -10.885  0.2379E+01  0.2379E+01  0.4674E+02  0.4674E+02
    -10.689  0.5569E+01  0.5569E+01  0.4783E+02  0.4783E+02
    -10.493  0.6177E+01  0.6177E+01  0.4904E+02  0.4904E+02
    -10.298  0.9242E+01  0.9242E+01  0.5084E+02  0.5084E+02
    -10.102  0.8729E+01  0.8729E+01  0.5255E+02  0.5255E+02
     -9.906  0.1091E+02  0.1091E+02  0.5469E+02  0.5469E+02
     -9.710  0.7262E+01  0.7262E+01  0.5611E+02  0.5611E+02
     -9.515  0.9456E+01  0.9456E+01  0.5796E+02  0.5796E+02
     -9.319  0.7924E+01  0.7924E+01  0.5951E+02  0.5951E+02
     -9.123  0.1082E+02  0.1082E+02  0.6163E+02  0.6163E+02
     -8.927  0.1221E+02  0.1221E+02  0.6402E+02  0.6402E+02
     -8.732  0.1203E+02  0.1203E+02  0.6638E+02  0.6638E+02
     -8.536  0.1072E+02  0.1072E+02  0.6847E+02  0.6847E+02
     -8.340  0.8160E+01  0.8160E+01  0.7007E+02  0.7007E+02
     -8.145  0.7804E+01  0.7804E+01  0.7160E+02  0.7160E+02
     -7.949  0.1316E+02  0.1316E+02  0.7417E+02  0.7417E+02
     -7.753  0.1009E+02  0.1009E+02  0.7615E+02  0.7615E+02
     -7.557  0.3549E+01  0.3549E+01  0.7684E+02  0.7684E+02
     -7.362  0.6660E+01  0.6660E+01  0.7815E+02  0.7815E+02
     -7.166  0.1060E+02  0.1060E+02  0.8022E+02  0.8022E+02
     -6.970  0.8388E+01  0.8388E+01  0.8186E+02  0.8186E+02
     -6.774  0.8263E+01  0.8263E+01  0.8348E+02  0.8348E+02
     -6.579  0.5434E+01  0.5434E+01  0.8454E+02  0.8454E+02
     -6.383  0.6987E+01  0.6987E+01  0.8591E+02  0.8591E+02
     -6.187  0.4545E+01  0.4545E+01  0.8680E+02  0.8680E+02
     -5.991  0.9276E+01  0.9276E+01  0.8862E+02  0.8862E+02
     -5.796  0.3102E+01  0.3102E+01  0.8922E+02  0.8922E+02
     -5.600  0.4245E+01  0.4245E+01  0.9005E+02  0.9005E+02
     -5.404  0.5413E+01  0.5413E+01  0.9111E+02  0.9111E+02
     -5.208  0.2895E+01  0.2895E+01  0.9168E+02  0.9168E+02
     -5.013  0.6074E+01  0.6074E+01  0.9287E+02  0.9287E+02
     -4.817  0.5727E+01  0.5727E+01  0.9399E+02  0.9399E+02
     -4.621  0.4554E+01  0.4554E+01  0.9488E+02  0.9488E+02
     -4.426  0.5344E+00  0.5344E+00  0.9499E+02  0.9499E+02
     -4.230  0.2290E+01  0.2290E+01  0.9544E+02  0.9544E+02
     -4.034  0.2902E+01  0.2902E+01  0.9600E+02  0.9600E+02
     -3.838  0.1685E+01  0.1685E+01  0.9633E+02  0.9633E+02
     -3.643  0.3005E+01  0.3005E+01  0.9692E+02  0.9692E+02
     -3.447  0.4035E+00  0.4035E+00  0.9700E+02  0.9700E+02
     -3.251  0.2193E-01  0.2193E-01  0.9700E+02  0.9700E+02
     -3.055  0.2703E+01  0.2703E+01  0.9753E+02  0.9753E+02
     -2.860  0.9055E+00  0.9055E+00  0.9771E+02  0.9771E+02
     -2.664  0.4046E+00  0.4046E+00  0.9779E+02  0.9779E+02
     -2.468  0.1945E+01  0.1945E+01  0.9817E+02  0.9817E+02
     -2.272  0.2644E+00  0.2644E+00  0.9822E+02  0.9822E+02
     -2.077  0.2546E-09  0.2546E-09  0.9822E+02  0.9822E+02
     -1.881  0.2415E+00  0.2415E+00  0.9827E+02  0.9827E+02
     -1.685  0.6168E+01  0.6168E+01  0.9948E+02  0.9948E+02
     -1.489  0.2007E+01  0.2007E+01  0.9987E+02  0.9987E+02
     -1.294  0.1322E+01  0.1322E+01  0.1001E+03  0.1001E+03
     -1.098  0.7403E+01  0.7403E+01  0.1016E+03  0.1016E+03
     -0.902  0.8717E+01  0.8716E+01  0.1033E+03  0.1033E+03
     -0.707  0.6359E+01  0.6360E+01  0.1045E+03  0.1045E+03
     -0.511  0.3917E+01  0.3917E+01  0.1053E+03  0.1053E+03
     -0.315  0.6168E+01  0.6168E+01  0.1065E+03  0.1065E+03
     -0.119  0.2783E+01  0.2783E+01  0.1070E+03  0.1070E+03
      0.076  0.4782E+01  0.4782E+01  0.1080E+03  0.1080E+03
      0.272  0.6066E+01  0.6065E+01  0.1092E+03  0.1092E+03
      0.468  0.7609E+01  0.7601E+01  0.1107E+03  0.1107E+03
      0.664  0.5098E+01  0.5103E+01  0.1117E+03  0.1117E+03
      0.859  0.1057E+02  0.1051E+02  0.1137E+03  0.1137E+03
      1.055  0.1029E+02  0.1022E+02  0.1157E+03  0.1157E+03
      1.251  0.1252E+02  0.1221E+02  0.1182E+03  0.1181E+03
      1.447  0.1386E+02  0.1386E+02  0.1209E+03  0.1208E+03
      1.642  0.1290E+02  0.1298E+02  0.1234E+03  0.1234E+03
      1.838  0.1617E+02  0.1516E+02  0.1266E+03  0.1263E+03
      2.034  0.5878E+01  0.7399E+01  0.1277E+03  0.1278E+03
      2.230  0.1312E+01  0.1167E+01  0.1280E+03  0.1280E+03
      2.425  0.7082E-04  0.1211E-03  0.1280E+03  0.1280E+03
      2.621  0.0000E+00  0.0000E+00  0.1280E+03  0.1280E+03
      2.817  0.0000E+00  0.0000E+00  0.1280E+03  0.1280E+03
      3.012  0.0000E+00  0.0000E+00  0.1280E+03  0.1280E+03
      3.208  0.0000E+00  0.0000E+00  0.1280E+03  0.1280E+03
      3.404  0.0000E+00  0.0000E+00  0.1280E+03  0.1280E+03
      3.600  0.0000E+00  0.0000E+00  0.1280E+03  0.1280E+03
      3.795  0.0000E+00  0.0000E+00  0.1280E+03  0.1280E+03
      3.991  0.0000E+00  0.0000E+00  0.1280E+03  0.1280E+03
      4.187  0.0000E+00  0.0000E+00  0.1280E+03  0.1280E+03
      4.383  0.0000E+00  0.0000E+00  0.1280E+03  0.1280E+03
      4.578  0.0000E+00  0.0000E+00  0.1280E+03  0.1280E+03
      4.774  0.0000E+00  0.0000E+00  0.1280E+03  0.1280E+03
