  50  50   0   0
  0.7861259E+02  0.1230000E-08  0.1230000E-08  0.3000000E-08  0.5000000E-15
  1.000000000000000E-004
  CAR 
 Li defective graphene MACE training lab 
      4.66918143    -53.66784083  301     -2.85004573      1.00000000
    -53.668  0.0000E+00  0.0000E+00  0.0000E+00  0.0000E+00
    -53.473  0.0000E+00  0.0000E+00  0.0000E+00  0.0000E+00
    -53.279  0.0000E+00  0.0000E+00  0.0000E+00  0.0000E+00
    -53.084  0.0000E+00  0.0000E+00  0.0000E+00  0.0000E+00
    -52.890  0.0000E+00  0.0000E+00  0.0000E+00  0.0000E+00
    -52.696  0.0000E+00  0.0000E+00  0.0000E+00  0.0000E+00
    -52.501  0.0000E+00  0.0000E+00  0.0000E+00  0.0000E+00
    -52.307  0.0000E+00  0.0000E+00  0.0000E+00  0.0000E+00
    -52.112  0.0000E+00  0.0000E+00  0.0000E+00  0.0000E+00
    -51.918  0.0000E+00  0.0000E+00  0.0000E+00  0.0000E+00
    -51.723  0.0000E+00  0.0000E+00  0.0000E+00  0.0000E+00
    -51.529  0.0000E+00  0.0000E+00  0.0000E+00  0.0000E+00
    -51.334  0.0000E+00  0.0000E+00  0.0000E+00  0.0000E+00
    -51.140  0.1196E-02  0.9547E-03  0.2326E-03  0.1856E-03
    -50.945  0.5024E+01  0.5007E+01  0.9772E+00  0.9738E+00
    -50.751  0.1170E+00  0.1346E+00  0.1000E+01  0.1000E+01
    -50.557  0.0000E+00  0.0000E+00  0.1000E+01  0.1000E+01
    -50.362  0.0000E+00  0.0000E+00  0.1000E+01  0.1000E+01
    -50.168  0.0000E+00  0.0000E+00  0.1000E+01  0.1000E+01
    -49.973  0.0000E+00  0.0000E+00  0.1000E+01  0.1000E+01
    -49.779  0.0000E+00  0.0000E+00  0.1000E+01  0.1000E+01
    -49.584  0.0000E+00  0.0000E+00  0.1000E+01  0.1000E+01
    -49.390  0.0000E+00  0.0000E+00  0.1000E+01  0.1000E+01
    -49.195  0.0000E+00  0.0000E+00  0.1000E+01  0.1000E+01
    -49.001  0.0000E+00  0.0000E+00  0.1000E+01  0.1000E+01
    -48.806  0.0000E+00  0.0000E+00  0.1000E+01  0.1000E+01
    -48.612  0.0000E+00  0.0000E+00  0.1000E+01  0.1000E+01
    -48.418  0.0000E+00  0.0000E+00  0.1000E+01  0.1000E+01
    -48.223  0.0000E+00  0.0000E+00  0.1000E+01  0.1000E+01
    -48.029  0.0000E+00  0.0000E+00  0.1000E+01  0.1000E+01
    -47.834  0.0000E+00  0.0000E+00  0.1000E+01  0.1000E+01
    -47.640  0.0000E+00  0.0000E+00  0.1000E+01  0.1000E+01
    -47.445  0.0000E+00  0.0000E+00  0.1000E+01  0.1000E+01
    -47.251  0.0000E+00  0.0000E+00  0.1000E+01  0.1000E+01
    -47.056  0.0000E+00  0.0000E+00  0.1000E+01  0.1000E+01
    -46.862  0.0000E+00  0.0000E+00  0.1000E+01  0.1000E+01
    -46.667  0.0000E+00  0.0000E+00  0.1000E+01  0.1000E+01
    -46.473  0.0000E+00  0.0000E+00  0.1000E+01  0.1000E+01
    -46.278  0.0000E+00  0.0000E+00  0.1000E+01  0.1000E+01
    -46.084  0.0000E+00  0.0000E+00  0.1000E+01  0.1000E+01
    -45.890  0.0000E+00  0.0000E+00  0.1000E+01  0.1000E+01
    -45.695  0.0000E+00  0.0000E+00  0.1000E+01  0.1000E+01
    -45.501  0.0000E+00  0.0000E+00  0.1000E+01  0.1000E+01
    -45.306  0.0000E+00  0.0000E+00  0.1000E+01  0.1000E+01
    -45.112  0.0000E+00  0.0000E+00  0.1000E+01  0.1000E+01
    -44.917  0.0000E+00  0.0000E+00  0.1000E+01  0.1000E+01
    -44.723  0.0000E+00  0.0000E+00  0.1000E+01  0.1000E+01
    -44.528  0.0000E+00  0.0000E+00  0.1000E+01  0.1000E+01
    -44.334  0.0000E+00  0.0000E+00  0.1000E+01  0.1000E+01
    -44.139  0.0000E+00  0.0000E+00  0.1000E+01  0.1000E+01
    -43.945  0.0000E+00  0.0000E+00  0.1000E+01  0.1000E+01
    -43.751  0.0000E+00  0.0000E+00  0.1000E+01  0.1000E+01
    -43.556  0.0000E+00  0.0000E+00  0.1000E+01  0.1000E+01
    -43.362  0.0000E+00  0.0000E+00  0.1000E+01  0.1000E+01
    -43.167  0.0000E+00  0.0000E+00  0.1000E+01  0.1000E+01
    -42.973  0.0000E+00  0.0000E+00  0.1000E+01  0.1000E+01
    -42.778  0.0000E+00  0.0000E+00  0.1000E+01  0.1000E+01
    -42.584  0.0000E+00  0.0000E+00  0.1000E+01  0.1000E+01
    -42.389  0.0000E+00  0.0000E+00  0.1000E+01  0.1000E+01
    -42.195  0.0000E+00  0.0000E+00  0.1000E+01  0.1000E+01
    -42.000  0.0000E+00  0.0000E+00  0.1000E+01  0.1000E+01
    -41.806  0.0000E+00  0.0000E+00  0.1000E+01  0.1000E+01
    -41.612  0.0000E+00  0.0000E+00  0.1000E+01  0.1000E+01
    -41.417  0.0000E+00  0.0000E+00  0.1000E+01  0.1000E+01
    -41.223  0.0000E+00  0.0000E+00  0.1000E+01  0.1000E+01
    -41.028  0.0000E+00  0.0000E+00  0.1000E+01  0.1000E+01
    -40.834  0.0000E+00  0.0000E+00  0.1000E+01  0.1000E+01
    -40.639  0.0000E+00  0.0000E+00  0.1000E+01  0.1000E+01
    -40.445  0.0000E+00  0.0000E+00  0.1000E+01  0.1000E+01
    -40.250  0.0000E+00  0.0000E+00  0.1000E+01  0.1000E+01
    -40.056  0.0000E+00  0.0000E+00  0.1000E+01  0.1000E+01
    -39.861  0.0000E+00  0.0000E+00  0.1000E+01  0.1000E+01
    -39.667  0.0000E+00  0.0000E+00  0.1000E+01  0.1000E+01
    -39.472  0.0000E+00  0.0000E+00  0.1000E+01  0.1000E+01
    -39.278  0.0000E+00  0.0000E+00  0.1000E+01  0.1000E+01
    -39.084  0.0000E+00  0.0000E+00  0.1000E+01  0.1000E+01
    -38.889  0.0000E+00  0.0000E+00  0.1000E+01  0.1000E+01
    -38.695  0.0000E+00  0.0000E+00  0.1000E+01  0.1000E+01
    -38.500  0.0000E+00  0.0000E+00  0.1000E+01  0.1000E+01
    -38.306  0.0000E+00  0.0000E+00  0.1000E+01  0.1000E+01
    -38.111  0.0000E+00  0.0000E+00  0.1000E+01  0.1000E+01
    -37.917  0.0000E+00  0.0000E+00  0.1000E+01  0.1000E+01
    -37.722  0.0000E+00  0.0000E+00  0.1000E+01  0.1000E+01
    -37.528  0.0000E+00  0.0000E+00  0.1000E+01  0.1000E+01
    -37.333  0.0000E+00  0.0000E+00  0.1000E+01  0.1000E+01
    -37.139  0.0000E+00  0.0000E+00  0.1000E+01  0.1000E+01
    -36.945  0.0000E+00  0.0000E+00  0.1000E+01  0.1000E+01
    -36.750  0.0000E+00  0.0000E+00  0.1000E+01  0.1000E+01
    -36.556  0.0000E+00  0.0000E+00  0.1000E+01  0.1000E+01
    -36.361  0.0000E+00  0.0000E+00  0.1000E+01  0.1000E+01
    -36.167  0.0000E+00  0.0000E+00  0.1000E+01  0.1000E+01
    -35.972  0.0000E+00  0.0000E+00  0.1000E+01  0.1000E+01
    -35.778  0.0000E+00  0.0000E+00  0.1000E+01  0.1000E+01
    -35.583  0.0000E+00  0.0000E+00  0.1000E+01  0.1000E+01
    -35.389  0.0000E+00  0.0000E+00  0.1000E+01  0.1000E+01
    -35.194  0.0000E+00  0.0000E+00  0.1000E+01  0.1000E+01
    -35.000  0.0000E+00  0.0000E+00  0.1000E+01  0.1000E+01
    -34.806  0.0000E+00  0.0000E+00  0.1000E+01  0.1000E+01
    -34.611  0.0000E+00  0.0000E+00  0.1000E+01  0.1000E+01
    -34.417  0.0000E+00  0.0000E+00  0.1000E+01  0.1000E+01
    -34.222  0.0000E+00  0.0000E+00  0.1000E+01  0.1000E+01
    -34.028  0.0000E+00  0.0000E+00  0.1000E+01  0.1000E+01
    -33.833  0.0000E+00  0.0000E+00  0.1000E+01  0.1000E+01
    -33.639  0.0000E+00  0.0000E+00  0.1000E+01  0.1000E+01
    -33.444  0.0000E+00  0.0000E+00  0.1000E+01  0.1000E+01
    -33.250  0.0000E+00  0.0000E+00  0.1000E+01  0.1000E+01
    -33.055  0.0000E+00  0.0000E+00  0.1000E+01  0.1000E+01
    -32.861  0.0000E+00  0.0000E+00  0.1000E+01  0.1000E+01
    -32.667  0.0000E+00  0.0000E+00  0.1000E+01  0.1000E+01
    -32.472  0.0000E+00  0.0000E+00  0.1000E+01  0.1000E+01
    -32.278  0.0000E+00  0.0000E+00  0.1000E+01  0.1000E+01
    -32.083  0.0000E+00  0.0000E+00  0.1000E+01  0.1000E+01
    -31.889  0.0000E+00  0.0000E+00  0.1000E+01  0.1000E+01
    -31.694  0.0000E+00  0.0000E+00  0.1000E+01  0.1000E+01
    -31.500  0.0000E+00  0.0000E+00  0.1000E+01  0.1000E+01
    -31.305  0.0000E+00  0.0000E+00  0.1000E+01  0.1000E+01
    -31.111  0.0000E+00  0.0000E+00  0.1000E+01  0.1000E+01
    -30.916  0.0000E+00  0.0000E+00  0.1000E+01  0.1000E+01
    -30.722  0.0000E+00  0.0000E+00  0.1000E+01  0.1000E+01
    -30.527  0.0000E+00  0.0000E+00  0.1000E+01  0.1000E+01
    -30.333  0.0000E+00  0.0000E+00  0.1000E+01  0.1000E+01
    -30.139  0.0000E+00  0.0000E+00  0.1000E+01  0.1000E+01
    -29.944  0.0000E+00  0.0000E+00  0.1000E+01  0.1000E+01
    -29.750  0.0000E+00  0.0000E+00  0.1000E+01  0.1000E+01
    -29.555  0.0000E+00  0.0000E+00  0.1000E+01  0.1000E+01
    -29.361  0.0000E+00  0.0000E+00  0.1000E+01  0.1000E+01
    -29.166  0.0000E+00  0.0000E+00  0.1000E+01  0.1000E+01
    -28.972  0.0000E+00  0.0000E+00  0.1000E+01  0.1000E+01
    -28.777  0.0000E+00  0.0000E+00  0.1000E+01  0.1000E+01
    -28.583  0.0000E+00  0.0000E+00  0.1000E+01  0.1000E+01
    -28.388  0.0000E+00  0.0000E+00  0.1000E+01  0.1000E+01
    -28.194  0.0000E+00  0.0000E+00  0.1000E+01  0.1000E+01
    -28.000  0.0000E+00  0.0000E+00  0.1000E+01  0.1000E+01
    -27.805  0.0000E+00  0.0000E+00  0.1000E+01  0.1000E+01
    -27.611  0.0000E+00  0.0000E+00  0.1000E+01  0.1000E+01
    -27.416  0.0000E+00  0.0000E+00  0.1000E+01  0.1000E+01
    -27.222  0.0000E+00  0.0000E+00  0.1000E+01  0.1000E+01
    -27.027  0.0000E+00  0.0000E+00  0.1000E+01  0.1000E+01
    -26.833  0.0000E+00  0.0000E+00  0.1000E+01  0.1000E+01
    -26.638  0.0000E+00  0.0000E+00  0.1000E+01  0.1000E+01
    -26.444  0.0000E+00  0.0000E+00  0.1000E+01  0.1000E+01
    -26.249  0.0000E+00  0.0000E+00  0.1000E+01  0.1000E+01
    -26.055  0.0000E+00  0.0000E+00  0.1000E+01  0.1000E+01
    -25.861  0.0000E+00  0.0000E+00  0.1000E+01  0.1000E+01
    -25.666  0.0000E+00  0.0000E+00  0.1000E+01  0.1000E+01
    -25.472  0.0000E+00  0.0000E+00  0.1000E+01  0.1000E+01
    -25.277  0.0000E+00  0.0000E+00  0.1000E+01  0.1000E+01
    -25.083  0.0000E+00  0.0000E+00  0.1000E+01  0.1000E+01
    -24.888  0.0000E+00  0.0000E+00  0.1000E+01  0.1000E+01
    -24.694  0.0000E+00  0.0000E+00  0.1000E+01  0.1000E+01
    -24.499  0.0000E+00  0.0000E+00  0.1000E+01  0.1000E+01
    -24.305  0.0000E+00  0.0000E+00  0.1000E+01  0.1000E+01
    -24.110  0.0000E+00  0.0000E+00  0.1000E+01  0.1000E+01
    -23.916  0.0000E+00  0.0000E+00  0.1000E+01  0.1000E+01
    -23.722  0.0000E+00  0.0000E+00  0.1000E+01  0.1000E+01
    -23.527  0.0000E+00  0.0000E+00  0.1000E+01  0.1000E+01
    -23.333  0.0000E+00  0.0000E+00  0.1000E+01  0.1000E+01
    -23.138  0.0000E+00  0.0000E+00  0.1000E+01  0.1000E+01
    -22.944  0.0000E+00  0.0000E+00  0.1000E+01  0.1000E+01
    -22.749  0.0000E+00  0.0000E+00  0.1000E+01  0.1000E+01
    -22.555  0.2248E-03  0.5637E-04  0.1000E+01  0.1000E+01
    -22.360  0.1772E+01  0.1374E+01  0.1345E+01  0.1267E+01
    -22.166  0.3458E+01  0.3797E+01  0.2017E+01  0.2006E+01
    -21.971  0.4115E+01  0.3674E+01  0.2817E+01  0.2720E+01
    -21.777  0.1918E+01  0.2196E+01  0.3190E+01  0.3147E+01
    -21.582  0.5705E+01  0.5521E+01  0.4299E+01  0.4221E+01
    -21.388  0.3258E+01  0.3572E+01  0.4933E+01  0.4915E+01
    -21.194  0.2060E+01  0.1828E+01  0.5334E+01  0.5271E+01
    -20.999  0.6207E+01  0.5551E+01  0.6541E+01  0.6350E+01
    -20.805  0.2948E+01  0.3914E+01  0.7114E+01  0.7111E+01
    -20.610  0.3358E+01  0.3081E+01  0.7767E+01  0.7710E+01
    -20.416  0.3300E+01  0.3341E+01  0.8409E+01  0.8360E+01
    -20.221  0.7186E+01  0.6749E+01  0.9806E+01  0.9673E+01
    -20.027  0.2137E+01  0.2815E+01  0.1022E+02  0.1022E+02
    -19.832  0.7523E+00  0.2550E+00  0.1037E+02  0.1027E+02
    -19.638  0.5673E+01  0.5593E+01  0.1147E+02  0.1136E+02
    -19.443  0.6109E+01  0.6447E+01  0.1266E+02  0.1261E+02
    -19.249  0.2859E+01  0.2629E+01  0.1322E+02  0.1312E+02
    -19.055  0.4053E+01  0.4105E+01  0.1400E+02  0.1392E+02
    -18.860  0.2445E+01  0.2726E+01  0.1448E+02  0.1445E+02
    -18.666  0.3824E+01  0.3384E+01  0.1522E+02  0.1511E+02
    -18.471  0.6098E+01  0.5787E+01  0.1641E+02  0.1623E+02
    -18.277  0.5291E+01  0.5916E+01  0.1744E+02  0.1738E+02
    -18.082  0.1155E+01  0.6722E+00  0.1766E+02  0.1752E+02
    -17.888  0.5894E+01  0.5547E+01  0.1881E+02  0.1859E+02
    -17.693  0.1589E+01  0.2675E+01  0.1912E+02  0.1911E+02
    -17.499  0.6458E+01  0.5574E+01  0.2037E+02  0.2020E+02
    -17.304  0.7276E+01  0.7790E+01  0.2179E+02  0.2171E+02
    -17.110  0.4466E+01  0.4730E+01  0.2266E+02  0.2263E+02
    -16.916  0.1330E+01  0.1280E+01  0.2291E+02  0.2288E+02
    -16.721  0.3328E+01  0.3335E+01  0.2356E+02  0.2353E+02
    -16.527  0.2925E+01  0.2232E+01  0.2413E+02  0.2396E+02
    -16.332  0.4318E+01  0.4737E+01  0.2497E+02  0.2488E+02
    -16.138  0.1208E+01  0.7386E+00  0.2521E+02  0.2503E+02
    -15.943  0.4315E+01  0.5104E+01  0.2604E+02  0.2602E+02
    -15.749  0.2056E+01  0.2154E+01  0.2644E+02  0.2644E+02
    -15.554  0.4860E+01  0.4513E+01  0.2739E+02  0.2732E+02
    -15.360  0.6819E+01  0.5756E+01  0.2871E+02  0.2844E+02
    -15.165  0.2609E+01  0.4039E+01  0.2922E+02  0.2922E+02
    -14.971  0.4702E+01  0.3638E+01  0.3014E+02  0.2993E+02
    -14.776  0.5513E+01  0.5505E+01  0.3121E+02  0.3100E+02
    -14.582  0.4264E+01  0.4545E+01  0.3204E+02  0.3188E+02
    -14.388  0.4372E+01  0.5079E+01  0.3289E+02  0.3287E+02
    -14.193  0.1641E+01  0.1611E+01  0.3321E+02  0.3318E+02
    -13.999  0.4522E+01  0.3954E+01  0.3409E+02  0.3395E+02
    -13.804  0.7713E+01  0.7505E+01  0.3559E+02  0.3541E+02
    -13.610  0.1555E+01  0.2280E+01  0.3589E+02  0.3586E+02
    -13.415  0.3786E-02  0.1672E+00  0.3589E+02  0.3589E+02
    -13.221  0.4642E+01  0.4014E+01  0.3679E+02  0.3667E+02
    -13.026  0.7152E+01  0.6908E+01  0.3818E+02  0.3801E+02
    -12.832  0.4351E+01  0.4707E+01  0.3903E+02  0.3893E+02
    -12.637  0.4835E+01  0.4148E+01  0.3997E+02  0.3973E+02
    -12.443  0.2458E+01  0.3651E+01  0.4045E+02  0.4044E+02
    -12.249  0.8053E+01  0.6869E+01  0.4201E+02  0.4178E+02
    -12.054  0.1524E+01  0.2449E+01  0.4231E+02  0.4226E+02
    -11.860  0.2352E+01  0.2218E+01  0.4277E+02  0.4269E+02
    -11.665  0.8300E+01  0.8188E+01  0.4438E+02  0.4428E+02
    -11.471  0.3791E+01  0.4059E+01  0.4512E+02  0.4507E+02
    -11.276  0.8016E+01  0.7704E+01  0.4668E+02  0.4657E+02
    -11.082  0.3845E+01  0.3747E+01  0.4742E+02  0.4730E+02
    -10.887  0.3489E+01  0.4052E+01  0.4810E+02  0.4808E+02
    -10.693  0.6117E+01  0.4395E+01  0.4929E+02  0.4894E+02
    -10.498  0.5364E+01  0.6329E+01  0.5034E+02  0.5017E+02
    -10.304  0.1216E+02  0.1254E+02  0.5270E+02  0.5261E+02
    -10.110  0.8101E+01  0.8032E+01  0.5427E+02  0.5417E+02
     -9.915  0.1048E+02  0.9575E+01  0.5631E+02  0.5603E+02
     -9.721  0.8804E+01  0.9422E+01  0.5802E+02  0.5786E+02
     -9.526  0.8944E+01  0.8879E+01  0.5976E+02  0.5959E+02
     -9.332  0.1278E+02  0.1301E+02  0.6225E+02  0.6212E+02
     -9.137  0.1212E+02  0.1181E+02  0.6460E+02  0.6442E+02
     -8.943  0.1031E+02  0.9903E+01  0.6661E+02  0.6634E+02
     -8.748  0.1308E+02  0.1364E+02  0.6915E+02  0.6900E+02
     -8.554  0.5666E+01  0.4574E+01  0.7025E+02  0.6989E+02
     -8.359  0.1005E+02  0.1106E+02  0.7221E+02  0.7204E+02
     -8.165  0.7652E+01  0.7317E+01  0.7370E+02  0.7346E+02
     -7.971  0.1278E+02  0.1263E+02  0.7618E+02  0.7592E+02
     -7.776  0.5142E+01  0.5800E+01  0.7718E+02  0.7704E+02
     -7.582  0.4907E+01  0.4429E+01  0.7814E+02  0.7791E+02
     -7.387  0.1010E+02  0.9539E+01  0.8010E+02  0.7976E+02
     -7.193  0.9864E+01  0.1005E+02  0.8202E+02  0.8172E+02
     -6.998  0.7161E+01  0.7348E+01  0.8341E+02  0.8314E+02
     -6.804  0.7129E+01  0.7884E+01  0.8480E+02  0.8468E+02
     -6.609  0.5105E+01  0.5181E+01  0.8579E+02  0.8569E+02
     -6.415  0.6123E+01  0.6091E+01  0.8698E+02  0.8687E+02
     -6.220  0.7097E+01  0.6620E+01  0.8836E+02  0.8816E+02
     -6.026  0.8765E+01  0.9124E+01  0.9006E+02  0.8993E+02
     -5.831  0.2252E+01  0.2702E+01  0.9050E+02  0.9046E+02
     -5.637  0.7495E+01  0.6635E+01  0.9196E+02  0.9175E+02
     -5.443  0.1292E+01  0.1996E+01  0.9221E+02  0.9214E+02
     -5.248  0.4411E+01  0.4262E+01  0.9307E+02  0.9296E+02
     -5.054  0.8786E+01  0.8024E+01  0.9478E+02  0.9452E+02
     -4.859  0.5721E+01  0.7013E+01  0.9589E+02  0.9589E+02
     -4.665  0.8363E+00  0.6183E-02  0.9605E+02  0.9589E+02
     -4.470  0.4403E+01  0.2877E+01  0.9691E+02  0.9645E+02
     -4.276  0.2149E+01  0.3281E+01  0.9733E+02  0.9709E+02
     -4.081  0.2721E+01  0.1468E+01  0.9785E+02  0.9737E+02
     -3.887  0.4722E+01  0.3226E+01  0.9877E+02  0.9800E+02
     -3.692  0.7566E+00  0.1600E-01  0.9892E+02  0.9800E+02
     -3.498  0.4129E+00  0.3809E+01  0.9900E+02  0.9874E+02
     -3.304  0.2166E+01  0.1758E+00  0.9942E+02  0.9878E+02
     -3.109  0.1832E+01  0.2227E-03  0.9978E+02  0.9878E+02
     -2.915  0.9293E+00  0.1114E+01  0.9996E+02  0.9899E+02
     -2.720  0.2366E+00  0.9806E+00  0.1000E+03  0.9919E+02
     -2.526  0.1119E+01  0.7134E+00  0.1002E+03  0.9932E+02
     -2.331  0.3206E-03  0.4212E+01  0.1002E+03  0.1001E+03
     -2.137  0.2340E-02  0.4086E+00  0.1002E+03  0.1002E+03
     -1.942  0.2334E+01  0.1472E+01  0.1007E+03  0.1005E+03
     -1.748  0.4621E+01  0.3947E+01  0.1016E+03  0.1013E+03
     -1.553  0.2766E+01  0.3882E+01  0.1021E+03  0.1020E+03
     -1.359  0.4375E+01  0.1496E+01  0.1030E+03  0.1023E+03
     -1.165  0.7237E+01  0.8786E+01  0.1044E+03  0.1040E+03
     -0.970  0.8582E+01  0.9386E+01  0.1060E+03  0.1059E+03
     -0.776  0.7850E+01  0.6566E+01  0.1076E+03  0.1071E+03
     -0.581  0.7192E+01  0.8382E+01  0.1090E+03  0.1088E+03
     -0.387  0.3031E+01  0.4038E+01  0.1096E+03  0.1095E+03
     -0.192  0.1776E+00  0.7241E-01  0.1096E+03  0.1096E+03
      0.002  0.5916E+01  0.4327E+01  0.1107E+03  0.1104E+03
      0.197  0.4730E+01  0.6111E+01  0.1117E+03  0.1116E+03
      0.391  0.5221E+01  0.4697E+01  0.1127E+03  0.1125E+03
      0.586  0.6622E+01  0.6743E+01  0.1140E+03  0.1138E+03
      0.780  0.6487E+01  0.6427E+01  0.1152E+03  0.1151E+03
      0.975  0.7932E+01  0.7854E+01  0.1168E+03  0.1166E+03
      1.169  0.9626E+01  0.9736E+01  0.1186E+03  0.1185E+03
      1.363  0.1098E+02  0.1052E+02  0.1208E+03  0.1205E+03
      1.558  0.1620E+02  0.1546E+02  0.1239E+03  0.1235E+03
      1.752  0.1507E+02  0.1568E+02  0.1269E+03  0.1266E+03
      1.947  0.5338E+01  0.7061E+01  0.1279E+03  0.1280E+03
      2.141  0.5598E+00  0.2016E+00  0.1280E+03  0.1280E+03
      2.336  0.1329E-03  0.0000E+00  0.1280E+03  0.1280E+03
      2.530  0.0000E+00  0.0000E+00  0.1280E+03  0.1280E+03
      2.725  0.0000E+00  0.0000E+00  0.1280E+03  0.1280E+03
      2.919  0.0000E+00  0.0000E+00  0.1280E+03  0.1280E+03
      3.114  0.0000E+00  0.0000E+00  0.1280E+03  0.1280E+03
      3.308  0.0000E+00  0.0000E+00  0.1280E+03  0.1280E+03
      3.502  0.0000E+00  0.0000E+00  0.1280E+03  0.1280E+03
      3.697  0.0000E+00  0.0000E+00  0.1280E+03  0.1280E+03
      3.891  0.0000E+00  0.0000E+00  0.1280E+03  0.1280E+03
      4.086  0.0000E+00  0.0000E+00  0.1280E+03  0.1280E+03
      4.280  0.0000E+00  0.0000E+00  0.1280E+03  0.1280E+03
      4.475  0.0000E+00  0.0000E+00  0.1280E+03  0.1280E+03
      4.669  0.0000E+00  0.0000E+00  0.1280E+03  0.1280E+03
