 vasp.5.4.1 24Jun15 (build Jul 23 2024 06:15:33) complex                        
  
 executed on           IFC91_ompi date 2026.05.05  12:46:44
 running on   16 total cores
 distrk:  each k-point on   16 cores,    1 groups
 distr:  one band on NCORES_PER_BAND=   4 cores,    4 groups


--------------------------------------------------------------------------------------------------------


 INCAR:
 POTCAR:    PAW_PBE C 08Apr2002                   
 POTCAR:    PAW_PBE Li_sv 10Sep2004               
 POTCAR:    PAW_PBE C 08Apr2002                   
   VRHFIN =C: s2p2                                                              
   LEXCH  = PE                                                                  
   EATOM  =   147.1560 eV,   10.8157 Ry                                         
                                                                                
   TITEL  = PAW_PBE C 08Apr2002                                                 
   LULTRA =        F    use ultrasoft PP ?                                      
   IUNSCR =        1    unscreen: 0-lin 1-nonlin 2-no                           
   RPACOR =    1.200    partial core radius                                     
   POMASS =   12.011; ZVAL   =    4.000    mass and valenz                      
   RCORE  =    1.500    outmost cutoff radius                                   
   RWIGS  =    1.630; RWIGS  =    0.863    wigner-seitz radius (au A)           
   ENMAX  =  400.000; ENMIN  =  300.000 eV                                      
   ICORE  =        2    local potential                                         
   LCOR   =        T    correct aug charges                                     
   LPAW   =        T    paw PP                                                  
   EAUG   =  644.873                                                            
   DEXC   =    0.000                                                            
   RMAX   =    1.529    core radius for proj-oper                               
   RAUG   =    1.300    factor for augmentation sphere                          
   RDEP   =    1.501    radius for radial grids                                 
   RDEPT  =    1.300    core radius for aug-charge                              
                                                                                
   Atomic configuration                                                         
    4 entries                                                                   
     n  l   j            E        occ.                                          
     1  0  0.50      -273.3789   2.0000                                         
     2  0  0.50       -13.7508   2.0000                                         
     2  1  0.50        -5.2854   2.0000                                         
     3  2  1.50        -5.4423   0.0000                                         
   Description                                                                  
     l       E           TYP  RCUT    TYP  RCUT                                 
     0    -13.7508458     23  1.200                                             
     0     -8.2022199     23  1.200                                             
     1     -5.2854383     23  1.500                                             
     1     34.0145650     23  1.500                                             
     2     -5.4423304      7  1.500                                             
  local pseudopotential read in
  partial core-charges read in
  partial kinetic energy density read in
  atomic valenz-charges read in
  non local Contribution for L=           0  read in
    real space projection operators read in
  non local Contribution for L=           0  read in
    real space projection operators read in
  non local Contribution for L=           1  read in
    real space projection operators read in
  non local Contribution for L=           1  read in
    real space projection operators read in
    PAW grid and wavefunctions read in
 
   number of l-projection  operators is LMAX  =           4
   number of lm-projection operators is LMMAX =           8
 
 POTCAR:    PAW_PBE Li_sv 10Sep2004               
   VRHFIN =Li: 1s2s2p                                                           
   LEXCH  = PE                                                                  
   EATOM  =   202.7858 eV,   14.9043 Ry                                         
                                                                                
   TITEL  = PAW_PBE Li_sv 10Sep2004                                             
   LULTRA =        F    use ultrasoft PP ?                                      
   IUNSCR =        0    unscreen: 0-lin 1-nonlin 2-no                           
   RPACOR =    0.000    partial core radius                                     
   POMASS =    7.010; ZVAL   =    3.000    mass and valenz                      
   RCORE  =    1.700    outmost cutoff radius                                   
   RWIGS  =    2.050; RWIGS  =    1.085    wigner-seitz radius (au A)           
   ENMAX  =  499.034; ENMIN  =  374.276 eV                                      
   ICORE  =        2    local potential                                         
   LCOR   =        T    correct aug charges                                     
   LPAW   =        T    paw PP                                                  
   EAUG   =  628.945                                                            
   RMAX   =    1.732    core radius for proj-oper                               
   RAUG   =    1.300    factor for augmentation sphere                          
   RDEP   =    1.728    radius for radial grids                                 
   RDEPT  =    1.329    core radius for aug-charge                              
                                                                                
   Atomic configuration                                                         
    4 entries                                                                   
     n  l   j            E        occ.                                          
     1  0  0.50       -51.8549   2.0000                                         
     2  0  0.50        -2.8742   1.0000                                         
     2  1  0.50        -1.3606   0.0000                                         
     3  2  1.50        -1.3606   0.0000                                         
   Description                                                                  
     l       E           TYP  RCUT    TYP  RCUT                                 
     0    -51.8548813     23  1.400                                             
     0     -2.8742052     23  1.700                                             
     1     -1.3605826     23  1.400                                             
     2     -1.3605826     23  1.400                                             
  local pseudopotential read in
  atomic valenz-charges read in
  non local Contribution for L=           0  read in
    real space projection operators read in
  non local Contribution for L=           0  read in
    real space projection operators read in
  non local Contribution for L=           1  read in
    real space projection operators read in
    PAW grid and wavefunctions read in
 
   number of l-projection  operators is LMAX  =           3
   number of lm-projection operators is LMMAX =           5
 
 Optimization of the real space projectors (new method)

 maximal supplied QI-value         = 25.13
 optimisation between [QCUT,QGAM] = [ 11.56, 23.12] = [ 37.43,149.72] Ry 
 Optimized for a Real-space Cutoff    1.04 Angstroem

   l    n(q)    QCUT    max X(q) W(low)/X(q) W(high)/X(q)  e(spline) 
   0      7    11.561   115.676    0.20E-03    0.60E-03    0.21E-06
   0      7    11.561    87.132    0.20E-03    0.59E-03    0.21E-06
   1      7    11.561     4.429    0.23E-03    0.35E-03    0.15E-06
   1      7    11.561     2.733    0.18E-03    0.25E-03    0.12E-06
 Optimization of the real space projectors (new method)

 maximal supplied QI-value         = 22.11
 optimisation between [QCUT,QGAM] = [ 11.50, 23.22] = [ 37.02,150.92] Ry 
 Optimized for a Real-space Cutoff    1.08 Angstroem

   l    n(q)    QCUT    max X(q) W(low)/X(q) W(high)/X(q)  e(spline) 
   0      7    11.497    10.506    0.36E-04    0.62E-04    0.14E-07
   0      7    11.497     8.367    0.65E-04    0.14E-03    0.28E-07
   1      7    11.497     8.983    0.21E-03    0.43E-03    0.90E-07
  PAW_PBE C 08Apr2002                   :
 energy of atom  1       EATOM= -147.1560
 kinetic energy error for atom=    0.0071 (will be added to EATOM!!)
  PAW_PBE Li_sv 10Sep2004               :
 energy of atom  2       EATOM= -202.7858
 kinetic energy error for atom=    0.0130 (will be added to EATOM!!)
 
 
 POSCAR: C  Li                                   
  positions in direct lattice
  velocities in cartesian coordinates
 exchange correlation table for  LEXCH =        8
   RHO(1)=    0.500       N(1)  =     2000
   RHO(2)=  100.500       N(2)  =     4000
 


--------------------------------------------------------------------------------------------------------


 ion  position               nearest neighbor table
   1  0.002  0.005  0.500-  11 1.41  40 1.42  23 1.42
   2  0.000  0.204  0.497-  40 1.42   3 1.43  42 1.44
   3  0.135  0.269  0.497-  14 1.41  37 1.43   2 1.43
   4  0.993  0.402  0.498-  42 1.42   5 1.46  44 1.49
   5  0.130  0.467  0.498-  16 1.41  14 1.46   4 1.46
   6  0.995  0.601  0.505-   7 1.43  46 1.43  44 1.43
   7  0.129  0.665  0.501-  18 1.43   6 1.43  16 1.43
   8  0.002  0.805  0.505-   9 1.41  11 1.42  46 1.42
   9  0.134  0.869  0.500-   8 1.41  10 1.42  18 1.42
  10  0.201  0.002  0.498-  12 1.42   9 1.42  23 1.42
  11  0.936  0.873  0.503-   1 1.41   8 1.42  47 1.42
  12  0.334  0.067  0.497-  10 1.42  20 1.42  22 1.42
  13  0.338  0.269  0.497-  22 1.42  25 1.42  37 1.44
  14  0.201  0.402  0.498-   3 1.41   5 1.46  15 1.46
  15  0.337  0.467  0.498-  48 1.41  14 1.46  25 1.46
  16  0.198  0.600  0.499-   5 1.41   7 1.43  17 1.44
  17  0.333  0.665  0.498-  28 1.41  48 1.44  16 1.44
  18  0.198  0.799  0.500-  19 1.42   9 1.42   7 1.43
  19  0.331  0.864  0.498-  20 1.41  18 1.42  28 1.43
  20  0.398  0.997  0.497-  19 1.41  21 1.42  12 1.42
  21  0.531  0.061  0.496-  32 1.39  20 1.42  30 1.42
  22  0.402  0.200  0.497-  13 1.42  12 1.42  24 1.43
  23  0.136  0.070  0.498-  37 1.42   1 1.42  10 1.42
  24  0.536  0.264  0.497-  34 1.41  32 1.41  22 1.43
  25  0.409  0.402  0.498-  13 1.42  15 1.46  26 1.49
  26  0.549  0.468  0.500-  35 1.43  25 1.49  34 1.49
  27  0.536  0.665  0.501-  38 1.43  35 1.43  48 1.43
  28  0.399  0.798  0.498-  17 1.41  29 1.43  19 1.43
  29  0.533  0.864  0.498-  30 1.41  38 1.42  28 1.43
  30  0.599  0.997  0.497-  29 1.41  21 1.42  31 1.42
  31  0.732  0.067  0.497-  39 1.42  30 1.42  41 1.42
  32  0.596  0.192  0.496-  21 1.39  33 1.41  24 1.41
  33  0.728  0.264  0.497-  43 1.41  32 1.41  41 1.43  50 2.14
  34  0.616  0.395  0.498-  24 1.41  26 1.49  43 2.00
  35  0.606  0.601  0.505-  27 1.43  36 1.43  26 1.43
  36  0.739  0.673  0.511-  45 1.40  47 1.42  35 1.43
  37  0.203  0.204  0.497-  23 1.42   3 1.43  13 1.44
  38  0.601  0.799  0.500-  29 1.42  49 1.42  27 1.43
  39  0.801  0.002  0.498-  31 1.42  49 1.42  40 1.42
  40  0.935  0.070  0.498-   2 1.42   1 1.42  39 1.42
  41  0.798  0.200  0.497-  42 1.42  31 1.42  33 1.43
  42  0.931  0.269  0.497-  41 1.42   4 1.42   2 1.44
  43  0.779  0.395  0.498-  33 1.41  44 1.49  50 1.77  34 2.00
  44  0.919  0.468  0.500-   6 1.43   4 1.49  43 1.49  50 2.33
  45  0.808  0.616  0.524-  36 1.40  46 1.40
  46  0.935  0.673  0.511-  45 1.40   8 1.42   6 1.43
  47  0.803  0.805  0.505-  49 1.41  11 1.42  36 1.42
  48  0.402  0.600  0.499-  15 1.41  27 1.43  17 1.44
  49  0.735  0.869  0.500-  47 1.41  39 1.42  38 1.42
  50  0.771  0.373  0.557-  43 1.77  33 2.14  44 2.33
 

IMPORTANT INFORMATION: All symmetrisations will be switched off!
NOSYMM: (Re-)initialisation of all symmetry stuff for point group C_1.

 
 
 KPOINTS: Automatic mesh                          

Automatic generation of k-mesh.
Space group operators:
 irot       det(A)        alpha          n_x          n_y          n_z        tau_x        tau_y        tau_z
    1     1.000000     0.000001     1.000000     0.000000     0.000000     0.000000     0.000000     0.000000
 
 Subroutine IBZKPT returns following result:
 ===========================================
 
 Found      5 irreducible k-points:
 
 Following reciprocal coordinates:
            Coordinates               Weight
  0.000000  0.000000  0.000000      1.000000
  0.333333 -0.000000  0.000000      2.000000
  0.000000  0.333333  0.000000      2.000000
  0.333333  0.333333  0.000000      2.000000
 -0.333333  0.333333  0.000000      2.000000
 
 Following cartesian coordinates:
            Coordinates               Weight
  0.000000  0.000000  0.000000      1.000000
  0.027100  0.015646  0.000000      2.000000
  0.000000  0.031293  0.000000      2.000000
  0.027100  0.046939  0.000000      2.000000
 -0.027100  0.015646  0.000000      2.000000
 


--------------------------------------------------------------------------------------------------------




 Dimension of arrays:
   k-points           NKPTS =      5   k-points in BZ     NKDIM =      5   number of bands    NBANDS=    128
   number of dos      NEDOS =    301   number of ions     NIONS =     50
   non local maximal  LDIM  =      4   non local SUM 2l+1 LMDIM =      8
   total plane-waves  NPLWV = ******
   max r-space proj   IRMAX =   2789   max aug-charges    IRDMAX=  51672
   dimension x,y,z NGX =    96 NGY =   96 NGZ =  224
   dimension x,y,z NGXF=   192 NGYF=  192 NGZF=  448
   support grid    NGXF=   384 NGYF=  384 NGZF=  896
   ions per type =              49   1
 NGX,Y,Z   is equivalent  to a cutoff of  12.98, 12.98, 12.41 a.u.
 NGXF,Y,Z  is equivalent  to a cutoff of  25.95, 25.95, 24.83 a.u.


 I would recommend the setting:
   dimension x,y,z NGX =    91 NGY =   91 NGZ =  223
 SYSTEM =  Li defective graphene MACE training lab 
 POSCAR =  C  Li                                   

 Startparameter for this run:
   NWRITE =      2    write-flag & timer
   PREC   = accura    normal or accurate (medium, high low for compatibility)
   ISTART =      0    job   : 0-new  1-cont  2-samecut
   ICHARG =      2    charge: 1-file 2-atom 10-const
   ISPIN  =      2    spin polarized calculation?
   LNONCOLLINEAR =      F non collinear calculations
   LSORBIT =      F    spin-orbit coupling
   INIWAV =      1    electr: 0-lowe 1-rand  2-diag
   LASPH  =      T    aspherical Exc in radial PAW
   METAGGA=      F    non-selfconsistent MetaGGA calc.

 Electronic Relaxation 1
   ENCUT  =  520.0 eV  38.22 Ry    6.18 a.u.  22.87 22.87 55.78*2*pi/ulx,y,z
   ENINI  =  520.0     initial cutoff
   ENAUG  =  644.9 eV  augmentation charge cutoff
   NELM   =    120;   NELMIN=  2; NELMDL= -5     # of ELM steps 
   EDIFF  = 0.1E-05   stopping-criterion for ELM
   LREAL  =      T    real-space projection
   NLSPLINE    = F    spline interpolate recip. space projectors
   LCOMPAT=      F    compatible to vasp.4.4
   GGA_COMPAT  = T    GGA compatible to vasp.4.4-vasp.4.6
   LMAXPAW     = -100 max onsite density
   LMAXMIX     =    2 max onsite mixed and CHGCAR
   VOSKOWN=      0    Vosko Wilk Nusair interpolation
   ROPT   =   -0.00025  -0.00025
 Ionic relaxation
   EDIFFG = 0.1E-04   stopping-criterion for IOM
   NSW    =      0    number of steps for IOM
   NBLOCK =      1;   KBLOCK =      1    inner block; outer block 
   IBRION =     -1    ionic relax: 0-MD 1-quasi-New 2-CG
   NFREE  =      0    steps in history (QN), initial steepest desc. (CG)
   ISIF   =      2    stress and relaxation
   IWAVPR =     10    prediction:  0-non 1-charg 2-wave 3-comb
   ISYM   =      0    0-nonsym 1-usesym 2-fastsym
   LCORR  =      T    Harris-Foulkes like correction to forces

   POTIM  = 0.5000    time-step for ionic-motion
   TEIN   =    0.0    initial temperature
   TEBEG  =    0.0;   TEEND  =   0.0 temperature during run
   SMASS  =  -3.00    Nose mass-parameter (am)
   estimated Nose-frequenzy (Omega)   =  0.10E-29 period in steps =****** mass=  -0.346E-26a.u.
   SCALEE = 1.0000    scale energy and forces
   NPACO  =    256;   APACO  = 16.0  distance and # of slots for P.C.
   PSTRESS=    0.0 pullay stress

  Mass of Ions in am
   POMASS =  12.01  7.01
  Ionic Valenz
   ZVAL   =   4.00  3.00
  Atomic Wigner-Seitz radii
   RWIGS  =  -1.00 -1.00
  virtual crystal weights 
   VCA    =   1.00  1.00
   NELECT =     199.0000    total number of electrons
   NUPDOWN=      -1.0000    fix difference up-down

 DOS related values:
   EMIN   =  10.00;   EMAX   =-10.00  energy-range for DOS
   EFERMI =   0.00
   ISMEAR =     0;   SIGMA  =   0.05  broadening in eV -4-tet -1-fermi 0-gaus

 Electronic relaxation 2 (details)
   IALGO  =     38    algorithm
   LDIAG  =      T    sub-space diagonalisation (order eigenvalues)
   LSUBROT=      F    optimize rotation matrix (better conditioning)
   TURBO    =      0    0=normal 1=particle mesh
   IRESTART =      0    0=no restart 2=restart with 2 vectors
   NREBOOT  =      0    no. of reboots
   NMIN     =      0    reboot dimension
   EREF     =   0.00    reference energy to select bands
   IMIX   =      4    mixing-type and parameters
     AMIX     =   0.40;   BMIX     =  1.00
     AMIX_MAG =   1.60;   BMIX_MAG =  1.00
     AMIN     =   0.10
     WC   =   100.;   INIMIX=   1;  MIXPRE=   1;  MAXMIX= -45

 Intra band minimization:
   WEIMIN = 0.0000     energy-eigenvalue tresh-hold
   EBREAK =  0.20E-08  absolut break condition
   DEPER  =   0.30     relativ break condition  

   TIME   =   0.40     timestep for ELM

  volume/ion in A,a.u.               =      78.61       530.50
  Fermi-wavevector in a.u.,A,eV,Ry     =   0.605627  1.144469  4.990398  0.366784
  Thomas-Fermi vector in A             =   1.659421
 
 Write flags
   LWAVE  =      F    write WAVECAR
   LCHARG =      F    write CHGCAR
   LVTOT  =      F    write LOCPOT, total local potential
   LVHAR  =      F    write LOCPOT, Hartree potential only
   LELF   =      F    write electronic localiz. function (ELF)
   LORBIT =      0    0 simple, 1 ext, 2 COOP (PROOUT)


 Dipole corrections
   LMONO  =      F    monopole corrections only (constant potential shift)
   LDIPOL =      F    correct potential (dipole corrections)
   IDIPOL =      0    1-x, 2-y, 3-z, 4-all directions 
   EPSILON=  1.0000000 bulk dielectric constant

 Exchange correlation treatment:
   GGA     =    --    GGA type
   LEXCH   =     8    internal setting for exchange type
   VOSKOWN=      0    Vosko Wilk Nusair interpolation
   LHFCALC =     F    Hartree Fock is set to
   LHFONE  =     F    Hartree Fock one center treatment
   AEXX    =    0.0000 exact exchange contribution

 Linear response parameters
   LEPSILON=     F    determine dielectric tensor
   LRPA    =     F    only Hartree local field effects (RPA)
   LNABLA  =     F    use nabla operator in PAW spheres
   LVEL    =     F    velocity operator in full k-point grid
   LINTERFAST=   F  fast interpolation
   KINTER  =     0    interpolate to denser k-point grid
   CSHIFT  =0.1000    complex shift for real part using Kramers Kronig
   OMEGAMAX=  -1.0    maximum frequency
   DEG_THRESHOLD= 0.2000000E-02 threshold for treating states as degnerate
   RTIME   =    0.100 relaxation time in fs

 Orbital magnetization related:
   ORBITALMAG=     F  switch on orbital magnetization
   LCHIMAG   =     F  perturbation theory with respect to B field
   DQ        =  0.001000  dq finite difference perturbation B field



--------------------------------------------------------------------------------------------------------


 Static calculation
 charge density and potential will be updated during run
 spin polarized calculation
 Variant of blocked Davidson
 Davidson routine will perform the subspace rotation
 perform sub-space diagonalisation
    after iterative eigenvector-optimisation
 modified Broyden-mixing scheme, WC =      100.0
 initial mixing is a Kerker type mixing with AMIX =  0.4000 and BMIX =      1.0000
 Hartree-type preconditioning will be used
 using additional bands           28
 real space projection scheme for non local part
 use partial core corrections
 calculate Harris-corrections to forces 
   (improved forces if not selfconsistent)
 use gradient corrections 
 use of overlap-Matrix (Vanderbilt PP)
 Gauss-broadening in eV      SIGMA  =   0.05


--------------------------------------------------------------------------------------------------------


  energy-cutoff  :      520.00
  volume of cell :     3930.63
      direct lattice vectors                 reciprocal lattice vectors
    12.300000000  0.000000000  0.000000000     0.081300813  0.046939046  0.000000000
    -6.150000000 10.652112467  0.000000000     0.000000000  0.093878093  0.000000000
     0.000000000  0.000000000 30.000000000     0.000000000  0.000000000  0.033333333

  length of vectors
    12.300000000 12.300000000 30.000000000     0.093878093  0.093878093  0.033333333


 
 k-points in units of 2pi/SCALE and weight: Automatic mesh                          
   0.00000000  0.00000000  0.00000000       0.111
   0.02710027  0.01564635  0.00000000       0.222
   0.00000000  0.03129270  0.00000000       0.222
   0.02710027  0.04693905  0.00000000       0.222
  -0.02710027  0.01564635  0.00000000       0.222
 
 k-points in reciprocal lattice and weights: Automatic mesh                          
   0.00000000  0.00000000  0.00000000       0.111
   0.33333333 -0.00000000  0.00000000       0.222
   0.00000000  0.33333333  0.00000000       0.222
   0.33333333  0.33333333  0.00000000       0.222
  -0.33333333  0.33333333  0.00000000       0.222
 
 position of ions in fractional coordinates (direct lattice) 
   0.00241675  0.00483448  0.49955969
   0.00047808  0.20354369  0.49708490
   0.13463609  0.26927074  0.49721905
   0.99251997  0.40198658  0.49835808
   0.12960135  0.46710097  0.49846242
   0.99540656  0.60140123  0.50494583
   0.12931837  0.66539858  0.50116589
   0.00219701  0.80536586  0.50450399
   0.13445484  0.86909391  0.50034337
   0.20142472  0.00220199  0.49809883
   0.93629167  0.87258305  0.50349194
   0.33442020  0.06674621  0.49699704
   0.33780229  0.26891012  0.49715611
   0.20094230  0.40188479  0.49784824
   0.33749957  0.46710116  0.49846275
   0.19777702  0.59962370  0.49888439
   0.33250809  0.66501671  0.49837366
   0.19808171  0.79919043  0.50020985
   0.33124695  0.86398847  0.49815780
   0.39771561  0.99668493  0.49685870
   0.53064147  0.06128312  0.49599153
   0.40237348  0.20038227  0.49691357
   0.13594450  0.07045562  0.49801649
   0.53625545  0.26422682  0.49673049
   0.40946572  0.40198596  0.49835855
   0.54883905  0.46793449  0.50034638
   0.53607948  0.66539893  0.50116650
   0.39888492  0.79776914  0.49816137
   0.53274075  0.86398815  0.49815849
   0.59896972  0.99668492  0.49685896
   0.73232587  0.06674688  0.49699773
   0.59585928  0.19171921  0.49571791
   0.72797051  0.26422719  0.49673137
   0.61605989  0.39512436  0.49826195
   0.60599398  0.60140207  0.50494646
   0.73898476  0.67348731  0.51141615
   0.20306558  0.20354364  0.49708475
   0.60110866  0.79919002  0.50021035
   0.80077774  0.00220153  0.49809858
   0.93451202  0.07045564  0.49801598
   0.79800901  0.20038199  0.49691389
   0.93110804  0.26891088  0.49715507
   0.77906601  0.39512445  0.49826169
   0.91909509  0.46793455  0.50034557
   0.80783333  0.61566627  0.52409629
   0.93450279  0.67348741  0.51141558
   0.80316869  0.80536493  0.50450437
   0.40184557  0.59962381  0.49888479
   0.73463922  0.86909291  0.50034273
   0.77055009  0.37330824  0.55659087
 
 position of ions in cartesian coordinates  (Angst):
  -0.00000599  0.05149742 14.98679064
  -1.24591331  2.16817024 14.91254696
   0.00000881  2.86830222 14.91657143
   9.73577819  4.28200630 14.95074231
  -1.27857440  4.97561211 14.95387274
   8.54488313  6.40619358 15.14837489
  -2.50158525  7.08790048 15.03497666
  -4.92597682  8.57884775 15.13511964
  -3.69113295  9.25768607 15.01030100
   2.46398179  0.02345587 14.94296500
   6.15000178  9.29485275 15.10475821
   3.70287922  0.71098815 14.90991120
   2.50117092  2.86446084 14.91468344
  -0.00000117  4.28092203 14.93544731
   1.27857259  4.97561414 14.95388260
  -1.25502840  6.38725912 14.96653165
  -0.00000327  7.08383275 14.95120972
  -2.47861609  8.51306635 15.00629543
  -1.23919156  9.20330231 14.94473410
  -1.23771036 10.61679996 14.90576109
   6.14999887  0.65279466 14.87974598
   3.71684287  2.13449443 14.90740715
   1.23881526  0.75050121 14.94049468
   4.97094706  2.81457385 14.90191455
   2.56421476  4.28199965 14.95075649
   3.87292320  4.98449078 15.01039155
   2.50157416  7.08790423 15.03499494
   0.00000428  8.49792657 14.94484097
   1.23918405  9.20329896 14.94475477
   1.23771537 10.61679983 14.90576889
   8.59711493  0.71099525 14.90993189
   6.14999595  2.04221462 14.87153740
   7.32904002  2.81457773 14.90194099
   5.14752182  4.20890917 14.94785856
   3.75510324  6.40620250 15.14839376
   4.94756558  7.17406262 15.34248441
   1.24591327  2.16816971 14.91254263
   2.47861790  8.51306201 15.00631037
   9.83602685  0.02345093 14.94295725
  11.06119569  0.75050141 14.94047939
   8.58316155  2.13449150 14.90741679
   9.79882704  2.86446893 14.91465210
   7.15249651  4.20891008 14.94785078
   8.42707215  4.98449141 15.01036718
   6.15000244  6.55814634 15.72288876
   7.35243678  7.17406368 15.34246747
   4.92598060  8.57883780 15.13513104
   1.25501405  6.38726026 14.96654364
   3.69114109  9.25767538 15.01028188
   7.18192043  3.97652135 16.69772617
 


--------------------------------------------------------------------------------------------------------


 k-point  1 :   0.0000 0.0000 0.0000  plane waves:  105831
 k-point  2 :   0.3333-0.0000 0.0000  plane waves:  105834
 k-point  3 :   0.0000 0.3333 0.0000  plane waves:  105834
 k-point  4 :   0.3333 0.3333 0.0000  plane waves:  105861
 k-point  5 :  -0.3333 0.3333 0.0000  plane waves:  105834

 maximum and minimum number of plane-waves per node :     26501    26424

 maximum number of plane-waves:    105861
 maximum index in each direction: 
   IXMAX=   23   IYMAX=   22   IZMAX=   55
   IXMIN=  -23   IYMIN=  -23   IZMIN=  -55

 NGX is ok and might be reduce to  94
 NGY is ok and might be reduce to  92
 NGZ is ok and might be reduce to 222

 real space projection operators:
  total allocation   :       7549.61 KBytes
  max/ min on nodes  :       1889.57       1884.47


 parallel 3D FFT for wavefunctions:
    minimum data exchange during FFTs selected (reduces bandwidth)
 parallel 3D FFT for charge:
    minimum data exchange during FFTs selected (reduces bandwidth)


 total amount of memory used by VASP on root node   460879. kBytes
========================================================================

   base      :      30000. kBytes
   nonlr-proj:       4670. kBytes
   fftplans  :     165810. kBytes
   grid      :     124231. kBytes
   one-center:         79. kBytes
   wavefun   :     136089. kBytes
 
     INWAV:  cpu time    0.0000: real time    0.0002
 Broyden mixing: mesh for mixing (old mesh)
   NGX = 45   NGY = 45   NGZ =111
  (NGX  =192   NGY  =192   NGZ  =448)
  gives a total of 224775 points

 initial charge density was supplied:
 charge density of overlapping atoms calculated
 number of electron     199.0000000 magnetization       5.9000000
 keeping initial charge density in first step


--------------------------------------------------------------------------------------------------------


 Maximum index for non-local projection operator          653
 Maximum index for augmentation-charges         3149 (set IRDMAX)


--------------------------------------------------------------------------------------------------------


 First call to EWALD:  gamma=   0.112
 Maximum number of real-space cells 4x 4x 2
 Maximum number of reciprocal cells 2x 2x 5

 FEWALD executed in parallel
    FEWALD:  cpu time    0.0823: real time    0.0833


----------------------------------------- Iteration    1(   1)  ---------------------------------------


    POTLOK:  cpu time    1.4447: real time    1.4449
    SETDIJ:  cpu time    1.3264: real time    1.3277
     EDDAV:  cpu time   43.5323: real time   43.5572
       DOS:  cpu time    0.0010: real time    0.0014
    --------------------------------------------
      LOOP:  cpu time   46.3055: real time   46.3338

 eigenvalue-minimisations  :  3144
 total energy-change (2. order) : 0.1909174E+04  (-0.6608614E+04)
 number of electron     199.0000000 magnetization       5.9000000
 augmentation part      199.0000000 magnetization       5.9000000

 Free energy of the ion-electron system (eV)
  ---------------------------------------------------
  alpha Z        PSCENC =        51.33532475
  Ewald energy   TEWEN  =     54526.16805917
  -Hartree energ DENC   =    -59690.45510848
  -exchange      EXHF   =         0.00000000
  -V(xc)+E(xc)   XCENC  =       656.51420458
  PAW double counting   =      5397.03696553    -5440.27338102
  entropy T*S    EENTRO =        -0.03093591
  eigenvalues    EBANDS =     -1004.19013685
  atomic energy  EATOM  =      7413.06861924
  Solvation  Ediel_sol  =         0.00000000
  ---------------------------------------------------
  free energy    TOTEN  =      1909.17361103 eV

  energy without entropy =     1909.20454693  energy(sigma->0) =     1909.18907898


--------------------------------------------------------------------------------------------------------




----------------------------------------- Iteration    1(   2)  ---------------------------------------


     EDDAV:  cpu time   52.3586: real time   52.3622
       DOS:  cpu time    0.0005: real time    0.0005
    --------------------------------------------
      LOOP:  cpu time   52.3597: real time   52.3836

 eigenvalue-minimisations  :  3928
 total energy-change (2. order) :-0.1856202E+04  (-0.1722381E+04)
 number of electron     199.0000000 magnetization       5.9000000
 augmentation part      199.0000000 magnetization       5.9000000

 Free energy of the ion-electron system (eV)
  ---------------------------------------------------
  alpha Z        PSCENC =        51.33532475
  Ewald energy   TEWEN  =     54526.16805917
  -Hartree energ DENC   =    -59690.45510848
  -exchange      EXHF   =         0.00000000
  -V(xc)+E(xc)   XCENC  =       656.51420458
  PAW double counting   =      5397.03696553    -5440.27338102
  entropy T*S    EENTRO =        -0.00779411
  eigenvalues    EBANDS =     -2860.41522864
  atomic energy  EATOM  =      7413.06861924
  Solvation  Ediel_sol  =         0.00000000
  ---------------------------------------------------
  free energy    TOTEN  =        52.97166103 eV

  energy without entropy =       52.97945515  energy(sigma->0) =       52.97555809


--------------------------------------------------------------------------------------------------------




----------------------------------------- Iteration    1(   3)  ---------------------------------------


     EDDAV:  cpu time   45.7597: real time   45.7937
       DOS:  cpu time    0.0005: real time    0.0005
    --------------------------------------------
      LOOP:  cpu time   45.7607: real time   45.7976

 eigenvalue-minimisations  :  3336
 total energy-change (2. order) :-0.5006171E+03  (-0.4968420E+03)
 number of electron     199.0000000 magnetization       5.9000000
 augmentation part      199.0000000 magnetization       5.9000000

 Free energy of the ion-electron system (eV)
  ---------------------------------------------------
  alpha Z        PSCENC =        51.33532475
  Ewald energy   TEWEN  =     54526.16805917
  -Hartree energ DENC   =    -59690.45510848
  -exchange      EXHF   =         0.00000000
  -V(xc)+E(xc)   XCENC  =       656.51420458
  PAW double counting   =      5397.03696553    -5440.27338102
  entropy T*S    EENTRO =        -0.00739365
  eigenvalues    EBANDS =     -3361.03276904
  atomic energy  EATOM  =      7413.06861924
  Solvation  Ediel_sol  =         0.00000000
  ---------------------------------------------------
  free energy    TOTEN  =      -447.64547890 eV

  energy without entropy =     -447.63808526  energy(sigma->0) =     -447.64178208


--------------------------------------------------------------------------------------------------------




----------------------------------------- Iteration    1(   4)  ---------------------------------------


     EDDAV:  cpu time   45.9106: real time   45.9192
       DOS:  cpu time    0.0005: real time    0.0005
    --------------------------------------------
      LOOP:  cpu time   45.9116: real time   45.9235

 eigenvalue-minimisations  :  3328
 total energy-change (2. order) :-0.2839705E+02  (-0.2793451E+02)
 number of electron     199.0000000 magnetization       5.9000000
 augmentation part      199.0000000 magnetization       5.9000000

 Free energy of the ion-electron system (eV)
  ---------------------------------------------------
  alpha Z        PSCENC =        51.33532475
  Ewald energy   TEWEN  =     54526.16805917
  -Hartree energ DENC   =    -59690.45510848
  -exchange      EXHF   =         0.00000000
  -V(xc)+E(xc)   XCENC  =       656.51420458
  PAW double counting   =      5397.03696553    -5440.27338102
  entropy T*S    EENTRO =        -0.00351466
  eigenvalues    EBANDS =     -3389.43369785
  atomic energy  EATOM  =      7413.06861924
  Solvation  Ediel_sol  =         0.00000000
  ---------------------------------------------------
  free energy    TOTEN  =      -476.04252873 eV

  energy without entropy =     -476.03901407  energy(sigma->0) =     -476.04077140


--------------------------------------------------------------------------------------------------------




----------------------------------------- Iteration    1(   5)  ---------------------------------------


     EDDAV:  cpu time   52.9501: real time   52.9557
       DOS:  cpu time    0.0004: real time    0.0004
    CHARGE:  cpu time    4.3067: real time    4.3075
    MIXING:  cpu time    0.0399: real time    0.0399
    --------------------------------------------
      LOOP:  cpu time   57.2976: real time   57.3061

 eigenvalue-minimisations  :  3968
 total energy-change (2. order) :-0.1182371E+01  (-0.1167093E+01)
 number of electron     199.0000000 magnetization       5.5382091
 augmentation part        6.1901295 magnetization       5.0106470

 Broyden mixing:
  rms(total) = 0.32637E+01    rms(broyden)= 0.32633E+01
  rms(prec ) = 0.33635E+01
  weight for this iteration     100.00

 Free energy of the ion-electron system (eV)
  ---------------------------------------------------
  alpha Z        PSCENC =        51.33532475
  Ewald energy   TEWEN  =     54526.16805917
  -Hartree energ DENC   =    -59690.45510848
  -exchange      EXHF   =         0.00000000
  -V(xc)+E(xc)   XCENC  =       656.51420458
  PAW double counting   =      5397.03696553    -5440.27338102
  entropy T*S    EENTRO =        -0.00421166
  eigenvalues    EBANDS =     -3390.61537138
  atomic energy  EATOM  =      7413.06861924
  Solvation  Ediel_sol  =         0.00000000
  ---------------------------------------------------
  free energy    TOTEN  =      -477.22489926 eV

  energy without entropy =     -477.22068760  energy(sigma->0) =     -477.22279343


--------------------------------------------------------------------------------------------------------




----------------------------------------- Iteration    1(   6)  ---------------------------------------


    POTLOK:  cpu time    1.5122: real time    1.5133
    SETDIJ:  cpu time    1.3815: real time    1.3825
     EDDAV:  cpu time   39.9390: real time   39.9425
       DOS:  cpu time    0.0005: real time    0.0005
    CHARGE:  cpu time    4.3047: real time    4.3050
    MIXING:  cpu time    0.0550: real time    0.0550
    --------------------------------------------
      LOOP:  cpu time   47.1934: real time   47.2024

 eigenvalue-minimisations  :  2832
 total energy-change (2. order) : 0.2344036E+02  (-0.2770559E+01)
 number of electron     199.0000000 magnetization       5.1175625
 augmentation part        5.9703230 magnetization       4.1966285

 Broyden mixing:
  rms(total) = 0.18928E+01    rms(broyden)= 0.18927E+01
  rms(prec ) = 0.19464E+01
  weight for this iteration     100.00

 eigenvalues of (default mixing * dielectric matrix)
  average eigenvalue GAMMA=   0.9431
  0.9431

 Free energy of the ion-electron system (eV)
  ---------------------------------------------------
  alpha Z        PSCENC =        51.33532475
  Ewald energy   TEWEN  =     54526.16805917
  -Hartree energ DENC   =    -59978.48214816
  -exchange      EXHF   =         0.00000000
  -V(xc)+E(xc)   XCENC  =       669.01978617
  PAW double counting   =      9750.10462694    -9797.09462600
  entropy T*S    EENTRO =        -0.00544674
  eigenvalues    EBANDS =     -3087.89873267
  atomic energy  EATOM  =      7413.06861924
  Solvation  Ediel_sol  =         0.00000000
  ---------------------------------------------------
  free energy    TOTEN  =      -453.78453729 eV

  energy without entropy =     -453.77909055  energy(sigma->0) =     -453.78181392


--------------------------------------------------------------------------------------------------------




----------------------------------------- Iteration    1(   7)  ---------------------------------------


    POTLOK:  cpu time    1.4999: real time    1.5012
    SETDIJ:  cpu time    1.3862: real time    1.3873
     EDDAV:  cpu time   40.6191: real time   40.6459
       DOS:  cpu time    0.0004: real time    0.0004
    CHARGE:  cpu time    4.3171: real time    4.3212
    MIXING:  cpu time    0.0499: real time    0.0499
    --------------------------------------------
      LOOP:  cpu time   47.8732: real time   47.9087

 eigenvalue-minimisations  :  2896
 total energy-change (2. order) : 0.1056286E+02  (-0.1763041E+01)
 number of electron     199.0000000 magnetization       4.6838921
 augmentation part        5.7861830 magnetization       3.6984925

 Broyden mixing:
  rms(total) = 0.10223E+01    rms(broyden)= 0.10222E+01
  rms(prec ) = 0.10420E+01
  weight for this iteration     100.00

 eigenvalues of (default mixing * dielectric matrix)
  average eigenvalue GAMMA=   1.4016
  0.6625  2.1406

 Free energy of the ion-electron system (eV)
  ---------------------------------------------------
  alpha Z        PSCENC =        51.33532475
  Ewald energy   TEWEN  =     54526.16805917
  -Hartree energ DENC   =    -60220.26190702
  -exchange      EXHF   =         0.00000000
  -V(xc)+E(xc)   XCENC  =       681.53874564
  PAW double counting   =     14603.31709280   -14652.35971118
  entropy T*S    EENTRO =        -0.00007599
  eigenvalues    EBANDS =     -2846.02782555
  atomic energy  EATOM  =      7413.06861924
  Solvation  Ediel_sol  =         0.00000000
  ---------------------------------------------------
  free energy    TOTEN  =      -443.22167813 eV

  energy without entropy =     -443.22160214  energy(sigma->0) =     -443.22164013


--------------------------------------------------------------------------------------------------------




----------------------------------------- Iteration    1(   8)  ---------------------------------------


    POTLOK:  cpu time    1.4953: real time    1.4967
    SETDIJ:  cpu time    1.3829: real time    1.3835
     EDDAV:  cpu time   41.1833: real time   41.1881
       DOS:  cpu time    0.0004: real time    0.0004
    CHARGE:  cpu time    4.3269: real time    4.3273
    MIXING:  cpu time    0.0607: real time    0.0607
    --------------------------------------------
      LOOP:  cpu time   48.4501: real time   48.4599

 eigenvalue-minimisations  :  2944
 total energy-change (2. order) : 0.8892697E+00  (-0.6069425E+00)
 number of electron     199.0000000 magnetization       4.3635117
 augmentation part        5.6372116 magnetization       3.3896126

 Broyden mixing:
  rms(total) = 0.40392E+00    rms(broyden)= 0.40384E+00
  rms(prec ) = 0.41780E+00
  weight for this iteration     100.00

 eigenvalues of (default mixing * dielectric matrix)
  average eigenvalue GAMMA=   1.3234
  2.2254  1.0763  0.6684

 Free energy of the ion-electron system (eV)
  ---------------------------------------------------
  alpha Z        PSCENC =        51.33532475
  Ewald energy   TEWEN  =     54526.16805917
  -Hartree energ DENC   =    -60393.15635608
  -exchange      EXHF   =         0.00000000
  -V(xc)+E(xc)   XCENC  =       687.72716380
  PAW double counting   =     18739.59580002   -18789.61766387
  entropy T*S    EENTRO =        -0.00001843
  eigenvalues    EBANDS =     -2677.45333698
  atomic energy  EATOM  =      7413.06861924
  Solvation  Ediel_sol  =         0.00000000
  ---------------------------------------------------
  free energy    TOTEN  =      -442.33240838 eV

  energy without entropy =     -442.33238995  energy(sigma->0) =     -442.33239917


--------------------------------------------------------------------------------------------------------




----------------------------------------- Iteration    1(   9)  ---------------------------------------


    POTLOK:  cpu time    1.4930: real time    1.4940
    SETDIJ:  cpu time    1.3877: real time    1.3889
     EDDAV:  cpu time   46.1981: real time   46.2298
       DOS:  cpu time    0.0004: real time    0.0004
    CHARGE:  cpu time    4.2972: real time    4.2998
    MIXING:  cpu time    0.0439: real time    0.0439
    --------------------------------------------
      LOOP:  cpu time   53.4210: real time   53.4593

 eigenvalue-minimisations  :  3408
 total energy-change (2. order) :-0.6476466E+00  (-0.1005321E+00)
 number of electron     199.0000000 magnetization       4.0299265
 augmentation part        5.6020806 magnetization       3.0605284

 Broyden mixing:
  rms(total) = 0.20576E+00    rms(broyden)= 0.20566E+00
  rms(prec ) = 0.21725E+00
  weight for this iteration     100.00

 eigenvalues of (default mixing * dielectric matrix)
  average eigenvalue GAMMA=   1.3443
  2.3665  1.6317  0.7224  0.6567

 Free energy of the ion-electron system (eV)
  ---------------------------------------------------
  alpha Z        PSCENC =        51.33532475
  Ewald energy   TEWEN  =     54526.16805917
  -Hartree energ DENC   =    -60430.26701174
  -exchange      EXHF   =         0.00000000
  -V(xc)+E(xc)   XCENC  =       687.23783452
  PAW double counting   =     19655.94214262   -19705.52565176
  entropy T*S    EENTRO =        -0.00007003
  eigenvalues    EBANDS =     -2640.93930174
  atomic energy  EATOM  =      7413.06861924
  Solvation  Ediel_sol  =         0.00000000
  ---------------------------------------------------
  free energy    TOTEN  =      -442.98005497 eV

  energy without entropy =     -442.97998494  energy(sigma->0) =     -442.98001996


--------------------------------------------------------------------------------------------------------




----------------------------------------- Iteration    1(  10)  ---------------------------------------


    POTLOK:  cpu time    1.4894: real time    1.4895
    SETDIJ:  cpu time    1.3873: real time    1.3875
     EDDAV:  cpu time   38.7910: real time   38.7943
       DOS:  cpu time    0.0004: real time    0.0004
    CHARGE:  cpu time    4.2930: real time    4.2933
    MIXING:  cpu time    0.0585: real time    0.0585
    --------------------------------------------
      LOOP:  cpu time   46.0201: real time   46.0268

 eigenvalue-minimisations  :  2736
 total energy-change (2. order) :-0.3993276E+00  (-0.2771028E-01)
 number of electron     199.0000000 magnetization       3.8137684
 augmentation part        5.6015374 magnetization       2.8471805

 Broyden mixing:
  rms(total) = 0.11249E+00    rms(broyden)= 0.11247E+00
  rms(prec ) = 0.12605E+00
  weight for this iteration     100.00

 eigenvalues of (default mixing * dielectric matrix)
  average eigenvalue GAMMA=   1.2998
  2.3476  1.8159  0.8458  0.8458  0.6437

 Free energy of the ion-electron system (eV)
  ---------------------------------------------------
  alpha Z        PSCENC =        51.33532475
  Ewald energy   TEWEN  =     54526.16805917
  -Hartree energ DENC   =    -60466.28634217
  -exchange      EXHF   =         0.00000000
  -V(xc)+E(xc)   XCENC  =       687.07538897
  PAW double counting   =     20184.88796947   -20234.11924622
  entropy T*S    EENTRO =        -0.00007780
  eigenvalues    EBANDS =     -2605.50907799
  atomic energy  EATOM  =      7413.06861924
  Solvation  Ediel_sol  =         0.00000000
  ---------------------------------------------------
  free energy    TOTEN  =      -443.37938257 eV

  energy without entropy =     -443.37930477  energy(sigma->0) =     -443.37934367


--------------------------------------------------------------------------------------------------------




----------------------------------------- Iteration    1(  11)  ---------------------------------------


    POTLOK:  cpu time    1.4826: real time    1.4827
    SETDIJ:  cpu time    1.3884: real time    1.3886
     EDDAV:  cpu time   41.9843: real time   41.9876
       DOS:  cpu time    0.0005: real time    0.0005
    CHARGE:  cpu time    4.2895: real time    4.2898
    MIXING:  cpu time    0.0533: real time    0.0533
    --------------------------------------------
      LOOP:  cpu time   49.1991: real time   49.2053

 eigenvalue-minimisations  :  3024
 total energy-change (2. order) :-0.2999821E+00  (-0.8725514E-02)
 number of electron     199.0000000 magnetization       3.5643369
 augmentation part        5.5997850 magnetization       2.6025706

 Broyden mixing:
  rms(total) = 0.79569E-01    rms(broyden)= 0.79565E-01
  rms(prec ) = 0.90702E-01
  weight for this iteration     100.00

 eigenvalues of (default mixing * dielectric matrix)
  average eigenvalue GAMMA=   1.2699
  2.2095  2.2095  0.9315  0.9315  0.6312  0.7061

 Free energy of the ion-electron system (eV)
  ---------------------------------------------------
  alpha Z        PSCENC =        51.33532475
  Ewald energy   TEWEN  =     54526.16805917
  -Hartree energ DENC   =    -60487.29036015
  -exchange      EXHF   =         0.00000000
  -V(xc)+E(xc)   XCENC  =       686.96275656
  PAW double counting   =     20208.26893596   -20257.40528852
  entropy T*S    EENTRO =        -0.00006147
  eigenvalues    EBANDS =     -2584.78735025
  atomic energy  EATOM  =      7413.06861924
  Solvation  Ediel_sol  =         0.00000000
  ---------------------------------------------------
  free energy    TOTEN  =      -443.67936470 eV

  energy without entropy =     -443.67930323  energy(sigma->0) =     -443.67933397


--------------------------------------------------------------------------------------------------------




----------------------------------------- Iteration    1(  12)  ---------------------------------------


    POTLOK:  cpu time    1.4723: real time    1.4726
    SETDIJ:  cpu time    1.3851: real time    1.3852
     EDDAV:  cpu time   39.3376: real time   39.3410
       DOS:  cpu time    0.0004: real time    0.0004
    CHARGE:  cpu time    4.2748: real time    4.2751
    MIXING:  cpu time    0.0645: real time    0.0645
    --------------------------------------------
      LOOP:  cpu time   46.5353: real time   46.5413

 eigenvalue-minimisations  :  2784
 total energy-change (2. order) :-0.3066028E+00  (-0.5390139E-02)
 number of electron     199.0000000 magnetization       3.1321987
 augmentation part        5.5974475 magnetization       2.1734973

 Broyden mixing:
  rms(total) = 0.64659E-01    rms(broyden)= 0.64656E-01
  rms(prec ) = 0.73739E-01
  weight for this iteration     100.00

 eigenvalues of (default mixing * dielectric matrix)
  average eigenvalue GAMMA=   1.3060
  2.3271  2.3271  1.3261  0.9212  0.9212  0.6333  0.6858

 Free energy of the ion-electron system (eV)
  ---------------------------------------------------
  alpha Z        PSCENC =        51.33532475
  Ewald energy   TEWEN  =     54526.16805917
  -Hartree energ DENC   =    -60509.45664145
  -exchange      EXHF   =         0.00000000
  -V(xc)+E(xc)   XCENC  =       686.85674306
  PAW double counting   =     20195.24439657   -20244.30776454
  entropy T*S    EENTRO =        -0.00006360
  eigenvalues    EBANDS =     -2562.89464072
  atomic energy  EATOM  =      7413.06861924
  Solvation  Ediel_sol  =         0.00000000
  ---------------------------------------------------
  free energy    TOTEN  =      -443.98596752 eV

  energy without entropy =     -443.98590392  energy(sigma->0) =     -443.98593572


--------------------------------------------------------------------------------------------------------




----------------------------------------- Iteration    1(  13)  ---------------------------------------


    POTLOK:  cpu time    1.4834: real time    1.4835
    SETDIJ:  cpu time    1.3862: real time    1.3864
     EDDAV:  cpu time   40.0293: real time   40.0325
       DOS:  cpu time    0.0005: real time    0.0005
    CHARGE:  cpu time    4.2945: real time    4.2948
    MIXING:  cpu time    0.0475: real time    0.0475
    --------------------------------------------
      LOOP:  cpu time   47.2421: real time   47.2476

 eigenvalue-minimisations  :  2848
 total energy-change (2. order) :-0.4924780E+00  (-0.7286894E-02)
 number of electron     199.0000000 magnetization       2.5548988
 augmentation part        5.5938154 magnetization       1.5985514

 Broyden mixing:
  rms(total) = 0.49209E-01    rms(broyden)= 0.49208E-01
  rms(prec ) = 0.54508E-01
  weight for this iteration     100.00

 eigenvalues of (default mixing * dielectric matrix)
  average eigenvalue GAMMA=   1.4151
  2.7501  2.7501  1.7874  0.9541  0.9541  0.8169  0.6342  0.6736

 Free energy of the ion-electron system (eV)
  ---------------------------------------------------
  alpha Z        PSCENC =        51.33532475
  Ewald energy   TEWEN  =     54526.16805917
  -Hartree energ DENC   =    -60545.32497696
  -exchange      EXHF   =         0.00000000
  -V(xc)+E(xc)   XCENC  =       686.73298382
  PAW double counting   =     20144.91244652   -20193.91194742
  entropy T*S    EENTRO =        -0.00007204
  eigenvalues    EBANDS =     -2527.45888264
  atomic energy  EATOM  =      7413.06861924
  Solvation  Ediel_sol  =         0.00000000
  ---------------------------------------------------
  free energy    TOTEN  =      -444.47844556 eV

  energy without entropy =     -444.47837352  energy(sigma->0) =     -444.47840954


--------------------------------------------------------------------------------------------------------




----------------------------------------- Iteration    1(  14)  ---------------------------------------


    POTLOK:  cpu time    1.4769: real time    1.4770
    SETDIJ:  cpu time    1.3894: real time    1.3895
     EDDAV:  cpu time   39.7894: real time   39.7935
       DOS:  cpu time    0.0005: real time    0.0005
    CHARGE:  cpu time    4.2880: real time    4.2883
    MIXING:  cpu time    0.0612: real time    0.0612
    --------------------------------------------
      LOOP:  cpu time   47.0060: real time   47.0137

 eigenvalue-minimisations  :  2824
 total energy-change (2. order) :-0.1262634E+00  (-0.9738788E-02)
 number of electron     199.0000000 magnetization       2.1288226
 augmentation part        5.5896609 magnetization       1.1750780

 Broyden mixing:
  rms(total) = 0.33449E-01    rms(broyden)= 0.33447E-01
  rms(prec ) = 0.35331E-01
  weight for this iteration     100.00

 eigenvalues of (default mixing * dielectric matrix)
  average eigenvalue GAMMA=   1.6217
  5.0407  2.3069  2.0110  1.3113  0.9255  0.9255  0.7793  0.6299  0.6654

 Free energy of the ion-electron system (eV)
  ---------------------------------------------------
  alpha Z        PSCENC =        51.33532475
  Ewald energy   TEWEN  =     54526.16805917
  -Hartree energ DENC   =    -60587.55727665
  -exchange      EXHF   =         0.00000000
  -V(xc)+E(xc)   XCENC  =       686.99590451
  PAW double counting   =     20107.62910306   -20156.57937619
  entropy T*S    EENTRO =        -0.00009715
  eigenvalues    EBANDS =     -2485.66496971
  atomic energy  EATOM  =      7413.06861924
  Solvation  Ediel_sol  =         0.00000000
  ---------------------------------------------------
  free energy    TOTEN  =      -444.60470896 eV

  energy without entropy =     -444.60461181  energy(sigma->0) =     -444.60466039


--------------------------------------------------------------------------------------------------------




----------------------------------------- Iteration    1(  15)  ---------------------------------------


    POTLOK:  cpu time    1.4764: real time    1.4765
    SETDIJ:  cpu time    1.3949: real time    1.3951
     EDDAV:  cpu time   40.8544: real time   40.8577
       DOS:  cpu time    0.0005: real time    0.0005
    CHARGE:  cpu time    4.3071: real time    4.3074
    MIXING:  cpu time    0.0581: real time    0.0581
    --------------------------------------------
      LOOP:  cpu time   48.0920: real time   48.0982

 eigenvalue-minimisations  :  2920
 total energy-change (2. order) :-0.5135059E+00  (-0.3899995E-02)
 number of electron     199.0000000 magnetization       1.8376748
 augmentation part        5.5866613 magnetization       0.8866483

 Broyden mixing:
  rms(total) = 0.23014E-01    rms(broyden)= 0.23012E-01
  rms(prec ) = 0.24153E-01
  weight for this iteration     100.00

 eigenvalues of (default mixing * dielectric matrix)
  average eigenvalue GAMMA=   1.7503
  6.6728  2.2396  2.2396  1.5532  0.9345  0.9345  0.8502  0.7881  0.6624  0.6282

 Free energy of the ion-electron system (eV)
  ---------------------------------------------------
  alpha Z        PSCENC =        51.33532475
  Ewald energy   TEWEN  =     54526.16805917
  -Hartree energ DENC   =    -60611.18592887
  -exchange      EXHF   =         0.00000000
  -V(xc)+E(xc)   XCENC  =       686.63826220
  PAW double counting   =     20098.07137278   -20147.01606024
  entropy T*S    EENTRO =        -0.00013029
  eigenvalues    EBANDS =     -2462.19773360
  atomic energy  EATOM  =      7413.06861924
  Solvation  Ediel_sol  =         0.00000000
  ---------------------------------------------------
  free energy    TOTEN  =      -445.11821487 eV

  energy without entropy =     -445.11808457  energy(sigma->0) =     -445.11814972


--------------------------------------------------------------------------------------------------------




----------------------------------------- Iteration    1(  16)  ---------------------------------------


    POTLOK:  cpu time    1.4778: real time    1.4779
    SETDIJ:  cpu time    1.3837: real time    1.3839
     EDDAV:  cpu time   41.2820: real time   41.2853
       DOS:  cpu time    0.0005: real time    0.0005
    CHARGE:  cpu time    4.3007: real time    4.3010
    MIXING:  cpu time    0.0681: real time    0.0681
    --------------------------------------------
      LOOP:  cpu time   48.5134: real time   48.5194

 eigenvalue-minimisations  :  2960
 total energy-change (2. order) :-0.4572865E+00  (-0.1660860E-02)
 number of electron     199.0000000 magnetization       1.6251752
 augmentation part        5.5854734 magnetization       0.6751610

 Broyden mixing:
  rms(total) = 0.16220E-01    rms(broyden)= 0.16219E-01
  rms(prec ) = 0.17299E-01
  weight for this iteration     100.00

 eigenvalues of (default mixing * dielectric matrix)
  average eigenvalue GAMMA=   1.9125
  8.4877  2.4608  2.4608  1.7349  1.2257  0.9320  0.9320  0.8166  0.7047  0.6267
  0.6552

 Free energy of the ion-electron system (eV)
  ---------------------------------------------------
  alpha Z        PSCENC =        51.33532475
  Ewald energy   TEWEN  =     54526.16805917
  -Hartree energ DENC   =    -60620.28098153
  -exchange      EXHF   =         0.00000000
  -V(xc)+E(xc)   XCENC  =       686.19060937
  PAW double counting   =     20085.63802875   -20134.59820448
  entropy T*S    EENTRO =        -0.00013898
  eigenvalues    EBANDS =     -2453.09681767
  atomic energy  EATOM  =      7413.06861924
  Solvation  Ediel_sol  =         0.00000000
  ---------------------------------------------------
  free energy    TOTEN  =      -445.57550137 eV

  energy without entropy =     -445.57536239  energy(sigma->0) =     -445.57543188


--------------------------------------------------------------------------------------------------------




----------------------------------------- Iteration    1(  17)  ---------------------------------------


    POTLOK:  cpu time    1.4784: real time    1.4786
    SETDIJ:  cpu time    1.3925: real time    1.3928
     EDDAV:  cpu time   41.0442: real time   41.0477
       DOS:  cpu time    0.0005: real time    0.0005
    CHARGE:  cpu time    4.3008: real time    4.3011
    MIXING:  cpu time    0.0522: real time    0.0522
    --------------------------------------------
      LOOP:  cpu time   48.2692: real time   48.2754

 eigenvalue-minimisations  :  2936
 total energy-change (2. order) :-0.3443313E+00  (-0.6751092E-03)
 number of electron     199.0000000 magnetization       1.4544974
 augmentation part        5.5850768 magnetization       0.5054059

 Broyden mixing:
  rms(total) = 0.11630E-01    rms(broyden)= 0.11629E-01
  rms(prec ) = 0.12590E-01
  weight for this iteration     100.00

 eigenvalues of (default mixing * dielectric matrix)
  average eigenvalue GAMMA=   1.9817
  9.5120  2.8632  2.5012  1.8371  1.4636  0.9266  0.9266  0.9144  0.8770  0.6864
  0.6494  0.6229

 Free energy of the ion-electron system (eV)
  ---------------------------------------------------
  alpha Z        PSCENC =        51.33532475
  Ewald energy   TEWEN  =     54526.16805917
  -Hartree energ DENC   =    -60622.48843015
  -exchange      EXHF   =         0.00000000
  -V(xc)+E(xc)   XCENC  =       685.80215681
  PAW double counting   =     20084.19763945   -20133.16860857
  entropy T*S    EENTRO =        -0.00014717
  eigenvalues    EBANDS =     -2450.83444622
  atomic energy  EATOM  =      7413.06861924
  Solvation  Ediel_sol  =         0.00000000
  ---------------------------------------------------
  free energy    TOTEN  =      -445.91983268 eV

  energy without entropy =     -445.91968552  energy(sigma->0) =     -445.91975910


--------------------------------------------------------------------------------------------------------




----------------------------------------- Iteration    1(  18)  ---------------------------------------


    POTLOK:  cpu time    1.4805: real time    1.4808
    SETDIJ:  cpu time    1.3892: real time    1.3892
     EDDAV:  cpu time   40.0731: real time   40.0769
       DOS:  cpu time    0.0004: real time    0.0004
    CHARGE:  cpu time    4.2902: real time    4.2904
    MIXING:  cpu time    0.0659: real time    0.0659
    --------------------------------------------
      LOOP:  cpu time   47.2999: real time   47.3068

 eigenvalue-minimisations  :  2848
 total energy-change (2. order) :-0.2236109E+00  (-0.4054325E-03)
 number of electron     199.0000000 magnetization       1.3242804
 augmentation part        5.5851908 magnetization       0.3756099

 Broyden mixing:
  rms(total) = 0.82723E-02    rms(broyden)= 0.82720E-02
  rms(prec ) = 0.89599E-02
  weight for this iteration     100.00

 eigenvalues of (default mixing * dielectric matrix)
  average eigenvalue GAMMA=   2.0450
 10.3441  3.5554  2.4274  1.8506  1.8506  0.9341  0.9341  1.0261  0.9315  0.7907
  0.6749  0.6186  0.6466

 Free energy of the ion-electron system (eV)
  ---------------------------------------------------
  alpha Z        PSCENC =        51.33532475
  Ewald energy   TEWEN  =     54526.16805917
  -Hartree energ DENC   =    -60621.12557119
  -exchange      EXHF   =         0.00000000
  -V(xc)+E(xc)   XCENC  =       685.52459161
  PAW double counting   =     20092.53019908   -20141.50283302
  entropy T*S    EENTRO =        -0.00015283
  eigenvalues    EBANDS =     -2452.14168038
  atomic energy  EATOM  =      7413.06861924
  Solvation  Ediel_sol  =         0.00000000
  ---------------------------------------------------
  free energy    TOTEN  =      -446.14344357 eV

  energy without entropy =     -446.14329074  energy(sigma->0) =     -446.14336716


--------------------------------------------------------------------------------------------------------




----------------------------------------- Iteration    1(  19)  ---------------------------------------


    POTLOK:  cpu time    1.4836: real time    1.4837
    SETDIJ:  cpu time    1.3876: real time    1.3886
     EDDAV:  cpu time   40.7839: real time   40.7874
       DOS:  cpu time    0.0005: real time    0.0005
    CHARGE:  cpu time    4.2975: real time    4.2978
    MIXING:  cpu time    0.0615: real time    0.0615
    --------------------------------------------
      LOOP:  cpu time   48.0151: real time   48.0219

 eigenvalue-minimisations  :  2912
 total energy-change (2. order) :-0.9665508E-01  (-0.1783990E-03)
 number of electron     199.0000000 magnetization       1.2223983
 augmentation part        5.5854448 magnetization       0.2740447

 Broyden mixing:
  rms(total) = 0.60356E-02    rms(broyden)= 0.60355E-02
  rms(prec ) = 0.65626E-02
  weight for this iteration     100.00

 eigenvalues of (default mixing * dielectric matrix)
  average eigenvalue GAMMA=   2.1192
 11.0356  4.3995  2.3661  2.1351  2.0088  1.2881  0.9288  0.9288  1.0288  0.8843
  0.7379  0.6664  0.6437  0.6161

 Free energy of the ion-electron system (eV)
  ---------------------------------------------------
  alpha Z        PSCENC =        51.33532475
  Ewald energy   TEWEN  =     54526.16805917
  -Hartree energ DENC   =    -60619.28345415
  -exchange      EXHF   =         0.00000000
  -V(xc)+E(xc)   XCENC  =       685.39674529
  PAW double counting   =     20095.49406176   -20144.46469993
  entropy T*S    EENTRO =        -0.00015408
  eigenvalues    EBANDS =     -2453.95460071
  atomic energy  EATOM  =      7413.06861924
  Solvation  Ediel_sol  =         0.00000000
  ---------------------------------------------------
  free energy    TOTEN  =      -446.24009866 eV

  energy without entropy =     -446.23994458  energy(sigma->0) =     -446.24002162


--------------------------------------------------------------------------------------------------------




----------------------------------------- Iteration    1(  20)  ---------------------------------------


    POTLOK:  cpu time    1.4791: real time    1.4793
    SETDIJ:  cpu time    1.3864: real time    1.3865
     EDDAV:  cpu time   40.0242: real time   40.0277
       DOS:  cpu time    0.0005: real time    0.0005
    CHARGE:  cpu time    4.3070: real time    4.3078
    MIXING:  cpu time    0.0732: real time    0.0732
    --------------------------------------------
      LOOP:  cpu time   47.2712: real time   47.2784

 eigenvalue-minimisations  :  2840
 total energy-change (2. order) :-0.3392568E-01  (-0.8755514E-04)
 number of electron     199.0000000 magnetization       1.1406608
 augmentation part        5.5856883 magnetization       0.1924787

 Broyden mixing:
  rms(total) = 0.42994E-02    rms(broyden)= 0.42993E-02
  rms(prec ) = 0.47256E-02
  weight for this iteration     100.00

 eigenvalues of (default mixing * dielectric matrix)
  average eigenvalue GAMMA=   2.1765
 11.5826  5.2359  2.4431  2.4431  1.9834  1.5797  0.9322  0.9322  1.0148  1.0148
  0.8528  0.7156  0.6636  0.6392  0.6151

 Free energy of the ion-electron system (eV)
  ---------------------------------------------------
  alpha Z        PSCENC =        51.33532475
  Ewald energy   TEWEN  =     54526.16805917
  -Hartree energ DENC   =    -60617.37984541
  -exchange      EXHF   =         0.00000000
  -V(xc)+E(xc)   XCENC  =       685.34784133
  PAW double counting   =     20095.62872742   -20144.59706036
  entropy T*S    EENTRO =        -0.00015684
  eigenvalues    EBANDS =     -2455.84553364
  atomic energy  EATOM  =      7413.06861924
  Solvation  Ediel_sol  =         0.00000000
  ---------------------------------------------------
  free energy    TOTEN  =      -446.27402433 eV

  energy without entropy =     -446.27386749  energy(sigma->0) =     -446.27394591


--------------------------------------------------------------------------------------------------------




----------------------------------------- Iteration    1(  21)  ---------------------------------------


    POTLOK:  cpu time    1.4777: real time    1.4778
    SETDIJ:  cpu time    1.3948: real time    1.3950
     EDDAV:  cpu time   41.7701: real time   41.7739
       DOS:  cpu time    0.0005: real time    0.0005
    CHARGE:  cpu time    4.2884: real time    4.2888
    MIXING:  cpu time    0.0569: real time    0.0569
    --------------------------------------------
      LOOP:  cpu time   48.9890: real time   48.9959

 eigenvalue-minimisations  :  3000
 total energy-change (2. order) :-0.1255505E-01  (-0.4915123E-04)
 number of electron     199.0000000 magnetization       1.0888450
 augmentation part        5.5859177 magnetization       0.1408060

 Broyden mixing:
  rms(total) = 0.30144E-02    rms(broyden)= 0.30142E-02
  rms(prec ) = 0.33320E-02
  weight for this iteration     100.00

 eigenvalues of (default mixing * dielectric matrix)
  average eigenvalue GAMMA=   2.2122
 12.0423  5.9583  2.7938  2.4020  1.9055  1.9055  1.1371  1.1371  0.9290  0.9290
  0.8247  0.8247  0.6986  0.6588  0.6351  0.6136

 Free energy of the ion-electron system (eV)
  ---------------------------------------------------
  alpha Z        PSCENC =        51.33532475
  Ewald energy   TEWEN  =     54526.16805917
  -Hartree energ DENC   =    -60615.55026194
  -exchange      EXHF   =         0.00000000
  -V(xc)+E(xc)   XCENC  =       685.32856005
  PAW double counting   =     20096.08164245   -20145.04836406
  entropy T*S    EENTRO =        -0.00015909
  eigenvalues    EBANDS =     -2457.66999995
  atomic energy  EATOM  =      7413.06861924
  Solvation  Ediel_sol  =         0.00000000
  ---------------------------------------------------
  free energy    TOTEN  =      -446.28657939 eV

  energy without entropy =     -446.28642029  energy(sigma->0) =     -446.28649984


--------------------------------------------------------------------------------------------------------




----------------------------------------- Iteration    1(  22)  ---------------------------------------


    POTLOK:  cpu time    1.4789: real time    1.4790
    SETDIJ:  cpu time    1.3859: real time    1.3860
     EDDAV:  cpu time   40.7265: real time   40.7297
       DOS:  cpu time    0.0005: real time    0.0005
    CHARGE:  cpu time    4.3062: real time    4.3065
    MIXING:  cpu time    0.0701: real time    0.0701
    --------------------------------------------
      LOOP:  cpu time   47.9687: real time   47.9748

 eigenvalue-minimisations  :  2904
 total energy-change (2. order) :-0.1555808E-01  (-0.1307074E-04)
 number of electron     199.0000000 magnetization       1.0438826
 augmentation part        5.5860475 magnetization       0.0959284

 Broyden mixing:
  rms(total) = 0.21168E-02    rms(broyden)= 0.21166E-02
  rms(prec ) = 0.23533E-02
  weight for this iteration     100.00

 eigenvalues of (default mixing * dielectric matrix)
  average eigenvalue GAMMA=   2.2959
 12.6024  6.8438  3.3544  2.3660  2.1010  2.0868  1.5368  0.9304  0.9304  1.0322
  1.0322  0.8716  0.7589  0.6866  0.6514  0.6325  0.6127

 Free energy of the ion-electron system (eV)
  ---------------------------------------------------
  alpha Z        PSCENC =        51.33532475
  Ewald energy   TEWEN  =     54526.16805917
  -Hartree energ DENC   =    -60614.33538332
  -exchange      EXHF   =         0.00000000
  -V(xc)+E(xc)   XCENC  =       685.31010929
  PAW double counting   =     20095.66974486   -20144.63636684
  entropy T*S    EENTRO =        -0.00015986
  eigenvalues    EBANDS =     -2458.88208478
  atomic energy  EATOM  =      7413.06861924
  Solvation  Ediel_sol  =         0.00000000
  ---------------------------------------------------
  free energy    TOTEN  =      -446.30213747 eV

  energy without entropy =     -446.30197761  energy(sigma->0) =     -446.30205754


--------------------------------------------------------------------------------------------------------




----------------------------------------- Iteration    1(  23)  ---------------------------------------


    POTLOK:  cpu time    1.4794: real time    1.4796
    SETDIJ:  cpu time    1.3910: real time    1.3916
     EDDAV:  cpu time   40.2553: real time   40.2584
       DOS:  cpu time    0.0005: real time    0.0005
    CHARGE:  cpu time    4.2784: real time    4.2798
    MIXING:  cpu time    0.0700: real time    0.0700
    --------------------------------------------
      LOOP:  cpu time   47.4751: real time   47.4828

 eigenvalue-minimisations  :  2864
 total energy-change (2. order) :-0.2362514E-01  (-0.5662693E-05)
 number of electron     199.0000000 magnetization       1.0199161
 augmentation part        5.5860892 magnetization       0.0720159

 Broyden mixing:
  rms(total) = 0.12280E-02    rms(broyden)= 0.12279E-02
  rms(prec ) = 0.13793E-02
  weight for this iteration     100.00

 eigenvalues of (default mixing * dielectric matrix)
  average eigenvalue GAMMA=   2.3843
 13.3320  7.9165  4.0821  2.3984  2.3984  1.9508  1.6881  1.1130  1.1130  0.9286
  0.9286  0.8807  0.8807  0.7369  0.6798  0.6465  0.6140  0.6299

 Free energy of the ion-electron system (eV)
  ---------------------------------------------------
  alpha Z        PSCENC =        51.33532475
  Ewald energy   TEWEN  =     54526.16805917
  -Hartree energ DENC   =    -60613.32620003
  -exchange      EXHF   =         0.00000000
  -V(xc)+E(xc)   XCENC  =       685.28611544
  PAW double counting   =     20094.71547461   -20143.68343507
  entropy T*S    EENTRO =        -0.00016059
  eigenvalues    EBANDS =     -2459.88956012
  atomic energy  EATOM  =      7413.06861924
  Solvation  Ediel_sol  =         0.00000000
  ---------------------------------------------------
  free energy    TOTEN  =      -446.32576261 eV

  energy without entropy =     -446.32560201  energy(sigma->0) =     -446.32568231


--------------------------------------------------------------------------------------------------------




----------------------------------------- Iteration    1(  24)  ---------------------------------------


    POTLOK:  cpu time    1.4854: real time    1.4855
    SETDIJ:  cpu time    1.3780: real time    1.3781
     EDDAV:  cpu time   37.5535: real time   37.5571
       DOS:  cpu time    0.0005: real time    0.0005
    CHARGE:  cpu time    4.3002: real time    4.3005
    MIXING:  cpu time    0.0816: real time    0.0815
    --------------------------------------------
      LOOP:  cpu time   44.7996: real time   44.8055

 eigenvalue-minimisations  :  2616
 total energy-change (2. order) :-0.1055085E-01  (-0.2071023E-05)
 number of electron     199.0000000 magnetization       1.0112587
 augmentation part        5.5860741 magnetization       0.0633812

 Broyden mixing:
  rms(total) = 0.76664E-03    rms(broyden)= 0.76656E-03
  rms(prec ) = 0.87605E-03
  weight for this iteration     100.00

 eigenvalues of (default mixing * dielectric matrix)
  average eigenvalue GAMMA=   2.4042
 13.8624  8.5458  4.4217  2.4320  2.4320  1.9107  1.7839  1.2484  1.2484  0.9286
  0.9286  0.9346  0.9346  0.7806  0.7242  0.6764  0.6143  0.6410  0.6308

 Free energy of the ion-electron system (eV)
  ---------------------------------------------------
  alpha Z        PSCENC =        51.33532475
  Ewald energy   TEWEN  =     54526.16805917
  -Hartree energ DENC   =    -60612.79689683
  -exchange      EXHF   =         0.00000000
  -V(xc)+E(xc)   XCENC  =       685.27534284
  PAW double counting   =     20094.70421236   -20143.67317232
  entropy T*S    EENTRO =        -0.00016100
  eigenvalues    EBANDS =     -2460.41764168
  atomic energy  EATOM  =      7413.06861924
  Solvation  Ediel_sol  =         0.00000000
  ---------------------------------------------------
  free energy    TOTEN  =      -446.33631346 eV

  energy without entropy =     -446.33615246  energy(sigma->0) =     -446.33623296


--------------------------------------------------------------------------------------------------------




----------------------------------------- Iteration    1(  25)  ---------------------------------------


    POTLOK:  cpu time    1.4900: real time    1.4911
    SETDIJ:  cpu time    1.3890: real time    1.3904
     EDDAV:  cpu time   35.2183: real time   35.2228
       DOS:  cpu time    0.0005: real time    0.0005
    CHARGE:  cpu time    4.3157: real time    4.3161
    MIXING:  cpu time    0.0681: real time    0.0681
    --------------------------------------------
      LOOP:  cpu time   42.4822: real time   42.4919

 eigenvalue-minimisations  :  2400
 total energy-change (2. order) :-0.2632894E-02  (-0.9943502E-06)
 number of electron     199.0000000 magnetization       1.0044073
 augmentation part        5.5860716 magnetization       0.0565264

 Broyden mixing:
  rms(total) = 0.52495E-03    rms(broyden)= 0.52484E-03
  rms(prec ) = 0.60899E-03
  weight for this iteration     100.00

 eigenvalues of (default mixing * dielectric matrix)
  average eigenvalue GAMMA=   2.4274
 14.2251  8.9467  4.6769  2.5737  2.4213  2.1743  1.9484  1.6143  1.1373  1.1373
  0.9289  0.9289  0.9103  0.9103  0.7593  0.7041  0.6690  0.6400  0.6146  0.6266

 Free energy of the ion-electron system (eV)
  ---------------------------------------------------
  alpha Z        PSCENC =        51.33532475
  Ewald energy   TEWEN  =     54526.16805917
  -Hartree energ DENC   =    -60612.59724266
  -exchange      EXHF   =         0.00000000
  -V(xc)+E(xc)   XCENC  =       685.27202675
  PAW double counting   =     20094.90832881   -20143.87778837
  entropy T*S    EENTRO =        -0.00016109
  eigenvalues    EBANDS =     -2460.61611296
  atomic energy  EATOM  =      7413.06861924
  Solvation  Ediel_sol  =         0.00000000
  ---------------------------------------------------
  free energy    TOTEN  =      -446.33894635 eV

  energy without entropy =     -446.33878526  energy(sigma->0) =     -446.33886581


--------------------------------------------------------------------------------------------------------




----------------------------------------- Iteration    1(  26)  ---------------------------------------


    POTLOK:  cpu time    1.4924: real time    1.4925
    SETDIJ:  cpu time    1.3847: real time    1.3848
     EDDAV:  cpu time   33.8336: real time   33.8362
       DOS:  cpu time    0.0005: real time    0.0005
    CHARGE:  cpu time    4.3045: real time    4.3048
    MIXING:  cpu time    0.0810: real time    0.0810
    --------------------------------------------
      LOOP:  cpu time   41.0972: real time   41.1030

 eigenvalue-minimisations  :  2272
 total energy-change (2. order) :-0.1708647E-02  (-0.2172641E-05)
 number of electron     199.0000000 magnetization       1.0015991
 augmentation part        5.5860682 magnetization       0.0537139

 Broyden mixing:
  rms(total) = 0.30517E-03    rms(broyden)= 0.30498E-03
  rms(prec ) = 0.35377E-03
  weight for this iteration     100.00

 eigenvalues of (default mixing * dielectric matrix)
  average eigenvalue GAMMA=   2.4388
 14.4828  9.2371  5.0185  3.1373  2.3737  2.3737  1.9762  1.5934  1.2161  1.2161
  0.9286  0.9286  0.9813  0.8793  0.8793  0.7584  0.6963  0.6600  0.6428  0.6150
  0.6214

 Free energy of the ion-electron system (eV)
  ---------------------------------------------------
  alpha Z        PSCENC =        51.33532475
  Ewald energy   TEWEN  =     54526.16805917
  -Hartree energ DENC   =    -60612.45209885
  -exchange      EXHF   =         0.00000000
  -V(xc)+E(xc)   XCENC  =       685.26956894
  PAW double counting   =     20095.14908812   -20144.11894320
  entropy T*S    EENTRO =        -0.00016115
  eigenvalues    EBANDS =     -2460.76011203
  atomic energy  EATOM  =      7413.06861924
  Solvation  Ediel_sol  =         0.00000000
  ---------------------------------------------------
  free energy    TOTEN  =      -446.34065500 eV

  energy without entropy =     -446.34049385  energy(sigma->0) =     -446.34057443


--------------------------------------------------------------------------------------------------------




----------------------------------------- Iteration    1(  27)  ---------------------------------------


    POTLOK:  cpu time    1.4890: real time    1.4892
    SETDIJ:  cpu time    1.3848: real time    1.3852
     EDDAV:  cpu time   34.4404: real time   34.4432
       DOS:  cpu time    0.0005: real time    0.0005
    CHARGE:  cpu time    4.2872: real time    4.2874
    MIXING:  cpu time    0.0802: real time    0.0802
    --------------------------------------------
      LOOP:  cpu time   41.6827: real time   41.6886

 eigenvalue-minimisations  :  2328
 total energy-change (2. order) :-0.6859572E-03  (-0.8006617E-06)
 number of electron     199.0000000 magnetization       1.0002736
 augmentation part        5.5860625 magnetization       0.0523818

 Broyden mixing:
  rms(total) = 0.19991E-03    rms(broyden)= 0.19962E-03
  rms(prec ) = 0.23331E-03
  weight for this iteration     100.00

 eigenvalues of (default mixing * dielectric matrix)
  average eigenvalue GAMMA=   2.4416
 14.6412  9.4421  5.3848  3.5616  2.4229  2.4229  1.9503  1.6799  1.5032  1.1332
  1.1332  0.9293  0.9293  0.9197  0.9197  0.7943  0.7324  0.6865  0.6523  0.6413
  0.6159  0.6183

 Free energy of the ion-electron system (eV)
  ---------------------------------------------------
  alpha Z        PSCENC =        51.33532475
  Ewald energy   TEWEN  =     54526.16805917
  -Hartree energ DENC   =    -60612.42400303
  -exchange      EXHF   =         0.00000000
  -V(xc)+E(xc)   XCENC  =       685.26912970
  PAW double counting   =     20095.16612286   -20144.13588770
  entropy T*S    EENTRO =        -0.00016105
  eigenvalues    EBANDS =     -2460.78854490
  atomic energy  EATOM  =      7413.06861924
  Solvation  Ediel_sol  =         0.00000000
  ---------------------------------------------------
  free energy    TOTEN  =      -446.34134096 eV

  energy without entropy =     -446.34117991  energy(sigma->0) =     -446.34126044


--------------------------------------------------------------------------------------------------------




----------------------------------------- Iteration    1(  28)  ---------------------------------------


    POTLOK:  cpu time    1.4959: real time    1.4960
    SETDIJ:  cpu time    1.3843: real time    1.3856
     EDDAV:  cpu time   34.4333: real time   34.4364
       DOS:  cpu time    0.0008: real time    0.0008
    CHARGE:  cpu time    4.2922: real time    4.2930
    MIXING:  cpu time    0.0935: real time    0.0935
    --------------------------------------------
      LOOP:  cpu time   41.7005: real time   41.7090

 eigenvalue-minimisations  :  2328
 total energy-change (2. order) :-0.3123005E-03  (-0.3196972E-06)
 number of electron     199.0000000 magnetization       0.9994806
 augmentation part        5.5860589 magnetization       0.0515819

 Broyden mixing:
  rms(total) = 0.12517E-03    rms(broyden)= 0.12471E-03
  rms(prec ) = 0.15215E-03
  weight for this iteration     100.00

 eigenvalues of (default mixing * dielectric matrix)
  average eigenvalue GAMMA=   2.4367
 14.7404  9.5788  5.7360  3.8928  2.4709  2.4709  1.9538  1.9538  1.3749  1.3749
  1.0921  1.0921  0.9292  0.9292  0.8906  0.8906  0.7632  0.7190  0.6772  0.6444
  0.6370  0.6155  0.6155

 Free energy of the ion-electron system (eV)
  ---------------------------------------------------
  alpha Z        PSCENC =        51.33532475
  Ewald energy   TEWEN  =     54526.16805917
  -Hartree energ DENC   =    -60612.42603451
  -exchange      EXHF   =         0.00000000
  -V(xc)+E(xc)   XCENC  =       685.26918778
  PAW double counting   =     20095.18049130   -20144.15003625
  entropy T*S    EENTRO =        -0.00016096
  eigenvalues    EBANDS =     -2460.78710378
  atomic energy  EATOM  =      7413.06861924
  Solvation  Ediel_sol  =         0.00000000
  ---------------------------------------------------
  free energy    TOTEN  =      -446.34165326 eV

  energy without entropy =     -446.34149230  energy(sigma->0) =     -446.34157278


--------------------------------------------------------------------------------------------------------




----------------------------------------- Iteration    1(  29)  ---------------------------------------


    POTLOK:  cpu time    1.4979: real time    1.4980
    SETDIJ:  cpu time    1.3890: real time    1.3892
     EDDAV:  cpu time   30.9266: real time   30.9293
       DOS:  cpu time    0.0005: real time    0.0005
    CHARGE:  cpu time    4.2953: real time    4.2956
    MIXING:  cpu time    0.0802: real time    0.0802
    --------------------------------------------
      LOOP:  cpu time   38.1901: real time   38.1957

 eigenvalue-minimisations  :  2008
 total energy-change (2. order) :-0.1678958E-03  (-0.1225525E-06)
 number of electron     199.0000000 magnetization       0.9990871
 augmentation part        5.5860573 magnetization       0.0511848

 Broyden mixing:
  rms(total) = 0.84038E-04    rms(broyden)= 0.83363E-04
  rms(prec ) = 0.10435E-03
  weight for this iteration     100.00

 eigenvalues of (default mixing * dielectric matrix)
  average eigenvalue GAMMA=   2.4195
 14.7903  9.6385  6.0170  4.0823  2.5252  2.5252  2.0620  2.0620  1.4639  1.4639
  1.1500  1.1500  0.9293  0.9293  0.9116  0.9116  0.8200  0.7600  0.7052  0.6687
  0.6441  0.6292  0.6144  0.6144

 Free energy of the ion-electron system (eV)
  ---------------------------------------------------
  alpha Z        PSCENC =        51.33532475
  Ewald energy   TEWEN  =     54526.16805917
  -Hartree energ DENC   =    -60612.43568098
  -exchange      EXHF   =         0.00000000
  -V(xc)+E(xc)   XCENC  =       685.26931342
  PAW double counting   =     20095.18813369   -20144.15750975
  entropy T*S    EENTRO =        -0.00016090
  eigenvalues    EBANDS =     -2460.77791981
  atomic energy  EATOM  =      7413.06861924
  Solvation  Ediel_sol  =         0.00000000
  ---------------------------------------------------
  free energy    TOTEN  =      -446.34182116 eV

  energy without entropy =     -446.34166026  energy(sigma->0) =     -446.34174071


--------------------------------------------------------------------------------------------------------




----------------------------------------- Iteration    1(  30)  ---------------------------------------


    POTLOK:  cpu time    1.4935: real time    1.4942
    SETDIJ:  cpu time    1.3788: real time    1.3789
     EDDAV:  cpu time   30.6988: real time   30.7012
       DOS:  cpu time    0.0005: real time    0.0005
    CHARGE:  cpu time    4.3016: real time    4.3019
    MIXING:  cpu time    0.0982: real time    0.0982
    --------------------------------------------
      LOOP:  cpu time   37.9720: real time   37.9780

 eigenvalue-minimisations  :  1984
 total energy-change (2. order) :-0.8557627E-04  (-0.5544917E-07)
 number of electron     199.0000000 magnetization       0.9988017
 augmentation part        5.5860550 magnetization       0.0508978

 Broyden mixing:
  rms(total) = 0.58309E-04    rms(broyden)= 0.57335E-04
  rms(prec ) = 0.71805E-04
  weight for this iteration     100.00

 eigenvalues of (default mixing * dielectric matrix)
  average eigenvalue GAMMA=   2.4249
 14.8211  9.6779  6.3587  4.3158  2.8548  2.5590  2.1459  2.1459  1.7592  1.3596
  1.3596  1.1028  1.1028  0.9293  0.9293  0.9088  0.9088  0.7878  0.7455  0.6958
  0.6621  0.6429  0.6238  0.6127  0.6127

 Free energy of the ion-electron system (eV)
  ---------------------------------------------------
  alpha Z        PSCENC =        51.33532475
  Ewald energy   TEWEN  =     54526.16805917
  -Hartree energ DENC   =    -60612.45265206
  -exchange      EXHF   =         0.00000000
  -V(xc)+E(xc)   XCENC  =       685.26954797
  PAW double counting   =     20095.15205629   -20144.12135623
  entropy T*S    EENTRO =        -0.00016084
  eigenvalues    EBANDS =     -2460.76134503
  atomic energy  EATOM  =      7413.06861924
  Solvation  Ediel_sol  =         0.00000000
  ---------------------------------------------------
  free energy    TOTEN  =      -446.34190673 eV

  energy without entropy =     -446.34174589  energy(sigma->0) =     -446.34182631


--------------------------------------------------------------------------------------------------------




----------------------------------------- Iteration    1(  31)  ---------------------------------------


    POTLOK:  cpu time    1.4926: real time    1.4927
    SETDIJ:  cpu time    1.3912: real time    1.3915
     EDDAV:  cpu time   30.3711: real time   30.3735
       DOS:  cpu time    0.0004: real time    0.0004
    CHARGE:  cpu time    4.3198: real time    4.3201
    MIXING:  cpu time    0.0939: real time    0.0939
    --------------------------------------------
      LOOP:  cpu time   37.6698: real time   37.6750

 eigenvalue-minimisations  :  1952
 total energy-change (2. order) :-0.6202316E-04  (-0.4753976E-07)
 number of electron     199.0000000 magnetization       0.9986627
 augmentation part        5.5860514 magnetization       0.0507571

 Broyden mixing:
  rms(total) = 0.35364E-04    rms(broyden)= 0.33734E-04
  rms(prec ) = 0.42177E-04
  weight for this iteration     100.00

 eigenvalues of (default mixing * dielectric matrix)
  average eigenvalue GAMMA=   2.4198
 14.8396  9.7128  6.6923  4.5877  3.2708  2.4783  2.1778  2.1778  1.9499  1.3937
  1.3937  1.1624  1.1624  0.9293  0.9293  0.9233  0.9233  0.8229  0.8229  0.7252
  0.6895  0.6620  0.6386  0.6275  0.6150  0.6063

 Free energy of the ion-electron system (eV)
  ---------------------------------------------------
  alpha Z        PSCENC =        51.33532475
  Ewald energy   TEWEN  =     54526.16805917
  -Hartree energ DENC   =    -60612.47059666
  -exchange      EXHF   =         0.00000000
  -V(xc)+E(xc)   XCENC  =       685.26976680
  PAW double counting   =     20095.10921974   -20144.07849832
  entropy T*S    EENTRO =        -0.00016082
  eigenvalues    EBANDS =     -2460.74370268
  atomic energy  EATOM  =      7413.06861924
  Solvation  Ediel_sol  =         0.00000000
  ---------------------------------------------------
  free energy    TOTEN  =      -446.34196875 eV

  energy without entropy =     -446.34180794  energy(sigma->0) =     -446.34188835


--------------------------------------------------------------------------------------------------------




----------------------------------------- Iteration    1(  32)  ---------------------------------------


    POTLOK:  cpu time    1.4958: real time    1.4960
    SETDIJ:  cpu time    1.3875: real time    1.3876
     EDDAV:  cpu time   30.7036: real time   30.7067
       DOS:  cpu time    0.0004: real time    0.0004
    CHARGE:  cpu time    4.3027: real time    4.3030
    MIXING:  cpu time    0.1069: real time    0.1069
    --------------------------------------------
      LOOP:  cpu time   37.9978: real time   38.0041

 eigenvalue-minimisations  :  1984
 total energy-change (2. order) :-0.2617689E-04  (-0.1682465E-07)
 number of electron     199.0000000 magnetization       0.9985864
 augmentation part        5.5860492 magnetization       0.0506798

 Broyden mixing:
  rms(total) = 0.24390E-04    rms(broyden)= 0.21962E-04
  rms(prec ) = 0.27091E-04
  weight for this iteration     100.00

 eigenvalues of (default mixing * dielectric matrix)
  average eigenvalue GAMMA=   2.4193
 14.8540  9.7468  7.0413  4.8858  3.5448  2.4588  2.2469  2.2469  2.0125  1.5967
  1.3568  1.3568  0.9293  0.9293  1.0922  1.0922  0.9087  0.9087  0.8178  0.7663
  0.7117  0.6787  0.6578  0.6358  0.6256  0.6158  0.6036

 Free energy of the ion-electron system (eV)
  ---------------------------------------------------
  alpha Z        PSCENC =        51.33532475
  Ewald energy   TEWEN  =     54526.16805917
  -Hartree energ DENC   =    -60612.47782611
  -exchange      EXHF   =         0.00000000
  -V(xc)+E(xc)   XCENC  =       685.26977151
  PAW double counting   =     20095.10684218   -20144.07614538
  entropy T*S    EENTRO =        -0.00016082
  eigenvalues    EBANDS =     -2460.73647948
  atomic energy  EATOM  =      7413.06861924
  Solvation  Ediel_sol  =         0.00000000
  ---------------------------------------------------
  free energy    TOTEN  =      -446.34199493 eV

  energy without entropy =     -446.34183411  energy(sigma->0) =     -446.34191452


--------------------------------------------------------------------------------------------------------




----------------------------------------- Iteration    1(  33)  ---------------------------------------


    POTLOK:  cpu time    1.4965: real time    1.4966
    SETDIJ:  cpu time    1.3926: real time    1.3928
     EDDAV:  cpu time   30.3900: real time   30.3923
       DOS:  cpu time    0.0005: real time    0.0005
    CHARGE:  cpu time    4.3042: real time    4.3045
    MIXING:  cpu time    0.0914: real time    0.0914
    --------------------------------------------
      LOOP:  cpu time   37.6758: real time   37.6810

 eigenvalue-minimisations  :  1952
 total energy-change (2. order) :-0.1476518E-04  (-0.6458550E-08)
 number of electron     199.0000000 magnetization       0.9985543
 augmentation part        5.5860482 magnetization       0.0506469

 Broyden mixing:
  rms(total) = 0.16875E-04    rms(broyden)= 0.13126E-04
  rms(prec ) = 0.16070E-04
  weight for this iteration     100.00
  WARNING: grid for Broyden might be to small

 eigenvalues of (default mixing * dielectric matrix)
  average eigenvalue GAMMA=   2.4294
 14.8632  9.7919  7.4397  5.2469  3.8055  2.6132  2.2833  2.2833  1.9871  1.9871
  1.3776  1.3776  1.1468  1.1468  0.9293  0.9293  0.9284  0.9284  0.8584  0.8584
  0.7347  0.7059  0.6749  0.6435  0.6435  0.6187  0.6171  0.6023

 Free energy of the ion-electron system (eV)
  ---------------------------------------------------
  alpha Z        PSCENC =        51.33532475
  Ewald energy   TEWEN  =     54526.16805917
  -Hartree energ DENC   =    -60612.48195242
  -exchange      EXHF   =         0.00000000
  -V(xc)+E(xc)   XCENC  =       685.26972198
  PAW double counting   =     20095.11064464   -20144.07996909
  entropy T*S    EENTRO =        -0.00016081
  eigenvalues    EBANDS =     -2460.73229717
  atomic energy  EATOM  =      7413.06861924
  Solvation  Ediel_sol  =         0.00000000
  ---------------------------------------------------
  free energy    TOTEN  =      -446.34200970 eV

  energy without entropy =     -446.34184889  energy(sigma->0) =     -446.34192929


--------------------------------------------------------------------------------------------------------




----------------------------------------- Iteration    1(  34)  ---------------------------------------


    POTLOK:  cpu time    1.4929: real time    1.4930
    SETDIJ:  cpu time    1.3842: real time    1.3842
     EDDAV:  cpu time   30.1057: real time   30.1083
       DOS:  cpu time    0.0005: real time    0.0005
    CHARGE:  cpu time    4.3186: real time    4.3189
    MIXING:  cpu time    0.1160: real time    0.1161
    --------------------------------------------
      LOOP:  cpu time   37.4184: real time   37.4243

 eigenvalue-minimisations  :  1928
 total energy-change (2. order) :-0.7333540E-05  (-0.2753682E-08)
 number of electron     199.0000000 magnetization       0.9985446
 augmentation part        5.5860477 magnetization       0.0506368

 Broyden mixing:
  rms(total) = 0.12870E-04    rms(broyden)= 0.72914E-05
  rms(prec ) = 0.88621E-05
  weight for this iteration     100.00
  WARNING: grid for Broyden might be to small

 eigenvalues of (default mixing * dielectric matrix)
  average eigenvalue GAMMA=   2.4283
 14.8694  9.8491  7.8096  5.5822  3.9974  2.8385  2.3485  2.3485  2.0710  1.9519
  1.3844  1.3844  1.1971  1.1971  0.9294  0.9294  1.0390  0.8979  0.8979  0.9056
  0.7886  0.7281  0.6954  0.6675  0.6390  0.6390  0.6194  0.6142  0.6015

 Free energy of the ion-electron system (eV)
  ---------------------------------------------------
  alpha Z        PSCENC =        51.33532475
  Ewald energy   TEWEN  =     54526.16805917
  -Hartree energ DENC   =    -60612.48523194
  -exchange      EXHF   =         0.00000000
  -V(xc)+E(xc)   XCENC  =       685.26969529
  PAW double counting   =     20095.10702564   -20144.07635599
  entropy T*S    EENTRO =        -0.00016081
  eigenvalues    EBANDS =     -2460.72899238
  atomic energy  EATOM  =      7413.06861924
  Solvation  Ediel_sol  =         0.00000000
  ---------------------------------------------------
  free energy    TOTEN  =      -446.34201703 eV

  energy without entropy =     -446.34185622  energy(sigma->0) =     -446.34193662


--------------------------------------------------------------------------------------------------------




----------------------------------------- Iteration    1(  35)  ---------------------------------------


    POTLOK:  cpu time    1.5010: real time    1.5011
    SETDIJ:  cpu time    1.3892: real time    1.3900
     EDDAV:  cpu time   30.3000: real time   30.3025
       DOS:  cpu time    0.0004: real time    0.0004
    CHARGE:  cpu time    4.3028: real time    4.3032
    MIXING:  cpu time    0.1077: real time    0.1078
    --------------------------------------------
      LOOP:  cpu time   37.6019: real time   37.6071

 eigenvalue-minimisations  :  1944
 total energy-change (2. order) :-0.2545377E-05  (-0.9245824E-10)
 number of electron     199.0000000 magnetization       0.9985387
 augmentation part        5.5860474 magnetization       0.0506307

 Broyden mixing:
  rms(total) = 0.11405E-04    rms(broyden)= 0.41958E-05
  rms(prec ) = 0.52180E-05
  weight for this iteration     100.00
  WARNING: grid for Broyden might be to small

 eigenvalues of (default mixing * dielectric matrix)
  average eigenvalue GAMMA=   2.4237
 14.8737  9.8972  8.0573  5.8026  4.1347  3.0595  2.4093  2.4093  2.0984  1.7815
  1.7815  1.3762  1.3762  1.1236  1.1236  0.9294  0.9294  0.9446  0.9446  0.8671
  0.8671  0.7511  0.7241  0.6867  0.6617  0.6395  0.6274  0.6195  0.6147  0.5992

 Free energy of the ion-electron system (eV)
  ---------------------------------------------------
  alpha Z        PSCENC =        51.33532475
  Ewald energy   TEWEN  =     54526.16805917
  -Hartree energ DENC   =    -60612.48713191
  -exchange      EXHF   =         0.00000000
  -V(xc)+E(xc)   XCENC  =       685.26969213
  PAW double counting   =     20095.10535307   -20144.07467815
  entropy T*S    EENTRO =        -0.00016081
  eigenvalues    EBANDS =     -2460.72709708
  atomic energy  EATOM  =      7413.06861924
  Solvation  Ediel_sol  =         0.00000000
  ---------------------------------------------------
  free energy    TOTEN  =      -446.34201958 eV

  energy without entropy =     -446.34185877  energy(sigma->0) =     -446.34193917


--------------------------------------------------------------------------------------------------------




----------------------------------------- Iteration    1(  36)  ---------------------------------------


    POTLOK:  cpu time    1.5036: real time    1.5037
    SETDIJ:  cpu time    1.3845: real time    1.3846
     EDDAV:  cpu time   28.9061: real time   28.9085
       DOS:  cpu time    0.0004: real time    0.0004
    CHARGE:  cpu time    4.3193: real time    4.3196
    MIXING:  cpu time    0.1227: real time    0.1227
    --------------------------------------------
      LOOP:  cpu time   36.2372: real time   36.2423

 eigenvalue-minimisations  :  1824
 total energy-change (2. order) :-0.1294202E-05  ( 0.8715010E-09)
 number of electron     199.0000000 magnetization       0.9985362
 augmentation part        5.5860473 magnetization       0.0506281

 Broyden mixing:
  rms(total) = 0.10839E-04    rms(broyden)= 0.22400E-05
  rms(prec ) = 0.29301E-05
  weight for this iteration     100.00
  WARNING: grid for Broyden might be to small

 eigenvalues of (default mixing * dielectric matrix)
  average eigenvalue GAMMA=   2.4072
 14.8753  9.9292  8.2159  5.9357  4.2475  3.2453  2.4394  2.4394  2.0642  1.9250
  1.9250  1.3872  1.3872  1.1552  1.1552  0.9294  0.9294  0.9785  0.9785  0.8990
  0.8990  0.8007  0.7479  0.7094  0.6792  0.6560  0.6400  0.6271  0.6129  0.6129
  0.5973

 Free energy of the ion-electron system (eV)
  ---------------------------------------------------
  alpha Z        PSCENC =        51.33532475
  Ewald energy   TEWEN  =     54526.16805917
  -Hartree energ DENC   =    -60612.48861724
  -exchange      EXHF   =         0.00000000
  -V(xc)+E(xc)   XCENC  =       685.26969398
  PAW double counting   =     20095.10567170   -20144.07498855
  entropy T*S    EENTRO =        -0.00016081
  eigenvalues    EBANDS =     -2460.72562312
  atomic energy  EATOM  =      7413.06861924
  Solvation  Ediel_sol  =         0.00000000
  ---------------------------------------------------
  free energy    TOTEN  =      -446.34202087 eV

  energy without entropy =     -446.34186006  energy(sigma->0) =     -446.34194047


--------------------------------------------------------------------------------------------------------




----------------------------------------- Iteration    1(  37)  ---------------------------------------


    POTLOK:  cpu time    1.4956: real time    1.4957
    SETDIJ:  cpu time    1.3892: real time    1.3894
     EDDAV:  cpu time   29.0385: real time   29.0409
       DOS:  cpu time    0.0005: real time    0.0005
    --------------------------------------------
      LOOP:  cpu time   31.9243: real time   31.9294

 eigenvalue-minimisations  :  1832
 total energy-change (2. order) :-0.4336925E-06  ( 0.1395301E-08)
 number of electron     199.0000000 magnetization       0.9985362
 augmentation part        5.5860473 magnetization       0.0506281

 Free energy of the ion-electron system (eV)
  ---------------------------------------------------
  alpha Z        PSCENC =        51.33532475
  Ewald energy   TEWEN  =     54526.16805917
  -Hartree energ DENC   =    -60612.48950476
  -exchange      EXHF   =         0.00000000
  -V(xc)+E(xc)   XCENC  =       685.26969752
  PAW double counting   =     20095.10619674   -20144.07550890
  entropy T*S    EENTRO =        -0.00016081
  eigenvalues    EBANDS =     -2460.72474425
  atomic energy  EATOM  =      7413.06861924
  Solvation  Ediel_sol  =         0.00000000
  ---------------------------------------------------
  free energy    TOTEN  =      -446.34202130 eV

  energy without entropy =     -446.34186050  energy(sigma->0) =     -446.34194090


--------------------------------------------------------------------------------------------------------




 average (electrostatic) potential at core
  the test charge radii are     0.6991  0.7079
  (the norm of the test charge is              1.0000)
       1 -58.3274       2 -58.4331       3 -58.4282       4 -58.7719       5 -58.5668
       6 -58.3510       7 -58.4392       8 -58.2874       9 -58.3553      10 -58.3326
      11 -58.2830      12 -58.3866      13 -58.4176      14 -58.4836      15 -58.5009
      16 -58.3972      17 -58.3966      18 -58.3008      19 -58.3427      20 -58.2773
      21 -58.3500      22 -58.4064      23 -58.3864      24 -58.3682      25 -58.5744
      26 -58.7707      27 -58.3719      28 -58.2565      29 -58.3475      30 -58.3163
      31 -58.4482      32 -58.1868      33 -58.5646      34 -58.9936      35 -58.2419
      36 -58.2461      37 -58.3845      38 -58.3034      39 -58.3750      40 -58.4125
      41 -58.6105      42 -58.5948      43 -58.9127      44 -59.0071      45 -57.7098
      46 -58.2833      47 -58.2819      48 -58.3514      49 -58.3491      50 -70.0989
 
 
 
 E-fermi :  -2.8500     XC(G=0):  -1.4697     alpha+bet : -1.2875


 spin component 1

 k-point     1 :       0.0000    0.0000    0.0000
  band No.  band energies     occupation 
      1     -51.0162      1.00000
      2     -22.4361      1.00000
      3     -21.6919      1.00000
      4     -21.5770      1.00000
      5     -21.5054      1.00000
      6     -21.4712      1.00000
      7     -21.3796      1.00000
      8     -21.0648      1.00000
      9     -19.7448      1.00000
     10     -19.7102      1.00000
     11     -19.6606      1.00000
     12     -19.6395      1.00000
     13     -19.5343      1.00000
     14     -19.2945      1.00000
     15     -18.8382      1.00000
     16     -18.8009      1.00000
     17     -18.7562      1.00000
     18     -18.6736      1.00000
     19     -18.6130      1.00000
     20     -17.9722      1.00000
     21     -16.6681      1.00000
     22     -16.6181      1.00000
     23     -16.5972      1.00000
     24     -16.5074      1.00000
     25     -16.4630      1.00000
     26     -16.0695      1.00000
     27     -15.6436      1.00000
     28     -15.6254      1.00000
     29     -15.5664      1.00000
     30     -15.4807      1.00000
     31     -15.3195      1.00000
     32     -14.8626      1.00000
     33     -14.2915      1.00000
     34     -14.2545      1.00000
     35     -14.2350      1.00000
     36     -14.0568      1.00000
     37     -13.9575      1.00000
     38     -13.0843      1.00000
     39     -11.9349      1.00000
     40     -11.9051      1.00000
     41     -11.8640      1.00000
     42     -11.8277      1.00000
     43     -11.7956      1.00000
     44     -11.7834      1.00000
     45     -11.7667      1.00000
     46     -11.7260      1.00000
     47     -11.6890      1.00000
     48     -11.2994      1.00000
     49     -11.2655      1.00000
     50     -10.6757      1.00000
     51     -10.5724      1.00000
     52     -10.3928      1.00000
     53     -10.3626      1.00000
     54     -10.3224      1.00000
     55     -10.0524      1.00000
     56     -10.0308      1.00000
     57      -9.9103      1.00000
     58      -9.6732      1.00000
     59      -9.5164      1.00000
     60      -9.4826      1.00000
     61      -9.4375      1.00000
     62      -9.3879      1.00000
     63      -9.1854      1.00000
     64      -9.1543      1.00000
     65      -9.1365      1.00000
     66      -9.0938      1.00000
     67      -9.0377      1.00000
     68      -9.0278      1.00000
     69      -9.0036      1.00000
     70      -8.9689      1.00000
     71      -8.9555      1.00000
     72      -8.9140      1.00000
     73      -8.1765      1.00000
     74      -8.1280      1.00000
     75      -7.6462      1.00000
     76      -7.6197      1.00000
     77      -7.4956      1.00000
     78      -7.4785      1.00000
     79      -7.4593      1.00000
     80      -7.3795      1.00000
     81      -7.3108      1.00000
     82      -7.2715      1.00000
     83      -7.2302      1.00000
     84      -7.1638      1.00000
     85      -6.9818      1.00000
     86      -6.5163      1.00000
     87      -6.4737      1.00000
     88      -6.4452      1.00000
     89      -6.3866      1.00000
     90      -6.3336      1.00000
     91      -6.2311      1.00000
     92      -6.2004      1.00000
     93      -5.7548      1.00000
     94      -4.5836      1.00000
     95      -4.5173      1.00000
     96      -4.4524      1.00000
     97      -4.3784      1.00000
     98      -4.3286      1.00000
     99      -4.1059      1.00000
    100      -3.3439      1.00000
    101      -1.8723      0.00000
    102      -1.7634      0.00000
    103      -1.7023      0.00000
    104      -1.6108      0.00000
    105      -1.5901      0.00000
    106      -1.1969      0.00000
    107      -0.9381      0.00000
    108      -0.7949      0.00000
    109      -0.0942      0.00000
    110       0.1288      0.00000
    111       0.1621      0.00000
    112       0.2347      0.00000
    113       0.2816      0.00000
    114       0.4776      0.00000
    115       0.7156      0.00000
    116       0.8288      0.00000
    117       0.9105      0.00000
    118       1.0284      0.00000
    119       1.1452      0.00000
    120       1.3543      0.00000
    121       1.3962      0.00000
    122       1.4214      0.00000
    123       1.4683      0.00000
    124       1.5378      0.00000
    125       1.7322      0.00000
    126       1.7780      0.00000
    127       1.8485      0.00000
    128       2.0175      0.00000

 k-point     2 :       0.3333   -0.0000    0.0000
  band No.  band energies     occupation 
      1     -51.0162      1.00000
      2     -22.3371      1.00000
      3     -22.0462      1.00000
      4     -21.7509      1.00000
      5     -21.5292      1.00000
      6     -21.1473      1.00000
      7     -20.9699      1.00000
      8     -20.6716      1.00000
      9     -20.5192      1.00000
     10     -20.3102      1.00000
     11     -19.8185      1.00000
     12     -19.5310      1.00000
     13     -19.4024      1.00000
     14     -19.2290      1.00000
     15     -18.9533      1.00000
     16     -18.7104      1.00000
     17     -18.4747      1.00000
     18     -18.0695      1.00000
     19     -17.8593      1.00000
     20     -17.5797      1.00000
     21     -17.5180      1.00000
     22     -17.3765      1.00000
     23     -17.2337      1.00000
     24     -16.8701      1.00000
     25     -16.3840      1.00000
     26     -16.0653      1.00000
     27     -15.6276      1.00000
     28     -15.4151      1.00000
     29     -15.3307      1.00000
     30     -14.9957      1.00000
     31     -14.9631      1.00000
     32     -14.8180      1.00000
     33     -14.5932      1.00000
     34     -14.4902      1.00000
     35     -13.8883      1.00000
     36     -13.3018      1.00000
     37     -13.1860      1.00000
     38     -13.0741      1.00000
     39     -12.9187      1.00000
     40     -12.8209      1.00000
     41     -12.6303      1.00000
     42     -12.3538      1.00000
     43     -12.3176      1.00000
     44     -11.7797      1.00000
     45     -11.4282      1.00000
     46     -11.3768      1.00000
     47     -11.1297      1.00000
     48     -10.9545      1.00000
     49     -10.7413      1.00000
     50     -10.7114      1.00000
     51     -10.5265      1.00000
     52     -10.4599      1.00000
     53     -10.4249      1.00000
     54     -10.1911      1.00000
     55     -10.0879      1.00000
     56      -9.9552      1.00000
     57      -9.8474      1.00000
     58      -9.7536      1.00000
     59      -9.6930      1.00000
     60      -9.5349      1.00000
     61      -9.4848      1.00000
     62      -9.4160      1.00000
     63      -9.4008      1.00000
     64      -9.2704      1.00000
     65      -9.1871      1.00000
     66      -9.0489      1.00000
     67      -8.9391      1.00000
     68      -8.8570      1.00000
     69      -8.8144      1.00000
     70      -8.5880      1.00000
     71      -8.4991      1.00000
     72      -8.4434      1.00000
     73      -8.3228      1.00000
     74      -8.1937      1.00000
     75      -8.1360      1.00000
     76      -8.0866      1.00000
     77      -7.9548      1.00000
     78      -7.7301      1.00000
     79      -7.5183      1.00000
     80      -7.3925      1.00000
     81      -7.3151      1.00000
     82      -7.2092      1.00000
     83      -7.0855      1.00000
     84      -6.9973      1.00000
     85      -6.8976      1.00000
     86      -6.6729      1.00000
     87      -6.5569      1.00000
     88      -6.3589      1.00000
     89      -6.2846      1.00000
     90      -6.0876      1.00000
     91      -5.7793      1.00000
     92      -5.6432      1.00000
     93      -5.4179      1.00000
     94      -5.2098      1.00000
     95      -5.0632      1.00000
     96      -4.9961      1.00000
     97      -4.6175      1.00000
     98      -4.0953      1.00000
     99      -3.9759      1.00000
    100      -3.2848      1.00000
    101      -2.0327      0.00000
    102      -1.7895      0.00000
    103      -1.3712      0.00000
    104      -1.2825      0.00000
    105      -1.1342      0.00000
    106      -1.0382      0.00000
    107      -0.9318      0.00000
    108      -0.8132      0.00000
    109      -0.7335      0.00000
    110      -0.5044      0.00000
    111      -0.0817      0.00000
    112       0.3415      0.00000
    113       0.4170      0.00000
    114       0.6039      0.00000
    115       0.7494      0.00000
    116       0.8816      0.00000
    117       0.9448      0.00000
    118       0.9987      0.00000
    119       1.1352      0.00000
    120       1.2830      0.00000
    121       1.3383      0.00000
    122       1.3835      0.00000
    123       1.5067      0.00000
    124       1.5390      0.00000
    125       1.5676      0.00000
    126       1.6464      0.00000
    127       1.7056      0.00000
    128       1.7503      0.00000

 k-point     3 :       0.0000    0.3333    0.0000
  band No.  band energies     occupation 
      1     -51.0162      1.00000
      2     -22.3590      1.00000
      3     -21.9654      1.00000
      4     -21.7165      1.00000
      5     -21.6783      1.00000
      6     -21.0692      1.00000
      7     -21.0139      1.00000
      8     -20.7245      1.00000
      9     -20.4353      1.00000
     10     -20.2540      1.00000
     11     -19.7542      1.00000
     12     -19.5529      1.00000
     13     -19.5268      1.00000
     14     -19.1953      1.00000
     15     -19.1212      1.00000
     16     -18.6191      1.00000
     17     -18.4393      1.00000
     18     -18.0518      1.00000
     19     -17.9325      1.00000
     20     -17.4802      1.00000
     21     -17.4243      1.00000
     22     -17.3709      1.00000
     23     -17.2565      1.00000
     24     -16.8402      1.00000
     25     -16.4889      1.00000
     26     -16.1486      1.00000
     27     -15.6258      1.00000
     28     -15.4103      1.00000
     29     -15.3659      1.00000
     30     -14.9595      1.00000
     31     -14.9487      1.00000
     32     -14.7011      1.00000
     33     -14.6347      1.00000
     34     -14.5565      1.00000
     35     -13.8825      1.00000
     36     -13.2874      1.00000
     37     -13.1559      1.00000
     38     -13.1283      1.00000
     39     -12.9134      1.00000
     40     -12.7284      1.00000
     41     -12.6410      1.00000
     42     -12.2973      1.00000
     43     -12.2528      1.00000
     44     -11.8056      1.00000
     45     -11.5546      1.00000
     46     -11.4182      1.00000
     47     -11.1721      1.00000
     48     -11.0507      1.00000
     49     -10.7762      1.00000
     50     -10.7147      1.00000
     51     -10.4689      1.00000
     52     -10.4223      1.00000
     53     -10.3770      1.00000
     54     -10.1894      1.00000
     55     -10.0283      1.00000
     56      -9.9301      1.00000
     57      -9.8484      1.00000
     58      -9.7940      1.00000
     59      -9.7145      1.00000
     60      -9.6294      1.00000
     61      -9.4781      1.00000
     62      -9.4201      1.00000
     63      -9.2937      1.00000
     64      -9.2388      1.00000
     65      -9.1643      1.00000
     66      -9.0161      1.00000
     67      -8.9318      1.00000
     68      -8.8793      1.00000
     69      -8.8406      1.00000
     70      -8.5649      1.00000
     71      -8.5286      1.00000
     72      -8.5157      1.00000
     73      -8.3265      1.00000
     74      -8.2204      1.00000
     75      -8.1010      1.00000
     76      -8.0740      1.00000
     77      -7.8348      1.00000
     78      -7.7539      1.00000
     79      -7.4803      1.00000
     80      -7.3973      1.00000
     81      -7.2350      1.00000
     82      -7.2123      1.00000
     83      -7.1828      1.00000
     84      -7.1038      1.00000
     85      -6.8455      1.00000
     86      -6.7493      1.00000
     87      -6.5648      1.00000
     88      -6.3860      1.00000
     89      -6.2059      1.00000
     90      -6.0758      1.00000
     91      -5.7867      1.00000
     92      -5.6716      1.00000
     93      -5.3754      1.00000
     94      -5.1344      1.00000
     95      -5.0734      1.00000
     96      -4.9917      1.00000
     97      -4.6764      1.00000
     98      -4.1019      1.00000
     99      -4.0574      1.00000
    100      -3.2698      1.00000
    101      -1.8851      0.00000
    102      -1.8126      0.00000
    103      -1.3991      0.00000
    104      -1.2495      0.00000
    105      -1.1423      0.00000
    106      -1.0487      0.00000
    107      -1.0073      0.00000
    108      -0.8434      0.00000
    109      -0.7048      0.00000
    110      -0.4760      0.00000
    111      -0.1181      0.00000
    112       0.3529      0.00000
    113       0.3898      0.00000
    114       0.6104      0.00000
    115       0.7443      0.00000
    116       0.8330      0.00000
    117       0.9661      0.00000
    118       1.0407      0.00000
    119       1.1420      0.00000
    120       1.2855      0.00000
    121       1.3675      0.00000
    122       1.4059      0.00000
    123       1.5426      0.00000
    124       1.5653      0.00000
    125       1.6408      0.00000
    126       1.6786      0.00000
    127       1.7037      0.00000
    128       1.7273      0.00000

 k-point     4 :       0.3333    0.3333    0.0000
  band No.  band energies     occupation 
      1     -51.0162      1.00000
      2     -22.2466      1.00000
      3     -22.1178      1.00000
      4     -21.9540      1.00000
      5     -21.2623      1.00000
      6     -21.1853      1.00000
      7     -20.9876      1.00000
      8     -20.3760      1.00000
      9     -20.3366      1.00000
     10     -20.2607      1.00000
     11     -20.2175      1.00000
     12     -20.1288      1.00000
     13     -19.7197      1.00000
     14     -18.5555      1.00000
     15     -18.5144      1.00000
     16     -18.4501      1.00000
     17     -18.3973      1.00000
     18     -18.3417      1.00000
     19     -18.0407      1.00000
     20     -17.6244      1.00000
     21     -17.5482      1.00000
     22     -17.3835      1.00000
     23     -17.1666      1.00000
     24     -17.0232      1.00000
     25     -16.5556      1.00000
     26     -16.0758      1.00000
     27     -15.9131      1.00000
     28     -15.8431      1.00000
     29     -15.4155      1.00000
     30     -15.0479      1.00000
     31     -14.1138      1.00000
     32     -14.0749      1.00000
     33     -14.0457      1.00000
     34     -13.9860      1.00000
     35     -13.9530      1.00000
     36     -13.8749      1.00000
     37     -13.8215      1.00000
     38     -13.7149      1.00000
     39     -13.2519      1.00000
     40     -12.6340      1.00000
     41     -12.3033      1.00000
     42     -12.2681      1.00000
     43     -12.0443      1.00000
     44     -11.7240      1.00000
     45     -11.6504      1.00000
     46     -11.6133      1.00000
     47     -11.4001      1.00000
     48     -11.3523      1.00000
     49     -10.6695      1.00000
     50     -10.3912      1.00000
     51     -10.3295      1.00000
     52     -10.3003      1.00000
     53     -10.2599      1.00000
     54     -10.2310      1.00000
     55     -10.1527      1.00000
     56     -10.0082      1.00000
     57      -9.9918      1.00000
     58      -9.9340      1.00000
     59      -9.6452      1.00000
     60      -9.5401      1.00000
     61      -9.4850      1.00000
     62      -9.2904      1.00000
     63      -9.2218      1.00000
     64      -9.1674      1.00000
     65      -9.0992      1.00000
     66      -8.9140      1.00000
     67      -8.8575      1.00000
     68      -8.8168      1.00000
     69      -8.7162      1.00000
     70      -8.7091      1.00000
     71      -8.5342      1.00000
     72      -8.4129      1.00000
     73      -8.3761      1.00000
     74      -8.1383      1.00000
     75      -8.0980      1.00000
     76      -8.0343      1.00000
     77      -7.9937      1.00000
     78      -7.9621      1.00000
     79      -7.8676      1.00000
     80      -7.5925      1.00000
     81      -7.4825      1.00000
     82      -7.4306      1.00000
     83      -6.9558      1.00000
     84      -6.8878      1.00000
     85      -6.7681      1.00000
     86      -6.5972      1.00000
     87      -6.1945      1.00000
     88      -6.1273      1.00000
     89      -6.0821      1.00000
     90      -6.0212      1.00000
     91      -5.9615      1.00000
     92      -5.7188      1.00000
     93      -5.2816      1.00000
     94      -5.2310      1.00000
     95      -5.1305      1.00000
     96      -5.0887      1.00000
     97      -5.0148      1.00000
     98      -4.4682      1.00000
     99      -3.7051      1.00000
    100      -2.9461      0.99670
    101      -2.6477      0.00000
    102      -1.5099      0.00000
    103      -1.3444      0.00000
    104      -1.2387      0.00000
    105      -1.1478      0.00000
    106      -0.9207      0.00000
    107      -0.7494      0.00000
    108      -0.6607      0.00000
    109      -0.6222      0.00000
    110      -0.1521      0.00000
    111      -0.0178      0.00000
    112       0.0432      0.00000
    113       0.0844      0.00000
    114       0.1184      0.00000
    115       0.4103      0.00000
    116       0.4980      0.00000
    117       1.0199      0.00000
    118       1.1138      0.00000
    119       1.2339      0.00000
    120       1.2771      0.00000
    121       1.2882      0.00000
    122       1.3735      0.00000
    123       1.4422      0.00000
    124       1.4998      0.00000
    125       1.5303      0.00000
    126       1.6487      0.00000
    127       1.7900      0.00000
    128       1.7927      0.00000

 k-point     5 :      -0.3333    0.3333    0.0000
  band No.  band energies     occupation 
      1     -51.0162      1.00000
      2     -22.3435      1.00000
      3     -22.0297      1.00000
      4     -21.7260      1.00000
      5     -21.5877      1.00000
      6     -21.1237      1.00000
      7     -20.9734      1.00000
      8     -20.6895      1.00000
      9     -20.4941      1.00000
     10     -20.2956      1.00000
     11     -19.8129      1.00000
     12     -19.5382      1.00000
     13     -19.4314      1.00000
     14     -19.2149      1.00000
     15     -18.9937      1.00000
     16     -18.6824      1.00000
     17     -18.4656      1.00000
     18     -18.0641      1.00000
     19     -17.8907      1.00000
     20     -17.5484      1.00000
     21     -17.5324      1.00000
     22     -17.3690      1.00000
     23     -17.2386      1.00000
     24     -16.8106      1.00000
     25     -16.3864      1.00000
     26     -16.1113      1.00000
     27     -15.6260      1.00000
     28     -15.4244      1.00000
     29     -15.3697      1.00000
     30     -15.0255      1.00000
     31     -14.9604      1.00000
     32     -14.7806      1.00000
     33     -14.5706      1.00000
     34     -14.4820      1.00000
     35     -13.8849      1.00000
     36     -13.3063      1.00000
     37     -13.1758      1.00000
     38     -13.0801      1.00000
     39     -12.8996      1.00000
     40     -12.8129      1.00000
     41     -12.6326      1.00000
     42     -12.3510      1.00000
     43     -12.3171      1.00000
     44     -11.7972      1.00000
     45     -11.4538      1.00000
     46     -11.3912      1.00000
     47     -11.1131      1.00000
     48     -10.9698      1.00000
     49     -10.7411      1.00000
     50     -10.7069      1.00000
     51     -10.5167      1.00000
     52     -10.4614      1.00000
     53     -10.4176      1.00000
     54     -10.1865      1.00000
     55     -10.0563      1.00000
     56      -9.9569      1.00000
     57      -9.8436      1.00000
     58      -9.7549      1.00000
     59      -9.6972      1.00000
     60      -9.5999      1.00000
     61      -9.4841      1.00000
     62      -9.4165      1.00000
     63      -9.3620      1.00000
     64      -9.2819      1.00000
     65      -9.2112      1.00000
     66      -9.0101      1.00000
     67      -8.9308      1.00000
     68      -8.8826      1.00000
     69      -8.8019      1.00000
     70      -8.5757      1.00000
     71      -8.5260      1.00000
     72      -8.4771      1.00000
     73      -8.2745      1.00000
     74      -8.2104      1.00000
     75      -8.1175      1.00000
     76      -8.0854      1.00000
     77      -7.9591      1.00000
     78      -7.6889      1.00000
     79      -7.5154      1.00000
     80      -7.4021      1.00000
     81      -7.2909      1.00000
     82      -7.2319      1.00000
     83      -7.1168      1.00000
     84      -7.0054      1.00000
     85      -6.8900      1.00000
     86      -6.6964      1.00000
     87      -6.5510      1.00000
     88      -6.3787      1.00000
     89      -6.2314      1.00000
     90      -6.1016      1.00000
     91      -5.7809      1.00000
     92      -5.6870      1.00000
     93      -5.4095      1.00000
     94      -5.1776      1.00000
     95      -5.0463      1.00000
     96      -5.0261      1.00000
     97      -4.5767      1.00000
     98      -4.0674      1.00000
     99      -3.9624      1.00000
    100      -3.3897      1.00000
    101      -2.0189      0.00000
    102      -1.7350      0.00000
    103      -1.4198      0.00000
    104      -1.2822      0.00000
    105      -1.0784      0.00000
    106      -1.0432      0.00000
    107      -0.9182      0.00000
    108      -0.8672      0.00000
    109      -0.6562      0.00000
    110      -0.5791      0.00000
    111      -0.0774      0.00000
    112       0.3770      0.00000
    113       0.4483      0.00000
    114       0.6050      0.00000
    115       0.7194      0.00000
    116       0.7984      0.00000
    117       0.9299      0.00000
    118       0.9964      0.00000
    119       1.1285      0.00000
    120       1.2326      0.00000
    121       1.3677      0.00000
    122       1.4017      0.00000
    123       1.4933      0.00000
    124       1.5406      0.00000
    125       1.5784      0.00000
    126       1.6743      0.00000
    127       1.7148      0.00000
    128       1.7865      0.00000

 spin component 2

 k-point     1 :       0.0000    0.0000    0.0000
  band No.  band energies     occupation 
      1     -51.0140      1.00000
      2     -22.4232      1.00000
      3     -21.6668      1.00000
      4     -21.5699      1.00000
      5     -21.4986      1.00000
      6     -21.4614      1.00000
      7     -21.3651      1.00000
      8     -21.0117      1.00000
      9     -19.7328      1.00000
     10     -19.6952      1.00000
     11     -19.6289      1.00000
     12     -19.6148      1.00000
     13     -19.5265      1.00000
     14     -19.2772      1.00000
     15     -18.8173      1.00000
     16     -18.7829      1.00000
     17     -18.7426      1.00000
     18     -18.6448      1.00000
     19     -18.5862      1.00000
     20     -17.9090      1.00000
     21     -16.6532      1.00000
     22     -16.6073      1.00000
     23     -16.5754      1.00000
     24     -16.4850      1.00000
     25     -16.4112      1.00000
     26     -16.0400      1.00000
     27     -15.6322      1.00000
     28     -15.6148      1.00000
     29     -15.5540      1.00000
     30     -15.4231      1.00000
     31     -15.3067      1.00000
     32     -14.8245      1.00000
     33     -14.2728      1.00000
     34     -14.2370      1.00000
     35     -14.2194      1.00000
     36     -14.0003      1.00000
     37     -13.9391      1.00000
     38     -13.0110      1.00000
     39     -11.9150      1.00000
     40     -11.8816      1.00000
     41     -11.8499      1.00000
     42     -11.8126      1.00000
     43     -11.7823      1.00000
     44     -11.7629      1.00000
     45     -11.7470      1.00000
     46     -11.7136      1.00000
     47     -11.6647      1.00000
     48     -11.2578      1.00000
     49     -11.2542      1.00000
     50     -10.6369      1.00000
     51     -10.5565      1.00000
     52     -10.3679      1.00000
     53     -10.3495      1.00000
     54     -10.3098      1.00000
     55     -10.0341      1.00000
     56     -10.0164      1.00000
     57      -9.8353      1.00000
     58      -9.6506      1.00000
     59      -9.5052      1.00000
     60      -9.4629      1.00000
     61      -9.4282      1.00000
     62      -9.3698      1.00000
     63      -9.1699      1.00000
     64      -9.1399      1.00000
     65      -9.1233      1.00000
     66      -9.0738      1.00000
     67      -9.0249      1.00000
     68      -9.0117      1.00000
     69      -8.9862      1.00000
     70      -8.9569      1.00000
     71      -8.9303      1.00000
     72      -8.8843      1.00000
     73      -8.1310      1.00000
     74      -8.1076      1.00000
     75      -7.6066      1.00000
     76      -7.5507      1.00000
     77      -7.4807      1.00000
     78      -7.4591      1.00000
     79      -7.4102      1.00000
     80      -7.3475      1.00000
     81      -7.2831      1.00000
     82      -7.2576      1.00000
     83      -7.2036      1.00000
     84      -7.1478      1.00000
     85      -6.9638      1.00000
     86      -6.4974      1.00000
     87      -6.4570      1.00000
     88      -6.4274      1.00000
     89      -6.3684      1.00000
     90      -6.2994      1.00000
     91      -6.1830      1.00000
     92      -6.1486      1.00000
     93      -5.6978      1.00000
     94      -4.5579      1.00000
     95      -4.4676      1.00000
     96      -4.4249      1.00000
     97      -4.3656      1.00000
     98      -4.3041      1.00000
     99      -3.6081      1.00000
    100      -2.5069      0.00000
    101      -1.8164      0.00000
    102      -1.6829      0.00000
    103      -1.6323      0.00000
    104      -1.5893      0.00000
    105      -1.5487      0.00000
    106      -1.1198      0.00000
    107      -0.8576      0.00000
    108      -0.7220      0.00000
    109      -0.0503      0.00000
    110       0.1544      0.00000
    111       0.1913      0.00000
    112       0.2703      0.00000
    113       0.3010      0.00000
    114       0.4914      0.00000
    115       0.7568      0.00000
    116       0.8399      0.00000
    117       0.9413      0.00000
    118       1.0453      0.00000
    119       1.1661      0.00000
    120       1.3717      0.00000
    121       1.3977      0.00000
    122       1.4249      0.00000
    123       1.4693      0.00000
    124       1.5568      0.00000
    125       1.7491      0.00000
    126       1.8316      0.00000
    127       1.8639      0.00000
    128       1.9324      0.00000

 k-point     2 :       0.3333   -0.0000    0.0000
  band No.  band energies     occupation 
      1     -51.0140      1.00000
      2     -22.3246      1.00000
      3     -22.0345      1.00000
      4     -21.7335      1.00000
      5     -21.5040      1.00000
      6     -21.1337      1.00000
      7     -20.9582      1.00000
      8     -20.6383      1.00000
      9     -20.5067      1.00000
     10     -20.2880      1.00000
     11     -19.7917      1.00000
     12     -19.5047      1.00000
     13     -19.3915      1.00000
     14     -19.2033      1.00000
     15     -18.9241      1.00000
     16     -18.6949      1.00000
     17     -18.4542      1.00000
     18     -18.0395      1.00000
     19     -17.8418      1.00000
     20     -17.5623      1.00000
     21     -17.5047      1.00000
     22     -17.3541      1.00000
     23     -17.1951      1.00000
     24     -16.8183      1.00000
     25     -16.3538      1.00000
     26     -16.0314      1.00000
     27     -15.6056      1.00000
     28     -15.3986      1.00000
     29     -15.3128      1.00000
     30     -14.9851      1.00000
     31     -14.9491      1.00000
     32     -14.7692      1.00000
     33     -14.5780      1.00000
     34     -14.4524      1.00000
     35     -13.8415      1.00000
     36     -13.2739      1.00000
     37     -13.1700      1.00000
     38     -13.0409      1.00000
     39     -12.9015      1.00000
     40     -12.7997      1.00000
     41     -12.6130      1.00000
     42     -12.3206      1.00000
     43     -12.2907      1.00000
     44     -11.7442      1.00000
     45     -11.4203      1.00000
     46     -11.3462      1.00000
     47     -11.1057      1.00000
     48     -10.9346      1.00000
     49     -10.7164      1.00000
     50     -10.6849      1.00000
     51     -10.5047      1.00000
     52     -10.4439      1.00000
     53     -10.4072      1.00000
     54     -10.1615      1.00000
     55     -10.0740      1.00000
     56      -9.9355      1.00000
     57      -9.8207      1.00000
     58      -9.7373      1.00000
     59      -9.6780      1.00000
     60      -9.5159      1.00000
     61      -9.4687      1.00000
     62      -9.3941      1.00000
     63      -9.3850      1.00000
     64      -9.2556      1.00000
     65      -9.1665      1.00000
     66      -9.0328      1.00000
     67      -8.9156      1.00000
     68      -8.8296      1.00000
     69      -8.7765      1.00000
     70      -8.5576      1.00000
     71      -8.4794      1.00000
     72      -8.4167      1.00000
     73      -8.3082      1.00000
     74      -8.1742      1.00000
     75      -8.1148      1.00000
     76      -8.0712      1.00000
     77      -7.9215      1.00000
     78      -7.6924      1.00000
     79      -7.4963      1.00000
     80      -7.3651      1.00000
     81      -7.2631      1.00000
     82      -7.1859      1.00000
     83      -7.0606      1.00000
     84      -6.9344      1.00000
     85      -6.8751      1.00000
     86      -6.6445      1.00000
     87      -6.5312      1.00000
     88      -6.3263      1.00000
     89      -6.2646      1.00000
     90      -6.0689      1.00000
     91      -5.7493      1.00000
     92      -5.6226      1.00000
     93      -5.3864      1.00000
     94      -5.1899      1.00000
     95      -5.0491      1.00000
     96      -4.9650      1.00000
     97      -4.4859      1.00000
     98      -4.0126      1.00000
     99      -3.5374      1.00000
    100      -2.4855      0.00000
    101      -1.9372      0.00000
    102      -1.7447      0.00000
    103      -1.2749      0.00000
    104      -1.2142      0.00000
    105      -1.1004      0.00000
    106      -1.0120      0.00000
    107      -0.8982      0.00000
    108      -0.7539      0.00000
    109      -0.6964      0.00000
    110      -0.4775      0.00000
    111       0.0005      0.00000
    112       0.3505      0.00000
    113       0.4458      0.00000
    114       0.6301      0.00000
    115       0.7690      0.00000
    116       0.9099      0.00000
    117       0.9567      0.00000
    118       1.0119      0.00000
    119       1.1478      0.00000
    120       1.3037      0.00000
    121       1.3579      0.00000
    122       1.3911      0.00000
    123       1.5308      0.00000
    124       1.5603      0.00000
    125       1.5853      0.00000
    126       1.6604      0.00000
    127       1.7251      0.00000
    128       1.7626      0.00000

 k-point     3 :       0.0000    0.3333    0.0000
  band No.  band energies     occupation 
      1     -51.0140      1.00000
      2     -22.3471      1.00000
      3     -21.9492      1.00000
      4     -21.7041      1.00000
      5     -21.6595      1.00000
      6     -21.0571      1.00000
      7     -20.9873      1.00000
      8     -20.6922      1.00000
      9     -20.4260      1.00000
     10     -20.2299      1.00000
     11     -19.7334      1.00000
     12     -19.5401      1.00000
     13     -19.5145      1.00000
     14     -19.1757      1.00000
     15     -19.0668      1.00000
     16     -18.6104      1.00000
     17     -18.4196      1.00000
     18     -18.0355      1.00000
     19     -17.8786      1.00000
     20     -17.4674      1.00000
     21     -17.4009      1.00000
     22     -17.3486      1.00000
     23     -17.2353      1.00000
     24     -16.8176      1.00000
     25     -16.4733      1.00000
     26     -16.0883      1.00000
     27     -15.5954      1.00000
     28     -15.3964      1.00000
     29     -15.3318      1.00000
     30     -14.9406      1.00000
     31     -14.9131      1.00000
     32     -14.6851      1.00000
     33     -14.5996      1.00000
     34     -14.5442      1.00000
     35     -13.8405      1.00000
     36     -13.2709      1.00000
     37     -13.1278      1.00000
     38     -13.1038      1.00000
     39     -12.8963      1.00000
     40     -12.7154      1.00000
     41     -12.6171      1.00000
     42     -12.2509      1.00000
     43     -12.2336      1.00000
     44     -11.7668      1.00000
     45     -11.5426      1.00000
     46     -11.3788      1.00000
     47     -11.1509      1.00000
     48     -11.0281      1.00000
     49     -10.7525      1.00000
     50     -10.6893      1.00000
     51     -10.4519      1.00000
     52     -10.4036      1.00000
     53     -10.3650      1.00000
     54     -10.1619      1.00000
     55     -10.0104      1.00000
     56      -9.9080      1.00000
     57      -9.8302      1.00000
     58      -9.7779      1.00000
     59      -9.7023      1.00000
     60      -9.6096      1.00000
     61      -9.4595      1.00000
     62      -9.4003      1.00000
     63      -9.2735      1.00000
     64      -9.2205      1.00000
     65      -9.1529      1.00000
     66      -9.0054      1.00000
     67      -8.9161      1.00000
     68      -8.8591      1.00000
     69      -8.8146      1.00000
     70      -8.5323      1.00000
     71      -8.4955      1.00000
     72      -8.4537      1.00000
     73      -8.3090      1.00000
     74      -8.2068      1.00000
     75      -8.0827      1.00000
     76      -8.0488      1.00000
     77      -7.7957      1.00000
     78      -7.6830      1.00000
     79      -7.4561      1.00000
     80      -7.3834      1.00000
     81      -7.2205      1.00000
     82      -7.1785      1.00000
     83      -7.1630      1.00000
     84      -7.0820      1.00000
     85      -6.8298      1.00000
     86      -6.7098      1.00000
     87      -6.5127      1.00000
     88      -6.3678      1.00000
     89      -6.1922      1.00000
     90      -6.0549      1.00000
     91      -5.7699      1.00000
     92      -5.6221      1.00000
     93      -5.3435      1.00000
     94      -5.1164      1.00000
     95      -5.0563      1.00000
     96      -4.9670      1.00000
     97      -4.5630      1.00000
     98      -4.0440      1.00000
     99      -3.5706      1.00000
    100      -2.4045      0.00000
    101      -1.8533      0.00000
    102      -1.7683      0.00000
    103      -1.3062      0.00000
    104      -1.2141      0.00000
    105      -1.0985      0.00000
    106      -1.0202      0.00000
    107      -0.9809      0.00000
    108      -0.7579      0.00000
    109      -0.6579      0.00000
    110      -0.4522      0.00000
    111      -0.0525      0.00000
    112       0.3704      0.00000
    113       0.4034      0.00000
    114       0.6726      0.00000
    115       0.7647      0.00000
    116       0.8466      0.00000
    117       0.9746      0.00000
    118       1.0573      0.00000
    119       1.1554      0.00000
    120       1.3099      0.00000
    121       1.3824      0.00000
    122       1.4200      0.00000
    123       1.5590      0.00000
    124       1.5797      0.00000
    125       1.6578      0.00000
    126       1.6959      0.00000
    127       1.7168      0.00000
    128       1.7511      0.00000

 k-point     4 :       0.3333    0.3333    0.0000
  band No.  band energies     occupation 
      1     -51.0140      1.00000
      2     -22.2363      1.00000
      3     -22.1072      1.00000
      4     -21.9299      1.00000
      5     -21.2408      1.00000
      6     -21.1703      1.00000
      7     -20.9689      1.00000
      8     -20.3541      1.00000
      9     -20.3211      1.00000
     10     -20.2499      1.00000
     11     -20.1981      1.00000
     12     -20.1092      1.00000
     13     -19.6686      1.00000
     14     -18.5450      1.00000
     15     -18.4992      1.00000
     16     -18.4384      1.00000
     17     -18.3772      1.00000
     18     -18.2986      1.00000
     19     -18.0134      1.00000
     20     -17.6141      1.00000
     21     -17.5151      1.00000
     22     -17.3742      1.00000
     23     -17.1478      1.00000
     24     -16.9774      1.00000
     25     -16.5037      1.00000
     26     -16.0526      1.00000
     27     -15.8985      1.00000
     28     -15.8208      1.00000
     29     -15.3688      1.00000
     30     -15.0115      1.00000
     31     -14.1036      1.00000
     32     -14.0612      1.00000
     33     -14.0335      1.00000
     34     -13.9646      1.00000
     35     -13.9382      1.00000
     36     -13.8628      1.00000
     37     -13.7935      1.00000
     38     -13.6470      1.00000
     39     -13.2290      1.00000
     40     -12.5780      1.00000
     41     -12.2938      1.00000
     42     -12.2513      1.00000
     43     -12.0182      1.00000
     44     -11.7054      1.00000
     45     -11.6335      1.00000
     46     -11.5942      1.00000
     47     -11.3713      1.00000
     48     -11.3070      1.00000
     49     -10.6250      1.00000
     50     -10.3811      1.00000
     51     -10.3153      1.00000
     52     -10.2934      1.00000
     53     -10.2514      1.00000
     54     -10.2139      1.00000
     55     -10.1383      1.00000
     56      -9.9830      1.00000
     57      -9.9710      1.00000
     58      -9.8975      1.00000
     59      -9.6130      1.00000
     60      -9.5276      1.00000
     61      -9.4636      1.00000
     62      -9.2770      1.00000
     63      -9.1962      1.00000
     64      -9.1457      1.00000
     65      -9.0835      1.00000
     66      -8.8932      1.00000
     67      -8.8344      1.00000
     68      -8.7969      1.00000
     69      -8.7022      1.00000
     70      -8.6922      1.00000
     71      -8.5141      1.00000
     72      -8.3803      1.00000
     73      -8.3464      1.00000
     74      -8.1157      1.00000
     75      -8.0819      1.00000
     76      -8.0141      1.00000
     77      -7.9603      1.00000
     78      -7.9378      1.00000
     79      -7.8475      1.00000
     80      -7.5397      1.00000
     81      -7.4276      1.00000
     82      -7.3934      1.00000
     83      -6.9366      1.00000
     84      -6.8349      1.00000
     85      -6.7368      1.00000
     86      -6.5867      1.00000
     87      -6.1744      1.00000
     88      -6.1149      1.00000
     89      -6.0513      1.00000
     90      -6.0100      1.00000
     91      -5.9238      1.00000
     92      -5.6955      1.00000
     93      -5.2614      1.00000
     94      -5.2100      1.00000
     95      -5.1050      1.00000
     96      -5.0661      1.00000
     97      -4.9828      1.00000
     98      -4.1660      1.00000
     99      -2.9837      0.99992
    100      -2.7543      0.00338
    101      -2.3460      0.00000
    102      -1.3926      0.00000
    103      -1.2949      0.00000
    104      -1.1947      0.00000
    105      -1.1021      0.00000
    106      -0.8398      0.00000
    107      -0.7233      0.00000
    108      -0.6200      0.00000
    109      -0.5882      0.00000
    110      -0.1237      0.00000
    111       0.0160      0.00000
    112       0.0757      0.00000
    113       0.1124      0.00000
    114       0.1425      0.00000
    115       0.4185      0.00000
    116       0.5130      0.00000
    117       1.0557      0.00000
    118       1.1442      0.00000
    119       1.2391      0.00000
    120       1.2872      0.00000
    121       1.3052      0.00000
    122       1.3888      0.00000
    123       1.4602      0.00000
    124       1.5129      0.00000
    125       1.5485      0.00000
    126       1.6691      0.00000
    127       1.8063      0.00000
    128       1.8107      0.00000

 k-point     5 :      -0.3333    0.3333    0.0000
  band No.  band energies     occupation 
      1     -51.0140      1.00000
      2     -22.3318      1.00000
      3     -22.0151      1.00000
      4     -21.7110      1.00000
      5     -21.5653      1.00000
      6     -21.1098      1.00000
      7     -20.9574      1.00000
      8     -20.6596      1.00000
      9     -20.4808      1.00000
     10     -20.2698      1.00000
     11     -19.7837      1.00000
     12     -19.5210      1.00000
     13     -19.4211      1.00000
     14     -19.1865      1.00000
     15     -18.9660      1.00000
     16     -18.6652      1.00000
     17     -18.4434      1.00000
     18     -18.0339      1.00000
     19     -17.8708      1.00000
     20     -17.5293      1.00000
     21     -17.5165      1.00000
     22     -17.3480      1.00000
     23     -17.2043      1.00000
     24     -16.7620      1.00000
     25     -16.3569      1.00000
     26     -16.0742      1.00000
     27     -15.6007      1.00000
     28     -15.4086      1.00000
     29     -15.3525      1.00000
     30     -15.0156      1.00000
     31     -14.9464      1.00000
     32     -14.7351      1.00000
     33     -14.5515      1.00000
     34     -14.4477      1.00000
     35     -13.8373      1.00000
     36     -13.2793      1.00000
     37     -13.1567      1.00000
     38     -13.0500      1.00000
     39     -12.8812      1.00000
     40     -12.7929      1.00000
     41     -12.6132      1.00000
     42     -12.3173      1.00000
     43     -12.2903      1.00000
     44     -11.7628      1.00000
     45     -11.4467      1.00000
     46     -11.3611      1.00000
     47     -11.0856      1.00000
     48     -10.9529      1.00000
     49     -10.7135      1.00000
     50     -10.6819      1.00000
     51     -10.4970      1.00000
     52     -10.4450      1.00000
     53     -10.3992      1.00000
     54     -10.1576      1.00000
     55     -10.0415      1.00000
     56      -9.9401      1.00000
     57      -9.8162      1.00000
     58      -9.7389      1.00000
     59      -9.6816      1.00000
     60      -9.5815      1.00000
     61      -9.4676      1.00000
     62      -9.3918      1.00000
     63      -9.3435      1.00000
     64      -9.2669      1.00000
     65      -9.1930      1.00000
     66      -8.9936      1.00000
     67      -8.9080      1.00000
     68      -8.8547      1.00000
     69      -8.7652      1.00000
     70      -8.5434      1.00000
     71      -8.5067      1.00000
     72      -8.4517      1.00000
     73      -8.2599      1.00000
     74      -8.1903      1.00000
     75      -8.0995      1.00000
     76      -8.0644      1.00000
     77      -7.9270      1.00000
     78      -7.6493      1.00000
     79      -7.4916      1.00000
     80      -7.3744      1.00000
     81      -7.2454      1.00000
     82      -7.2125      1.00000
     83      -7.0979      1.00000
     84      -6.9376      1.00000
     85      -6.8657      1.00000
     86      -6.6708      1.00000
     87      -6.5257      1.00000
     88      -6.3400      1.00000
     89      -6.2139      1.00000
     90      -6.0768      1.00000
     91      -5.7490      1.00000
     92      -5.6615      1.00000
     93      -5.3846      1.00000
     94      -5.1578      1.00000
     95      -5.0283      1.00000
     96      -5.0049      1.00000
     97      -4.4185      1.00000
     98      -4.0030      1.00000
     99      -3.6085      1.00000
    100      -2.4934      0.00000
    101      -1.9775      0.00000
    102      -1.6923      0.00000
    103      -1.2725      0.00000
    104      -1.1995      0.00000
    105      -1.0414      0.00000
    106      -1.0170      0.00000
    107      -0.8955      0.00000
    108      -0.8314      0.00000
    109      -0.6212      0.00000
    110      -0.5412      0.00000
    111       0.0004      0.00000
    112       0.3895      0.00000
    113       0.4700      0.00000
    114       0.6345      0.00000
    115       0.7394      0.00000
    116       0.8090      0.00000
    117       0.9525      0.00000
    118       1.0059      0.00000
    119       1.1440      0.00000
    120       1.2587      0.00000
    121       1.3790      0.00000
    122       1.4169      0.00000
    123       1.5298      0.00000
    124       1.5560      0.00000
    125       1.5977      0.00000
    126       1.6848      0.00000
    127       1.7302      0.00000
    128       1.7972      0.00000


--------------------------------------------------------------------------------------------------------


 soft charge-density along one line, spin component           1
         0         1         2         3         4         5         6         7         8         9
 total charge-density along one line
 
 soft charge-density along one line, spin component           2
         0         1         2         3         4         5         6         7         8         9
 total charge-density along one line
 
 pseudopotential strength for first ion, spin component:           1
 10.229  13.603   0.000  -0.000  -0.000  -0.000   0.000   0.000
 13.603  18.090   0.000  -0.000  -0.000  -0.000   0.000   0.000
  0.000   0.000  -4.359   0.002   0.000   8.525  -0.003  -0.000
 -0.000  -0.000   0.002  -4.338  -0.000  -0.003   8.491  -0.000
 -0.000  -0.000   0.000  -0.000  -4.359  -0.000  -0.000   8.524
 -0.000  -0.000   8.525  -0.003  -0.000 -18.808   0.004   0.000
  0.000   0.000  -0.003   8.491  -0.000   0.004 -18.755   0.000
  0.000   0.000  -0.000  -0.000   8.524   0.000   0.000 -18.808
 pseudopotential strength for first ion, spin component:           2
 10.228  13.602   0.000   0.000  -0.000  -0.000  -0.000   0.000
 13.602  18.088   0.000   0.000  -0.000  -0.001  -0.000   0.000
  0.000   0.000  -4.359   0.002   0.000   8.524  -0.002  -0.000
  0.000   0.000   0.002  -4.338   0.000  -0.002   8.491   0.000
 -0.000  -0.000   0.000   0.000  -4.359  -0.000   0.000   8.524
 -0.000  -0.001   8.524  -0.002  -0.000 -18.808   0.004   0.000
 -0.000  -0.000  -0.002   8.491   0.000   0.004 -18.756  -0.000
  0.000   0.000  -0.000   0.000   8.524   0.000  -0.000 -18.808
 total augmentation occupancy for first ion, spin component:           1
  8.139  -3.615  -0.028   0.015  -0.000  -0.004   0.003  -0.000
 -3.615   1.663   0.015  -0.009   0.001   0.002  -0.001   0.000
 -0.028   0.015   1.825  -0.046   0.000   0.167  -0.008  -0.000
  0.015  -0.009  -0.046   1.206   0.000  -0.008   0.072  -0.000
 -0.000   0.001   0.000   0.000   1.817  -0.000   0.000   0.168
 -0.004   0.002   0.167  -0.008  -0.000   0.017  -0.001  -0.000
  0.003  -0.001  -0.008   0.072   0.000  -0.001   0.005  -0.000
 -0.000   0.000  -0.000  -0.000   0.168  -0.000  -0.000   0.017
 total augmentation occupancy for first ion, spin component:           2
  0.000  -0.000   0.001   0.000  -0.000   0.000   0.000  -0.000
 -0.000   0.000  -0.001  -0.001   0.000  -0.000  -0.000   0.000
  0.001  -0.001   0.002   0.001   0.000  -0.000  -0.000  -0.000
  0.000  -0.001   0.001   0.003   0.000  -0.000   0.000   0.000
 -0.000   0.000   0.000   0.000   0.000  -0.000   0.000  -0.000
  0.000  -0.000  -0.000  -0.000  -0.000  -0.000  -0.000  -0.000
  0.000  -0.000  -0.000   0.000   0.000  -0.000  -0.000   0.000
 -0.000   0.000  -0.000   0.000  -0.000  -0.000   0.000  -0.000


------------------------ aborting loop because EDIFF is reached ----------------------------------------


    CHARGE:  cpu time    4.3177: real time    4.3181
    FORLOC:  cpu time    0.1919: real time    0.1919
    FORNL :  cpu time   16.7386: real time   16.7401
    STRESS:  cpu time   50.4520: real time   50.4554
    FORCOR:  cpu time    1.4823: real time    1.4825
    FORHAR:  cpu time    0.3103: real time    0.3103
    MIXING:  cpu time    0.0744: real time    0.0744
    OFIELD:  cpu time    0.0000: real time    0.0000

  FORCE on cell =-STRESS in cart. coord.  units (eV):
  Direction    XX          YY          ZZ          XY          YZ          ZX
  --------------------------------------------------------------------------------------
  Alpha Z    51.33532    51.33532    51.33532
  Ewald   60993.62021 60980.63083-67448.10692     7.23010  -109.61040   -17.53855
  Hartree 60234.82603 60211.20968-59833.54272     4.23896   -51.59652   -11.96579
  E(xc)    -739.56246  -740.04244  -766.07175    -0.00651    -0.30636    -0.00947
  Local  ************************124776.39357   -10.74559   157.01168    29.55794
  n-local  -182.14377  -189.04277  -177.00500     0.13020     1.14583     0.19040
  augment    -0.94829    -0.97518     0.47788    -0.01609     0.00772    -0.00049
  Kinetic  2949.62922  2992.71993  3400.04364    -0.31909     3.47733    -0.73466
  Fock        0.00000     0.00000     0.00000     0.00000     0.00000     0.00000
  -------------------------------------------------------------------------------------
  Total     -24.36424    16.13003     3.52404     0.51198     0.12928    -0.50062
  in kB      -9.93119     6.57482     1.43645     0.20869     0.05270    -0.20406
  external pressure =       -0.64 kB  Pullay stress =        0.00 kB


 VOLUME and BASIS-vectors are now :
 -----------------------------------------------------------------------------
  energy-cutoff  :      520.00
  volume of cell :     3930.63
      direct lattice vectors                 reciprocal lattice vectors
    12.300000000  0.000000000  0.000000000     0.081300813  0.046939046  0.000000000
    -6.150000000 10.652112467  0.000000000     0.000000000  0.093878093  0.000000000
     0.000000000  0.000000000 30.000000000     0.000000000  0.000000000  0.033333333

  length of vectors
    12.300000000 12.300000000 30.000000000     0.093878093  0.093878093  0.033333333


 FORCES acting on ions
    electron-ion (+dipol)            ewald-force                    non-local-force                 convergence-correction
 -----------------------------------------------------------------------------------------------
   -.686E+00 -.293E+01 0.876E+01   0.705E+00 0.300E+01 -.885E+01   -.438E-01 0.109E-01 0.652E-01   0.154E-05 0.571E-05 -.674E-05
   -.184E+01 -.812E+01 0.215E+02   0.206E+01 0.812E+01 -.216E+02   -.263E+00 0.438E-01 0.121E+00   0.231E-05 0.293E-05 -.819E-05
   -.224E+01 -.164E+01 0.175E+02   0.234E+01 0.170E+01 -.175E+02   -.753E-01 -.534E-01 -.773E-02   0.183E-05 0.142E-05 -.748E-05
   0.362E+01 -.183E+02 0.211E+02   -.346E+01 0.185E+02 -.216E+02   -.709E-01 -.174E+00 0.465E+00   0.311E-05 -.475E-06 -.101E-04
   0.122E+01 0.956E+01 0.121E+02   -.992E+00 -.944E+01 -.120E+02   -.164E+00 -.128E+00 -.616E-01   0.196E-05 0.289E-06 -.824E-05
   0.842E+01 0.970E+01 -.213E+02   -.856E+01 -.945E+01 0.217E+02   0.165E+00 -.325E+00 -.505E+00   -.886E-06 0.182E-05 -.764E-05
   0.274E+01 0.823E+01 0.679E+00   -.277E+01 -.831E+01 -.748E+00   0.665E-01 0.114E+00 0.879E-01   -.695E-06 -.263E-06 -.735E-05
   0.822E+00 0.722E+01 -.126E+02   -.911E+00 -.708E+01 0.121E+02   -.294E-01 -.474E-01 0.643E+00   0.445E-05 -.276E-05 -.714E-05
   -.989E+00 0.304E+01 0.975E+01   0.112E+01 -.304E+01 -.997E+01   -.124E+00 -.424E-01 0.230E+00   0.709E-06 -.192E-05 -.703E-05
   0.292E+01 -.139E+01 0.175E+02   -.298E+01 0.140E+01 -.176E+02   0.262E-01 -.277E-01 0.985E-01   0.560E-06 0.156E-05 -.699E-05
   0.166E+00 0.326E+01 -.152E+02   -.183E+00 -.335E+01 0.155E+02   0.763E-02 -.358E-02 -.349E+00   0.783E-06 -.179E-05 -.631E-05
   0.220E+01 -.374E+01 0.203E+02   -.215E+01 0.376E+01 -.204E+02   -.287E-01 0.291E-01 0.827E-01   -.294E-05 -.263E-06 -.771E-05
   0.238E+01 -.859E+01 0.196E+02   -.246E+01 0.878E+01 -.197E+02   0.109E+00 -.174E+00 0.894E-01   -.206E-05 0.162E-05 -.764E-05
   -.249E+01 -.119E+02 0.134E+02   0.258E+01 0.120E+02 -.135E+02   -.106E+00 -.585E-01 0.951E-01   0.165E-05 -.790E-06 -.741E-05
   -.649E+01 0.106E+02 0.102E+02   0.659E+01 -.106E+02 -.101E+02   -.851E-01 -.576E-01 -.115E+00   0.102E-06 -.325E-06 -.692E-05
   -.928E+00 -.782E+00 0.136E+02   0.100E+01 0.858E+00 -.138E+02   -.111E+00 -.658E-01 0.185E+00   0.200E-05 -.104E-05 -.759E-05
   -.111E+01 0.107E+02 0.141E+02   0.120E+01 -.106E+02 -.141E+02   -.530E-01 -.369E-01 0.653E-01   0.525E-06 -.149E-05 -.671E-05
   0.167E+01 0.575E+01 0.167E+01   -.164E+01 -.584E+01 -.150E+01   -.191E-01 0.787E-01 -.171E+00   -.490E-06 -.203E-06 -.698E-05
   0.710E-01 0.680E+01 0.132E+02   -.404E-01 -.699E+01 -.133E+02   -.980E-02 0.174E+00 0.917E-01   -.828E-06 -.241E-05 -.713E-05
   0.491E+01 0.178E+01 0.208E+02   -.509E+01 -.200E+01 -.208E+02   0.206E+00 0.246E+00 0.159E-01   -.213E-05 -.151E-05 -.806E-05
   0.235E+01 0.844E+01 0.301E+02   -.239E+01 -.904E+01 -.302E+02   0.757E-01 0.431E+00 0.144E+00   -.194E-05 -.256E-05 -.947E-05
   0.220E+01 -.106E+02 0.199E+02   -.272E+01 0.105E+02 -.199E+02   0.454E+00 0.788E-01 -.602E-01   -.395E-05 0.254E-05 -.846E-05
   -.687E+00 -.181E+01 0.161E+02   0.696E+00 0.187E+01 -.161E+02   -.242E-01 -.637E-01 0.124E-01   0.220E-06 0.292E-05 -.662E-05
   0.164E+02 -.224E+02 0.306E+02   -.169E+02 0.228E+02 -.310E+02   0.513E+00 -.241E+00 0.459E+00   -.556E-05 -.425E-06 -.108E-04
   -.126E+02 -.171E+02 0.143E+02   0.128E+02 0.172E+02 -.143E+02   -.173E+00 -.839E-01 0.272E-01   -.231E-05 -.128E-05 -.769E-05
   -.278E+02 0.462E+01 0.122E+02   0.279E+02 -.392E+01 -.123E+02   -.305E-01 -.653E+00 0.174E+00   -.343E-05 0.369E-05 -.807E-05
   -.481E+01 0.117E+02 -.997E+00   0.501E+01 -.120E+02 0.932E+00   -.147E+00 0.251E+00 0.767E-01   0.132E-05 -.232E-05 -.589E-05
   -.357E+00 0.300E+01 0.125E+02   0.338E+00 -.305E+01 -.125E+02   -.218E-03 0.634E-01 -.125E-01   -.227E-06 -.278E-05 -.679E-05
   -.420E-01 0.824E+01 0.132E+02   0.491E-01 -.851E+01 -.133E+02   0.184E-01 0.229E+00 0.933E-01   -.343E-06 -.393E-05 -.711E-05
   -.334E+01 0.437E+01 0.217E+02   0.341E+01 -.463E+01 -.217E+02   -.123E+00 0.313E+00 0.522E-01   -.908E-07 -.256E-05 -.861E-05
   -.248E+01 0.765E+00 0.226E+02   0.245E+01 -.105E+01 -.228E+02   0.311E-01 0.242E+00 0.143E+00   0.217E-05 -.455E-06 -.905E-05
   0.683E+01 -.144E+01 0.428E+02   -.717E+01 0.112E+01 -.435E+02   0.295E+00 0.379E+00 0.853E+00   -.244E-05 -.138E-06 -.113E-04
   -.721E+01 -.973E+01 0.499E+02   0.737E+01 0.932E+01 -.517E+02   -.121E+00 0.116E+00 0.152E+01   0.299E-05 -.146E-05 -.126E-04
   -.488E+02 -.796E+02 0.338E+02   0.483E+02 0.801E+02 -.353E+02   0.526E+00 -.274E+00 0.152E+01   -.447E-05 0.228E-05 -.110E-04
   -.101E+02 0.176E+02 -.263E+02   0.103E+02 -.178E+02 0.269E+02   -.183E+00 0.157E-01 -.677E+00   0.178E-06 0.837E-06 -.560E-05
   -.126E+00 0.273E+02 -.721E+02   0.602E+00 -.282E+02 0.716E+02   -.511E+00 0.159E+00 0.789E+00   -.554E-05 -.214E-05 -.452E-05
   -.234E+01 -.963E+01 0.201E+02   0.231E+01 0.969E+01 -.202E+02   0.157E-01 -.509E-01 0.108E+00   0.413E-06 0.293E-05 -.704E-05
   -.236E+01 0.820E+01 0.128E+01   0.231E+01 -.839E+01 -.109E+01   -.935E-02 0.191E+00 -.184E+00   0.668E-06 -.288E-05 -.644E-05
   -.399E+01 0.132E+01 0.183E+02   0.410E+01 -.139E+01 -.184E+02   -.809E-01 0.649E-01 0.123E+00   0.194E-06 0.113E-07 -.789E-05
   -.150E+01 -.316E+00 0.168E+02   0.158E+01 0.277E+00 -.168E+02   -.391E-01 -.181E-01 0.226E-01   0.251E-05 0.250E-05 -.744E-05
   -.540E+01 -.223E+01 0.277E+02   0.597E+01 0.176E+01 -.282E+02   -.527E+00 0.333E+00 0.519E+00   0.376E-05 0.201E-05 -.106E-04
   -.919E+01 -.520E+01 0.249E+02   0.968E+01 0.521E+01 -.253E+02   -.322E+00 -.608E-01 0.356E+00   0.268E-05 0.165E-05 -.980E-05
   0.648E+02 -.839E+02 0.715E+02   -.662E+02 0.853E+02 -.747E+02   0.900E+00 -.721E+00 0.871E+00   0.153E-05 0.371E-05 -.127E-04
   0.201E+02 -.564E+01 0.289E+02   -.198E+02 0.684E+01 -.302E+02   -.108E+00 -.106E+01 0.120E+01   0.295E-05 0.501E-05 -.107E-04
   0.631E+01 0.909E+02 -.220E+03   -.642E+01 -.973E+02 0.226E+03   0.212E+00 0.700E+01 -.621E+01   -.153E-05 -.414E-05 0.562E-06
   0.353E+01 0.221E+02 -.701E+02   -.429E+01 -.228E+02 0.695E+02   0.718E+00 0.104E+00 0.821E+00   0.388E-05 -.957E-06 -.567E-05
   0.133E+00 0.926E+01 -.130E+02   -.547E-01 -.915E+01 0.126E+02   0.454E-01 -.403E-02 0.586E+00   -.436E-05 -.475E-05 -.673E-05
   -.252E+01 0.858E+00 0.126E+02   0.250E+01 -.858E+00 -.127E+02   -.303E-02 -.448E-02 0.152E+00   -.129E-06 -.192E-05 -.652E-05
   0.754E+00 0.545E+01 0.968E+01   -.863E+00 -.553E+01 -.989E+01   0.126E+00 0.289E-01 0.216E+00   -.289E-06 -.448E-05 -.700E-05
   0.660E+01 0.980E+00 -.347E+03   -.726E+01 0.190E+00 0.342E+03   0.343E+00 -.108E+01 0.671E+01   0.676E-07 0.171E-05 -.639E-06
 -----------------------------------------------------------------------------------------------
   -.127E+01 -.516E+01 -.115E+02   0.164E-12 0.808E-13 0.000E+00   0.127E+01 0.518E+01 0.115E+02   0.419E-06 -.724E-05 -.382E-03
 
 
 POSITION                                       TOTAL-FORCE (eV/Angst)
 -----------------------------------------------------------------------------------
     -0.00001      0.05150     14.98679        -0.024751      0.081063     -0.026419
     -1.24591      2.16817     14.91255        -0.044329      0.045415      0.001101
      0.00001      2.86830     14.91657         0.029707      0.006737      0.001508
      9.73578      4.28201     14.95074         0.085716      0.031525      0.005060
     -1.27857      4.97561     14.95387         0.060555     -0.004026      0.018668
      8.54488      6.40619     15.14837         0.021683     -0.080184     -0.020523
     -2.50159      7.08790     15.03498         0.034525      0.026113      0.017015
     -4.92598      8.57885     15.13512        -0.118666      0.091915      0.139661
     -3.69113      9.25769     15.01030         0.007143     -0.041609      0.012284
      2.46398      0.02346     14.94297        -0.035554     -0.016416     -0.006572
      6.15000      9.29485     15.10476        -0.008660     -0.099867     -0.028657
      3.70288      0.71099     14.90991         0.022279      0.045525     -0.014163
      2.50117      2.86446     14.91468         0.028140      0.014876      0.007151
     -0.00000      4.28092     14.93545        -0.010331     -0.006072      0.002448
      1.27857      4.97561     14.95388         0.011962     -0.013487      0.000650
     -1.25503      6.38726     14.96653        -0.036313      0.010701      0.007973
     -0.00000      7.08383     14.95121         0.034286      0.004078      0.000136
     -2.47862      8.51307     15.00630         0.012510     -0.015599     -0.008465
     -1.23919      9.20330     14.94473         0.020724     -0.017300      0.000717
     -1.23771     10.61680     14.90576         0.029214      0.023550     -0.005305
      6.15000      0.65279     14.87975         0.035655     -0.163272      0.011233
      3.71684      2.13449     14.90741        -0.067172     -0.012179     -0.020539
      1.23882      0.75050     14.94049        -0.015122     -0.007499      0.008033
      4.97095      2.81457     14.90191         0.057832      0.201080      0.036911
      2.56421      4.28200     14.95076         0.024887     -0.013591     -0.021261
      3.87292      4.98449     15.01039         0.096071      0.038397      0.115562
      2.50157      7.08790     15.03499         0.055854      0.011140      0.010233
      0.00000      8.49793     14.94484        -0.019412      0.018397      0.004522
      1.23918      9.20330     14.94475         0.025434     -0.047364      0.005754
      1.23772     10.61680     14.90577        -0.061632      0.050974     -0.018213
      8.59711      0.71100     14.90993        -0.001362     -0.047300      0.003736
      6.15000      2.04221     14.87154        -0.041203      0.060223      0.143468
      7.32904      2.81458     14.90194         0.035932     -0.292366     -0.344554
      5.14752      4.20891     14.94786         0.025562      0.160587      0.051186
      3.75510      6.40620     15.14839        -0.028426     -0.144582     -0.099645
      4.94757      7.17406     15.34248        -0.035961     -0.693244      0.317409
      1.24591      2.16817     14.91254        -0.018278      0.011898      0.006337
      2.47862      8.51306     15.00631        -0.055154     -0.001016     -0.003346
      9.83603      0.02345     14.94296         0.031810     -0.006679     -0.009580
     11.06120      0.75050     14.94048         0.033450     -0.057247      0.007330
      8.58316      2.13449     14.90742         0.045798     -0.135690      0.043501
      9.79883      2.86447     14.91465         0.164249     -0.050684      0.005386
      7.15250      4.20891     14.94785        -0.455955      0.723245     -2.288998
      8.42707      4.98449     15.01037         0.196094      0.134542     -0.101870
      6.15000      6.55815     15.72289         0.098651      0.610408     -0.717503
      7.35244      7.17406     15.34247        -0.043027     -0.580117      0.200529
      4.92598      8.57884     15.13513         0.123735      0.109880      0.153863
      1.25501      6.38726     14.96654        -0.025409     -0.004451      0.016108
      3.69114      9.25768     15.01028         0.016714     -0.051093      0.003092
      7.18192      3.97652     16.69773        -0.319453      0.090666      2.377052
 -----------------------------------------------------------------------------------
    total drift:                                0.002568      0.020860      0.079597


--------------------------------------------------------------------------------------------------------



  FREE ENERGIE OF THE ION-ELECTRON SYSTEM (eV)
  ---------------------------------------------------
  free  energy   TOTEN  =      -446.34202130 eV

  energy  without entropy=     -446.34186050  energy(sigma->0) =     -446.34194090
 


--------------------------------------------------------------------------------------------------------


    POTLOK:  cpu time    2.7834: real time    2.7835


--------------------------------------------------------------------------------------------------------


     LOOP+:  cpu time 1734.6637: real time 1735.0579
    4ORBIT:  cpu time    0.0000: real time    0.0000

 total amount of memory used by VASP on root node   460879. kBytes
========================================================================

   base      :      30000. kBytes
   nonlr-proj:       4670. kBytes
   fftplans  :     165810. kBytes
   grid      :     124231. kBytes
   one-center:         79. kBytes
   wavefun   :     136089. kBytes
 
  
  
 General timing and accounting informations for this job:
 ========================================================
  
                  Total CPU time used (sec):     1759.105
                            User time (sec):     1686.154
                          System time (sec):       72.950
                         Elapsed time (sec):     1761.510
  
                   Maximum memory used (kb):      866264.
                   Average memory used (kb):           0.
  
                          Minor page faults:       181864
                          Major page faults:          477
                 Voluntary context switches:         2205
