  50  50   0   0
  0.7861259E+02  0.1230000E-08  0.1230000E-08  0.3000000E-08  0.5000000E-15
  1.000000000000000E-004
  CAR 
 Li defective graphene MACE training lab 
      4.66932978    -54.07455628  301     -2.80382851      1.00000000
    -54.075  0.0000E+00  0.0000E+00  0.0000E+00  0.0000E+00
    -53.879  0.0000E+00  0.0000E+00  0.0000E+00  0.0000E+00
    -53.683  0.0000E+00  0.0000E+00  0.0000E+00  0.0000E+00
    -53.487  0.0000E+00  0.0000E+00  0.0000E+00  0.0000E+00
    -53.291  0.0000E+00  0.0000E+00  0.0000E+00  0.0000E+00
    -53.095  0.0000E+00  0.0000E+00  0.0000E+00  0.0000E+00
    -52.900  0.0000E+00  0.0000E+00  0.0000E+00  0.0000E+00
    -52.704  0.0000E+00  0.0000E+00  0.0000E+00  0.0000E+00
    -52.508  0.0000E+00  0.0000E+00  0.0000E+00  0.0000E+00
    -52.312  0.0000E+00  0.0000E+00  0.0000E+00  0.0000E+00
    -52.116  0.0000E+00  0.0000E+00  0.0000E+00  0.0000E+00
    -51.921  0.0000E+00  0.0000E+00  0.0000E+00  0.0000E+00
    -51.725  0.0000E+00  0.0000E+00  0.0000E+00  0.0000E+00
    -51.529  0.1083E-02  0.1037E-02  0.2122E-03  0.2030E-03
    -51.333  0.4993E+01  0.4990E+01  0.9780E+00  0.9774E+00
    -51.137  0.1124E+00  0.1156E+00  0.1000E+01  0.1000E+01
    -50.942  0.0000E+00  0.0000E+00  0.1000E+01  0.1000E+01
    -50.746  0.0000E+00  0.0000E+00  0.1000E+01  0.1000E+01
    -50.550  0.0000E+00  0.0000E+00  0.1000E+01  0.1000E+01
    -50.354  0.0000E+00  0.0000E+00  0.1000E+01  0.1000E+01
    -50.158  0.0000E+00  0.0000E+00  0.1000E+01  0.1000E+01
    -49.962  0.0000E+00  0.0000E+00  0.1000E+01  0.1000E+01
    -49.767  0.0000E+00  0.0000E+00  0.1000E+01  0.1000E+01
    -49.571  0.0000E+00  0.0000E+00  0.1000E+01  0.1000E+01
    -49.375  0.0000E+00  0.0000E+00  0.1000E+01  0.1000E+01
    -49.179  0.0000E+00  0.0000E+00  0.1000E+01  0.1000E+01
    -48.983  0.0000E+00  0.0000E+00  0.1000E+01  0.1000E+01
    -48.788  0.0000E+00  0.0000E+00  0.1000E+01  0.1000E+01
    -48.592  0.0000E+00  0.0000E+00  0.1000E+01  0.1000E+01
    -48.396  0.0000E+00  0.0000E+00  0.1000E+01  0.1000E+01
    -48.200  0.0000E+00  0.0000E+00  0.1000E+01  0.1000E+01
    -48.004  0.0000E+00  0.0000E+00  0.1000E+01  0.1000E+01
    -47.809  0.0000E+00  0.0000E+00  0.1000E+01  0.1000E+01
    -47.613  0.0000E+00  0.0000E+00  0.1000E+01  0.1000E+01
    -47.417  0.0000E+00  0.0000E+00  0.1000E+01  0.1000E+01
    -47.221  0.0000E+00  0.0000E+00  0.1000E+01  0.1000E+01
    -47.025  0.0000E+00  0.0000E+00  0.1000E+01  0.1000E+01
    -46.829  0.0000E+00  0.0000E+00  0.1000E+01  0.1000E+01
    -46.634  0.0000E+00  0.0000E+00  0.1000E+01  0.1000E+01
    -46.438  0.0000E+00  0.0000E+00  0.1000E+01  0.1000E+01
    -46.242  0.0000E+00  0.0000E+00  0.1000E+01  0.1000E+01
    -46.046  0.0000E+00  0.0000E+00  0.1000E+01  0.1000E+01
    -45.850  0.0000E+00  0.0000E+00  0.1000E+01  0.1000E+01
    -45.655  0.0000E+00  0.0000E+00  0.1000E+01  0.1000E+01
    -45.459  0.0000E+00  0.0000E+00  0.1000E+01  0.1000E+01
    -45.263  0.0000E+00  0.0000E+00  0.1000E+01  0.1000E+01
    -45.067  0.0000E+00  0.0000E+00  0.1000E+01  0.1000E+01
    -44.871  0.0000E+00  0.0000E+00  0.1000E+01  0.1000E+01
    -44.676  0.0000E+00  0.0000E+00  0.1000E+01  0.1000E+01
    -44.480  0.0000E+00  0.0000E+00  0.1000E+01  0.1000E+01
    -44.284  0.0000E+00  0.0000E+00  0.1000E+01  0.1000E+01
    -44.088  0.0000E+00  0.0000E+00  0.1000E+01  0.1000E+01
    -43.892  0.0000E+00  0.0000E+00  0.1000E+01  0.1000E+01
    -43.696  0.0000E+00  0.0000E+00  0.1000E+01  0.1000E+01
    -43.501  0.0000E+00  0.0000E+00  0.1000E+01  0.1000E+01
    -43.305  0.0000E+00  0.0000E+00  0.1000E+01  0.1000E+01
    -43.109  0.0000E+00  0.0000E+00  0.1000E+01  0.1000E+01
    -42.913  0.0000E+00  0.0000E+00  0.1000E+01  0.1000E+01
    -42.717  0.0000E+00  0.0000E+00  0.1000E+01  0.1000E+01
    -42.522  0.0000E+00  0.0000E+00  0.1000E+01  0.1000E+01
    -42.326  0.0000E+00  0.0000E+00  0.1000E+01  0.1000E+01
    -42.130  0.0000E+00  0.0000E+00  0.1000E+01  0.1000E+01
    -41.934  0.0000E+00  0.0000E+00  0.1000E+01  0.1000E+01
    -41.738  0.0000E+00  0.0000E+00  0.1000E+01  0.1000E+01
    -41.543  0.0000E+00  0.0000E+00  0.1000E+01  0.1000E+01
    -41.347  0.0000E+00  0.0000E+00  0.1000E+01  0.1000E+01
    -41.151  0.0000E+00  0.0000E+00  0.1000E+01  0.1000E+01
    -40.955  0.0000E+00  0.0000E+00  0.1000E+01  0.1000E+01
    -40.759  0.0000E+00  0.0000E+00  0.1000E+01  0.1000E+01
    -40.563  0.0000E+00  0.0000E+00  0.1000E+01  0.1000E+01
    -40.368  0.0000E+00  0.0000E+00  0.1000E+01  0.1000E+01
    -40.172  0.0000E+00  0.0000E+00  0.1000E+01  0.1000E+01
    -39.976  0.0000E+00  0.0000E+00  0.1000E+01  0.1000E+01
    -39.780  0.0000E+00  0.0000E+00  0.1000E+01  0.1000E+01
    -39.584  0.0000E+00  0.0000E+00  0.1000E+01  0.1000E+01
    -39.389  0.0000E+00  0.0000E+00  0.1000E+01  0.1000E+01
    -39.193  0.0000E+00  0.0000E+00  0.1000E+01  0.1000E+01
    -38.997  0.0000E+00  0.0000E+00  0.1000E+01  0.1000E+01
    -38.801  0.0000E+00  0.0000E+00  0.1000E+01  0.1000E+01
    -38.605  0.0000E+00  0.0000E+00  0.1000E+01  0.1000E+01
    -38.410  0.0000E+00  0.0000E+00  0.1000E+01  0.1000E+01
    -38.214  0.0000E+00  0.0000E+00  0.1000E+01  0.1000E+01
    -38.018  0.0000E+00  0.0000E+00  0.1000E+01  0.1000E+01
    -37.822  0.0000E+00  0.0000E+00  0.1000E+01  0.1000E+01
    -37.626  0.0000E+00  0.0000E+00  0.1000E+01  0.1000E+01
    -37.430  0.0000E+00  0.0000E+00  0.1000E+01  0.1000E+01
    -37.235  0.0000E+00  0.0000E+00  0.1000E+01  0.1000E+01
    -37.039  0.0000E+00  0.0000E+00  0.1000E+01  0.1000E+01
    -36.843  0.0000E+00  0.0000E+00  0.1000E+01  0.1000E+01
    -36.647  0.0000E+00  0.0000E+00  0.1000E+01  0.1000E+01
    -36.451  0.0000E+00  0.0000E+00  0.1000E+01  0.1000E+01
    -36.256  0.0000E+00  0.0000E+00  0.1000E+01  0.1000E+01
    -36.060  0.0000E+00  0.0000E+00  0.1000E+01  0.1000E+01
    -35.864  0.0000E+00  0.0000E+00  0.1000E+01  0.1000E+01
    -35.668  0.0000E+00  0.0000E+00  0.1000E+01  0.1000E+01
    -35.472  0.0000E+00  0.0000E+00  0.1000E+01  0.1000E+01
    -35.277  0.0000E+00  0.0000E+00  0.1000E+01  0.1000E+01
    -35.081  0.0000E+00  0.0000E+00  0.1000E+01  0.1000E+01
    -34.885  0.0000E+00  0.0000E+00  0.1000E+01  0.1000E+01
    -34.689  0.0000E+00  0.0000E+00  0.1000E+01  0.1000E+01
    -34.493  0.0000E+00  0.0000E+00  0.1000E+01  0.1000E+01
    -34.297  0.0000E+00  0.0000E+00  0.1000E+01  0.1000E+01
    -34.102  0.0000E+00  0.0000E+00  0.1000E+01  0.1000E+01
    -33.906  0.0000E+00  0.0000E+00  0.1000E+01  0.1000E+01
    -33.710  0.0000E+00  0.0000E+00  0.1000E+01  0.1000E+01
    -33.514  0.0000E+00  0.0000E+00  0.1000E+01  0.1000E+01
    -33.318  0.0000E+00  0.0000E+00  0.1000E+01  0.1000E+01
    -33.123  0.0000E+00  0.0000E+00  0.1000E+01  0.1000E+01
    -32.927  0.0000E+00  0.0000E+00  0.1000E+01  0.1000E+01
    -32.731  0.0000E+00  0.0000E+00  0.1000E+01  0.1000E+01
    -32.535  0.0000E+00  0.0000E+00  0.1000E+01  0.1000E+01
    -32.339  0.0000E+00  0.0000E+00  0.1000E+01  0.1000E+01
    -32.144  0.0000E+00  0.0000E+00  0.1000E+01  0.1000E+01
    -31.948  0.0000E+00  0.0000E+00  0.1000E+01  0.1000E+01
    -31.752  0.0000E+00  0.0000E+00  0.1000E+01  0.1000E+01
    -31.556  0.0000E+00  0.0000E+00  0.1000E+01  0.1000E+01
    -31.360  0.0000E+00  0.0000E+00  0.1000E+01  0.1000E+01
    -31.164  0.0000E+00  0.0000E+00  0.1000E+01  0.1000E+01
    -30.969  0.0000E+00  0.0000E+00  0.1000E+01  0.1000E+01
    -30.773  0.0000E+00  0.0000E+00  0.1000E+01  0.1000E+01
    -30.577  0.0000E+00  0.0000E+00  0.1000E+01  0.1000E+01
    -30.381  0.0000E+00  0.0000E+00  0.1000E+01  0.1000E+01
    -30.185  0.0000E+00  0.0000E+00  0.1000E+01  0.1000E+01
    -29.990  0.0000E+00  0.0000E+00  0.1000E+01  0.1000E+01
    -29.794  0.0000E+00  0.0000E+00  0.1000E+01  0.1000E+01
    -29.598  0.0000E+00  0.0000E+00  0.1000E+01  0.1000E+01
    -29.402  0.0000E+00  0.0000E+00  0.1000E+01  0.1000E+01
    -29.206  0.0000E+00  0.0000E+00  0.1000E+01  0.1000E+01
    -29.010  0.0000E+00  0.0000E+00  0.1000E+01  0.1000E+01
    -28.815  0.0000E+00  0.0000E+00  0.1000E+01  0.1000E+01
    -28.619  0.0000E+00  0.0000E+00  0.1000E+01  0.1000E+01
    -28.423  0.0000E+00  0.0000E+00  0.1000E+01  0.1000E+01
    -28.227  0.0000E+00  0.0000E+00  0.1000E+01  0.1000E+01
    -28.031  0.0000E+00  0.0000E+00  0.1000E+01  0.1000E+01
    -27.836  0.0000E+00  0.0000E+00  0.1000E+01  0.1000E+01
    -27.640  0.0000E+00  0.0000E+00  0.1000E+01  0.1000E+01
    -27.444  0.0000E+00  0.0000E+00  0.1000E+01  0.1000E+01
    -27.248  0.0000E+00  0.0000E+00  0.1000E+01  0.1000E+01
    -27.052  0.0000E+00  0.0000E+00  0.1000E+01  0.1000E+01
    -26.857  0.0000E+00  0.0000E+00  0.1000E+01  0.1000E+01
    -26.661  0.0000E+00  0.0000E+00  0.1000E+01  0.1000E+01
    -26.465  0.0000E+00  0.0000E+00  0.1000E+01  0.1000E+01
    -26.269  0.0000E+00  0.0000E+00  0.1000E+01  0.1000E+01
    -26.073  0.0000E+00  0.0000E+00  0.1000E+01  0.1000E+01
    -25.877  0.0000E+00  0.0000E+00  0.1000E+01  0.1000E+01
    -25.682  0.0000E+00  0.0000E+00  0.1000E+01  0.1000E+01
    -25.486  0.0000E+00  0.0000E+00  0.1000E+01  0.1000E+01
    -25.290  0.0000E+00  0.0000E+00  0.1000E+01  0.1000E+01
    -25.094  0.0000E+00  0.0000E+00  0.1000E+01  0.1000E+01
    -24.898  0.0000E+00  0.0000E+00  0.1000E+01  0.1000E+01
    -24.703  0.0000E+00  0.0000E+00  0.1000E+01  0.1000E+01
    -24.507  0.0000E+00  0.0000E+00  0.1000E+01  0.1000E+01
    -24.311  0.0000E+00  0.0000E+00  0.1000E+01  0.1000E+01
    -24.115  0.0000E+00  0.0000E+00  0.1000E+01  0.1000E+01
    -23.919  0.0000E+00  0.0000E+00  0.1000E+01  0.1000E+01
    -23.724  0.0000E+00  0.0000E+00  0.1000E+01  0.1000E+01
    -23.528  0.0000E+00  0.0000E+00  0.1000E+01  0.1000E+01
    -23.332  0.0000E+00  0.0000E+00  0.1000E+01  0.1000E+01
    -23.136  0.0000E+00  0.0000E+00  0.1000E+01  0.1000E+01
    -22.940  0.0000E+00  0.0000E+00  0.1000E+01  0.1000E+01
    -22.744  0.3150E-16  0.0000E+00  0.1000E+01  0.1000E+01
    -22.549  0.1346E-02  0.5096E-03  0.1000E+01  0.1000E+01
    -22.353  0.2897E+01  0.2537E+01  0.1568E+01  0.1497E+01
    -22.157  0.2254E+01  0.2593E+01  0.2009E+01  0.2005E+01
    -21.961  0.3858E+01  0.3562E+01  0.2765E+01  0.2702E+01
    -21.765  0.2334E+01  0.2355E+01  0.3221E+01  0.3163E+01
    -21.570  0.5472E+01  0.5441E+01  0.4293E+01  0.4229E+01
    -21.374  0.3068E+01  0.3342E+01  0.4894E+01  0.4883E+01
    -21.178  0.2521E+01  0.2238E+01  0.5387E+01  0.5321E+01
    -20.982  0.5493E+01  0.4926E+01  0.6463E+01  0.6286E+01
    -20.786  0.3322E+01  0.4215E+01  0.7114E+01  0.7111E+01
    -20.591  0.3310E+01  0.2940E+01  0.7762E+01  0.7687E+01
    -20.395  0.3563E+01  0.3619E+01  0.8459E+01  0.8396E+01
    -20.199  0.6566E+01  0.6198E+01  0.9745E+01  0.9609E+01
    -20.003  0.2417E+01  0.3068E+01  0.1022E+02  0.1021E+02
    -19.807  0.9657E+00  0.4102E+00  0.1041E+02  0.1029E+02
    -19.611  0.5573E+01  0.5483E+01  0.1150E+02  0.1136E+02
    -19.416  0.5996E+01  0.6484E+01  0.1267E+02  0.1263E+02
    -19.220  0.2775E+01  0.2499E+01  0.1322E+02  0.1312E+02
    -19.024  0.4006E+01  0.4202E+01  0.1400E+02  0.1395E+02
    -18.828  0.2632E+01  0.2666E+01  0.1452E+02  0.1447E+02
    -18.632  0.3939E+01  0.3809E+01  0.1529E+02  0.1521E+02
    -18.437  0.6190E+01  0.5747E+01  0.1650E+02  0.1634E+02
    -18.241  0.4787E+01  0.5274E+01  0.1744E+02  0.1737E+02
    -18.045  0.1708E+01  0.1037E+01  0.1777E+02  0.1758E+02
    -17.849  0.5523E+01  0.5514E+01  0.1885E+02  0.1866E+02
    -17.653  0.1459E+01  0.2407E+01  0.1914E+02  0.1913E+02
    -17.458  0.7003E+01  0.6549E+01  0.2051E+02  0.2041E+02
    -17.262  0.6731E+01  0.6869E+01  0.2183E+02  0.2175E+02
    -17.066  0.4290E+01  0.4606E+01  0.2267E+02  0.2266E+02
    -16.870  0.1441E+01  0.1217E+01  0.2295E+02  0.2289E+02
    -16.674  0.3325E+01  0.3446E+01  0.2360E+02  0.2357E+02
    -16.478  0.3354E+01  0.2677E+01  0.2426E+02  0.2409E+02
    -16.283  0.3759E+01  0.4425E+01  0.2499E+02  0.2496E+02
    -16.087  0.1909E+01  0.7558E+00  0.2537E+02  0.2511E+02
    -15.891  0.3756E+01  0.4893E+01  0.2610E+02  0.2607E+02
    -15.695  0.1782E+01  0.1943E+01  0.2645E+02  0.2645E+02
    -15.499  0.5113E+01  0.5002E+01  0.2745E+02  0.2743E+02
    -15.304  0.7806E+01  0.7030E+01  0.2898E+02  0.2880E+02
    -15.108  0.1238E+01  0.2146E+01  0.2922E+02  0.2922E+02
    -14.912  0.6868E+01  0.5891E+01  0.3057E+02  0.3038E+02
    -14.716  0.3871E+01  0.4095E+01  0.3133E+02  0.3118E+02
    -14.520  0.5065E+01  0.5207E+01  0.3232E+02  0.3220E+02
    -14.325  0.2956E+01  0.3535E+01  0.3290E+02  0.3289E+02
    -14.129  0.1938E+01  0.1860E+01  0.3328E+02  0.3325E+02
    -13.933  0.5559E+01  0.5090E+01  0.3437E+02  0.3425E+02
    -13.737  0.6703E+01  0.7004E+01  0.3568E+02  0.3562E+02
    -13.541  0.1077E+01  0.1340E+01  0.3589E+02  0.3588E+02
    -13.345  0.9841E-01  0.3926E-01  0.3591E+02  0.3589E+02
    -13.150  0.6394E+01  0.5678E+01  0.3716E+02  0.3700E+02
    -12.954  0.5594E+01  0.6005E+01  0.3826E+02  0.3818E+02
    -12.758  0.5193E+01  0.5105E+01  0.3927E+02  0.3918E+02
    -12.562  0.5624E+01  0.5118E+01  0.4037E+02  0.4018E+02
    -12.366  0.7790E+00  0.1407E+01  0.4053E+02  0.4046E+02
    -12.171  0.8549E+01  0.8668E+01  0.4220E+02  0.4215E+02
    -11.975  0.1128E+01  0.1080E+01  0.4242E+02  0.4237E+02
    -11.779  0.4195E+01  0.3232E+01  0.4324E+02  0.4300E+02
    -11.583  0.7386E+01  0.8155E+01  0.4469E+02  0.4460E+02
    -11.387  0.4918E+01  0.4068E+01  0.4565E+02  0.4539E+02
    -11.192  0.5777E+01  0.6904E+01  0.4678E+02  0.4674E+02
    -10.996  0.4434E+01  0.4302E+01  0.4765E+02  0.4759E+02
    -10.800  0.2455E+01  0.2699E+01  0.4813E+02  0.4811E+02
    -10.604  0.8256E+01  0.7430E+01  0.4975E+02  0.4957E+02
    -10.408  0.9321E+01  0.9031E+01  0.5157E+02  0.5134E+02
    -10.212  0.8267E+01  0.8914E+01  0.5319E+02  0.5308E+02
    -10.017  0.8581E+01  0.8546E+01  0.5487E+02  0.5476E+02
     -9.821  0.1063E+02  0.9762E+01  0.5696E+02  0.5667E+02
     -9.625  0.9840E+01  0.1051E+02  0.5888E+02  0.5873E+02
     -9.429  0.9787E+01  0.9459E+01  0.6080E+02  0.6058E+02
     -9.233  0.1171E+02  0.1184E+02  0.6309E+02  0.6290E+02
     -9.038  0.1165E+02  0.1203E+02  0.6537E+02  0.6525E+02
     -8.842  0.1206E+02  0.1107E+02  0.6774E+02  0.6742E+02
     -8.646  0.9045E+01  0.1040E+02  0.6951E+02  0.6946E+02
     -8.450  0.9387E+01  0.7787E+01  0.7134E+02  0.7098E+02
     -8.254  0.7728E+01  0.9196E+01  0.7286E+02  0.7278E+02
     -8.059  0.1108E+02  0.9994E+01  0.7503E+02  0.7474E+02
     -7.863  0.8229E+01  0.8746E+01  0.7664E+02  0.7645E+02
     -7.667  0.4293E+01  0.3816E+01  0.7748E+02  0.7720E+02
     -7.471  0.6983E+01  0.6875E+01  0.7885E+02  0.7854E+02
     -7.275  0.9392E+01  0.9992E+01  0.8069E+02  0.8050E+02
     -7.079  0.1054E+02  0.1042E+02  0.8275E+02  0.8254E+02
     -6.884  0.6476E+01  0.6133E+01  0.8402E+02  0.8374E+02
     -6.688  0.6134E+01  0.6505E+01  0.8522E+02  0.8501E+02
     -6.492  0.6747E+01  0.6283E+01  0.8654E+02  0.8625E+02
     -6.296  0.6547E+01  0.6715E+01  0.8782E+02  0.8756E+02
     -6.100  0.6945E+01  0.7608E+01  0.8918E+02  0.8905E+02
     -5.905  0.6049E+01  0.6258E+01  0.9037E+02  0.9028E+02
     -5.709  0.4466E+01  0.3729E+01  0.9124E+02  0.9101E+02
     -5.513  0.4439E+01  0.5629E+01  0.9211E+02  0.9211E+02
     -5.317  0.3477E+01  0.2960E+01  0.9279E+02  0.9269E+02
     -5.121  0.5363E+01  0.5447E+01  0.9384E+02  0.9375E+02
     -4.926  0.9849E+01  0.9363E+01  0.9577E+02  0.9559E+02
     -4.730  0.6985E+00  0.1540E+01  0.9591E+02  0.9589E+02
     -4.534  0.3179E+01  0.1462E+01  0.9653E+02  0.9618E+02
     -4.338  0.3371E+01  0.3445E+01  0.9719E+02  0.9685E+02
     -4.142  0.7645E+00  0.1398E+01  0.9734E+02  0.9712E+02
     -3.946  0.6009E+01  0.4083E+01  0.9852E+02  0.9792E+02
     -3.751  0.1336E+01  0.3936E+00  0.9878E+02  0.9800E+02
     -3.555  0.1128E+01  0.7118E+00  0.9900E+02  0.9814E+02
     -3.359  0.2705E+00  0.3253E+01  0.9905E+02  0.9878E+02
     -3.163  0.3554E+01  0.6962E-02  0.9975E+02  0.9878E+02
     -2.967  0.2427E+00  0.8847E-01  0.9980E+02  0.9880E+02
     -2.772  0.1044E+01  0.1067E+01  0.1000E+03  0.9900E+02
     -2.576  0.1024E+01  0.1114E+01  0.1002E+03  0.9922E+02
     -2.380  0.1109E+00  0.3292E-03  0.1002E+03  0.9922E+02
     -2.184  0.1010E-05  0.1852E+01  0.1002E+03  0.9958E+02
     -1.988  0.1387E+01  0.3512E+01  0.1005E+03  0.1003E+03
     -1.792  0.3455E+01  0.3650E+01  0.1012E+03  0.1010E+03
     -1.597  0.4028E+01  0.4358E+01  0.1020E+03  0.1018E+03
     -1.401  0.2075E+01  0.1815E+01  0.1024E+03  0.1022E+03
     -1.205  0.5213E+01  0.5022E+01  0.1034E+03  0.1032E+03
     -1.009  0.1060E+02  0.7906E+01  0.1055E+03  0.1047E+03
     -0.813  0.1084E+02  0.1344E+02  0.1076E+03  0.1074E+03
     -0.618  0.5647E+01  0.6543E+01  0.1087E+03  0.1086E+03
     -0.422  0.4392E+01  0.4629E+01  0.1096E+03  0.1095E+03
     -0.226  0.2017E-01  0.4700E-01  0.1096E+03  0.1096E+03
     -0.030  0.4405E+01  0.2162E+01  0.1104E+03  0.1100E+03
      0.166  0.5912E+01  0.7797E+01  0.1116E+03  0.1115E+03
      0.361  0.4713E+01  0.4571E+01  0.1125E+03  0.1124E+03
      0.557  0.7219E+01  0.7205E+01  0.1139E+03  0.1138E+03
      0.753  0.5789E+01  0.5496E+01  0.1150E+03  0.1149E+03
      0.949  0.7077E+01  0.7168E+01  0.1164E+03  0.1163E+03
      1.145  0.9725E+01  0.9634E+01  0.1183E+03  0.1182E+03
      1.341  0.1100E+02  0.1072E+02  0.1205E+03  0.1203E+03
      1.536  0.1622E+02  0.1547E+02  0.1237E+03  0.1233E+03
      1.732  0.1393E+02  0.1497E+02  0.1264E+03  0.1262E+03
      1.928  0.7513E+01  0.8708E+01  0.1279E+03  0.1279E+03
      2.124  0.6841E+00  0.2948E+00  0.1280E+03  0.1280E+03
      2.320  0.1204E-03  0.0000E+00  0.1280E+03  0.1280E+03
      2.515  0.0000E+00  0.0000E+00  0.1280E+03  0.1280E+03
      2.711  0.0000E+00  0.0000E+00  0.1280E+03  0.1280E+03
      2.907  0.0000E+00  0.0000E+00  0.1280E+03  0.1280E+03
      3.103  0.0000E+00  0.0000E+00  0.1280E+03  0.1280E+03
      3.299  0.0000E+00  0.0000E+00  0.1280E+03  0.1280E+03
      3.494  0.0000E+00  0.0000E+00  0.1280E+03  0.1280E+03
      3.690  0.0000E+00  0.0000E+00  0.1280E+03  0.1280E+03
      3.886  0.0000E+00  0.0000E+00  0.1280E+03  0.1280E+03
      4.082  0.0000E+00  0.0000E+00  0.1280E+03  0.1280E+03
      4.278  0.0000E+00  0.0000E+00  0.1280E+03  0.1280E+03
      4.474  0.0000E+00  0.0000E+00  0.1280E+03  0.1280E+03
      4.669  0.0000E+00  0.0000E+00  0.1280E+03  0.1280E+03
