Li defective graphene MACE training lab 
           1
    12.300000    0.000000    0.000000
    -6.150000   10.652112    0.000000
     0.000000    0.000000   30.000000
   C    Li
  49   1
Direct configuration=     1
   0.00241675  0.00483448  0.49955969
   0.00047808  0.20354369  0.49708490
   0.13463609  0.26927074  0.49721905
   0.99251997  0.40198658  0.49835808
   0.12960135  0.46710097  0.49846242
   0.99540656  0.60140123  0.50494583
   0.12931837  0.66539858  0.50116589
   0.00219701  0.80536586  0.50450399
   0.13445484  0.86909391  0.50034337
   0.20142472  0.00220199  0.49809883
   0.93629167  0.87258305  0.50349194
   0.33442020  0.06674621  0.49699704
   0.33780229  0.26891012  0.49715611
   0.20094230  0.40188479  0.49784824
   0.33749957  0.46710116  0.49846275
   0.19777702  0.59962370  0.49888439
   0.33250809  0.66501671  0.49837366
   0.19808171  0.79919043  0.50020985
   0.33124695  0.86398847  0.49815780
   0.39771561  0.99668493  0.49685870
   0.53064147  0.06128312  0.49599153
   0.40237348  0.20038227  0.49691357
   0.13594450  0.07045562  0.49801649
   0.53625545  0.26422682  0.49673049
   0.40946572  0.40198596  0.49835855
   0.54883905  0.46793449  0.50034638
   0.53607948  0.66539893  0.50116650
   0.39888492  0.79776914  0.49816137
   0.53274075  0.86398815  0.49815849
   0.59896972  0.99668492  0.49685896
   0.73232587  0.06674688  0.49699773
   0.59585928  0.19171921  0.49571791
   0.72797051  0.26422719  0.49673137
   0.61605989  0.39512436  0.49826195
   0.60599398  0.60140207  0.50494646
   0.73898476  0.67348731  0.51141615
   0.20306558  0.20354364  0.49708475
   0.60110866  0.79919002  0.50021035
   0.80077774  0.00220153  0.49809858
   0.93451202  0.07045564  0.49801598
   0.79800901  0.20038199  0.49691389
   0.93110804  0.26891088  0.49715507
   0.77906601  0.39512445  0.49826169
   0.91909509  0.46793455  0.50034557
   0.80783333  0.61566627  0.52409629
   0.93450279  0.67348741  0.51141558
   0.80316869  0.80536493  0.50450437
   0.40184557  0.59962381  0.49888479
   0.73463922  0.86909291  0.50034273
   0.73648642  0.28604340  0.55659087
