  51  51   0   0
  0.7707117E+02  0.1230000E-08  0.1230000E-08  0.3000000E-08  0.5000000E-15
  1.000000000000000E-004
  CAR 
 Li defective graphene MACE training lab 
      4.90237194    -55.24021004  301     -2.55939237      1.00000000
    -55.240  0.0000E+00  0.0000E+00  0.0000E+00  0.0000E+00
    -55.040  0.0000E+00  0.0000E+00  0.0000E+00  0.0000E+00
    -54.839  0.0000E+00  0.0000E+00  0.0000E+00  0.0000E+00
    -54.639  0.0000E+00  0.0000E+00  0.0000E+00  0.0000E+00
    -54.438  0.0000E+00  0.0000E+00  0.0000E+00  0.0000E+00
    -54.238  0.0000E+00  0.0000E+00  0.0000E+00  0.0000E+00
    -54.037  0.0000E+00  0.0000E+00  0.0000E+00  0.0000E+00
    -53.837  0.0000E+00  0.0000E+00  0.0000E+00  0.0000E+00
    -53.636  0.0000E+00  0.0000E+00  0.0000E+00  0.0000E+00
    -53.436  0.0000E+00  0.0000E+00  0.0000E+00  0.0000E+00
    -53.235  0.0000E+00  0.0000E+00  0.0000E+00  0.0000E+00
    -53.035  0.0000E+00  0.0000E+00  0.0000E+00  0.0000E+00
    -52.835  0.0000E+00  0.0000E+00  0.0000E+00  0.0000E+00
    -52.634  0.7684E-03  0.7556E-03  0.1540E-03  0.1515E-03
    -52.434  0.4890E+01  0.4889E+01  0.9804E+00  0.9802E+00
    -52.233  0.9781E-01  0.9885E-01  0.1000E+01  0.1000E+01
    -52.033  0.0000E+00  0.0000E+00  0.1000E+01  0.1000E+01
    -51.832  0.0000E+00  0.0000E+00  0.1000E+01  0.1000E+01
    -51.632  0.0000E+00  0.0000E+00  0.1000E+01  0.1000E+01
    -51.431  0.0000E+00  0.0000E+00  0.1000E+01  0.1000E+01
    -51.231  0.0000E+00  0.0000E+00  0.1000E+01  0.1000E+01
    -51.030  0.0000E+00  0.0000E+00  0.1000E+01  0.1000E+01
    -50.830  0.0000E+00  0.0000E+00  0.1000E+01  0.1000E+01
    -50.629  0.0000E+00  0.0000E+00  0.1000E+01  0.1000E+01
    -50.429  0.0000E+00  0.0000E+00  0.1000E+01  0.1000E+01
    -50.228  0.0000E+00  0.0000E+00  0.1000E+01  0.1000E+01
    -50.028  0.0000E+00  0.0000E+00  0.1000E+01  0.1000E+01
    -49.827  0.0000E+00  0.0000E+00  0.1000E+01  0.1000E+01
    -49.627  0.0000E+00  0.0000E+00  0.1000E+01  0.1000E+01
    -49.426  0.0000E+00  0.0000E+00  0.1000E+01  0.1000E+01
    -49.226  0.0000E+00  0.0000E+00  0.1000E+01  0.1000E+01
    -49.025  0.0000E+00  0.0000E+00  0.1000E+01  0.1000E+01
    -48.825  0.0000E+00  0.0000E+00  0.1000E+01  0.1000E+01
    -48.625  0.0000E+00  0.0000E+00  0.1000E+01  0.1000E+01
    -48.424  0.0000E+00  0.0000E+00  0.1000E+01  0.1000E+01
    -48.224  0.0000E+00  0.0000E+00  0.1000E+01  0.1000E+01
    -48.023  0.0000E+00  0.0000E+00  0.1000E+01  0.1000E+01
    -47.823  0.0000E+00  0.0000E+00  0.1000E+01  0.1000E+01
    -47.622  0.0000E+00  0.0000E+00  0.1000E+01  0.1000E+01
    -47.422  0.0000E+00  0.0000E+00  0.1000E+01  0.1000E+01
    -47.221  0.0000E+00  0.0000E+00  0.1000E+01  0.1000E+01
    -47.021  0.0000E+00  0.0000E+00  0.1000E+01  0.1000E+01
    -46.820  0.0000E+00  0.0000E+00  0.1000E+01  0.1000E+01
    -46.620  0.0000E+00  0.0000E+00  0.1000E+01  0.1000E+01
    -46.419  0.0000E+00  0.0000E+00  0.1000E+01  0.1000E+01
    -46.219  0.0000E+00  0.0000E+00  0.1000E+01  0.1000E+01
    -46.018  0.0000E+00  0.0000E+00  0.1000E+01  0.1000E+01
    -45.818  0.0000E+00  0.0000E+00  0.1000E+01  0.1000E+01
    -45.617  0.0000E+00  0.0000E+00  0.1000E+01  0.1000E+01
    -45.417  0.0000E+00  0.0000E+00  0.1000E+01  0.1000E+01
    -45.216  0.0000E+00  0.0000E+00  0.1000E+01  0.1000E+01
    -45.016  0.0000E+00  0.0000E+00  0.1000E+01  0.1000E+01
    -44.815  0.0000E+00  0.0000E+00  0.1000E+01  0.1000E+01
    -44.615  0.0000E+00  0.0000E+00  0.1000E+01  0.1000E+01
    -44.415  0.0000E+00  0.0000E+00  0.1000E+01  0.1000E+01
    -44.214  0.0000E+00  0.0000E+00  0.1000E+01  0.1000E+01
    -44.014  0.0000E+00  0.0000E+00  0.1000E+01  0.1000E+01
    -43.813  0.0000E+00  0.0000E+00  0.1000E+01  0.1000E+01
    -43.613  0.0000E+00  0.0000E+00  0.1000E+01  0.1000E+01
    -43.412  0.0000E+00  0.0000E+00  0.1000E+01  0.1000E+01
    -43.212  0.0000E+00  0.0000E+00  0.1000E+01  0.1000E+01
    -43.011  0.0000E+00  0.0000E+00  0.1000E+01  0.1000E+01
    -42.811  0.0000E+00  0.0000E+00  0.1000E+01  0.1000E+01
    -42.610  0.0000E+00  0.0000E+00  0.1000E+01  0.1000E+01
    -42.410  0.0000E+00  0.0000E+00  0.1000E+01  0.1000E+01
    -42.209  0.0000E+00  0.0000E+00  0.1000E+01  0.1000E+01
    -42.009  0.0000E+00  0.0000E+00  0.1000E+01  0.1000E+01
    -41.808  0.0000E+00  0.0000E+00  0.1000E+01  0.1000E+01
    -41.608  0.0000E+00  0.0000E+00  0.1000E+01  0.1000E+01
    -41.407  0.0000E+00  0.0000E+00  0.1000E+01  0.1000E+01
    -41.207  0.0000E+00  0.0000E+00  0.1000E+01  0.1000E+01
    -41.006  0.0000E+00  0.0000E+00  0.1000E+01  0.1000E+01
    -40.806  0.0000E+00  0.0000E+00  0.1000E+01  0.1000E+01
    -40.606  0.0000E+00  0.0000E+00  0.1000E+01  0.1000E+01
    -40.405  0.0000E+00  0.0000E+00  0.1000E+01  0.1000E+01
    -40.205  0.0000E+00  0.0000E+00  0.1000E+01  0.1000E+01
    -40.004  0.0000E+00  0.0000E+00  0.1000E+01  0.1000E+01
    -39.804  0.0000E+00  0.0000E+00  0.1000E+01  0.1000E+01
    -39.603  0.0000E+00  0.0000E+00  0.1000E+01  0.1000E+01
    -39.403  0.0000E+00  0.0000E+00  0.1000E+01  0.1000E+01
    -39.202  0.0000E+00  0.0000E+00  0.1000E+01  0.1000E+01
    -39.002  0.0000E+00  0.0000E+00  0.1000E+01  0.1000E+01
    -38.801  0.0000E+00  0.0000E+00  0.1000E+01  0.1000E+01
    -38.601  0.0000E+00  0.0000E+00  0.1000E+01  0.1000E+01
    -38.400  0.0000E+00  0.0000E+00  0.1000E+01  0.1000E+01
    -38.200  0.0000E+00  0.0000E+00  0.1000E+01  0.1000E+01
    -37.999  0.0000E+00  0.0000E+00  0.1000E+01  0.1000E+01
    -37.799  0.0000E+00  0.0000E+00  0.1000E+01  0.1000E+01
    -37.598  0.0000E+00  0.0000E+00  0.1000E+01  0.1000E+01
    -37.398  0.0000E+00  0.0000E+00  0.1000E+01  0.1000E+01
    -37.197  0.0000E+00  0.0000E+00  0.1000E+01  0.1000E+01
    -36.997  0.0000E+00  0.0000E+00  0.1000E+01  0.1000E+01
    -36.796  0.0000E+00  0.0000E+00  0.1000E+01  0.1000E+01
    -36.596  0.0000E+00  0.0000E+00  0.1000E+01  0.1000E+01
    -36.396  0.0000E+00  0.0000E+00  0.1000E+01  0.1000E+01
    -36.195  0.0000E+00  0.0000E+00  0.1000E+01  0.1000E+01
    -35.995  0.0000E+00  0.0000E+00  0.1000E+01  0.1000E+01
    -35.794  0.0000E+00  0.0000E+00  0.1000E+01  0.1000E+01
    -35.594  0.0000E+00  0.0000E+00  0.1000E+01  0.1000E+01
    -35.393  0.0000E+00  0.0000E+00  0.1000E+01  0.1000E+01
    -35.193  0.0000E+00  0.0000E+00  0.1000E+01  0.1000E+01
    -34.992  0.0000E+00  0.0000E+00  0.1000E+01  0.1000E+01
    -34.792  0.0000E+00  0.0000E+00  0.1000E+01  0.1000E+01
    -34.591  0.0000E+00  0.0000E+00  0.1000E+01  0.1000E+01
    -34.391  0.0000E+00  0.0000E+00  0.1000E+01  0.1000E+01
    -34.190  0.0000E+00  0.0000E+00  0.1000E+01  0.1000E+01
    -33.990  0.0000E+00  0.0000E+00  0.1000E+01  0.1000E+01
    -33.789  0.0000E+00  0.0000E+00  0.1000E+01  0.1000E+01
    -33.589  0.0000E+00  0.0000E+00  0.1000E+01  0.1000E+01
    -33.388  0.0000E+00  0.0000E+00  0.1000E+01  0.1000E+01
    -33.188  0.0000E+00  0.0000E+00  0.1000E+01  0.1000E+01
    -32.987  0.0000E+00  0.0000E+00  0.1000E+01  0.1000E+01
    -32.787  0.0000E+00  0.0000E+00  0.1000E+01  0.1000E+01
    -32.587  0.0000E+00  0.0000E+00  0.1000E+01  0.1000E+01
    -32.386  0.0000E+00  0.0000E+00  0.1000E+01  0.1000E+01
    -32.186  0.0000E+00  0.0000E+00  0.1000E+01  0.1000E+01
    -31.985  0.0000E+00  0.0000E+00  0.1000E+01  0.1000E+01
    -31.785  0.0000E+00  0.0000E+00  0.1000E+01  0.1000E+01
    -31.584  0.0000E+00  0.0000E+00  0.1000E+01  0.1000E+01
    -31.384  0.0000E+00  0.0000E+00  0.1000E+01  0.1000E+01
    -31.183  0.0000E+00  0.0000E+00  0.1000E+01  0.1000E+01
    -30.983  0.0000E+00  0.0000E+00  0.1000E+01  0.1000E+01
    -30.782  0.0000E+00  0.0000E+00  0.1000E+01  0.1000E+01
    -30.582  0.0000E+00  0.0000E+00  0.1000E+01  0.1000E+01
    -30.381  0.0000E+00  0.0000E+00  0.1000E+01  0.1000E+01
    -30.181  0.0000E+00  0.0000E+00  0.1000E+01  0.1000E+01
    -29.980  0.0000E+00  0.0000E+00  0.1000E+01  0.1000E+01
    -29.780  0.0000E+00  0.0000E+00  0.1000E+01  0.1000E+01
    -29.579  0.0000E+00  0.0000E+00  0.1000E+01  0.1000E+01
    -29.379  0.0000E+00  0.0000E+00  0.1000E+01  0.1000E+01
    -29.178  0.0000E+00  0.0000E+00  0.1000E+01  0.1000E+01
    -28.978  0.0000E+00  0.0000E+00  0.1000E+01  0.1000E+01
    -28.777  0.0000E+00  0.0000E+00  0.1000E+01  0.1000E+01
    -28.577  0.0000E+00  0.0000E+00  0.1000E+01  0.1000E+01
    -28.377  0.0000E+00  0.0000E+00  0.1000E+01  0.1000E+01
    -28.176  0.0000E+00  0.0000E+00  0.1000E+01  0.1000E+01
    -27.976  0.0000E+00  0.0000E+00  0.1000E+01  0.1000E+01
    -27.775  0.0000E+00  0.0000E+00  0.1000E+01  0.1000E+01
    -27.575  0.0000E+00  0.0000E+00  0.1000E+01  0.1000E+01
    -27.374  0.0000E+00  0.0000E+00  0.1000E+01  0.1000E+01
    -27.174  0.0000E+00  0.0000E+00  0.1000E+01  0.1000E+01
    -26.973  0.0000E+00  0.0000E+00  0.1000E+01  0.1000E+01
    -26.773  0.0000E+00  0.0000E+00  0.1000E+01  0.1000E+01
    -26.572  0.0000E+00  0.0000E+00  0.1000E+01  0.1000E+01
    -26.372  0.0000E+00  0.0000E+00  0.1000E+01  0.1000E+01
    -26.171  0.0000E+00  0.0000E+00  0.1000E+01  0.1000E+01
    -25.971  0.0000E+00  0.0000E+00  0.1000E+01  0.1000E+01
    -25.770  0.0000E+00  0.0000E+00  0.1000E+01  0.1000E+01
    -25.570  0.0000E+00  0.0000E+00  0.1000E+01  0.1000E+01
    -25.369  0.0000E+00  0.0000E+00  0.1000E+01  0.1000E+01
    -25.169  0.0000E+00  0.0000E+00  0.1000E+01  0.1000E+01
    -24.968  0.0000E+00  0.0000E+00  0.1000E+01  0.1000E+01
    -24.768  0.0000E+00  0.0000E+00  0.1000E+01  0.1000E+01
    -24.567  0.0000E+00  0.0000E+00  0.1000E+01  0.1000E+01
    -24.367  0.0000E+00  0.0000E+00  0.1000E+01  0.1000E+01
    -24.167  0.0000E+00  0.0000E+00  0.1000E+01  0.1000E+01
    -23.966  0.0000E+00  0.0000E+00  0.1000E+01  0.1000E+01
    -23.766  0.0000E+00  0.0000E+00  0.1000E+01  0.1000E+01
    -23.565  0.0000E+00  0.0000E+00  0.1000E+01  0.1000E+01
    -23.365  0.0000E+00  0.0000E+00  0.1000E+01  0.1000E+01
    -23.164  0.0000E+00  0.0000E+00  0.1000E+01  0.1000E+01
    -22.964  0.0000E+00  0.0000E+00  0.1000E+01  0.1000E+01
    -22.763  0.0000E+00  0.0000E+00  0.1000E+01  0.1000E+01
    -22.563  0.5170E-08  0.8350E-09  0.1000E+01  0.1000E+01
    -22.362  0.3390E+00  0.2422E+00  0.1068E+01  0.1049E+01
    -22.162  0.4500E+01  0.4487E+01  0.1970E+01  0.1948E+01
    -21.961  0.3213E+01  0.3123E+01  0.2614E+01  0.2574E+01
    -21.761  0.3534E+01  0.3556E+01  0.3323E+01  0.3287E+01
    -21.560  0.2937E+01  0.2931E+01  0.3911E+01  0.3875E+01
    -21.360  0.3961E+01  0.4110E+01  0.4705E+01  0.4699E+01
    -21.159  0.2727E+01  0.2655E+01  0.5252E+01  0.5231E+01
    -20.959  0.4894E+01  0.4902E+01  0.6233E+01  0.6214E+01
    -20.758  0.4378E+01  0.4473E+01  0.7111E+01  0.7111E+01
    -20.558  0.2609E+01  0.2499E+01  0.7634E+01  0.7612E+01
    -20.358  0.4882E+01  0.4850E+01  0.8613E+01  0.8584E+01
    -20.157  0.4022E+01  0.3926E+01  0.9419E+01  0.9371E+01
    -19.957  0.3818E+01  0.3930E+01  0.1018E+02  0.1016E+02
    -19.756  0.1684E+01  0.1609E+01  0.1052E+02  0.1048E+02
    -19.556  0.5182E+01  0.5300E+01  0.1156E+02  0.1154E+02
    -19.355  0.3960E+01  0.3902E+01  0.1235E+02  0.1233E+02
    -19.155  0.4378E+01  0.4387E+01  0.1323E+02  0.1321E+02
    -18.954  0.5264E+01  0.5187E+01  0.1429E+02  0.1425E+02
    -18.754  0.1265E+01  0.1459E+01  0.1454E+02  0.1454E+02
    -18.553  0.3702E+01  0.3304E+01  0.1528E+02  0.1520E+02
    -18.353  0.7697E+01  0.7847E+01  0.1683E+02  0.1677E+02
    -18.152  0.2630E+01  0.2821E+01  0.1735E+02  0.1734E+02
    -17.952  0.4340E+01  0.4192E+01  0.1822E+02  0.1818E+02
    -17.751  0.4397E+01  0.4603E+01  0.1911E+02  0.1910E+02
    -17.551  0.7037E+00  0.5965E+00  0.1925E+02  0.1922E+02
    -17.350  0.9011E+01  0.8923E+01  0.2105E+02  0.2101E+02
    -17.150  0.4005E+01  0.4089E+01  0.2186E+02  0.2183E+02
    -16.949  0.4577E+01  0.4482E+01  0.2277E+02  0.2273E+02
    -16.749  0.4303E+01  0.4360E+01  0.2364E+02  0.2360E+02
    -16.548  0.1563E+01  0.1648E+01  0.2395E+02  0.2393E+02
    -16.348  0.2503E+01  0.2373E+01  0.2445E+02  0.2441E+02
    -16.148  0.7541E+01  0.7674E+01  0.2596E+02  0.2595E+02
    -15.947  0.7403E+00  0.8156E+00  0.2611E+02  0.2611E+02
    -15.747  0.2717E+01  0.2451E+01  0.2666E+02  0.2660E+02
    -15.546  0.2878E+01  0.2983E+01  0.2723E+02  0.2720E+02
    -15.346  0.3557E+01  0.3593E+01  0.2795E+02  0.2792E+02
    -15.145  0.7322E+01  0.7421E+01  0.2941E+02  0.2941E+02
    -14.945  0.3798E+01  0.3731E+01  0.3018E+02  0.3016E+02
    -14.744  0.4928E+01  0.4918E+01  0.3116E+02  0.3114E+02
    -14.544  0.4134E+01  0.4215E+01  0.3199E+02  0.3199E+02
    -14.343  0.4085E+01  0.3871E+01  0.3281E+02  0.3276E+02
    -14.143  0.3061E+01  0.3154E+01  0.3342E+02  0.3340E+02
    -13.942  0.5438E+01  0.5519E+01  0.3451E+02  0.3450E+02
    -13.742  0.4702E+01  0.4708E+01  0.3546E+02  0.3545E+02
    -13.541  0.2149E+01  0.2201E+01  0.3589E+02  0.3589E+02
    -13.341  0.1386E+01  0.1189E+01  0.3617E+02  0.3613E+02
    -13.140  0.7255E+01  0.7201E+01  0.3762E+02  0.3757E+02
    -12.940  0.5491E+01  0.5656E+01  0.3872E+02  0.3870E+02
    -12.739  0.4827E+01  0.4836E+01  0.3969E+02  0.3967E+02
    -12.539  0.1645E+01  0.1556E+01  0.4002E+02  0.3998E+02
    -12.339  0.3924E+01  0.3960E+01  0.4081E+02  0.4078E+02
    -12.138  0.5018E+01  0.4977E+01  0.4181E+02  0.4178E+02
    -11.938  0.7497E+01  0.7605E+01  0.4331E+02  0.4330E+02
    -11.737  0.1370E+01  0.1375E+01  0.4359E+02  0.4358E+02
    -11.537  0.6779E+01  0.6389E+01  0.4495E+02  0.4486E+02
    -11.336  0.7033E+01  0.7411E+01  0.4636E+02  0.4634E+02
    -11.136  0.4535E+01  0.4541E+01  0.4727E+02  0.4725E+02
    -10.935  0.3618E+01  0.3567E+01  0.4799E+02  0.4797E+02
    -10.735  0.2813E+01  0.2806E+01  0.4856E+02  0.4853E+02
    -10.534  0.8858E+01  0.8710E+01  0.5033E+02  0.5028E+02
    -10.334  0.9680E+01  0.9366E+01  0.5227E+02  0.5215E+02
    -10.133  0.8550E+01  0.9010E+01  0.5399E+02  0.5396E+02
     -9.933  0.8815E+01  0.8528E+01  0.5575E+02  0.5567E+02
     -9.732  0.8184E+01  0.8209E+01  0.5740E+02  0.5732E+02
     -9.532  0.1042E+02  0.1026E+02  0.5948E+02  0.5937E+02
     -9.331  0.9381E+01  0.9644E+01  0.6136E+02  0.6131E+02
     -9.131  0.1398E+02  0.1396E+02  0.6417E+02  0.6411E+02
     -8.930  0.1192E+02  0.1152E+02  0.6656E+02  0.6642E+02
     -8.730  0.1186E+02  0.1209E+02  0.6893E+02  0.6884E+02
     -8.529  0.7561E+01  0.7892E+01  0.7045E+02  0.7042E+02
     -8.329  0.8382E+01  0.8307E+01  0.7213E+02  0.7209E+02
     -8.129  0.9743E+01  0.9532E+01  0.7408E+02  0.7400E+02
     -7.928  0.1312E+02  0.1292E+02  0.7671E+02  0.7659E+02
     -7.728  0.7682E+01  0.8165E+01  0.7825E+02  0.7823E+02
     -7.527  0.2802E+01  0.2578E+01  0.7881E+02  0.7874E+02
     -7.327  0.9135E+01  0.9047E+01  0.8065E+02  0.8056E+02
     -7.126  0.9238E+01  0.9342E+01  0.8250E+02  0.8243E+02
     -6.926  0.9966E+01  0.1000E+02  0.8450E+02  0.8443E+02
     -6.725  0.8758E+01  0.8636E+01  0.8625E+02  0.8617E+02
     -6.525  0.5011E+01  0.5410E+01  0.8726E+02  0.8725E+02
     -6.324  0.6063E+01  0.5854E+01  0.8847E+02  0.8842E+02
     -6.124  0.5471E+01  0.4610E+01  0.8957E+02  0.8935E+02
     -5.923  0.1164E+02  0.1244E+02  0.9190E+02  0.9184E+02
     -5.723  0.3194E+01  0.3189E+01  0.9254E+02  0.9248E+02
     -5.522  0.6905E+01  0.6733E+01  0.9393E+02  0.9383E+02
     -5.322  0.2025E+01  0.2472E+01  0.9433E+02  0.9433E+02
     -5.121  0.3089E+01  0.2888E+01  0.9495E+02  0.9491E+02
     -4.921  0.7988E+01  0.7189E+01  0.9655E+02  0.9635E+02
     -4.720  0.7363E+01  0.7991E+01  0.9803E+02  0.9795E+02
     -4.520  0.1895E+01  0.2109E+01  0.9841E+02  0.9837E+02
     -4.319  0.2518E+01  0.2586E+01  0.9891E+02  0.9889E+02
     -4.119  0.1983E+01  0.2062E+01  0.9931E+02  0.9930E+02
     -3.919  0.2544E+01  0.1807E+01  0.9982E+02  0.9967E+02
     -3.718  0.2535E+01  0.3245E+01  0.1003E+03  0.1003E+03
     -3.518  0.2224E+01  0.2260E+01  0.1008E+03  0.1008E+03
     -3.317  0.1693E-01  0.3975E-01  0.1008E+03  0.1008E+03
     -3.117  0.9059E-09  0.2263E-12  0.1008E+03  0.1008E+03
     -2.916  0.3983E+00  0.6293E-01  0.1009E+03  0.1008E+03
     -2.716  0.2109E+01  0.1936E+01  0.1013E+03  0.1012E+03
     -2.515  0.2438E+01  0.1465E+01  0.1018E+03  0.1015E+03
     -2.315  0.2133E+01  0.2994E+01  0.1022E+03  0.1021E+03
     -2.114  0.1273E+00  0.7470E+00  0.1022E+03  0.1022E+03
     -1.914  0.5130E-01  0.8895E-02  0.1022E+03  0.1022E+03
     -1.713  0.3815E+01  0.3687E+01  0.1030E+03  0.1030E+03
     -1.513  0.3977E+01  0.3844E+01  0.1038E+03  0.1037E+03
     -1.312  0.5324E+01  0.4962E+01  0.1049E+03  0.1047E+03
     -1.112  0.1815E+01  0.2326E+01  0.1052E+03  0.1052E+03
     -0.911  0.7106E+01  0.7123E+01  0.1067E+03  0.1066E+03
     -0.711  0.7812E+01  0.7589E+01  0.1082E+03  0.1081E+03
     -0.510  0.5384E+01  0.5173E+01  0.1093E+03  0.1092E+03
     -0.310  0.2959E+01  0.3529E+01  0.1099E+03  0.1099E+03
     -0.110  0.2298E+00  0.1048E+00  0.1099E+03  0.1099E+03
      0.091  0.4368E+01  0.4257E+01  0.1108E+03  0.1108E+03
      0.291  0.9376E+01  0.9223E+01  0.1127E+03  0.1126E+03
      0.492  0.8487E+01  0.8375E+01  0.1144E+03  0.1143E+03
      0.692  0.4724E+01  0.5206E+01  0.1153E+03  0.1153E+03
      0.893  0.7219E+01  0.6618E+01  0.1168E+03  0.1167E+03
      1.093  0.7727E+01  0.7836E+01  0.1183E+03  0.1182E+03
      1.294  0.1190E+02  0.1147E+02  0.1207E+03  0.1205E+03
      1.494  0.1330E+02  0.1212E+02  0.1234E+03  0.1230E+03
      1.695  0.1664E+02  0.1745E+02  0.1267E+03  0.1265E+03
      1.895  0.1826E+02  0.1861E+02  0.1304E+03  0.1302E+03
      2.096  0.7344E+01  0.7881E+01  0.1319E+03  0.1318E+03
      2.296  0.7312E+00  0.1143E+01  0.1320E+03  0.1320E+03
      2.497  0.5955E-06  0.8539E-04  0.1320E+03  0.1320E+03
      2.697  0.0000E+00  0.0000E+00  0.1320E+03  0.1320E+03
      2.898  0.0000E+00  0.0000E+00  0.1320E+03  0.1320E+03
      3.098  0.0000E+00  0.0000E+00  0.1320E+03  0.1320E+03
      3.299  0.0000E+00  0.0000E+00  0.1320E+03  0.1320E+03
      3.499  0.0000E+00  0.0000E+00  0.1320E+03  0.1320E+03
      3.700  0.0000E+00  0.0000E+00  0.1320E+03  0.1320E+03
      3.900  0.0000E+00  0.0000E+00  0.1320E+03  0.1320E+03
      4.100  0.0000E+00  0.0000E+00  0.1320E+03  0.1320E+03
      4.301  0.0000E+00  0.0000E+00  0.1320E+03  0.1320E+03
      4.501  0.0000E+00  0.0000E+00  0.1320E+03  0.1320E+03
      4.702  0.0000E+00  0.0000E+00  0.1320E+03  0.1320E+03
      4.902  0.0000E+00  0.0000E+00  0.1320E+03  0.1320E+03
