  51  51   0   0
  0.7707117E+02  0.1230000E-08  0.1230000E-08  0.3000000E-08  0.5000000E-15
  1.000000000000000E-004
  CAR 
 Li defective graphene MACE training lab 
      4.84284760    -54.27482816  301     -1.86706236      1.00000000
    -54.275  0.0000E+00  0.0000E+00  0.0000E+00  0.0000E+00
    -54.078  0.0000E+00  0.0000E+00  0.0000E+00  0.0000E+00
    -53.881  0.0000E+00  0.0000E+00  0.0000E+00  0.0000E+00
    -53.684  0.0000E+00  0.0000E+00  0.0000E+00  0.0000E+00
    -53.487  0.0000E+00  0.0000E+00  0.0000E+00  0.0000E+00
    -53.290  0.0000E+00  0.0000E+00  0.0000E+00  0.0000E+00
    -53.092  0.0000E+00  0.0000E+00  0.0000E+00  0.0000E+00
    -52.895  0.0000E+00  0.0000E+00  0.0000E+00  0.0000E+00
    -52.698  0.0000E+00  0.0000E+00  0.0000E+00  0.0000E+00
    -52.501  0.0000E+00  0.0000E+00  0.0000E+00  0.0000E+00
    -52.304  0.0000E+00  0.0000E+00  0.0000E+00  0.0000E+00
    -52.107  0.0000E+00  0.0000E+00  0.0000E+00  0.0000E+00
    -51.910  0.0000E+00  0.0000E+00  0.0000E+00  0.0000E+00
    -51.713  0.9887E-03  0.9890E-03  0.1948E-03  0.1949E-03
    -51.516  0.4965E+01  0.4965E+01  0.9787E+00  0.9787E+00
    -51.319  0.1083E+00  0.1083E+00  0.1000E+01  0.1000E+01
    -51.122  0.0000E+00  0.0000E+00  0.1000E+01  0.1000E+01
    -50.925  0.0000E+00  0.0000E+00  0.1000E+01  0.1000E+01
    -50.728  0.0000E+00  0.0000E+00  0.1000E+01  0.1000E+01
    -50.531  0.0000E+00  0.0000E+00  0.1000E+01  0.1000E+01
    -50.334  0.0000E+00  0.0000E+00  0.1000E+01  0.1000E+01
    -50.137  0.0000E+00  0.0000E+00  0.1000E+01  0.1000E+01
    -49.940  0.0000E+00  0.0000E+00  0.1000E+01  0.1000E+01
    -49.742  0.0000E+00  0.0000E+00  0.1000E+01  0.1000E+01
    -49.545  0.0000E+00  0.0000E+00  0.1000E+01  0.1000E+01
    -49.348  0.0000E+00  0.0000E+00  0.1000E+01  0.1000E+01
    -49.151  0.0000E+00  0.0000E+00  0.1000E+01  0.1000E+01
    -48.954  0.0000E+00  0.0000E+00  0.1000E+01  0.1000E+01
    -48.757  0.0000E+00  0.0000E+00  0.1000E+01  0.1000E+01
    -48.560  0.0000E+00  0.0000E+00  0.1000E+01  0.1000E+01
    -48.363  0.0000E+00  0.0000E+00  0.1000E+01  0.1000E+01
    -48.166  0.0000E+00  0.0000E+00  0.1000E+01  0.1000E+01
    -47.969  0.0000E+00  0.0000E+00  0.1000E+01  0.1000E+01
    -47.772  0.0000E+00  0.0000E+00  0.1000E+01  0.1000E+01
    -47.575  0.0000E+00  0.0000E+00  0.1000E+01  0.1000E+01
    -47.378  0.0000E+00  0.0000E+00  0.1000E+01  0.1000E+01
    -47.181  0.0000E+00  0.0000E+00  0.1000E+01  0.1000E+01
    -46.984  0.0000E+00  0.0000E+00  0.1000E+01  0.1000E+01
    -46.787  0.0000E+00  0.0000E+00  0.1000E+01  0.1000E+01
    -46.590  0.0000E+00  0.0000E+00  0.1000E+01  0.1000E+01
    -46.392  0.0000E+00  0.0000E+00  0.1000E+01  0.1000E+01
    -46.195  0.0000E+00  0.0000E+00  0.1000E+01  0.1000E+01
    -45.998  0.0000E+00  0.0000E+00  0.1000E+01  0.1000E+01
    -45.801  0.0000E+00  0.0000E+00  0.1000E+01  0.1000E+01
    -45.604  0.0000E+00  0.0000E+00  0.1000E+01  0.1000E+01
    -45.407  0.0000E+00  0.0000E+00  0.1000E+01  0.1000E+01
    -45.210  0.0000E+00  0.0000E+00  0.1000E+01  0.1000E+01
    -45.013  0.0000E+00  0.0000E+00  0.1000E+01  0.1000E+01
    -44.816  0.0000E+00  0.0000E+00  0.1000E+01  0.1000E+01
    -44.619  0.0000E+00  0.0000E+00  0.1000E+01  0.1000E+01
    -44.422  0.0000E+00  0.0000E+00  0.1000E+01  0.1000E+01
    -44.225  0.0000E+00  0.0000E+00  0.1000E+01  0.1000E+01
    -44.028  0.0000E+00  0.0000E+00  0.1000E+01  0.1000E+01
    -43.831  0.0000E+00  0.0000E+00  0.1000E+01  0.1000E+01
    -43.634  0.0000E+00  0.0000E+00  0.1000E+01  0.1000E+01
    -43.437  0.0000E+00  0.0000E+00  0.1000E+01  0.1000E+01
    -43.240  0.0000E+00  0.0000E+00  0.1000E+01  0.1000E+01
    -43.042  0.0000E+00  0.0000E+00  0.1000E+01  0.1000E+01
    -42.845  0.0000E+00  0.0000E+00  0.1000E+01  0.1000E+01
    -42.648  0.0000E+00  0.0000E+00  0.1000E+01  0.1000E+01
    -42.451  0.0000E+00  0.0000E+00  0.1000E+01  0.1000E+01
    -42.254  0.0000E+00  0.0000E+00  0.1000E+01  0.1000E+01
    -42.057  0.0000E+00  0.0000E+00  0.1000E+01  0.1000E+01
    -41.860  0.0000E+00  0.0000E+00  0.1000E+01  0.1000E+01
    -41.663  0.0000E+00  0.0000E+00  0.1000E+01  0.1000E+01
    -41.466  0.0000E+00  0.0000E+00  0.1000E+01  0.1000E+01
    -41.269  0.0000E+00  0.0000E+00  0.1000E+01  0.1000E+01
    -41.072  0.0000E+00  0.0000E+00  0.1000E+01  0.1000E+01
    -40.875  0.0000E+00  0.0000E+00  0.1000E+01  0.1000E+01
    -40.678  0.0000E+00  0.0000E+00  0.1000E+01  0.1000E+01
    -40.481  0.0000E+00  0.0000E+00  0.1000E+01  0.1000E+01
    -40.284  0.0000E+00  0.0000E+00  0.1000E+01  0.1000E+01
    -40.087  0.0000E+00  0.0000E+00  0.1000E+01  0.1000E+01
    -39.890  0.0000E+00  0.0000E+00  0.1000E+01  0.1000E+01
    -39.692  0.0000E+00  0.0000E+00  0.1000E+01  0.1000E+01
    -39.495  0.0000E+00  0.0000E+00  0.1000E+01  0.1000E+01
    -39.298  0.0000E+00  0.0000E+00  0.1000E+01  0.1000E+01
    -39.101  0.0000E+00  0.0000E+00  0.1000E+01  0.1000E+01
    -38.904  0.0000E+00  0.0000E+00  0.1000E+01  0.1000E+01
    -38.707  0.0000E+00  0.0000E+00  0.1000E+01  0.1000E+01
    -38.510  0.0000E+00  0.0000E+00  0.1000E+01  0.1000E+01
    -38.313  0.0000E+00  0.0000E+00  0.1000E+01  0.1000E+01
    -38.116  0.0000E+00  0.0000E+00  0.1000E+01  0.1000E+01
    -37.919  0.0000E+00  0.0000E+00  0.1000E+01  0.1000E+01
    -37.722  0.0000E+00  0.0000E+00  0.1000E+01  0.1000E+01
    -37.525  0.0000E+00  0.0000E+00  0.1000E+01  0.1000E+01
    -37.328  0.0000E+00  0.0000E+00  0.1000E+01  0.1000E+01
    -37.131  0.0000E+00  0.0000E+00  0.1000E+01  0.1000E+01
    -36.934  0.0000E+00  0.0000E+00  0.1000E+01  0.1000E+01
    -36.737  0.0000E+00  0.0000E+00  0.1000E+01  0.1000E+01
    -36.540  0.0000E+00  0.0000E+00  0.1000E+01  0.1000E+01
    -36.342  0.0000E+00  0.0000E+00  0.1000E+01  0.1000E+01
    -36.145  0.0000E+00  0.0000E+00  0.1000E+01  0.1000E+01
    -35.948  0.0000E+00  0.0000E+00  0.1000E+01  0.1000E+01
    -35.751  0.0000E+00  0.0000E+00  0.1000E+01  0.1000E+01
    -35.554  0.0000E+00  0.0000E+00  0.1000E+01  0.1000E+01
    -35.357  0.0000E+00  0.0000E+00  0.1000E+01  0.1000E+01
    -35.160  0.0000E+00  0.0000E+00  0.1000E+01  0.1000E+01
    -34.963  0.0000E+00  0.0000E+00  0.1000E+01  0.1000E+01
    -34.766  0.0000E+00  0.0000E+00  0.1000E+01  0.1000E+01
    -34.569  0.0000E+00  0.0000E+00  0.1000E+01  0.1000E+01
    -34.372  0.0000E+00  0.0000E+00  0.1000E+01  0.1000E+01
    -34.175  0.0000E+00  0.0000E+00  0.1000E+01  0.1000E+01
    -33.978  0.0000E+00  0.0000E+00  0.1000E+01  0.1000E+01
    -33.781  0.0000E+00  0.0000E+00  0.1000E+01  0.1000E+01
    -33.584  0.0000E+00  0.0000E+00  0.1000E+01  0.1000E+01
    -33.387  0.0000E+00  0.0000E+00  0.1000E+01  0.1000E+01
    -33.190  0.0000E+00  0.0000E+00  0.1000E+01  0.1000E+01
    -32.992  0.0000E+00  0.0000E+00  0.1000E+01  0.1000E+01
    -32.795  0.0000E+00  0.0000E+00  0.1000E+01  0.1000E+01
    -32.598  0.0000E+00  0.0000E+00  0.1000E+01  0.1000E+01
    -32.401  0.0000E+00  0.0000E+00  0.1000E+01  0.1000E+01
    -32.204  0.0000E+00  0.0000E+00  0.1000E+01  0.1000E+01
    -32.007  0.0000E+00  0.0000E+00  0.1000E+01  0.1000E+01
    -31.810  0.0000E+00  0.0000E+00  0.1000E+01  0.1000E+01
    -31.613  0.0000E+00  0.0000E+00  0.1000E+01  0.1000E+01
    -31.416  0.0000E+00  0.0000E+00  0.1000E+01  0.1000E+01
    -31.219  0.0000E+00  0.0000E+00  0.1000E+01  0.1000E+01
    -31.022  0.0000E+00  0.0000E+00  0.1000E+01  0.1000E+01
    -30.825  0.0000E+00  0.0000E+00  0.1000E+01  0.1000E+01
    -30.628  0.0000E+00  0.0000E+00  0.1000E+01  0.1000E+01
    -30.431  0.0000E+00  0.0000E+00  0.1000E+01  0.1000E+01
    -30.234  0.0000E+00  0.0000E+00  0.1000E+01  0.1000E+01
    -30.037  0.0000E+00  0.0000E+00  0.1000E+01  0.1000E+01
    -29.840  0.0000E+00  0.0000E+00  0.1000E+01  0.1000E+01
    -29.642  0.0000E+00  0.0000E+00  0.1000E+01  0.1000E+01
    -29.445  0.0000E+00  0.0000E+00  0.1000E+01  0.1000E+01
    -29.248  0.0000E+00  0.0000E+00  0.1000E+01  0.1000E+01
    -29.051  0.0000E+00  0.0000E+00  0.1000E+01  0.1000E+01
    -28.854  0.0000E+00  0.0000E+00  0.1000E+01  0.1000E+01
    -28.657  0.0000E+00  0.0000E+00  0.1000E+01  0.1000E+01
    -28.460  0.0000E+00  0.0000E+00  0.1000E+01  0.1000E+01
    -28.263  0.0000E+00  0.0000E+00  0.1000E+01  0.1000E+01
    -28.066  0.0000E+00  0.0000E+00  0.1000E+01  0.1000E+01
    -27.869  0.0000E+00  0.0000E+00  0.1000E+01  0.1000E+01
    -27.672  0.0000E+00  0.0000E+00  0.1000E+01  0.1000E+01
    -27.475  0.0000E+00  0.0000E+00  0.1000E+01  0.1000E+01
    -27.278  0.0000E+00  0.0000E+00  0.1000E+01  0.1000E+01
    -27.081  0.0000E+00  0.0000E+00  0.1000E+01  0.1000E+01
    -26.884  0.0000E+00  0.0000E+00  0.1000E+01  0.1000E+01
    -26.687  0.0000E+00  0.0000E+00  0.1000E+01  0.1000E+01
    -26.490  0.0000E+00  0.0000E+00  0.1000E+01  0.1000E+01
    -26.292  0.0000E+00  0.0000E+00  0.1000E+01  0.1000E+01
    -26.095  0.0000E+00  0.0000E+00  0.1000E+01  0.1000E+01
    -25.898  0.0000E+00  0.0000E+00  0.1000E+01  0.1000E+01
    -25.701  0.0000E+00  0.0000E+00  0.1000E+01  0.1000E+01
    -25.504  0.0000E+00  0.0000E+00  0.1000E+01  0.1000E+01
    -25.307  0.0000E+00  0.0000E+00  0.1000E+01  0.1000E+01
    -25.110  0.0000E+00  0.0000E+00  0.1000E+01  0.1000E+01
    -24.913  0.0000E+00  0.0000E+00  0.1000E+01  0.1000E+01
    -24.716  0.0000E+00  0.0000E+00  0.1000E+01  0.1000E+01
    -24.519  0.0000E+00  0.0000E+00  0.1000E+01  0.1000E+01
    -24.322  0.0000E+00  0.0000E+00  0.1000E+01  0.1000E+01
    -24.125  0.0000E+00  0.0000E+00  0.1000E+01  0.1000E+01
    -23.928  0.0000E+00  0.0000E+00  0.1000E+01  0.1000E+01
    -23.731  0.0000E+00  0.0000E+00  0.1000E+01  0.1000E+01
    -23.534  0.0000E+00  0.0000E+00  0.1000E+01  0.1000E+01
    -23.337  0.0000E+00  0.0000E+00  0.1000E+01  0.1000E+01
    -23.140  0.0000E+00  0.0000E+00  0.1000E+01  0.1000E+01
    -22.942  0.0000E+00  0.0000E+00  0.1000E+01  0.1000E+01
    -22.745  0.0000E+00  0.0000E+00  0.1000E+01  0.1000E+01
    -22.548  0.9329E-04  0.9332E-04  0.1000E+01  0.1000E+01
    -22.351  0.1498E+01  0.1498E+01  0.1295E+01  0.1295E+01
    -22.154  0.3566E+01  0.3566E+01  0.1998E+01  0.1998E+01
    -21.957  0.4494E+01  0.4494E+01  0.2884E+01  0.2884E+01
    -21.760  0.1158E+01  0.1158E+01  0.3112E+01  0.3112E+01
    -21.563  0.7207E+01  0.7207E+01  0.4532E+01  0.4532E+01
    -21.366  0.1986E+01  0.1986E+01  0.4923E+01  0.4923E+01
    -21.169  0.1534E+01  0.1534E+01  0.5226E+01  0.5226E+01
    -20.972  0.8887E+01  0.8887E+01  0.6977E+01  0.6977E+01
    -20.775  0.7098E+00  0.7097E+00  0.7117E+01  0.7117E+01
    -20.578  0.3353E+01  0.3353E+01  0.7777E+01  0.7777E+01
    -20.381  0.4980E+01  0.4980E+01  0.8759E+01  0.8759E+01
    -20.184  0.5300E+01  0.5300E+01  0.9803E+01  0.9803E+01
    -19.987  0.3255E+01  0.3255E+01  0.1044E+02  0.1044E+02
    -19.790  0.1225E+01  0.1225E+01  0.1069E+02  0.1069E+02
    -19.592  0.3764E+01  0.3764E+01  0.1143E+02  0.1143E+02
    -19.395  0.8526E+01  0.8526E+01  0.1311E+02  0.1311E+02
    -19.198  0.1285E+01  0.1285E+01  0.1336E+02  0.1336E+02
    -19.001  0.5498E+01  0.5498E+01  0.1444E+02  0.1444E+02
    -18.804  0.4877E-02  0.4878E-02  0.1445E+02  0.1445E+02
    -18.607  0.5668E+01  0.5668E+01  0.1556E+02  0.1556E+02
    -18.410  0.7245E+01  0.7245E+01  0.1699E+02  0.1699E+02
    -18.213  0.3994E+01  0.3994E+01  0.1778E+02  0.1778E+02
    -18.016  0.2059E+01  0.2059E+01  0.1818E+02  0.1818E+02
    -17.819  0.4711E+01  0.4711E+01  0.1911E+02  0.1911E+02
    -17.622  0.7309E-01  0.7311E-01  0.1913E+02  0.1913E+02
    -17.425  0.1022E+02  0.1022E+02  0.2114E+02  0.2114E+02
    -17.228  0.3815E+01  0.3815E+01  0.2189E+02  0.2189E+02
    -17.031  0.7678E+01  0.7678E+01  0.2340E+02  0.2340E+02
    -16.834  0.1892E+01  0.1892E+01  0.2378E+02  0.2378E+02
    -16.637  0.5936E-02  0.5938E-02  0.2378E+02  0.2378E+02
    -16.440  0.3061E+01  0.3061E+01  0.2438E+02  0.2438E+02
    -16.242  0.7082E+01  0.7082E+01  0.2578E+02  0.2578E+02
    -16.045  0.7357E+00  0.7358E+00  0.2592E+02  0.2592E+02
    -15.848  0.2648E+01  0.2648E+01  0.2644E+02  0.2644E+02
    -15.651  0.2593E+01  0.2593E+01  0.2696E+02  0.2696E+02
    -15.454  0.5788E+01  0.5788E+01  0.2810E+02  0.2810E+02
    -15.257  0.7406E+01  0.7406E+01  0.2956E+02  0.2956E+02
    -15.060  0.1552E-03  0.1553E-03  0.2956E+02  0.2956E+02
    -14.863  0.9144E+01  0.9145E+01  0.3136E+02  0.3136E+02
    -14.666  0.4388E+01  0.4387E+01  0.3222E+02  0.3222E+02
    -14.469  0.3310E+01  0.3310E+01  0.3287E+02  0.3287E+02
    -14.272  0.3459E+01  0.3458E+01  0.3356E+02  0.3356E+02
    -14.075  0.3346E+01  0.3346E+01  0.3422E+02  0.3422E+02
    -13.878  0.6745E+01  0.6745E+01  0.3554E+02  0.3554E+02
    -13.681  0.3431E+01  0.3431E+01  0.3622E+02  0.3622E+02
    -13.484  0.1795E-01  0.1795E-01  0.3622E+02  0.3622E+02
    -13.287  0.3352E+01  0.3352E+01  0.3688E+02  0.3688E+02
    -13.090  0.5371E+01  0.5371E+01  0.3794E+02  0.3794E+02
    -12.892  0.5933E+01  0.5933E+01  0.3911E+02  0.3911E+02
    -12.695  0.6713E+01  0.6713E+01  0.4044E+02  0.4044E+02
    -12.498  0.3388E+00  0.3388E+00  0.4050E+02  0.4050E+02
    -12.301  0.9150E+01  0.9151E+01  0.4231E+02  0.4231E+02
    -12.104  0.4083E+01  0.4083E+01  0.4311E+02  0.4311E+02
    -11.907  0.7114E-02  0.7113E-02  0.4311E+02  0.4311E+02
    -11.710  0.3654E+01  0.3654E+01  0.4383E+02  0.4383E+02
    -11.513  0.1344E+02  0.1344E+02  0.4648E+02  0.4648E+02
    -11.316  0.3202E+01  0.3201E+01  0.4711E+02  0.4711E+02
    -11.119  0.2370E+01  0.2370E+01  0.4758E+02  0.4758E+02
    -10.922  0.4396E+01  0.4396E+01  0.4844E+02  0.4844E+02
    -10.725  0.4424E+01  0.4424E+01  0.4932E+02  0.4932E+02
    -10.528  0.7064E+01  0.7064E+01  0.5071E+02  0.5071E+02
    -10.331  0.1139E+02  0.1139E+02  0.5295E+02  0.5295E+02
    -10.134  0.8871E+01  0.8871E+01  0.5470E+02  0.5470E+02
     -9.937  0.6036E+01  0.6036E+01  0.5589E+02  0.5589E+02
     -9.740  0.1270E+02  0.1270E+02  0.5839E+02  0.5839E+02
     -9.542  0.1076E+02  0.1076E+02  0.6051E+02  0.6051E+02
     -9.345  0.1012E+02  0.1012E+02  0.6251E+02  0.6251E+02
     -9.148  0.1230E+02  0.1230E+02  0.6493E+02  0.6493E+02
     -8.951  0.1790E+02  0.1790E+02  0.6846E+02  0.6846E+02
     -8.754  0.7300E+01  0.7300E+01  0.6990E+02  0.6990E+02
     -8.557  0.9500E+01  0.9501E+01  0.7177E+02  0.7177E+02
     -8.360  0.4006E+01  0.4006E+01  0.7256E+02  0.7256E+02
     -8.163  0.1434E+02  0.1434E+02  0.7538E+02  0.7538E+02
     -7.966  0.1249E+02  0.1249E+02  0.7784E+02  0.7784E+02
     -7.769  0.6978E+01  0.6978E+01  0.7922E+02  0.7922E+02
     -7.572  0.6661E-01  0.6662E-01  0.7923E+02  0.7923E+02
     -7.375  0.7262E+01  0.7262E+01  0.8066E+02  0.8066E+02
     -7.178  0.1559E+02  0.1559E+02  0.8374E+02  0.8374E+02
     -6.981  0.6037E+01  0.6036E+01  0.8492E+02  0.8492E+02
     -6.784  0.7368E+01  0.7368E+01  0.8638E+02  0.8638E+02
     -6.587  0.3491E+01  0.3491E+01  0.8706E+02  0.8706E+02
     -6.390  0.5184E+01  0.5185E+01  0.8809E+02  0.8809E+02
     -6.192  0.9290E+01  0.9290E+01  0.8992E+02  0.8992E+02
     -5.995  0.9234E+01  0.9234E+01  0.9174E+02  0.9174E+02
     -5.798  0.4947E+01  0.4947E+01  0.9271E+02  0.9271E+02
     -5.601  0.7089E+01  0.7089E+01  0.9411E+02  0.9411E+02
     -5.404  0.1461E+01  0.1461E+01  0.9440E+02  0.9440E+02
     -5.207  0.3498E+01  0.3497E+01  0.9509E+02  0.9509E+02
     -5.010  0.8499E+01  0.8499E+01  0.9676E+02  0.9676E+02
     -4.813  0.1023E+02  0.1023E+02  0.9878E+02  0.9878E+02
     -4.616  0.9922E-02  0.9916E-02  0.9878E+02  0.9878E+02
     -4.419  0.8750E+00  0.8751E+00  0.9895E+02  0.9895E+02
     -4.222  0.2311E+01  0.2311E+01  0.9941E+02  0.9941E+02
     -4.025  0.2407E+00  0.2407E+00  0.9945E+02  0.9945E+02
     -3.828  0.6712E+01  0.6712E+01  0.1008E+03  0.1008E+03
     -3.631  0.9769E-02  0.9763E-02  0.1008E+03  0.1008E+03
     -3.434  0.0000E+00  0.0000E+00  0.1008E+03  0.1008E+03
     -3.237  0.0000E+00  0.0000E+00  0.1008E+03  0.1008E+03
     -3.040  0.3675E-06  0.3679E-06  0.1008E+03  0.1008E+03
     -2.842  0.1438E+01  0.1438E+01  0.1011E+03  0.1011E+03
     -2.645  0.8171E+00  0.8169E+00  0.1012E+03  0.1012E+03
     -2.448  0.6207E-08  0.6199E-08  0.1012E+03  0.1012E+03
     -2.251  0.0000E+00  0.0000E+00  0.1012E+03  0.1012E+03
     -2.054  0.1802E-06  0.1804E-06  0.1012E+03  0.1012E+03
     -1.857  0.1864E+01  0.1864E+01  0.1016E+03  0.1016E+03
     -1.660  0.5873E+01  0.5873E+01  0.1027E+03  0.1027E+03
     -1.463  0.1844E+01  0.1844E+01  0.1031E+03  0.1031E+03
     -1.266  0.4808E+01  0.4807E+01  0.1041E+03  0.1041E+03
     -1.069  0.9498E+01  0.9497E+01  0.1059E+03  0.1059E+03
     -0.872  0.4824E+01  0.4825E+01  0.1069E+03  0.1069E+03
     -0.675  0.7443E+01  0.7444E+01  0.1083E+03  0.1083E+03
     -0.478  0.4893E+01  0.4893E+01  0.1093E+03  0.1093E+03
     -0.281  0.4624E+01  0.4623E+01  0.1102E+03  0.1102E+03
     -0.084  0.3263E-01  0.3261E-01  0.1102E+03  0.1102E+03
      0.113  0.2631E+01  0.2631E+01  0.1107E+03  0.1107E+03
      0.310  0.6314E+01  0.6248E+01  0.1120E+03  0.1120E+03
      0.508  0.7244E+01  0.7289E+01  0.1134E+03  0.1134E+03
      0.705  0.1032E+02  0.1034E+02  0.1155E+03  0.1155E+03
      0.902  0.5304E+01  0.4968E+01  0.1165E+03  0.1164E+03
      1.099  0.7136E+01  0.6743E+01  0.1179E+03  0.1178E+03
      1.296  0.1367E+02  0.1255E+02  0.1206E+03  0.1202E+03
      1.493  0.1210E+02  0.1087E+02  0.1230E+03  0.1224E+03
      1.690  0.1162E+02  0.1274E+02  0.1253E+03  0.1249E+03
      1.887  0.2226E+02  0.2133E+02  0.1297E+03  0.1291E+03
      2.084  0.9771E+01  0.1148E+02  0.1316E+03  0.1313E+03
      2.281  0.2109E+01  0.3300E+01  0.1320E+03  0.1320E+03
      2.478  0.1133E-03  0.1208E-03  0.1320E+03  0.1320E+03
      2.675  0.0000E+00  0.0000E+00  0.1320E+03  0.1320E+03
      2.872  0.0000E+00  0.0000E+00  0.1320E+03  0.1320E+03
      3.069  0.0000E+00  0.0000E+00  0.1320E+03  0.1320E+03
      3.266  0.0000E+00  0.0000E+00  0.1320E+03  0.1320E+03
      3.463  0.0000E+00  0.0000E+00  0.1320E+03  0.1320E+03
      3.660  0.0000E+00  0.0000E+00  0.1320E+03  0.1320E+03
      3.858  0.0000E+00  0.0000E+00  0.1320E+03  0.1320E+03
      4.055  0.0000E+00  0.0000E+00  0.1320E+03  0.1320E+03
      4.252  0.0000E+00  0.0000E+00  0.1320E+03  0.1320E+03
      4.449  0.0000E+00  0.0000E+00  0.1320E+03  0.1320E+03
      4.646  0.0000E+00  0.0000E+00  0.1320E+03  0.1320E+03
      4.843  0.0000E+00  0.0000E+00  0.1320E+03  0.1320E+03
