       N       E                     dE             d eps       ncg     rms          rms(c)
DAV:   1     0.193723029129E+04    0.19372E+04   -0.68093E+04  3264   0.106E+03
DAV:   2     0.390874759346E+02   -0.18981E+04   -0.17566E+04  4080   0.235E+02
DAV:   3    -0.468120005257E+03   -0.50721E+03   -0.50059E+03  3464   0.128E+02
DAV:   4    -0.495083960897E+03   -0.26964E+02   -0.26626E+02  3388   0.385E+01
DAV:   5    -0.496060136998E+03   -0.97618E+00   -0.96795E+00  4088   0.623E+00    0.334E+01
DAV:   6    -0.470883387022E+03    0.25177E+02   -0.24407E+01  2996   0.112E+01    0.194E+01
DAV:   7    -0.458222378806E+03    0.12661E+02   -0.15973E+01  3004   0.925E+00    0.100E+01
DAV:   8    -0.457658657149E+03    0.56372E+00   -0.46585E+00  2988   0.476E+00    0.379E+00
DAV:   9    -0.458857217392E+03   -0.11986E+01   -0.60692E-01  3488   0.178E+00    0.142E+00
DAV:  10    -0.459141292078E+03   -0.28407E+00   -0.17458E-01  2912   0.852E-01    0.936E-01
DAV:  11    -0.459445269330E+03   -0.30398E+00   -0.56960E-02  3216   0.414E-01    0.781E-01
DAV:  12    -0.459900959302E+03   -0.45569E+00   -0.23555E-01  2848   0.758E-01    0.519E-01
DAV:  13    -0.459950857406E+03   -0.49898E-01   -0.62322E-02  2900   0.450E-01    0.412E-01
DAV:  14    -0.460818741383E+03   -0.86788E+00   -0.56176E-02  2904   0.334E-01    0.284E-01
DAV:  15    -0.461548872317E+03   -0.73013E+00   -0.28248E-02  2912   0.238E-01    0.194E-01
DAV:  16    -0.461800949642E+03   -0.25208E+00   -0.34071E-03  2984   0.133E-01    0.158E-01
DAV:  17    -0.462108354556E+03   -0.30740E+00   -0.73398E-03  2752   0.148E-01    0.103E-01
DAV:  18    -0.462195357151E+03   -0.87003E-01   -0.31014E-03  2968   0.898E-02    0.758E-02
DAV:  19    -0.462221822737E+03   -0.26466E-01   -0.13843E-03  3000   0.636E-02    0.570E-02
DAV:  20    -0.462251346727E+03   -0.29524E-01   -0.92401E-04  2880   0.609E-02    0.384E-02
DAV:  21    -0.462289252519E+03   -0.37906E-01   -0.36029E-04  2900   0.499E-02    0.249E-02
DAV:  22    -0.462315891042E+03   -0.26639E-01   -0.20156E-04  2944   0.377E-02    0.132E-02
DAV:  23    -0.462320828502E+03   -0.49375E-02   -0.58096E-05  2880   0.237E-02    0.828E-03
DAV:  24    -0.462322712168E+03   -0.18837E-02   -0.37944E-05  2368   0.174E-02    0.516E-03
DAV:  25    -0.462323437831E+03   -0.72566E-03   -0.35784E-05  2428   0.143E-02    0.306E-03
DAV:  26    -0.462323698815E+03   -0.26098E-03   -0.13384E-05  2388   0.104E-02    0.197E-03
DAV:  27    -0.462323838093E+03   -0.13928E-03   -0.46194E-06  2380   0.569E-03    0.130E-03
DAV:  28    -0.462323920285E+03   -0.82192E-04   -0.18337E-06  2372   0.348E-03    0.842E-04
DAV:  29    -0.462323975562E+03   -0.55276E-04   -0.12963E-06  2184   0.229E-03    0.547E-04
DAV:  30    -0.462324000583E+03   -0.25021E-04   -0.39793E-07  1996   0.145E-03    0.389E-04
DAV:  31    -0.462324019169E+03   -0.18586E-04   -0.29312E-07  1992   0.989E-04    0.261E-04
DAV:  32    -0.462324030192E+03   -0.11024E-04   -0.11772E-07  2052   0.680E-04    0.192E-04
DAV:  33    -0.462324037312E+03   -0.71195E-05   -0.23078E-08  1964   0.443E-04    0.144E-04
DAV:  34    -0.462324039894E+03   -0.25826E-05    0.61855E-09  1984   0.255E-04    0.124E-04
DAV:  35    -0.462324040105E+03   -0.21012E-06    0.14521E-08  2040   0.158E-04
   1 F= -.46232404E+03 E0= -.46231357E+03  d E =-.209322E-01  mag=     0.0000
