  55  55   0   0
  0.7146599E+02  0.1230000E-08  0.1230000E-08  0.3000000E-08  0.5000000E-15
  1.000000000000000E-004
  CAR 
 Li defective graphene MACE training lab 
      4.37942128    -52.67005634  301     -3.11818766      1.00000000
    -52.670  0.0000E+00  0.0000E+00  0.0000E+00  0.0000E+00
    -52.480  0.0000E+00  0.0000E+00  0.0000E+00  0.0000E+00
    -52.290  0.0000E+00  0.0000E+00  0.0000E+00  0.0000E+00
    -52.100  0.0000E+00  0.0000E+00  0.0000E+00  0.0000E+00
    -51.909  0.0000E+00  0.0000E+00  0.0000E+00  0.0000E+00
    -51.719  0.0000E+00  0.0000E+00  0.0000E+00  0.0000E+00
    -51.529  0.0000E+00  0.0000E+00  0.0000E+00  0.0000E+00
    -51.339  0.0000E+00  0.0000E+00  0.0000E+00  0.0000E+00
    -51.149  0.0000E+00  0.0000E+00  0.0000E+00  0.0000E+00
    -50.959  0.0000E+00  0.0000E+00  0.0000E+00  0.0000E+00
    -50.768  0.0000E+00  0.0000E+00  0.0000E+00  0.0000E+00
    -50.578  0.0000E+00  0.0000E+00  0.0000E+00  0.0000E+00
    -50.388  0.0000E+00  0.0000E+00  0.0000E+00  0.0000E+00
    -50.198  0.1629E-02  0.9847E-03  0.3099E-03  0.1872E-03
    -50.008  0.5124E+01  0.5077E+01  0.9748E+00  0.9657E+00
    -49.818  0.1327E+00  0.1803E+00  0.1000E+01  0.1000E+01
    -49.627  0.0000E+00  0.0000E+00  0.1000E+01  0.1000E+01
    -49.437  0.0000E+00  0.0000E+00  0.1000E+01  0.1000E+01
    -49.247  0.0000E+00  0.0000E+00  0.1000E+01  0.1000E+01
    -49.057  0.0000E+00  0.0000E+00  0.1000E+01  0.1000E+01
    -48.867  0.0000E+00  0.0000E+00  0.1000E+01  0.1000E+01
    -48.677  0.0000E+00  0.0000E+00  0.1000E+01  0.1000E+01
    -48.486  0.0000E+00  0.0000E+00  0.1000E+01  0.1000E+01
    -48.296  0.0000E+00  0.0000E+00  0.1000E+01  0.1000E+01
    -48.106  0.0000E+00  0.0000E+00  0.1000E+01  0.1000E+01
    -47.916  0.0000E+00  0.0000E+00  0.1000E+01  0.1000E+01
    -47.726  0.0000E+00  0.0000E+00  0.1000E+01  0.1000E+01
    -47.536  0.0000E+00  0.0000E+00  0.1000E+01  0.1000E+01
    -47.345  0.0000E+00  0.0000E+00  0.1000E+01  0.1000E+01
    -47.155  0.0000E+00  0.0000E+00  0.1000E+01  0.1000E+01
    -46.965  0.0000E+00  0.0000E+00  0.1000E+01  0.1000E+01
    -46.775  0.0000E+00  0.0000E+00  0.1000E+01  0.1000E+01
    -46.585  0.0000E+00  0.0000E+00  0.1000E+01  0.1000E+01
    -46.395  0.0000E+00  0.0000E+00  0.1000E+01  0.1000E+01
    -46.204  0.0000E+00  0.0000E+00  0.1000E+01  0.1000E+01
    -46.014  0.0000E+00  0.0000E+00  0.1000E+01  0.1000E+01
    -45.824  0.0000E+00  0.0000E+00  0.1000E+01  0.1000E+01
    -45.634  0.0000E+00  0.0000E+00  0.1000E+01  0.1000E+01
    -45.444  0.0000E+00  0.0000E+00  0.1000E+01  0.1000E+01
    -45.254  0.0000E+00  0.0000E+00  0.1000E+01  0.1000E+01
    -45.063  0.0000E+00  0.0000E+00  0.1000E+01  0.1000E+01
    -44.873  0.0000E+00  0.0000E+00  0.1000E+01  0.1000E+01
    -44.683  0.0000E+00  0.0000E+00  0.1000E+01  0.1000E+01
    -44.493  0.0000E+00  0.0000E+00  0.1000E+01  0.1000E+01
    -44.303  0.0000E+00  0.0000E+00  0.1000E+01  0.1000E+01
    -44.113  0.0000E+00  0.0000E+00  0.1000E+01  0.1000E+01
    -43.922  0.0000E+00  0.0000E+00  0.1000E+01  0.1000E+01
    -43.732  0.0000E+00  0.0000E+00  0.1000E+01  0.1000E+01
    -43.542  0.0000E+00  0.0000E+00  0.1000E+01  0.1000E+01
    -43.352  0.0000E+00  0.0000E+00  0.1000E+01  0.1000E+01
    -43.162  0.0000E+00  0.0000E+00  0.1000E+01  0.1000E+01
    -42.972  0.0000E+00  0.0000E+00  0.1000E+01  0.1000E+01
    -42.781  0.0000E+00  0.0000E+00  0.1000E+01  0.1000E+01
    -42.591  0.0000E+00  0.0000E+00  0.1000E+01  0.1000E+01
    -42.401  0.0000E+00  0.0000E+00  0.1000E+01  0.1000E+01
    -42.211  0.0000E+00  0.0000E+00  0.1000E+01  0.1000E+01
    -42.021  0.0000E+00  0.0000E+00  0.1000E+01  0.1000E+01
    -41.831  0.0000E+00  0.0000E+00  0.1000E+01  0.1000E+01
    -41.640  0.0000E+00  0.0000E+00  0.1000E+01  0.1000E+01
    -41.450  0.0000E+00  0.0000E+00  0.1000E+01  0.1000E+01
    -41.260  0.0000E+00  0.0000E+00  0.1000E+01  0.1000E+01
    -41.070  0.0000E+00  0.0000E+00  0.1000E+01  0.1000E+01
    -40.880  0.0000E+00  0.0000E+00  0.1000E+01  0.1000E+01
    -40.690  0.0000E+00  0.0000E+00  0.1000E+01  0.1000E+01
    -40.500  0.0000E+00  0.0000E+00  0.1000E+01  0.1000E+01
    -40.309  0.0000E+00  0.0000E+00  0.1000E+01  0.1000E+01
    -40.119  0.0000E+00  0.0000E+00  0.1000E+01  0.1000E+01
    -39.929  0.0000E+00  0.0000E+00  0.1000E+01  0.1000E+01
    -39.739  0.0000E+00  0.0000E+00  0.1000E+01  0.1000E+01
    -39.549  0.0000E+00  0.0000E+00  0.1000E+01  0.1000E+01
    -39.359  0.0000E+00  0.0000E+00  0.1000E+01  0.1000E+01
    -39.168  0.0000E+00  0.0000E+00  0.1000E+01  0.1000E+01
    -38.978  0.0000E+00  0.0000E+00  0.1000E+01  0.1000E+01
    -38.788  0.0000E+00  0.0000E+00  0.1000E+01  0.1000E+01
    -38.598  0.0000E+00  0.0000E+00  0.1000E+01  0.1000E+01
    -38.408  0.0000E+00  0.0000E+00  0.1000E+01  0.1000E+01
    -38.218  0.0000E+00  0.0000E+00  0.1000E+01  0.1000E+01
    -38.027  0.0000E+00  0.0000E+00  0.1000E+01  0.1000E+01
    -37.837  0.0000E+00  0.0000E+00  0.1000E+01  0.1000E+01
    -37.647  0.0000E+00  0.0000E+00  0.1000E+01  0.1000E+01
    -37.457  0.0000E+00  0.0000E+00  0.1000E+01  0.1000E+01
    -37.267  0.0000E+00  0.0000E+00  0.1000E+01  0.1000E+01
    -37.077  0.0000E+00  0.0000E+00  0.1000E+01  0.1000E+01
    -36.886  0.0000E+00  0.0000E+00  0.1000E+01  0.1000E+01
    -36.696  0.0000E+00  0.0000E+00  0.1000E+01  0.1000E+01
    -36.506  0.0000E+00  0.0000E+00  0.1000E+01  0.1000E+01
    -36.316  0.0000E+00  0.0000E+00  0.1000E+01  0.1000E+01
    -36.126  0.0000E+00  0.0000E+00  0.1000E+01  0.1000E+01
    -35.936  0.0000E+00  0.0000E+00  0.1000E+01  0.1000E+01
    -35.745  0.0000E+00  0.0000E+00  0.1000E+01  0.1000E+01
    -35.555  0.0000E+00  0.0000E+00  0.1000E+01  0.1000E+01
    -35.365  0.0000E+00  0.0000E+00  0.1000E+01  0.1000E+01
    -35.175  0.0000E+00  0.0000E+00  0.1000E+01  0.1000E+01
    -34.985  0.0000E+00  0.0000E+00  0.1000E+01  0.1000E+01
    -34.795  0.0000E+00  0.0000E+00  0.1000E+01  0.1000E+01
    -34.604  0.0000E+00  0.0000E+00  0.1000E+01  0.1000E+01
    -34.414  0.0000E+00  0.0000E+00  0.1000E+01  0.1000E+01
    -34.224  0.0000E+00  0.0000E+00  0.1000E+01  0.1000E+01
    -34.034  0.0000E+00  0.0000E+00  0.1000E+01  0.1000E+01
    -33.844  0.0000E+00  0.0000E+00  0.1000E+01  0.1000E+01
    -33.654  0.0000E+00  0.0000E+00  0.1000E+01  0.1000E+01
    -33.463  0.0000E+00  0.0000E+00  0.1000E+01  0.1000E+01
    -33.273  0.0000E+00  0.0000E+00  0.1000E+01  0.1000E+01
    -33.083  0.0000E+00  0.0000E+00  0.1000E+01  0.1000E+01
    -32.893  0.0000E+00  0.0000E+00  0.1000E+01  0.1000E+01
    -32.703  0.0000E+00  0.0000E+00  0.1000E+01  0.1000E+01
    -32.513  0.0000E+00  0.0000E+00  0.1000E+01  0.1000E+01
    -32.322  0.0000E+00  0.0000E+00  0.1000E+01  0.1000E+01
    -32.132  0.0000E+00  0.0000E+00  0.1000E+01  0.1000E+01
    -31.942  0.0000E+00  0.0000E+00  0.1000E+01  0.1000E+01
    -31.752  0.0000E+00  0.0000E+00  0.1000E+01  0.1000E+01
    -31.562  0.0000E+00  0.0000E+00  0.1000E+01  0.1000E+01
    -31.372  0.0000E+00  0.0000E+00  0.1000E+01  0.1000E+01
    -31.181  0.0000E+00  0.0000E+00  0.1000E+01  0.1000E+01
    -30.991  0.0000E+00  0.0000E+00  0.1000E+01  0.1000E+01
    -30.801  0.0000E+00  0.0000E+00  0.1000E+01  0.1000E+01
    -30.611  0.0000E+00  0.0000E+00  0.1000E+01  0.1000E+01
    -30.421  0.0000E+00  0.0000E+00  0.1000E+01  0.1000E+01
    -30.231  0.0000E+00  0.0000E+00  0.1000E+01  0.1000E+01
    -30.040  0.0000E+00  0.0000E+00  0.1000E+01  0.1000E+01
    -29.850  0.0000E+00  0.0000E+00  0.1000E+01  0.1000E+01
    -29.660  0.0000E+00  0.0000E+00  0.1000E+01  0.1000E+01
    -29.470  0.0000E+00  0.0000E+00  0.1000E+01  0.1000E+01
    -29.280  0.0000E+00  0.0000E+00  0.1000E+01  0.1000E+01
    -29.090  0.0000E+00  0.0000E+00  0.1000E+01  0.1000E+01
    -28.899  0.0000E+00  0.0000E+00  0.1000E+01  0.1000E+01
    -28.709  0.0000E+00  0.0000E+00  0.1000E+01  0.1000E+01
    -28.519  0.0000E+00  0.0000E+00  0.1000E+01  0.1000E+01
    -28.329  0.0000E+00  0.0000E+00  0.1000E+01  0.1000E+01
    -28.139  0.0000E+00  0.0000E+00  0.1000E+01  0.1000E+01
    -27.949  0.0000E+00  0.0000E+00  0.1000E+01  0.1000E+01
    -27.758  0.0000E+00  0.0000E+00  0.1000E+01  0.1000E+01
    -27.568  0.0000E+00  0.0000E+00  0.1000E+01  0.1000E+01
    -27.378  0.0000E+00  0.0000E+00  0.1000E+01  0.1000E+01
    -27.188  0.0000E+00  0.0000E+00  0.1000E+01  0.1000E+01
    -26.998  0.0000E+00  0.0000E+00  0.1000E+01  0.1000E+01
    -26.808  0.0000E+00  0.0000E+00  0.1000E+01  0.1000E+01
    -26.617  0.0000E+00  0.0000E+00  0.1000E+01  0.1000E+01
    -26.427  0.0000E+00  0.0000E+00  0.1000E+01  0.1000E+01
    -26.237  0.0000E+00  0.0000E+00  0.1000E+01  0.1000E+01
    -26.047  0.0000E+00  0.0000E+00  0.1000E+01  0.1000E+01
    -25.857  0.0000E+00  0.0000E+00  0.1000E+01  0.1000E+01
    -25.667  0.0000E+00  0.0000E+00  0.1000E+01  0.1000E+01
    -25.476  0.0000E+00  0.0000E+00  0.1000E+01  0.1000E+01
    -25.286  0.0000E+00  0.0000E+00  0.1000E+01  0.1000E+01
    -25.096  0.0000E+00  0.0000E+00  0.1000E+01  0.1000E+01
    -24.906  0.0000E+00  0.0000E+00  0.1000E+01  0.1000E+01
    -24.716  0.0000E+00  0.0000E+00  0.1000E+01  0.1000E+01
    -24.526  0.0000E+00  0.0000E+00  0.1000E+01  0.1000E+01
    -24.335  0.0000E+00  0.0000E+00  0.1000E+01  0.1000E+01
    -24.145  0.0000E+00  0.0000E+00  0.1000E+01  0.1000E+01
    -23.955  0.0000E+00  0.0000E+00  0.1000E+01  0.1000E+01
    -23.765  0.0000E+00  0.0000E+00  0.1000E+01  0.1000E+01
    -23.575  0.0000E+00  0.0000E+00  0.1000E+01  0.1000E+01
    -23.385  0.0000E+00  0.0000E+00  0.1000E+01  0.1000E+01
    -23.194  0.0000E+00  0.0000E+00  0.1000E+01  0.1000E+01
    -23.004  0.1316E-05  0.1314E-05  0.1000E+01  0.1000E+01
    -22.814  0.5731E+00  0.5729E+00  0.1109E+01  0.1109E+01
    -22.624  0.4392E+01  0.4392E+01  0.1944E+01  0.1944E+01
    -22.434  0.2348E+01  0.2350E+01  0.2391E+01  0.2391E+01
    -22.244  0.3788E+01  0.3787E+01  0.3111E+01  0.3111E+01
    -22.054  0.5045E+01  0.5045E+01  0.4070E+01  0.4071E+01
    -21.863  0.3492E+01  0.3492E+01  0.4735E+01  0.4735E+01
    -21.673  0.1993E+01  0.1993E+01  0.5114E+01  0.5114E+01
    -21.483  0.5460E+01  0.5460E+01  0.6152E+01  0.6152E+01
    -21.293  0.5044E+01  0.5044E+01  0.7111E+01  0.7111E+01
    -21.103  0.2508E+01  0.2509E+01  0.7588E+01  0.7588E+01
    -20.913  0.1288E+01  0.1288E+01  0.7833E+01  0.7833E+01
    -20.722  0.7296E+01  0.7296E+01  0.9220E+01  0.9220E+01
    -20.532  0.5859E+01  0.5860E+01  0.1033E+02  0.1033E+02
    -20.342  0.5775E+00  0.5768E+00  0.1044E+02  0.1044E+02
    -20.152  0.3353E+01  0.3353E+01  0.1108E+02  0.1108E+02
    -19.962  0.4171E+01  0.4171E+01  0.1188E+02  0.1188E+02
    -19.772  0.6499E+01  0.6498E+01  0.1311E+02  0.1311E+02
    -19.581  0.4832E+01  0.4833E+01  0.1403E+02  0.1403E+02
    -19.391  0.2179E+01  0.2178E+01  0.1444E+02  0.1444E+02
    -19.201  0.6174E-01  0.6173E-01  0.1446E+02  0.1446E+02
    -19.011  0.7505E+01  0.7506E+01  0.1588E+02  0.1588E+02
    -18.821  0.6228E+01  0.6228E+01  0.1707E+02  0.1707E+02
    -18.631  0.3733E+01  0.3732E+01  0.1778E+02  0.1778E+02
    -18.440  0.2678E+01  0.2678E+01  0.1829E+02  0.1829E+02
    -18.250  0.4334E+01  0.4334E+01  0.1911E+02  0.1911E+02
    -18.060  0.3011E-01  0.3009E-01  0.1912E+02  0.1912E+02
    -17.870  0.9350E+01  0.9351E+01  0.2089E+02  0.2090E+02
    -17.680  0.4856E+01  0.4855E+01  0.2182E+02  0.2182E+02
    -17.490  0.7480E+01  0.7480E+01  0.2324E+02  0.2324E+02
    -17.299  0.2825E+01  0.2824E+01  0.2378E+02  0.2378E+02
    -17.109  0.3911E-03  0.3894E-03  0.2378E+02  0.2378E+02
    -16.919  0.2011E+01  0.2011E+01  0.2416E+02  0.2416E+02
    -16.729  0.8435E+01  0.8435E+01  0.2576E+02  0.2576E+02
    -16.539  0.9272E-01  0.9268E-01  0.2578E+02  0.2578E+02
    -16.349  0.3476E+01  0.3476E+01  0.2644E+02  0.2644E+02
    -16.158  0.2991E+00  0.2992E+00  0.2650E+02  0.2650E+02
    -15.968  0.4515E+01  0.4514E+01  0.2736E+02  0.2736E+02
    -15.778  0.1143E+02  0.1143E+02  0.2953E+02  0.2953E+02
    -15.588  0.1209E+00  0.1209E+00  0.2956E+02  0.2956E+02
    -15.398  0.5381E+00  0.5380E+00  0.2966E+02  0.2966E+02
    -15.208  0.1341E+02  0.1341E+02  0.3221E+02  0.3221E+02
    -15.017  0.8399E-01  0.8389E-01  0.3222E+02  0.3222E+02
    -14.827  0.6760E+01  0.6761E+01  0.3351E+02  0.3351E+02
    -14.637  0.6073E+00  0.6072E+00  0.3363E+02  0.3363E+02
    -14.447  0.3932E+01  0.3932E+01  0.3437E+02  0.3437E+02
    -14.257  0.7849E+01  0.7849E+01  0.3587E+02  0.3587E+02
    -14.067  0.1872E+01  0.1872E+01  0.3622E+02  0.3622E+02
    -13.876  0.1417E+00  0.1417E+00  0.3625E+02  0.3625E+02
    -13.686  0.5986E+01  0.5978E+01  0.3739E+02  0.3739E+02
    -13.496  0.9660E+01  0.7989E+01  0.3922E+02  0.3891E+02
    -13.306  0.4707E+01  0.6386E+01  0.4012E+02  0.4012E+02
    -13.116  0.6952E+01  0.6952E+01  0.4144E+02  0.4144E+02
    -12.926  0.4494E+00  0.4495E+00  0.4153E+02  0.4153E+02
    -12.735  0.9441E+01  0.9441E+01  0.4332E+02  0.4332E+02
    -12.545  0.4137E+01  0.4137E+01  0.4411E+02  0.4411E+02
    -12.355  0.1066E-01  0.1065E-01  0.4411E+02  0.4411E+02
    -12.165  0.3057E+01  0.3057E+01  0.4469E+02  0.4469E+02
    -11.975  0.1159E+02  0.1159E+02  0.4690E+02  0.4690E+02
    -11.785  0.6383E+01  0.6383E+01  0.4811E+02  0.4811E+02
    -11.594  0.5309E+00  0.5309E+00  0.4821E+02  0.4821E+02
    -11.404  0.6480E+01  0.6480E+01  0.4944E+02  0.4944E+02
    -11.214  0.8148E+00  0.8149E+00  0.4960E+02  0.4960E+02
    -11.024  0.9707E+01  0.9706E+01  0.5145E+02  0.5145E+02
    -10.834  0.9730E+01  0.9709E+01  0.5330E+02  0.5329E+02
    -10.644  0.1050E+02  0.1012E+02  0.5529E+02  0.5522E+02
    -10.453  0.1020E+02  0.5623E+01  0.5723E+02  0.5629E+02
    -10.263  0.7658E+01  0.1263E+02  0.5869E+02  0.5869E+02
    -10.073  0.1119E+02  0.1119E+02  0.6082E+02  0.6082E+02
     -9.883  0.1464E+02  0.1464E+02  0.6360E+02  0.6360E+02
     -9.693  0.8051E+01  0.8053E+01  0.6513E+02  0.6513E+02
     -9.503  0.1630E+02  0.1630E+02  0.6823E+02  0.6823E+02
     -9.312  0.1543E+02  0.1543E+02  0.7117E+02  0.7117E+02
     -9.122  0.5236E+01  0.5235E+01  0.7216E+02  0.7216E+02
     -8.932  0.1046E+02  0.1046E+02  0.7415E+02  0.7415E+02
     -8.742  0.2846E+01  0.2781E+01  0.7469E+02  0.7468E+02
     -8.552  0.2002E+02  0.2005E+02  0.7850E+02  0.7849E+02
     -8.362  0.1499E+02  0.1501E+02  0.8135E+02  0.8135E+02
     -8.171  0.4594E+01  0.4599E+01  0.8222E+02  0.8222E+02
     -7.981  0.3311E-01  0.3295E-01  0.8223E+02  0.8223E+02
     -7.791  0.8002E+01  0.8000E+01  0.8375E+02  0.8375E+02
     -7.601  0.1336E+02  0.1334E+02  0.8629E+02  0.8629E+02
     -7.411  0.8713E+01  0.8732E+01  0.8795E+02  0.8795E+02
     -7.221  0.5462E+01  0.5430E+01  0.8898E+02  0.8898E+02
     -7.030  0.6049E+01  0.5595E+01  0.9013E+02  0.9004E+02
     -6.840  0.9365E+01  0.6055E+01  0.9192E+02  0.9119E+02
     -6.650  0.6799E+01  0.1052E+02  0.9321E+02  0.9319E+02
     -6.460  0.1182E+02  0.1189E+02  0.9546E+02  0.9545E+02
     -6.270  0.5810E+01  0.5818E+01  0.9656E+02  0.9656E+02
     -6.080  0.6738E+01  0.6734E+01  0.9784E+02  0.9784E+02
     -5.889  0.1432E+01  0.1435E+01  0.9811E+02  0.9811E+02
     -5.699  0.3491E+01  0.3490E+01  0.9878E+02  0.9878E+02
     -5.509  0.4468E+01  0.4364E+01  0.9963E+02  0.9961E+02
     -5.319  0.1865E+02  0.1422E+02  0.1032E+03  0.1023E+03
     -5.129  0.3172E+01  0.7305E+01  0.1038E+03  0.1037E+03
     -4.939  0.3856E+01  0.8649E+00  0.1045E+03  0.1039E+03
     -4.748  0.3305E+01  0.6687E+01  0.1051E+03  0.1051E+03
     -4.558  0.1603E+01  0.1614E+01  0.1054E+03  0.1054E+03
     -4.368  0.6060E+01  0.6095E+01  0.1066E+03  0.1066E+03
     -4.178  0.6333E+01  0.6175E+01  0.1078E+03  0.1078E+03
     -3.988  0.5134E+01  0.4487E+01  0.1088E+03  0.1086E+03
     -3.798  0.1900E-02  0.7720E+00  0.1088E+03  0.1088E+03
     -3.608  0.0000E+00  0.0000E+00  0.1088E+03  0.1088E+03
     -3.417  0.7531E-05  0.6562E-05  0.1088E+03  0.1088E+03
     -3.227  0.1857E+01  0.1823E+01  0.1091E+03  0.1091E+03
     -3.037  0.5699E+01  0.5142E+00  0.1102E+03  0.1092E+03
     -2.847  0.3930E-01  0.4135E-10  0.1102E+03  0.1092E+03
     -2.657  0.0000E+00  0.4533E+00  0.1102E+03  0.1093E+03
     -2.467  0.5892E-09  0.4805E+01  0.1102E+03  0.1102E+03
     -2.276  0.6094E+00  0.5846E+00  0.1103E+03  0.1103E+03
     -2.086  0.6792E+01  0.6796E+01  0.1116E+03  0.1116E+03
     -1.896  0.2237E+01  0.2251E+01  0.1121E+03  0.1121E+03
     -1.706  0.6131E+01  0.5829E+01  0.1132E+03  0.1132E+03
     -1.516  0.1150E+02  0.1036E+02  0.1154E+03  0.1151E+03
     -1.326  0.7733E+01  0.9145E+01  0.1169E+03  0.1169E+03
     -1.135  0.5882E+01  0.5910E+01  0.1180E+03  0.1180E+03
     -0.945  0.4569E+01  0.4564E+01  0.1189E+03  0.1189E+03
     -0.755  0.7116E+01  0.7119E+01  0.1202E+03  0.1202E+03
     -0.565  0.5180E+01  0.2624E-01  0.1212E+03  0.1202E+03
     -0.375  0.1197E+01  0.2171E+01  0.1214E+03  0.1206E+03
     -0.185  0.4017E+01  0.7960E+01  0.1222E+03  0.1221E+03
      0.006  0.5102E+01  0.5241E+01  0.1232E+03  0.1231E+03
      0.196  0.7562E+01  0.7300E+01  0.1246E+03  0.1245E+03
      0.386  0.8146E+01  0.7215E+01  0.1262E+03  0.1259E+03
      0.576  0.5273E+01  0.5644E+01  0.1272E+03  0.1270E+03
      0.766  0.1158E+02  0.1195E+02  0.1294E+03  0.1293E+03
      0.956  0.8305E+01  0.7147E+01  0.1309E+03  0.1306E+03
      1.147  0.7293E+01  0.7767E+01  0.1323E+03  0.1321E+03
      1.337  0.9572E+01  0.9832E+01  0.1341E+03  0.1340E+03
      1.527  0.1674E+02  0.1590E+02  0.1373E+03  0.1370E+03
      1.717  0.1152E+02  0.1219E+02  0.1395E+03  0.1393E+03
      1.907  0.2526E+01  0.3697E+01  0.1400E+03  0.1400E+03
      2.097  0.1599E-03  0.4139E-03  0.1400E+03  0.1400E+03
      2.288  0.0000E+00  0.0000E+00  0.1400E+03  0.1400E+03
      2.478  0.0000E+00  0.0000E+00  0.1400E+03  0.1400E+03
      2.668  0.0000E+00  0.0000E+00  0.1400E+03  0.1400E+03
      2.858  0.0000E+00  0.0000E+00  0.1400E+03  0.1400E+03
      3.048  0.0000E+00  0.0000E+00  0.1400E+03  0.1400E+03
      3.238  0.0000E+00  0.0000E+00  0.1400E+03  0.1400E+03
      3.429  0.0000E+00  0.0000E+00  0.1400E+03  0.1400E+03
      3.619  0.0000E+00  0.0000E+00  0.1400E+03  0.1400E+03
      3.809  0.0000E+00  0.0000E+00  0.1400E+03  0.1400E+03
      3.999  0.0000E+00  0.0000E+00  0.1400E+03  0.1400E+03
      4.189  0.0000E+00  0.0000E+00  0.1400E+03  0.1400E+03
      4.379  0.0000E+00  0.0000E+00  0.1400E+03  0.1400E+03
