  49  49   0   0
  0.8021693E+02  0.1230000E-08  0.1230000E-08  0.3000000E-08  0.5000000E-15
  1.000000000000000E-004
  CAR 
 Li defective graphene MACE training lab 
      4.77550495    -53.74487209  301     -3.06115200      1.00000000
    -53.745  0.0000E+00  0.0000E+00  0.0000E+00  0.0000E+00
    -53.550  0.0000E+00  0.0000E+00  0.0000E+00  0.0000E+00
    -53.355  0.0000E+00  0.0000E+00  0.0000E+00  0.0000E+00
    -53.160  0.0000E+00  0.0000E+00  0.0000E+00  0.0000E+00
    -52.965  0.0000E+00  0.0000E+00  0.0000E+00  0.0000E+00
    -52.770  0.0000E+00  0.0000E+00  0.0000E+00  0.0000E+00
    -52.574  0.0000E+00  0.0000E+00  0.0000E+00  0.0000E+00
    -52.379  0.0000E+00  0.0000E+00  0.0000E+00  0.0000E+00
    -52.184  0.0000E+00  0.0000E+00  0.0000E+00  0.0000E+00
    -51.989  0.0000E+00  0.0000E+00  0.0000E+00  0.0000E+00
    -51.794  0.0000E+00  0.0000E+00  0.0000E+00  0.0000E+00
    -51.599  0.0000E+00  0.0000E+00  0.0000E+00  0.0000E+00
    -51.404  0.0000E+00  0.0000E+00  0.0000E+00  0.0000E+00
    -51.209  0.1144E-02  0.1144E-02  0.2232E-03  0.2231E-03
    -51.014  0.5010E+01  0.5010E+01  0.9776E+00  0.9776E+00
    -50.819  0.1149E+00  0.1149E+00  0.1000E+01  0.1000E+01
    -50.624  0.0000E+00  0.0000E+00  0.1000E+01  0.1000E+01
    -50.429  0.0000E+00  0.0000E+00  0.1000E+01  0.1000E+01
    -50.234  0.0000E+00  0.0000E+00  0.1000E+01  0.1000E+01
    -50.039  0.0000E+00  0.0000E+00  0.1000E+01  0.1000E+01
    -49.844  0.0000E+00  0.0000E+00  0.1000E+01  0.1000E+01
    -49.648  0.0000E+00  0.0000E+00  0.1000E+01  0.1000E+01
    -49.453  0.0000E+00  0.0000E+00  0.1000E+01  0.1000E+01
    -49.258  0.0000E+00  0.0000E+00  0.1000E+01  0.1000E+01
    -49.063  0.0000E+00  0.0000E+00  0.1000E+01  0.1000E+01
    -48.868  0.0000E+00  0.0000E+00  0.1000E+01  0.1000E+01
    -48.673  0.0000E+00  0.0000E+00  0.1000E+01  0.1000E+01
    -48.478  0.0000E+00  0.0000E+00  0.1000E+01  0.1000E+01
    -48.283  0.0000E+00  0.0000E+00  0.1000E+01  0.1000E+01
    -48.088  0.0000E+00  0.0000E+00  0.1000E+01  0.1000E+01
    -47.893  0.0000E+00  0.0000E+00  0.1000E+01  0.1000E+01
    -47.698  0.0000E+00  0.0000E+00  0.1000E+01  0.1000E+01
    -47.503  0.0000E+00  0.0000E+00  0.1000E+01  0.1000E+01
    -47.308  0.0000E+00  0.0000E+00  0.1000E+01  0.1000E+01
    -47.113  0.0000E+00  0.0000E+00  0.1000E+01  0.1000E+01
    -46.917  0.0000E+00  0.0000E+00  0.1000E+01  0.1000E+01
    -46.722  0.0000E+00  0.0000E+00  0.1000E+01  0.1000E+01
    -46.527  0.0000E+00  0.0000E+00  0.1000E+01  0.1000E+01
    -46.332  0.0000E+00  0.0000E+00  0.1000E+01  0.1000E+01
    -46.137  0.0000E+00  0.0000E+00  0.1000E+01  0.1000E+01
    -45.942  0.0000E+00  0.0000E+00  0.1000E+01  0.1000E+01
    -45.747  0.0000E+00  0.0000E+00  0.1000E+01  0.1000E+01
    -45.552  0.0000E+00  0.0000E+00  0.1000E+01  0.1000E+01
    -45.357  0.0000E+00  0.0000E+00  0.1000E+01  0.1000E+01
    -45.162  0.0000E+00  0.0000E+00  0.1000E+01  0.1000E+01
    -44.967  0.0000E+00  0.0000E+00  0.1000E+01  0.1000E+01
    -44.772  0.0000E+00  0.0000E+00  0.1000E+01  0.1000E+01
    -44.577  0.0000E+00  0.0000E+00  0.1000E+01  0.1000E+01
    -44.382  0.0000E+00  0.0000E+00  0.1000E+01  0.1000E+01
    -44.187  0.0000E+00  0.0000E+00  0.1000E+01  0.1000E+01
    -43.991  0.0000E+00  0.0000E+00  0.1000E+01  0.1000E+01
    -43.796  0.0000E+00  0.0000E+00  0.1000E+01  0.1000E+01
    -43.601  0.0000E+00  0.0000E+00  0.1000E+01  0.1000E+01
    -43.406  0.0000E+00  0.0000E+00  0.1000E+01  0.1000E+01
    -43.211  0.0000E+00  0.0000E+00  0.1000E+01  0.1000E+01
    -43.016  0.0000E+00  0.0000E+00  0.1000E+01  0.1000E+01
    -42.821  0.0000E+00  0.0000E+00  0.1000E+01  0.1000E+01
    -42.626  0.0000E+00  0.0000E+00  0.1000E+01  0.1000E+01
    -42.431  0.0000E+00  0.0000E+00  0.1000E+01  0.1000E+01
    -42.236  0.0000E+00  0.0000E+00  0.1000E+01  0.1000E+01
    -42.041  0.0000E+00  0.0000E+00  0.1000E+01  0.1000E+01
    -41.846  0.0000E+00  0.0000E+00  0.1000E+01  0.1000E+01
    -41.651  0.0000E+00  0.0000E+00  0.1000E+01  0.1000E+01
    -41.456  0.0000E+00  0.0000E+00  0.1000E+01  0.1000E+01
    -41.261  0.0000E+00  0.0000E+00  0.1000E+01  0.1000E+01
    -41.065  0.0000E+00  0.0000E+00  0.1000E+01  0.1000E+01
    -40.870  0.0000E+00  0.0000E+00  0.1000E+01  0.1000E+01
    -40.675  0.0000E+00  0.0000E+00  0.1000E+01  0.1000E+01
    -40.480  0.0000E+00  0.0000E+00  0.1000E+01  0.1000E+01
    -40.285  0.0000E+00  0.0000E+00  0.1000E+01  0.1000E+01
    -40.090  0.0000E+00  0.0000E+00  0.1000E+01  0.1000E+01
    -39.895  0.0000E+00  0.0000E+00  0.1000E+01  0.1000E+01
    -39.700  0.0000E+00  0.0000E+00  0.1000E+01  0.1000E+01
    -39.505  0.0000E+00  0.0000E+00  0.1000E+01  0.1000E+01
    -39.310  0.0000E+00  0.0000E+00  0.1000E+01  0.1000E+01
    -39.115  0.0000E+00  0.0000E+00  0.1000E+01  0.1000E+01
    -38.920  0.0000E+00  0.0000E+00  0.1000E+01  0.1000E+01
    -38.725  0.0000E+00  0.0000E+00  0.1000E+01  0.1000E+01
    -38.530  0.0000E+00  0.0000E+00  0.1000E+01  0.1000E+01
    -38.335  0.0000E+00  0.0000E+00  0.1000E+01  0.1000E+01
    -38.139  0.0000E+00  0.0000E+00  0.1000E+01  0.1000E+01
    -37.944  0.0000E+00  0.0000E+00  0.1000E+01  0.1000E+01
    -37.749  0.0000E+00  0.0000E+00  0.1000E+01  0.1000E+01
    -37.554  0.0000E+00  0.0000E+00  0.1000E+01  0.1000E+01
    -37.359  0.0000E+00  0.0000E+00  0.1000E+01  0.1000E+01
    -37.164  0.0000E+00  0.0000E+00  0.1000E+01  0.1000E+01
    -36.969  0.0000E+00  0.0000E+00  0.1000E+01  0.1000E+01
    -36.774  0.0000E+00  0.0000E+00  0.1000E+01  0.1000E+01
    -36.579  0.0000E+00  0.0000E+00  0.1000E+01  0.1000E+01
    -36.384  0.0000E+00  0.0000E+00  0.1000E+01  0.1000E+01
    -36.189  0.0000E+00  0.0000E+00  0.1000E+01  0.1000E+01
    -35.994  0.0000E+00  0.0000E+00  0.1000E+01  0.1000E+01
    -35.799  0.0000E+00  0.0000E+00  0.1000E+01  0.1000E+01
    -35.604  0.0000E+00  0.0000E+00  0.1000E+01  0.1000E+01
    -35.408  0.0000E+00  0.0000E+00  0.1000E+01  0.1000E+01
    -35.213  0.0000E+00  0.0000E+00  0.1000E+01  0.1000E+01
    -35.018  0.0000E+00  0.0000E+00  0.1000E+01  0.1000E+01
    -34.823  0.0000E+00  0.0000E+00  0.1000E+01  0.1000E+01
    -34.628  0.0000E+00  0.0000E+00  0.1000E+01  0.1000E+01
    -34.433  0.0000E+00  0.0000E+00  0.1000E+01  0.1000E+01
    -34.238  0.0000E+00  0.0000E+00  0.1000E+01  0.1000E+01
    -34.043  0.0000E+00  0.0000E+00  0.1000E+01  0.1000E+01
    -33.848  0.0000E+00  0.0000E+00  0.1000E+01  0.1000E+01
    -33.653  0.0000E+00  0.0000E+00  0.1000E+01  0.1000E+01
    -33.458  0.0000E+00  0.0000E+00  0.1000E+01  0.1000E+01
    -33.263  0.0000E+00  0.0000E+00  0.1000E+01  0.1000E+01
    -33.068  0.0000E+00  0.0000E+00  0.1000E+01  0.1000E+01
    -32.873  0.0000E+00  0.0000E+00  0.1000E+01  0.1000E+01
    -32.678  0.0000E+00  0.0000E+00  0.1000E+01  0.1000E+01
    -32.482  0.0000E+00  0.0000E+00  0.1000E+01  0.1000E+01
    -32.287  0.0000E+00  0.0000E+00  0.1000E+01  0.1000E+01
    -32.092  0.0000E+00  0.0000E+00  0.1000E+01  0.1000E+01
    -31.897  0.0000E+00  0.0000E+00  0.1000E+01  0.1000E+01
    -31.702  0.0000E+00  0.0000E+00  0.1000E+01  0.1000E+01
    -31.507  0.0000E+00  0.0000E+00  0.1000E+01  0.1000E+01
    -31.312  0.0000E+00  0.0000E+00  0.1000E+01  0.1000E+01
    -31.117  0.0000E+00  0.0000E+00  0.1000E+01  0.1000E+01
    -30.922  0.0000E+00  0.0000E+00  0.1000E+01  0.1000E+01
    -30.727  0.0000E+00  0.0000E+00  0.1000E+01  0.1000E+01
    -30.532  0.0000E+00  0.0000E+00  0.1000E+01  0.1000E+01
    -30.337  0.0000E+00  0.0000E+00  0.1000E+01  0.1000E+01
    -30.142  0.0000E+00  0.0000E+00  0.1000E+01  0.1000E+01
    -29.947  0.0000E+00  0.0000E+00  0.1000E+01  0.1000E+01
    -29.752  0.0000E+00  0.0000E+00  0.1000E+01  0.1000E+01
    -29.556  0.0000E+00  0.0000E+00  0.1000E+01  0.1000E+01
    -29.361  0.0000E+00  0.0000E+00  0.1000E+01  0.1000E+01
    -29.166  0.0000E+00  0.0000E+00  0.1000E+01  0.1000E+01
    -28.971  0.0000E+00  0.0000E+00  0.1000E+01  0.1000E+01
    -28.776  0.0000E+00  0.0000E+00  0.1000E+01  0.1000E+01
    -28.581  0.0000E+00  0.0000E+00  0.1000E+01  0.1000E+01
    -28.386  0.0000E+00  0.0000E+00  0.1000E+01  0.1000E+01
    -28.191  0.0000E+00  0.0000E+00  0.1000E+01  0.1000E+01
    -27.996  0.0000E+00  0.0000E+00  0.1000E+01  0.1000E+01
    -27.801  0.0000E+00  0.0000E+00  0.1000E+01  0.1000E+01
    -27.606  0.0000E+00  0.0000E+00  0.1000E+01  0.1000E+01
    -27.411  0.0000E+00  0.0000E+00  0.1000E+01  0.1000E+01
    -27.216  0.0000E+00  0.0000E+00  0.1000E+01  0.1000E+01
    -27.021  0.0000E+00  0.0000E+00  0.1000E+01  0.1000E+01
    -26.825  0.0000E+00  0.0000E+00  0.1000E+01  0.1000E+01
    -26.630  0.0000E+00  0.0000E+00  0.1000E+01  0.1000E+01
    -26.435  0.0000E+00  0.0000E+00  0.1000E+01  0.1000E+01
    -26.240  0.0000E+00  0.0000E+00  0.1000E+01  0.1000E+01
    -26.045  0.0000E+00  0.0000E+00  0.1000E+01  0.1000E+01
    -25.850  0.0000E+00  0.0000E+00  0.1000E+01  0.1000E+01
    -25.655  0.0000E+00  0.0000E+00  0.1000E+01  0.1000E+01
    -25.460  0.0000E+00  0.0000E+00  0.1000E+01  0.1000E+01
    -25.265  0.0000E+00  0.0000E+00  0.1000E+01  0.1000E+01
    -25.070  0.0000E+00  0.0000E+00  0.1000E+01  0.1000E+01
    -24.875  0.0000E+00  0.0000E+00  0.1000E+01  0.1000E+01
    -24.680  0.0000E+00  0.0000E+00  0.1000E+01  0.1000E+01
    -24.485  0.0000E+00  0.0000E+00  0.1000E+01  0.1000E+01
    -24.290  0.0000E+00  0.0000E+00  0.1000E+01  0.1000E+01
    -24.095  0.0000E+00  0.0000E+00  0.1000E+01  0.1000E+01
    -23.899  0.0000E+00  0.0000E+00  0.1000E+01  0.1000E+01
    -23.704  0.0000E+00  0.0000E+00  0.1000E+01  0.1000E+01
    -23.509  0.0000E+00  0.0000E+00  0.1000E+01  0.1000E+01
    -23.314  0.0000E+00  0.0000E+00  0.1000E+01  0.1000E+01
    -23.119  0.0000E+00  0.0000E+00  0.1000E+01  0.1000E+01
    -22.924  0.0000E+00  0.0000E+00  0.1000E+01  0.1000E+01
    -22.729  0.0000E+00  0.0000E+00  0.1000E+01  0.1000E+01
    -22.534  0.3197E-06  0.3197E-06  0.1000E+01  0.1000E+01
    -22.339  0.7744E+00  0.7744E+00  0.1151E+01  0.1151E+01
    -22.144  0.4343E+01  0.4343E+01  0.1998E+01  0.1998E+01
    -21.949  0.2965E+01  0.2965E+01  0.2577E+01  0.2577E+01
    -21.754  0.2019E+01  0.2019E+01  0.2970E+01  0.2970E+01
    -21.559  0.4882E+01  0.4882E+01  0.3923E+01  0.3923E+01
    -21.364  0.3416E+01  0.3416E+01  0.4589E+01  0.4589E+01
    -21.169  0.2037E+01  0.2037E+01  0.4986E+01  0.4986E+01
    -20.973  0.4734E+01  0.4734E+01  0.5910E+01  0.5910E+01
    -20.778  0.4243E+01  0.4243E+01  0.6737E+01  0.6737E+01
    -20.583  0.2413E+01  0.2413E+01  0.7208E+01  0.7208E+01
    -20.388  0.3692E+01  0.3692E+01  0.7928E+01  0.7928E+01
    -20.193  0.3714E+01  0.3714E+01  0.8653E+01  0.8653E+01
    -19.998  0.6604E+01  0.6604E+01  0.9941E+01  0.9941E+01
    -19.803  0.1435E+01  0.1435E+01  0.1022E+02  0.1022E+02
    -19.608  0.3315E+01  0.3315E+01  0.1087E+02  0.1087E+02
    -19.413  0.4878E+01  0.4878E+01  0.1182E+02  0.1182E+02
    -19.218  0.5211E+01  0.5211E+01  0.1284E+02  0.1284E+02
    -19.023  0.3621E+01  0.3621E+01  0.1354E+02  0.1354E+02
    -18.828  0.2514E+01  0.2514E+01  0.1403E+02  0.1403E+02
    -18.633  0.3232E+01  0.3232E+01  0.1466E+02  0.1466E+02
    -18.438  0.4731E+01  0.4731E+01  0.1559E+02  0.1559E+02
    -18.243  0.7669E+01  0.7669E+01  0.1708E+02  0.1708E+02
    -18.047  0.7686E+00  0.7686E+00  0.1723E+02  0.1723E+02
    -17.852  0.3626E+01  0.3626E+01  0.1794E+02  0.1794E+02
    -17.657  0.5360E+01  0.5360E+01  0.1898E+02  0.1898E+02
    -17.462  0.3783E+01  0.3783E+01  0.1972E+02  0.1972E+02
    -17.267  0.4560E+01  0.4560E+01  0.2061E+02  0.2061E+02
    -17.072  0.5230E+01  0.5230E+01  0.2163E+02  0.2163E+02
    -16.877  0.5179E+01  0.5179E+01  0.2264E+02  0.2264E+02
    -16.682  0.6738E+00  0.6738E+00  0.2277E+02  0.2277E+02
    -16.487  0.3877E+01  0.3877E+01  0.2353E+02  0.2353E+02
    -16.292  0.3484E+01  0.3484E+01  0.2421E+02  0.2421E+02
    -16.097  0.2685E+01  0.2685E+01  0.2473E+02  0.2473E+02
    -15.902  0.2342E+01  0.2342E+01  0.2519E+02  0.2519E+02
    -15.707  0.5252E+01  0.5252E+01  0.2621E+02  0.2621E+02
    -15.512  0.1719E+01  0.1719E+01  0.2655E+02  0.2655E+02
    -15.316  0.4182E+01  0.4182E+01  0.2737E+02  0.2737E+02
    -15.121  0.7207E+01  0.7207E+01  0.2877E+02  0.2877E+02
    -14.926  0.2514E+01  0.2514E+01  0.2926E+02  0.2926E+02
    -14.731  0.6124E+01  0.6124E+01  0.3046E+02  0.3046E+02
    -14.536  0.2741E+01  0.2741E+01  0.3099E+02  0.3099E+02
    -14.341  0.4442E+01  0.4442E+01  0.3186E+02  0.3186E+02
    -14.146  0.3284E+01  0.3284E+01  0.3250E+02  0.3250E+02
    -13.951  0.5997E+01  0.5997E+01  0.3367E+02  0.3367E+02
    -13.756  0.1473E+01  0.1473E+01  0.3396E+02  0.3396E+02
    -13.561  0.6582E+01  0.6582E+01  0.3524E+02  0.3524E+02
    -13.366  0.2190E+01  0.2190E+01  0.3567E+02  0.3567E+02
    -13.171  0.9320E-02  0.9320E-02  0.3567E+02  0.3567E+02
    -12.976  0.6005E+01  0.6005E+01  0.3684E+02  0.3684E+02
    -12.781  0.5454E+01  0.5454E+01  0.3790E+02  0.3790E+02
    -12.586  0.7124E+01  0.7124E+01  0.3929E+02  0.3929E+02
    -12.390  0.2593E+01  0.2593E+01  0.3980E+02  0.3980E+02
    -12.195  0.3608E+01  0.3608E+01  0.4050E+02  0.4050E+02
    -12.000  0.3882E+01  0.3882E+01  0.4126E+02  0.4126E+02
    -11.805  0.5347E+01  0.5347E+01  0.4230E+02  0.4230E+02
    -11.610  0.4176E+01  0.4176E+01  0.4312E+02  0.4312E+02
    -11.415  0.5735E+01  0.5735E+01  0.4424E+02  0.4424E+02
    -11.220  0.4980E+01  0.4980E+01  0.4521E+02  0.4521E+02
    -11.025  0.6440E+01  0.6440E+01  0.4646E+02  0.4646E+02
    -10.830  0.3289E+01  0.3289E+01  0.4711E+02  0.4711E+02
    -10.635  0.4457E+01  0.4457E+01  0.4798E+02  0.4798E+02
    -10.440  0.7303E+01  0.7303E+01  0.4940E+02  0.4940E+02
    -10.245  0.1107E+02  0.1107E+02  0.5156E+02  0.5156E+02
    -10.050  0.8789E+01  0.8789E+01  0.5327E+02  0.5327E+02
     -9.855  0.9767E+01  0.9767E+01  0.5518E+02  0.5518E+02
     -9.660  0.6751E+01  0.6751E+01  0.5650E+02  0.5650E+02
     -9.464  0.9002E+01  0.9002E+01  0.5825E+02  0.5825E+02
     -9.269  0.9192E+01  0.9192E+01  0.6004E+02  0.6004E+02
     -9.074  0.1143E+02  0.1143E+02  0.6227E+02  0.6227E+02
     -8.879  0.1330E+02  0.1330E+02  0.6487E+02  0.6487E+02
     -8.684  0.1262E+02  0.1262E+02  0.6733E+02  0.6733E+02
     -8.489  0.7602E+01  0.7602E+01  0.6881E+02  0.6881E+02
     -8.294  0.7209E+01  0.7209E+01  0.7022E+02  0.7022E+02
     -8.099  0.8799E+01  0.8799E+01  0.7194E+02  0.7194E+02
     -7.904  0.1401E+02  0.1401E+02  0.7467E+02  0.7467E+02
     -7.709  0.8060E+01  0.8060E+01  0.7624E+02  0.7624E+02
     -7.514  0.3460E+01  0.3460E+01  0.7692E+02  0.7692E+02
     -7.319  0.8968E+01  0.8968E+01  0.7866E+02  0.7866E+02
     -7.124  0.1176E+02  0.1176E+02  0.8096E+02  0.8096E+02
     -6.929  0.6091E+01  0.6091E+01  0.8215E+02  0.8215E+02
     -6.734  0.8849E+01  0.8849E+01  0.8387E+02  0.8387E+02
     -6.538  0.5624E+01  0.5624E+01  0.8497E+02  0.8497E+02
     -6.343  0.5743E+01  0.5743E+01  0.8609E+02  0.8609E+02
     -6.148  0.6547E+01  0.6547E+01  0.8737E+02  0.8737E+02
     -5.953  0.8374E+01  0.8374E+01  0.8900E+02  0.8900E+02
     -5.758  0.1386E+01  0.1386E+01  0.8927E+02  0.8927E+02
     -5.563  0.5472E+01  0.5472E+01  0.9034E+02  0.9034E+02
     -5.368  0.4622E+01  0.4622E+01  0.9124E+02  0.9124E+02
     -5.173  0.3741E+01  0.3741E+01  0.9197E+02  0.9197E+02
     -4.978  0.5799E+01  0.5799E+01  0.9310E+02  0.9310E+02
     -4.783  0.6077E+01  0.6077E+01  0.9429E+02  0.9429E+02
     -4.588  0.3112E+01  0.3112E+01  0.9489E+02  0.9489E+02
     -4.393  0.1038E+01  0.1038E+01  0.9510E+02  0.9510E+02
     -4.198  0.2186E+01  0.2186E+01  0.9552E+02  0.9552E+02
     -4.003  0.2757E+01  0.2757E+01  0.9606E+02  0.9606E+02
     -3.807  0.1446E+01  0.1446E+01  0.9634E+02  0.9634E+02
     -3.612  0.3309E+01  0.3309E+01  0.9699E+02  0.9699E+02
     -3.417  0.6283E-01  0.6283E-01  0.9700E+02  0.9700E+02
     -3.222  0.3294E-01  0.3294E-01  0.9701E+02  0.9701E+02
     -3.027  0.2776E+01  0.2776E+01  0.9755E+02  0.9755E+02
     -2.832  0.9606E+00  0.9606E+00  0.9774E+02  0.9774E+02
     -2.637  0.5476E+00  0.5476E+00  0.9784E+02  0.9784E+02
     -2.442  0.1847E+01  0.1847E+01  0.9820E+02  0.9820E+02
     -2.247  0.1022E+00  0.1022E+00  0.9822E+02  0.9822E+02
     -2.052  0.4614E-07  0.4614E-07  0.9822E+02  0.9822E+02
     -1.857  0.1153E+01  0.1153E+01  0.9845E+02  0.9845E+02
     -1.662  0.5776E+01  0.5776E+01  0.9957E+02  0.9957E+02
     -1.467  0.1601E+01  0.1601E+01  0.9989E+02  0.9989E+02
     -1.272  0.1914E+01  0.1914E+01  0.1003E+03  0.1003E+03
     -1.077  0.8546E+01  0.8546E+01  0.1019E+03  0.1019E+03
     -0.881  0.7993E+01  0.7992E+01  0.1035E+03  0.1035E+03
     -0.686  0.6148E+01  0.6149E+01  0.1047E+03  0.1047E+03
     -0.491  0.3247E+01  0.3247E+01  0.1053E+03  0.1053E+03
     -0.296  0.6116E+01  0.6116E+01  0.1065E+03  0.1065E+03
     -0.101  0.1958E+01  0.1958E+01  0.1069E+03  0.1069E+03
      0.094  0.5843E+01  0.5843E+01  0.1080E+03  0.1080E+03
      0.289  0.6038E+01  0.6036E+01  0.1092E+03  0.1092E+03
      0.484  0.7811E+01  0.7802E+01  0.1107E+03  0.1107E+03
      0.679  0.4617E+01  0.4622E+01  0.1116E+03  0.1116E+03
      0.874  0.1033E+02  0.1027E+02  0.1136E+03  0.1136E+03
      1.069  0.1086E+02  0.1075E+02  0.1158E+03  0.1157E+03
      1.264  0.1366E+02  0.1339E+02  0.1184E+03  0.1183E+03
      1.459  0.1310E+02  0.1304E+02  0.1210E+03  0.1209E+03
      1.654  0.1271E+02  0.1275E+02  0.1235E+03  0.1234E+03
      1.849  0.1705E+02  0.1622E+02  0.1268E+03  0.1265E+03
      2.045  0.5021E+01  0.6570E+01  0.1278E+03  0.1278E+03
      2.240  0.1161E+01  0.8943E+00  0.1280E+03  0.1280E+03
      2.435  0.1229E-04  0.1271E-03  0.1280E+03  0.1280E+03
      2.630  0.0000E+00  0.0000E+00  0.1280E+03  0.1280E+03
      2.825  0.0000E+00  0.0000E+00  0.1280E+03  0.1280E+03
      3.020  0.0000E+00  0.0000E+00  0.1280E+03  0.1280E+03
      3.215  0.0000E+00  0.0000E+00  0.1280E+03  0.1280E+03
      3.410  0.0000E+00  0.0000E+00  0.1280E+03  0.1280E+03
      3.605  0.0000E+00  0.0000E+00  0.1280E+03  0.1280E+03
      3.800  0.0000E+00  0.0000E+00  0.1280E+03  0.1280E+03
      3.995  0.0000E+00  0.0000E+00  0.1280E+03  0.1280E+03
      4.190  0.0000E+00  0.0000E+00  0.1280E+03  0.1280E+03
      4.385  0.0000E+00  0.0000E+00  0.1280E+03  0.1280E+03
      4.580  0.0000E+00  0.0000E+00  0.1280E+03  0.1280E+03
      4.776  0.0000E+00  0.0000E+00  0.1280E+03  0.1280E+03
