  51  51   0   0
  0.7707117E+02  0.1230000E-08  0.1230000E-08  0.3000000E-08  0.5000000E-15
  1.000000000000000E-004
  CAR 
 Li defective graphene MACE training lab 
      4.90347216    -55.23388696  301     -2.56889476      1.00000000
    -55.234  0.0000E+00  0.0000E+00  0.0000E+00  0.0000E+00
    -55.033  0.0000E+00  0.0000E+00  0.0000E+00  0.0000E+00
    -54.833  0.0000E+00  0.0000E+00  0.0000E+00  0.0000E+00
    -54.633  0.0000E+00  0.0000E+00  0.0000E+00  0.0000E+00
    -54.432  0.0000E+00  0.0000E+00  0.0000E+00  0.0000E+00
    -54.232  0.0000E+00  0.0000E+00  0.0000E+00  0.0000E+00
    -54.031  0.0000E+00  0.0000E+00  0.0000E+00  0.0000E+00
    -53.831  0.0000E+00  0.0000E+00  0.0000E+00  0.0000E+00
    -53.630  0.0000E+00  0.0000E+00  0.0000E+00  0.0000E+00
    -53.430  0.0000E+00  0.0000E+00  0.0000E+00  0.0000E+00
    -53.229  0.0000E+00  0.0000E+00  0.0000E+00  0.0000E+00
    -53.029  0.0000E+00  0.0000E+00  0.0000E+00  0.0000E+00
    -52.828  0.0000E+00  0.0000E+00  0.0000E+00  0.0000E+00
    -52.628  0.7694E-03  0.7423E-03  0.1542E-03  0.1488E-03
    -52.427  0.4890E+01  0.4888E+01  0.9804E+00  0.9799E+00
    -52.227  0.9786E-01  0.1001E+00  0.1000E+01  0.1000E+01
    -52.027  0.0000E+00  0.0000E+00  0.1000E+01  0.1000E+01
    -51.826  0.0000E+00  0.0000E+00  0.1000E+01  0.1000E+01
    -51.626  0.0000E+00  0.0000E+00  0.1000E+01  0.1000E+01
    -51.425  0.0000E+00  0.0000E+00  0.1000E+01  0.1000E+01
    -51.225  0.0000E+00  0.0000E+00  0.1000E+01  0.1000E+01
    -51.024  0.0000E+00  0.0000E+00  0.1000E+01  0.1000E+01
    -50.824  0.0000E+00  0.0000E+00  0.1000E+01  0.1000E+01
    -50.623  0.0000E+00  0.0000E+00  0.1000E+01  0.1000E+01
    -50.423  0.0000E+00  0.0000E+00  0.1000E+01  0.1000E+01
    -50.222  0.0000E+00  0.0000E+00  0.1000E+01  0.1000E+01
    -50.022  0.0000E+00  0.0000E+00  0.1000E+01  0.1000E+01
    -49.822  0.0000E+00  0.0000E+00  0.1000E+01  0.1000E+01
    -49.621  0.0000E+00  0.0000E+00  0.1000E+01  0.1000E+01
    -49.421  0.0000E+00  0.0000E+00  0.1000E+01  0.1000E+01
    -49.220  0.0000E+00  0.0000E+00  0.1000E+01  0.1000E+01
    -49.020  0.0000E+00  0.0000E+00  0.1000E+01  0.1000E+01
    -48.819  0.0000E+00  0.0000E+00  0.1000E+01  0.1000E+01
    -48.619  0.0000E+00  0.0000E+00  0.1000E+01  0.1000E+01
    -48.418  0.0000E+00  0.0000E+00  0.1000E+01  0.1000E+01
    -48.218  0.0000E+00  0.0000E+00  0.1000E+01  0.1000E+01
    -48.017  0.0000E+00  0.0000E+00  0.1000E+01  0.1000E+01
    -47.817  0.0000E+00  0.0000E+00  0.1000E+01  0.1000E+01
    -47.616  0.0000E+00  0.0000E+00  0.1000E+01  0.1000E+01
    -47.416  0.0000E+00  0.0000E+00  0.1000E+01  0.1000E+01
    -47.216  0.0000E+00  0.0000E+00  0.1000E+01  0.1000E+01
    -47.015  0.0000E+00  0.0000E+00  0.1000E+01  0.1000E+01
    -46.815  0.0000E+00  0.0000E+00  0.1000E+01  0.1000E+01
    -46.614  0.0000E+00  0.0000E+00  0.1000E+01  0.1000E+01
    -46.414  0.0000E+00  0.0000E+00  0.1000E+01  0.1000E+01
    -46.213  0.0000E+00  0.0000E+00  0.1000E+01  0.1000E+01
    -46.013  0.0000E+00  0.0000E+00  0.1000E+01  0.1000E+01
    -45.812  0.0000E+00  0.0000E+00  0.1000E+01  0.1000E+01
    -45.612  0.0000E+00  0.0000E+00  0.1000E+01  0.1000E+01
    -45.411  0.0000E+00  0.0000E+00  0.1000E+01  0.1000E+01
    -45.211  0.0000E+00  0.0000E+00  0.1000E+01  0.1000E+01
    -45.011  0.0000E+00  0.0000E+00  0.1000E+01  0.1000E+01
    -44.810  0.0000E+00  0.0000E+00  0.1000E+01  0.1000E+01
    -44.610  0.0000E+00  0.0000E+00  0.1000E+01  0.1000E+01
    -44.409  0.0000E+00  0.0000E+00  0.1000E+01  0.1000E+01
    -44.209  0.0000E+00  0.0000E+00  0.1000E+01  0.1000E+01
    -44.008  0.0000E+00  0.0000E+00  0.1000E+01  0.1000E+01
    -43.808  0.0000E+00  0.0000E+00  0.1000E+01  0.1000E+01
    -43.607  0.0000E+00  0.0000E+00  0.1000E+01  0.1000E+01
    -43.407  0.0000E+00  0.0000E+00  0.1000E+01  0.1000E+01
    -43.206  0.0000E+00  0.0000E+00  0.1000E+01  0.1000E+01
    -43.006  0.0000E+00  0.0000E+00  0.1000E+01  0.1000E+01
    -42.805  0.0000E+00  0.0000E+00  0.1000E+01  0.1000E+01
    -42.605  0.0000E+00  0.0000E+00  0.1000E+01  0.1000E+01
    -42.405  0.0000E+00  0.0000E+00  0.1000E+01  0.1000E+01
    -42.204  0.0000E+00  0.0000E+00  0.1000E+01  0.1000E+01
    -42.004  0.0000E+00  0.0000E+00  0.1000E+01  0.1000E+01
    -41.803  0.0000E+00  0.0000E+00  0.1000E+01  0.1000E+01
    -41.603  0.0000E+00  0.0000E+00  0.1000E+01  0.1000E+01
    -41.402  0.0000E+00  0.0000E+00  0.1000E+01  0.1000E+01
    -41.202  0.0000E+00  0.0000E+00  0.1000E+01  0.1000E+01
    -41.001  0.0000E+00  0.0000E+00  0.1000E+01  0.1000E+01
    -40.801  0.0000E+00  0.0000E+00  0.1000E+01  0.1000E+01
    -40.600  0.0000E+00  0.0000E+00  0.1000E+01  0.1000E+01
    -40.400  0.0000E+00  0.0000E+00  0.1000E+01  0.1000E+01
    -40.200  0.0000E+00  0.0000E+00  0.1000E+01  0.1000E+01
    -39.999  0.0000E+00  0.0000E+00  0.1000E+01  0.1000E+01
    -39.799  0.0000E+00  0.0000E+00  0.1000E+01  0.1000E+01
    -39.598  0.0000E+00  0.0000E+00  0.1000E+01  0.1000E+01
    -39.398  0.0000E+00  0.0000E+00  0.1000E+01  0.1000E+01
    -39.197  0.0000E+00  0.0000E+00  0.1000E+01  0.1000E+01
    -38.997  0.0000E+00  0.0000E+00  0.1000E+01  0.1000E+01
    -38.796  0.0000E+00  0.0000E+00  0.1000E+01  0.1000E+01
    -38.596  0.0000E+00  0.0000E+00  0.1000E+01  0.1000E+01
    -38.395  0.0000E+00  0.0000E+00  0.1000E+01  0.1000E+01
    -38.195  0.0000E+00  0.0000E+00  0.1000E+01  0.1000E+01
    -37.995  0.0000E+00  0.0000E+00  0.1000E+01  0.1000E+01
    -37.794  0.0000E+00  0.0000E+00  0.1000E+01  0.1000E+01
    -37.594  0.0000E+00  0.0000E+00  0.1000E+01  0.1000E+01
    -37.393  0.0000E+00  0.0000E+00  0.1000E+01  0.1000E+01
    -37.193  0.0000E+00  0.0000E+00  0.1000E+01  0.1000E+01
    -36.992  0.0000E+00  0.0000E+00  0.1000E+01  0.1000E+01
    -36.792  0.0000E+00  0.0000E+00  0.1000E+01  0.1000E+01
    -36.591  0.0000E+00  0.0000E+00  0.1000E+01  0.1000E+01
    -36.391  0.0000E+00  0.0000E+00  0.1000E+01  0.1000E+01
    -36.190  0.0000E+00  0.0000E+00  0.1000E+01  0.1000E+01
    -35.990  0.0000E+00  0.0000E+00  0.1000E+01  0.1000E+01
    -35.789  0.0000E+00  0.0000E+00  0.1000E+01  0.1000E+01
    -35.589  0.0000E+00  0.0000E+00  0.1000E+01  0.1000E+01
    -35.389  0.0000E+00  0.0000E+00  0.1000E+01  0.1000E+01
    -35.188  0.0000E+00  0.0000E+00  0.1000E+01  0.1000E+01
    -34.988  0.0000E+00  0.0000E+00  0.1000E+01  0.1000E+01
    -34.787  0.0000E+00  0.0000E+00  0.1000E+01  0.1000E+01
    -34.587  0.0000E+00  0.0000E+00  0.1000E+01  0.1000E+01
    -34.386  0.0000E+00  0.0000E+00  0.1000E+01  0.1000E+01
    -34.186  0.0000E+00  0.0000E+00  0.1000E+01  0.1000E+01
    -33.985  0.0000E+00  0.0000E+00  0.1000E+01  0.1000E+01
    -33.785  0.0000E+00  0.0000E+00  0.1000E+01  0.1000E+01
    -33.584  0.0000E+00  0.0000E+00  0.1000E+01  0.1000E+01
    -33.384  0.0000E+00  0.0000E+00  0.1000E+01  0.1000E+01
    -33.184  0.0000E+00  0.0000E+00  0.1000E+01  0.1000E+01
    -32.983  0.0000E+00  0.0000E+00  0.1000E+01  0.1000E+01
    -32.783  0.0000E+00  0.0000E+00  0.1000E+01  0.1000E+01
    -32.582  0.0000E+00  0.0000E+00  0.1000E+01  0.1000E+01
    -32.382  0.0000E+00  0.0000E+00  0.1000E+01  0.1000E+01
    -32.181  0.0000E+00  0.0000E+00  0.1000E+01  0.1000E+01
    -31.981  0.0000E+00  0.0000E+00  0.1000E+01  0.1000E+01
    -31.780  0.0000E+00  0.0000E+00  0.1000E+01  0.1000E+01
    -31.580  0.0000E+00  0.0000E+00  0.1000E+01  0.1000E+01
    -31.379  0.0000E+00  0.0000E+00  0.1000E+01  0.1000E+01
    -31.179  0.0000E+00  0.0000E+00  0.1000E+01  0.1000E+01
    -30.978  0.0000E+00  0.0000E+00  0.1000E+01  0.1000E+01
    -30.778  0.0000E+00  0.0000E+00  0.1000E+01  0.1000E+01
    -30.578  0.0000E+00  0.0000E+00  0.1000E+01  0.1000E+01
    -30.377  0.0000E+00  0.0000E+00  0.1000E+01  0.1000E+01
    -30.177  0.0000E+00  0.0000E+00  0.1000E+01  0.1000E+01
    -29.976  0.0000E+00  0.0000E+00  0.1000E+01  0.1000E+01
    -29.776  0.0000E+00  0.0000E+00  0.1000E+01  0.1000E+01
    -29.575  0.0000E+00  0.0000E+00  0.1000E+01  0.1000E+01
    -29.375  0.0000E+00  0.0000E+00  0.1000E+01  0.1000E+01
    -29.174  0.0000E+00  0.0000E+00  0.1000E+01  0.1000E+01
    -28.974  0.0000E+00  0.0000E+00  0.1000E+01  0.1000E+01
    -28.773  0.0000E+00  0.0000E+00  0.1000E+01  0.1000E+01
    -28.573  0.0000E+00  0.0000E+00  0.1000E+01  0.1000E+01
    -28.373  0.0000E+00  0.0000E+00  0.1000E+01  0.1000E+01
    -28.172  0.0000E+00  0.0000E+00  0.1000E+01  0.1000E+01
    -27.972  0.0000E+00  0.0000E+00  0.1000E+01  0.1000E+01
    -27.771  0.0000E+00  0.0000E+00  0.1000E+01  0.1000E+01
    -27.571  0.0000E+00  0.0000E+00  0.1000E+01  0.1000E+01
    -27.370  0.0000E+00  0.0000E+00  0.1000E+01  0.1000E+01
    -27.170  0.0000E+00  0.0000E+00  0.1000E+01  0.1000E+01
    -26.969  0.0000E+00  0.0000E+00  0.1000E+01  0.1000E+01
    -26.769  0.0000E+00  0.0000E+00  0.1000E+01  0.1000E+01
    -26.568  0.0000E+00  0.0000E+00  0.1000E+01  0.1000E+01
    -26.368  0.0000E+00  0.0000E+00  0.1000E+01  0.1000E+01
    -26.167  0.0000E+00  0.0000E+00  0.1000E+01  0.1000E+01
    -25.967  0.0000E+00  0.0000E+00  0.1000E+01  0.1000E+01
    -25.767  0.0000E+00  0.0000E+00  0.1000E+01  0.1000E+01
    -25.566  0.0000E+00  0.0000E+00  0.1000E+01  0.1000E+01
    -25.366  0.0000E+00  0.0000E+00  0.1000E+01  0.1000E+01
    -25.165  0.0000E+00  0.0000E+00  0.1000E+01  0.1000E+01
    -24.965  0.0000E+00  0.0000E+00  0.1000E+01  0.1000E+01
    -24.764  0.0000E+00  0.0000E+00  0.1000E+01  0.1000E+01
    -24.564  0.0000E+00  0.0000E+00  0.1000E+01  0.1000E+01
    -24.363  0.0000E+00  0.0000E+00  0.1000E+01  0.1000E+01
    -24.163  0.0000E+00  0.0000E+00  0.1000E+01  0.1000E+01
    -23.962  0.0000E+00  0.0000E+00  0.1000E+01  0.1000E+01
    -23.762  0.0000E+00  0.0000E+00  0.1000E+01  0.1000E+01
    -23.562  0.0000E+00  0.0000E+00  0.1000E+01  0.1000E+01
    -23.361  0.0000E+00  0.0000E+00  0.1000E+01  0.1000E+01
    -23.161  0.0000E+00  0.0000E+00  0.1000E+01  0.1000E+01
    -22.960  0.0000E+00  0.0000E+00  0.1000E+01  0.1000E+01
    -22.760  0.0000E+00  0.0000E+00  0.1000E+01  0.1000E+01
    -22.559  0.2943E-07  0.5109E-08  0.1000E+01  0.1000E+01
    -22.359  0.4690E+00  0.3409E+00  0.1094E+01  0.1068E+01
    -22.158  0.4461E+01  0.4528E+01  0.1988E+01  0.1976E+01
    -21.958  0.3207E+01  0.3113E+01  0.2631E+01  0.2600E+01
    -21.757  0.3578E+01  0.3564E+01  0.3348E+01  0.3314E+01
    -21.557  0.2938E+01  0.2907E+01  0.3937E+01  0.3897E+01
    -21.357  0.3879E+01  0.4041E+01  0.4715E+01  0.4707E+01
    -21.156  0.2785E+01  0.2686E+01  0.5273E+01  0.5246E+01
    -20.956  0.4876E+01  0.4913E+01  0.6251E+01  0.6231E+01
    -20.755  0.4292E+01  0.4391E+01  0.7111E+01  0.7111E+01
    -20.555  0.2684E+01  0.2579E+01  0.7649E+01  0.7628E+01
    -20.354  0.4887E+01  0.4885E+01  0.8629E+01  0.8607E+01
    -20.154  0.4116E+01  0.3996E+01  0.9454E+01  0.9408E+01
    -19.953  0.3749E+01  0.3847E+01  0.1021E+02  0.1018E+02
    -19.753  0.1731E+01  0.1629E+01  0.1055E+02  0.1051E+02
    -19.552  0.5091E+01  0.5239E+01  0.1157E+02  0.1156E+02
    -19.352  0.4016E+01  0.3946E+01  0.1238E+02  0.1235E+02
    -19.151  0.4373E+01  0.4381E+01  0.1325E+02  0.1323E+02
    -18.951  0.5262E+01  0.5215E+01  0.1431E+02  0.1427E+02
    -18.751  0.1173E+01  0.1352E+01  0.1454E+02  0.1454E+02
    -18.550  0.3977E+01  0.3559E+01  0.1534E+02  0.1525E+02
    -18.350  0.7582E+01  0.7751E+01  0.1686E+02  0.1681E+02
    -18.149  0.2501E+01  0.2691E+01  0.1736E+02  0.1735E+02
    -17.949  0.4446E+01  0.4312E+01  0.1825E+02  0.1821E+02
    -17.748  0.4254E+01  0.4450E+01  0.1911E+02  0.1910E+02
    -17.548  0.8057E+00  0.6688E+00  0.1927E+02  0.1924E+02
    -17.347  0.9068E+01  0.9006E+01  0.2109E+02  0.2104E+02
    -17.147  0.3930E+01  0.4010E+01  0.2187E+02  0.2185E+02
    -16.946  0.4690E+01  0.4590E+01  0.2281E+02  0.2277E+02
    -16.746  0.4176E+01  0.4247E+01  0.2365E+02  0.2362E+02
    -16.546  0.1552E+01  0.1644E+01  0.2396E+02  0.2395E+02
    -16.345  0.2609E+01  0.2453E+01  0.2449E+02  0.2444E+02
    -16.145  0.7424E+01  0.7571E+01  0.2597E+02  0.2596E+02
    -15.944  0.6871E+00  0.7624E+00  0.2611E+02  0.2611E+02
    -15.744  0.2837E+01  0.2597E+01  0.2668E+02  0.2663E+02
    -15.543  0.2870E+01  0.2953E+01  0.2726E+02  0.2722E+02
    -15.343  0.3577E+01  0.3604E+01  0.2797E+02  0.2795E+02
    -15.142  0.7213E+01  0.7321E+01  0.2942E+02  0.2941E+02
    -14.942  0.3845E+01  0.3792E+01  0.3019E+02  0.3017E+02
    -14.741  0.4981E+01  0.4950E+01  0.3119E+02  0.3117E+02
    -14.541  0.4025E+01  0.4116E+01  0.3199E+02  0.3199E+02
    -14.340  0.4274E+01  0.4049E+01  0.3285E+02  0.3280E+02
    -14.140  0.2971E+01  0.3044E+01  0.3345E+02  0.3341E+02
    -13.940  0.5394E+01  0.5494E+01  0.3453E+02  0.3451E+02
    -13.739  0.4677E+01  0.4692E+01  0.3547E+02  0.3545E+02
    -13.539  0.2112E+01  0.2163E+01  0.3589E+02  0.3589E+02
    -13.338  0.1515E+01  0.1308E+01  0.3619E+02  0.3615E+02
    -13.138  0.7318E+01  0.7291E+01  0.3766E+02  0.3761E+02
    -12.937  0.5405E+01  0.5549E+01  0.3874E+02  0.3872E+02
    -12.737  0.4786E+01  0.4804E+01  0.3970E+02  0.3969E+02
    -12.536  0.1761E+01  0.1655E+01  0.4005E+02  0.4002E+02
    -12.336  0.3865E+01  0.3893E+01  0.4083E+02  0.4080E+02
    -12.135  0.5039E+01  0.5010E+01  0.4184E+02  0.4180E+02
    -11.935  0.7381E+01  0.7503E+01  0.4332E+02  0.4331E+02
    -11.735  0.1405E+01  0.1393E+01  0.4360E+02  0.4359E+02
    -11.534  0.6972E+01  0.6599E+01  0.4500E+02  0.4491E+02
    -11.334  0.6851E+01  0.7220E+01  0.4637E+02  0.4636E+02
    -11.133  0.4522E+01  0.4525E+01  0.4728E+02  0.4726E+02
    -10.933  0.3664E+01  0.3610E+01  0.4801E+02  0.4799E+02
    -10.732  0.2821E+01  0.2800E+01  0.4858E+02  0.4855E+02
    -10.532  0.8945E+01  0.8809E+01  0.5037E+02  0.5032E+02
    -10.331  0.9812E+01  0.9548E+01  0.5234E+02  0.5223E+02
    -10.131  0.8294E+01  0.8708E+01  0.5400E+02  0.5397E+02
     -9.930  0.9005E+01  0.8764E+01  0.5581E+02  0.5573E+02
     -9.730  0.8137E+01  0.8103E+01  0.5744E+02  0.5736E+02
     -9.529  0.1037E+02  0.1024E+02  0.5952E+02  0.5941E+02
     -9.329  0.9468E+01  0.9719E+01  0.6141E+02  0.6136E+02
     -9.129  0.1395E+02  0.1394E+02  0.6421E+02  0.6415E+02
     -8.928  0.1199E+02  0.1156E+02  0.6661E+02  0.6647E+02
     -8.728  0.1177E+02  0.1205E+02  0.6897E+02  0.6888E+02
     -8.527  0.7423E+01  0.7730E+01  0.7046E+02  0.7043E+02
     -8.327  0.8491E+01  0.8429E+01  0.7216E+02  0.7212E+02
     -8.126  0.9716E+01  0.9526E+01  0.7411E+02  0.7403E+02
     -7.926  0.1323E+02  0.1301E+02  0.7676E+02  0.7664E+02
     -7.725  0.7505E+01  0.7990E+01  0.7827E+02  0.7824E+02
     -7.525  0.2918E+01  0.2643E+01  0.7885E+02  0.7877E+02
     -7.324  0.9153E+01  0.9087E+01  0.8069E+02  0.8059E+02
     -7.124  0.9187E+01  0.9293E+01  0.8253E+02  0.8246E+02
     -6.924  0.9905E+01  0.9999E+01  0.8451E+02  0.8446E+02
     -6.723  0.8830E+01  0.8698E+01  0.8628E+02  0.8621E+02
     -6.523  0.4879E+01  0.5245E+01  0.8726E+02  0.8726E+02
     -6.322  0.6246E+01  0.6041E+01  0.8852E+02  0.8847E+02
     -6.122  0.5513E+01  0.4611E+01  0.8962E+02  0.8939E+02
     -5.921  0.1151E+02  0.1237E+02  0.9193E+02  0.9187E+02
     -5.721  0.3153E+01  0.3116E+01  0.9256E+02  0.9250E+02
     -5.520  0.6884E+01  0.6751E+01  0.9394E+02  0.9385E+02
     -5.320  0.1961E+01  0.2391E+01  0.9433E+02  0.9433E+02
     -5.119  0.3179E+01  0.2963E+01  0.9497E+02  0.9492E+02
     -4.919  0.8182E+01  0.7482E+01  0.9661E+02  0.9642E+02
     -4.719  0.7161E+01  0.7687E+01  0.9805E+02  0.9796E+02
     -4.518  0.1883E+01  0.2092E+01  0.9842E+02  0.9838E+02
     -4.318  0.2480E+01  0.2557E+01  0.9892E+02  0.9889E+02
     -4.117  0.1975E+01  0.2078E+01  0.9932E+02  0.9931E+02
     -3.917  0.2655E+01  0.1937E+01  0.9985E+02  0.9970E+02
     -3.716  0.2406E+01  0.3105E+01  0.1003E+03  0.1003E+03
     -3.516  0.2219E+01  0.2245E+01  0.1008E+03  0.1008E+03
     -3.315  0.1160E-01  0.2829E-01  0.1008E+03  0.1008E+03
     -3.115  0.3299E-08  0.8748E-12  0.1008E+03  0.1008E+03
     -2.914  0.4889E+00  0.8992E-01  0.1009E+03  0.1008E+03
     -2.714  0.2087E+01  0.1991E+01  0.1013E+03  0.1012E+03
     -2.513  0.2434E+01  0.1642E+01  0.1018E+03  0.1015E+03
     -2.313  0.2101E+01  0.2820E+01  0.1022E+03  0.1021E+03
     -2.113  0.9476E-01  0.6629E+00  0.1022E+03  0.1022E+03
     -1.912  0.7133E-01  0.1328E-01  0.1022E+03  0.1022E+03
     -1.712  0.3840E+01  0.3721E+01  0.1030E+03  0.1030E+03
     -1.511  0.3987E+01  0.3880E+01  0.1038E+03  0.1037E+03
     -1.311  0.5480E+01  0.5133E+01  0.1049E+03  0.1048E+03
     -1.110  0.1556E+01  0.2012E+01  0.1052E+03  0.1052E+03
     -0.910  0.7150E+01  0.7162E+01  0.1066E+03  0.1066E+03
     -0.709  0.7928E+01  0.7717E+01  0.1082E+03  0.1082E+03
     -0.509  0.5246E+01  0.5067E+01  0.1093E+03  0.1092E+03
     -0.308  0.2989E+01  0.3540E+01  0.1099E+03  0.1099E+03
     -0.108  0.3219E+00  0.1565E+00  0.1100E+03  0.1099E+03
      0.092  0.4291E+01  0.4235E+01  0.1108E+03  0.1108E+03
      0.293  0.9428E+01  0.9201E+01  0.1127E+03  0.1126E+03
      0.493  0.8589E+01  0.8511E+01  0.1144E+03  0.1143E+03
      0.694  0.4565E+01  0.5068E+01  0.1153E+03  0.1153E+03
      0.894  0.7308E+01  0.6682E+01  0.1168E+03  0.1167E+03
      1.095  0.7783E+01  0.7917E+01  0.1184E+03  0.1183E+03
      1.295  0.1191E+02  0.1144E+02  0.1208E+03  0.1206E+03
      1.496  0.1339E+02  0.1220E+02  0.1234E+03  0.1230E+03
      1.696  0.1655E+02  0.1738E+02  0.1268E+03  0.1265E+03
      1.897  0.1825E+02  0.1864E+02  0.1304E+03  0.1302E+03
      2.097  0.7215E+01  0.7743E+01  0.1319E+03  0.1318E+03
      2.298  0.7051E+00  0.1133E+01  0.1320E+03  0.1320E+03
      2.498  0.3193E-06  0.8550E-04  0.1320E+03  0.1320E+03
      2.698  0.0000E+00  0.0000E+00  0.1320E+03  0.1320E+03
      2.899  0.0000E+00  0.0000E+00  0.1320E+03  0.1320E+03
      3.099  0.0000E+00  0.0000E+00  0.1320E+03  0.1320E+03
      3.300  0.0000E+00  0.0000E+00  0.1320E+03  0.1320E+03
      3.500  0.0000E+00  0.0000E+00  0.1320E+03  0.1320E+03
      3.701  0.0000E+00  0.0000E+00  0.1320E+03  0.1320E+03
      3.901  0.0000E+00  0.0000E+00  0.1320E+03  0.1320E+03
      4.102  0.0000E+00  0.0000E+00  0.1320E+03  0.1320E+03
      4.302  0.0000E+00  0.0000E+00  0.1320E+03  0.1320E+03
      4.503  0.0000E+00  0.0000E+00  0.1320E+03  0.1320E+03
      4.703  0.0000E+00  0.0000E+00  0.1320E+03  0.1320E+03
      4.903  0.0000E+00  0.0000E+00  0.1320E+03  0.1320E+03
