       N       E                     dE             d eps       ncg     rms          rms(c)
DAV:   1     0.191026697364E+04    0.19103E+04   -0.68024E+04  3288   0.106E+03
DAV:   2     0.373847891191E+02   -0.18729E+04   -0.17323E+04  4072   0.234E+02
DAV:   3    -0.462228973954E+03   -0.49961E+03   -0.49497E+03  3440   0.127E+02
DAV:   4    -0.489238429023E+03   -0.27009E+02   -0.26672E+02  3384   0.387E+01
DAV:   5    -0.490212763724E+03   -0.97433E+00   -0.96732E+00  3864   0.624E+00    0.329E+01
DAV:   6    -0.465261989053E+03    0.24951E+02   -0.24866E+01  2976   0.125E+01    0.190E+01
DAV:   7    -0.453185259150E+03    0.12077E+02   -0.17090E+01  3008   0.100E+01    0.998E+00
DAV:   8    -0.452625754104E+03    0.55951E+00   -0.44372E+00  3060   0.476E+00    0.388E+00
DAV:   9    -0.453766988730E+03   -0.11412E+01   -0.59457E-01  3428   0.194E+00    0.144E+00
DAV:  10    -0.454128240108E+03   -0.36125E+00   -0.17401E-01  2864   0.992E-01    0.976E-01
DAV:  11    -0.454453954468E+03   -0.32571E+00   -0.49940E-02  3456   0.486E-01    0.829E-01
DAV:  12    -0.455201464095E+03   -0.74751E+00   -0.19651E-01  2836   0.791E-01    0.589E-01
DAV:  13    -0.455182578822E+03    0.18885E-01   -0.11750E-01  2816   0.633E-01    0.423E-01
DAV:  14    -0.455791817379E+03   -0.60924E+00   -0.52336E-02  2968   0.390E-01    0.294E-01
DAV:  15    -0.456510649400E+03   -0.71883E+00   -0.32068E-02  2924   0.273E-01    0.197E-01
DAV:  16    -0.456916392788E+03   -0.40574E+00   -0.81771E-03  2952   0.175E-01    0.146E-01
DAV:  17    -0.457236172613E+03   -0.31978E+00   -0.62068E-03  2892   0.146E-01    0.969E-02
DAV:  18    -0.457344604234E+03   -0.10843E+00   -0.21493E-03  2924   0.865E-02    0.716E-02
DAV:  19    -0.457380547118E+03   -0.35943E-01   -0.10984E-03  3044   0.619E-02    0.518E-02
DAV:  20    -0.457393025757E+03   -0.12479E-01   -0.53285E-04  2988   0.449E-02    0.358E-02
DAV:  21    -0.457409952215E+03   -0.16926E-01   -0.15219E-04  2956   0.312E-02    0.242E-02
DAV:  22    -0.457438030922E+03   -0.28079E-01   -0.65410E-05  2872   0.244E-02    0.144E-02
DAV:  23    -0.457450765526E+03   -0.12735E-01   -0.31959E-05  2472   0.198E-02    0.898E-03
DAV:  24    -0.457454826435E+03   -0.40609E-02   -0.30852E-05  2320   0.157E-02    0.579E-03
DAV:  25    -0.457456814872E+03   -0.19884E-02   -0.30418E-05  2424   0.149E-02    0.341E-03
DAV:  26    -0.457457639489E+03   -0.82462E-03   -0.10745E-05  2264   0.999E-03    0.219E-03
DAV:  27    -0.457457983520E+03   -0.34403E-03   -0.31413E-06  2244   0.538E-03    0.136E-03
DAV:  28    -0.457458176961E+03   -0.19344E-03   -0.11151E-06  2072   0.306E-03    0.942E-04
DAV:  29    -0.457458277957E+03   -0.10100E-03   -0.53841E-07  2000   0.163E-03    0.594E-04
DAV:  30    -0.457458339047E+03   -0.61089E-04   -0.39377E-07  1968   0.119E-03    0.380E-04
DAV:  31    -0.457458370935E+03   -0.31888E-04   -0.15420E-07  1908   0.837E-04    0.263E-04
DAV:  32    -0.457458386777E+03   -0.15841E-04   -0.61785E-08  1960   0.556E-04    0.171E-04
DAV:  33    -0.457458391670E+03   -0.48935E-05   -0.14426E-08  1872   0.341E-04    0.147E-04
DAV:  34    -0.457458393687E+03   -0.20172E-05    0.19054E-09  1832   0.210E-04    0.132E-04
DAV:  35    -0.457458394647E+03   -0.95934E-06    0.10634E-08  1840   0.142E-04
   1 F= -.45745839E+03 E0= -.45745395E+03  d E =-.888553E-02  mag=     0.2945
