  49  49   0   0
  0.8021693E+02  0.1230000E-08  0.1230000E-08  0.3000000E-08  0.5000000E-15
  1.000000000000000E-004
  CAR 
 Li defective graphene MACE training lab 
      4.69043287    -53.63737332  301     -3.21954612      1.00000000
    -53.637  0.0000E+00  0.0000E+00  0.0000E+00  0.0000E+00
    -53.443  0.0000E+00  0.0000E+00  0.0000E+00  0.0000E+00
    -53.249  0.0000E+00  0.0000E+00  0.0000E+00  0.0000E+00
    -53.054  0.0000E+00  0.0000E+00  0.0000E+00  0.0000E+00
    -52.860  0.0000E+00  0.0000E+00  0.0000E+00  0.0000E+00
    -52.665  0.0000E+00  0.0000E+00  0.0000E+00  0.0000E+00
    -52.471  0.0000E+00  0.0000E+00  0.0000E+00  0.0000E+00
    -52.276  0.0000E+00  0.0000E+00  0.0000E+00  0.0000E+00
    -52.082  0.0000E+00  0.0000E+00  0.0000E+00  0.0000E+00
    -51.888  0.0000E+00  0.0000E+00  0.0000E+00  0.0000E+00
    -51.693  0.0000E+00  0.0000E+00  0.0000E+00  0.0000E+00
    -51.499  0.0000E+00  0.0000E+00  0.0000E+00  0.0000E+00
    -51.304  0.0000E+00  0.0000E+00  0.0000E+00  0.0000E+00
    -51.110  0.1199E-04  0.1198E-04  0.2331E-05  0.2329E-05
    -50.915  0.5025E-01  0.5025E-01  0.9772E-02  0.9772E-02
    -50.721  0.1171E-02  0.1171E-02  0.1000E-01  0.1000E-01
    -50.527  0.0000E+00  0.0000E+00  0.1000E-01  0.1000E-01
    -50.332  0.0000E+00  0.0000E+00  0.1000E-01  0.1000E-01
    -50.138  0.0000E+00  0.0000E+00  0.1000E-01  0.1000E-01
    -49.943  0.0000E+00  0.0000E+00  0.1000E-01  0.1000E-01
    -49.749  0.0000E+00  0.0000E+00  0.1000E-01  0.1000E-01
    -49.554  0.0000E+00  0.0000E+00  0.1000E-01  0.1000E-01
    -49.360  0.0000E+00  0.0000E+00  0.1000E-01  0.1000E-01
    -49.166  0.0000E+00  0.0000E+00  0.1000E-01  0.1000E-01
    -48.971  0.0000E+00  0.0000E+00  0.1000E-01  0.1000E-01
    -48.777  0.0000E+00  0.0000E+00  0.1000E-01  0.1000E-01
    -48.582  0.0000E+00  0.0000E+00  0.1000E-01  0.1000E-01
    -48.388  0.0000E+00  0.0000E+00  0.1000E-01  0.1000E-01
    -48.193  0.0000E+00  0.0000E+00  0.1000E-01  0.1000E-01
    -47.999  0.0000E+00  0.0000E+00  0.1000E-01  0.1000E-01
    -47.805  0.0000E+00  0.0000E+00  0.1000E-01  0.1000E-01
    -47.610  0.0000E+00  0.0000E+00  0.1000E-01  0.1000E-01
    -47.416  0.0000E+00  0.0000E+00  0.1000E-01  0.1000E-01
    -47.221  0.0000E+00  0.0000E+00  0.1000E-01  0.1000E-01
    -47.027  0.0000E+00  0.0000E+00  0.1000E-01  0.1000E-01
    -46.832  0.0000E+00  0.0000E+00  0.1000E-01  0.1000E-01
    -46.638  0.0000E+00  0.0000E+00  0.1000E-01  0.1000E-01
    -46.444  0.0000E+00  0.0000E+00  0.1000E-01  0.1000E-01
    -46.249  0.0000E+00  0.0000E+00  0.1000E-01  0.1000E-01
    -46.055  0.0000E+00  0.0000E+00  0.1000E-01  0.1000E-01
    -45.860  0.0000E+00  0.0000E+00  0.1000E-01  0.1000E-01
    -45.666  0.0000E+00  0.0000E+00  0.1000E-01  0.1000E-01
    -45.471  0.0000E+00  0.0000E+00  0.1000E-01  0.1000E-01
    -45.277  0.0000E+00  0.0000E+00  0.1000E-01  0.1000E-01
    -45.083  0.0000E+00  0.0000E+00  0.1000E-01  0.1000E-01
    -44.888  0.0000E+00  0.0000E+00  0.1000E-01  0.1000E-01
    -44.694  0.0000E+00  0.0000E+00  0.1000E-01  0.1000E-01
    -44.499  0.0000E+00  0.0000E+00  0.1000E-01  0.1000E-01
    -44.305  0.0000E+00  0.0000E+00  0.1000E-01  0.1000E-01
    -44.110  0.0000E+00  0.0000E+00  0.1000E-01  0.1000E-01
    -43.916  0.0000E+00  0.0000E+00  0.1000E-01  0.1000E-01
    -43.722  0.0000E+00  0.0000E+00  0.1000E-01  0.1000E-01
    -43.527  0.0000E+00  0.0000E+00  0.1000E-01  0.1000E-01
    -43.333  0.0000E+00  0.0000E+00  0.1000E-01  0.1000E-01
    -43.138  0.0000E+00  0.0000E+00  0.1000E-01  0.1000E-01
    -42.944  0.0000E+00  0.0000E+00  0.1000E-01  0.1000E-01
    -42.750  0.0000E+00  0.0000E+00  0.1000E-01  0.1000E-01
    -42.555  0.0000E+00  0.0000E+00  0.1000E-01  0.1000E-01
    -42.361  0.0000E+00  0.0000E+00  0.1000E-01  0.1000E-01
    -42.166  0.0000E+00  0.0000E+00  0.1000E-01  0.1000E-01
    -41.972  0.0000E+00  0.0000E+00  0.1000E-01  0.1000E-01
    -41.777  0.0000E+00  0.0000E+00  0.1000E-01  0.1000E-01
    -41.583  0.0000E+00  0.0000E+00  0.1000E-01  0.1000E-01
    -41.389  0.0000E+00  0.0000E+00  0.1000E-01  0.1000E-01
    -41.194  0.0000E+00  0.0000E+00  0.1000E-01  0.1000E-01
    -41.000  0.0000E+00  0.0000E+00  0.1000E-01  0.1000E-01
    -40.805  0.0000E+00  0.0000E+00  0.1000E-01  0.1000E-01
    -40.611  0.0000E+00  0.0000E+00  0.1000E-01  0.1000E-01
    -40.416  0.0000E+00  0.0000E+00  0.1000E-01  0.1000E-01
    -40.222  0.0000E+00  0.0000E+00  0.1000E-01  0.1000E-01
    -40.028  0.0000E+00  0.0000E+00  0.1000E-01  0.1000E-01
    -39.833  0.0000E+00  0.0000E+00  0.1000E-01  0.1000E-01
    -39.639  0.0000E+00  0.0000E+00  0.1000E-01  0.1000E-01
    -39.444  0.0000E+00  0.0000E+00  0.1000E-01  0.1000E-01
    -39.250  0.0000E+00  0.0000E+00  0.1000E-01  0.1000E-01
    -39.055  0.0000E+00  0.0000E+00  0.1000E-01  0.1000E-01
    -38.861  0.0000E+00  0.0000E+00  0.1000E-01  0.1000E-01
    -38.667  0.0000E+00  0.0000E+00  0.1000E-01  0.1000E-01
    -38.472  0.0000E+00  0.0000E+00  0.1000E-01  0.1000E-01
    -38.278  0.0000E+00  0.0000E+00  0.1000E-01  0.1000E-01
    -38.083  0.0000E+00  0.0000E+00  0.1000E-01  0.1000E-01
    -37.889  0.0000E+00  0.0000E+00  0.1000E-01  0.1000E-01
    -37.694  0.0000E+00  0.0000E+00  0.1000E-01  0.1000E-01
    -37.500  0.0000E+00  0.0000E+00  0.1000E-01  0.1000E-01
    -37.306  0.0000E+00  0.0000E+00  0.1000E-01  0.1000E-01
    -37.111  0.0000E+00  0.0000E+00  0.1000E-01  0.1000E-01
    -36.917  0.0000E+00  0.0000E+00  0.1000E-01  0.1000E-01
    -36.722  0.0000E+00  0.0000E+00  0.1000E-01  0.1000E-01
    -36.528  0.0000E+00  0.0000E+00  0.1000E-01  0.1000E-01
    -36.333  0.0000E+00  0.0000E+00  0.1000E-01  0.1000E-01
    -36.139  0.0000E+00  0.0000E+00  0.1000E-01  0.1000E-01
    -35.945  0.0000E+00  0.0000E+00  0.1000E-01  0.1000E-01
    -35.750  0.0000E+00  0.0000E+00  0.1000E-01  0.1000E-01
    -35.556  0.0000E+00  0.0000E+00  0.1000E-01  0.1000E-01
    -35.361  0.0000E+00  0.0000E+00  0.1000E-01  0.1000E-01
    -35.167  0.0000E+00  0.0000E+00  0.1000E-01  0.1000E-01
    -34.972  0.0000E+00  0.0000E+00  0.1000E-01  0.1000E-01
    -34.778  0.0000E+00  0.0000E+00  0.1000E-01  0.1000E-01
    -34.584  0.0000E+00  0.0000E+00  0.1000E-01  0.1000E-01
    -34.389  0.0000E+00  0.0000E+00  0.1000E-01  0.1000E-01
    -34.195  0.0000E+00  0.0000E+00  0.1000E-01  0.1000E-01
    -34.000  0.0000E+00  0.0000E+00  0.1000E-01  0.1000E-01
    -33.806  0.0000E+00  0.0000E+00  0.1000E-01  0.1000E-01
    -33.611  0.0000E+00  0.0000E+00  0.1000E-01  0.1000E-01
    -33.417  0.0000E+00  0.0000E+00  0.1000E-01  0.1000E-01
    -33.223  0.0000E+00  0.0000E+00  0.1000E-01  0.1000E-01
    -33.028  0.0000E+00  0.0000E+00  0.1000E-01  0.1000E-01
    -32.834  0.0000E+00  0.0000E+00  0.1000E-01  0.1000E-01
    -32.639  0.0000E+00  0.0000E+00  0.1000E-01  0.1000E-01
    -32.445  0.0000E+00  0.0000E+00  0.1000E-01  0.1000E-01
    -32.251  0.0000E+00  0.0000E+00  0.1000E-01  0.1000E-01
    -32.056  0.0000E+00  0.0000E+00  0.1000E-01  0.1000E-01
    -31.862  0.0000E+00  0.0000E+00  0.1000E-01  0.1000E-01
    -31.667  0.0000E+00  0.0000E+00  0.1000E-01  0.1000E-01
    -31.473  0.0000E+00  0.0000E+00  0.1000E-01  0.1000E-01
    -31.278  0.0000E+00  0.0000E+00  0.1000E-01  0.1000E-01
    -31.084  0.0000E+00  0.0000E+00  0.1000E-01  0.1000E-01
    -30.890  0.0000E+00  0.0000E+00  0.1000E-01  0.1000E-01
    -30.695  0.0000E+00  0.0000E+00  0.1000E-01  0.1000E-01
    -30.501  0.0000E+00  0.0000E+00  0.1000E-01  0.1000E-01
    -30.306  0.0000E+00  0.0000E+00  0.1000E-01  0.1000E-01
    -30.112  0.0000E+00  0.0000E+00  0.1000E-01  0.1000E-01
    -29.917  0.0000E+00  0.0000E+00  0.1000E-01  0.1000E-01
    -29.723  0.0000E+00  0.0000E+00  0.1000E-01  0.1000E-01
    -29.529  0.0000E+00  0.0000E+00  0.1000E-01  0.1000E-01
    -29.334  0.0000E+00  0.0000E+00  0.1000E-01  0.1000E-01
    -29.140  0.0000E+00  0.0000E+00  0.1000E-01  0.1000E-01
    -28.945  0.0000E+00  0.0000E+00  0.1000E-01  0.1000E-01
    -28.751  0.0000E+00  0.0000E+00  0.1000E-01  0.1000E-01
    -28.556  0.0000E+00  0.0000E+00  0.1000E-01  0.1000E-01
    -28.362  0.0000E+00  0.0000E+00  0.1000E-01  0.1000E-01
    -28.168  0.0000E+00  0.0000E+00  0.1000E-01  0.1000E-01
    -27.973  0.0000E+00  0.0000E+00  0.1000E-01  0.1000E-01
    -27.779  0.0000E+00  0.0000E+00  0.1000E-01  0.1000E-01
    -27.584  0.0000E+00  0.0000E+00  0.1000E-01  0.1000E-01
    -27.390  0.0000E+00  0.0000E+00  0.1000E-01  0.1000E-01
    -27.195  0.0000E+00  0.0000E+00  0.1000E-01  0.1000E-01
    -27.001  0.0000E+00  0.0000E+00  0.1000E-01  0.1000E-01
    -26.807  0.0000E+00  0.0000E+00  0.1000E-01  0.1000E-01
    -26.612  0.0000E+00  0.0000E+00  0.1000E-01  0.1000E-01
    -26.418  0.0000E+00  0.0000E+00  0.1000E-01  0.1000E-01
    -26.223  0.0000E+00  0.0000E+00  0.1000E-01  0.1000E-01
    -26.029  0.0000E+00  0.0000E+00  0.1000E-01  0.1000E-01
    -25.834  0.0000E+00  0.0000E+00  0.1000E-01  0.1000E-01
    -25.640  0.0000E+00  0.0000E+00  0.1000E-01  0.1000E-01
    -25.446  0.0000E+00  0.0000E+00  0.1000E-01  0.1000E-01
    -25.251  0.0000E+00  0.0000E+00  0.1000E-01  0.1000E-01
    -25.057  0.0000E+00  0.0000E+00  0.1000E-01  0.1000E-01
    -24.862  0.0000E+00  0.0000E+00  0.1000E-01  0.1000E-01
    -24.668  0.0000E+00  0.0000E+00  0.1000E-01  0.1000E-01
    -24.473  0.0000E+00  0.0000E+00  0.1000E-01  0.1000E-01
    -24.279  0.0000E+00  0.0000E+00  0.1000E-01  0.1000E-01
    -24.085  0.0000E+00  0.0000E+00  0.1000E-01  0.1000E-01
    -23.890  0.0000E+00  0.0000E+00  0.1000E-01  0.1000E-01
    -23.696  0.0000E+00  0.0000E+00  0.1000E-01  0.1000E-01
    -23.501  0.0000E+00  0.0000E+00  0.1000E-01  0.1000E-01
    -23.307  0.0000E+00  0.0000E+00  0.1000E-01  0.1000E-01
    -23.112  0.0000E+00  0.0000E+00  0.1000E-01  0.1000E-01
    -22.918  0.0000E+00  0.0000E+00  0.1000E-01  0.1000E-01
    -22.724  0.0000E+00  0.0000E+00  0.1000E-01  0.1000E-01
    -22.529  0.1125E-04  0.1125E-04  0.1000E-01  0.1000E-01
    -22.335  0.2582E-01  0.2582E-01  0.1502E-01  0.1502E-01
    -22.140  0.2849E-01  0.2849E-01  0.2056E-01  0.2056E-01
    -21.946  0.3199E-01  0.3199E-01  0.2678E-01  0.2678E-01
    -21.752  0.2981E-01  0.2981E-01  0.3258E-01  0.3258E-01
    -21.557  0.4850E-01  0.4850E-01  0.4201E-01  0.4201E-01
    -21.363  0.3459E-01  0.3459E-01  0.4873E-01  0.4873E-01
    -21.168  0.2870E-01  0.2870E-01  0.5431E-01  0.5431E-01
    -20.974  0.4357E-01  0.4357E-01  0.6278E-01  0.6278E-01
    -20.779  0.4283E-01  0.4283E-01  0.7111E-01  0.7111E-01
    -20.585  0.3320E-01  0.3320E-01  0.7756E-01  0.7756E-01
    -20.391  0.3256E-01  0.3256E-01  0.8389E-01  0.8389E-01
    -20.196  0.5522E-01  0.5522E-01  0.9463E-01  0.9463E-01
    -20.002  0.3843E-01  0.3843E-01  0.1021E+00  0.1021E+00
    -19.807  0.5140E-02  0.5140E-02  0.1031E+00  0.1031E+00
    -19.613  0.4974E-01  0.4974E-01  0.1128E+00  0.1128E+00
    -19.418  0.6486E-01  0.6486E-01  0.1254E+00  0.1254E+00
    -19.224  0.2996E-01  0.2996E-01  0.1312E+00  0.1312E+00
    -19.030  0.4505E-01  0.4505E-01  0.1400E+00  0.1400E+00
    -18.835  0.2774E-01  0.2774E-01  0.1454E+00  0.1454E+00
    -18.641  0.3213E-01  0.3213E-01  0.1516E+00  0.1516E+00
    -18.446  0.6397E-01  0.6397E-01  0.1640E+00  0.1640E+00
    -18.252  0.4203E-01  0.4203E-01  0.1722E+00  0.1722E+00
    -18.057  0.1203E-01  0.1203E-01  0.1746E+00  0.1746E+00
    -17.863  0.5055E-01  0.5055E-01  0.1844E+00  0.1844E+00
    -17.669  0.4546E-01  0.4546E-01  0.1932E+00  0.1932E+00
    -17.474  0.4900E-01  0.4900E-01  0.2028E+00  0.2028E+00
    -17.280  0.5132E-01  0.5132E-01  0.2127E+00  0.2127E+00
    -17.085  0.4631E-01  0.4631E-01  0.2217E+00  0.2217E+00
    -16.891  0.2541E-01  0.2541E-01  0.2267E+00  0.2267E+00
    -16.696  0.2146E-01  0.2146E-01  0.2308E+00  0.2308E+00
    -16.502  0.4293E-01  0.4293E-01  0.2392E+00  0.2392E+00
    -16.308  0.2480E-01  0.2480E-01  0.2440E+00  0.2440E+00
    -16.113  0.3202E-01  0.3202E-01  0.2502E+00  0.2502E+00
    -15.919  0.4146E-01  0.4146E-01  0.2583E+00  0.2583E+00
    -15.724  0.2344E-01  0.2344E-01  0.2629E+00  0.2629E+00
    -15.530  0.3614E-01  0.3614E-01  0.2699E+00  0.2699E+00
    -15.335  0.5577E-01  0.5577E-01  0.2807E+00  0.2807E+00
    -15.141  0.4822E-01  0.4822E-01  0.2901E+00  0.2901E+00
    -14.947  0.4524E-01  0.4524E-01  0.2989E+00  0.2989E+00
    -14.752  0.4073E-01  0.4073E-01  0.3068E+00  0.3068E+00
    -14.558  0.3978E-01  0.3978E-01  0.3146E+00  0.3146E+00
    -14.363  0.4051E-01  0.4051E-01  0.3224E+00  0.3224E+00
    -14.169  0.3871E-01  0.3871E-01  0.3300E+00  0.3300E+00
    -13.974  0.4525E-01  0.4525E-01  0.3388E+00  0.3388E+00
    -13.780  0.3082E-01  0.3082E-01  0.3447E+00  0.3447E+00
    -13.586  0.6085E-01  0.6085E-01  0.3566E+00  0.3566E+00
    -13.391  0.4765E-03  0.4765E-03  0.3567E+00  0.3567E+00
    -13.197  0.1455E-01  0.1455E-01  0.3595E+00  0.3595E+00
    -13.002  0.8145E-01  0.8145E-01  0.3753E+00  0.3753E+00
    -12.808  0.5034E-01  0.5034E-01  0.3851E+00  0.3851E+00
    -12.613  0.4396E-01  0.4396E-01  0.3937E+00  0.3937E+00
    -12.419  0.4745E-01  0.4745E-01  0.4029E+00  0.4029E+00
    -12.225  0.2102E-01  0.2102E-01  0.4070E+00  0.4070E+00
    -12.030  0.5255E-01  0.5255E-01  0.4172E+00  0.4172E+00
    -11.836  0.4450E-01  0.4450E-01  0.4258E+00  0.4258E+00
    -11.641  0.5304E-01  0.5304E-01  0.4362E+00  0.4362E+00
    -11.447  0.5683E-01  0.5683E-01  0.4472E+00  0.4472E+00
    -11.253  0.6973E-01  0.6973E-01  0.4608E+00  0.4608E+00
    -11.058  0.3038E-01  0.3038E-01  0.4667E+00  0.4667E+00
    -10.864  0.5050E-01  0.5050E-01  0.4765E+00  0.4765E+00
    -10.669  0.5499E-01  0.5499E-01  0.4872E+00  0.4872E+00
    -10.475  0.6503E-01  0.6503E-01  0.4998E+00  0.4998E+00
    -10.280  0.1041E+00  0.1041E+00  0.5201E+00  0.5201E+00
    -10.086  0.1063E+00  0.1063E+00  0.5407E+00  0.5407E+00
     -9.892  0.9387E-01  0.9387E-01  0.5590E+00  0.5590E+00
     -9.697  0.6056E-01  0.6056E-01  0.5708E+00  0.5708E+00
     -9.503  0.9871E-01  0.9871E-01  0.5899E+00  0.5899E+00
     -9.308  0.1100E+00  0.1100E+00  0.6113E+00  0.6113E+00
     -9.114  0.9621E-01  0.9621E-01  0.6300E+00  0.6300E+00
     -8.919  0.1383E+00  0.1383E+00  0.6569E+00  0.6569E+00
     -8.725  0.1373E+00  0.1373E+00  0.6836E+00  0.6836E+00
     -8.531  0.6723E-01  0.6723E-01  0.6967E+00  0.6967E+00
     -8.336  0.7024E-01  0.7024E-01  0.7104E+00  0.7104E+00
     -8.142  0.1189E+00  0.1189E+00  0.7335E+00  0.7335E+00
     -7.947  0.1287E+00  0.1287E+00  0.7585E+00  0.7585E+00
     -7.753  0.4571E-01  0.4571E-01  0.7674E+00  0.7674E+00
     -7.558  0.3125E-01  0.3125E-01  0.7734E+00  0.7734E+00
     -7.364  0.1076E+00  0.1076E+00  0.7944E+00  0.7944E+00
     -7.170  0.1112E+00  0.1112E+00  0.8160E+00  0.8160E+00
     -6.975  0.5936E-01  0.5936E-01  0.8275E+00  0.8275E+00
     -6.781  0.6758E-01  0.6758E-01  0.8407E+00  0.8407E+00
     -6.586  0.6823E-01  0.6823E-01  0.8539E+00  0.8539E+00
     -6.392  0.4506E-01  0.4506E-01  0.8627E+00  0.8627E+00
     -6.197  0.7105E-01  0.7105E-01  0.8765E+00  0.8765E+00
     -6.003  0.7518E-01  0.7518E-01  0.8911E+00  0.8911E+00
     -5.809  0.1626E-01  0.1626E-01  0.8943E+00  0.8943E+00
     -5.614  0.6625E-01  0.6625E-01  0.9072E+00  0.9072E+00
     -5.420  0.4131E-01  0.4131E-01  0.9152E+00  0.9152E+00
     -5.225  0.2711E-01  0.2711E-01  0.9205E+00  0.9205E+00
     -5.031  0.7082E-01  0.7082E-01  0.9342E+00  0.9342E+00
     -4.836  0.6867E-01  0.6867E-01  0.9476E+00  0.9476E+00
     -4.642  0.6687E-02  0.6687E-02  0.9489E+00  0.9489E+00
     -4.448  0.1818E-01  0.1818E-01  0.9524E+00  0.9524E+00
     -4.253  0.3302E-01  0.3302E-01  0.9588E+00  0.9588E+00
     -4.059  0.1665E-01  0.1665E-01  0.9621E+00  0.9621E+00
     -3.864  0.1391E-01  0.1391E-01  0.9648E+00  0.9648E+00
     -3.670  0.2683E-01  0.2683E-01  0.9700E+00  0.9700E+00
     -3.475  0.6410E-05  0.6409E-05  0.9700E+00  0.9700E+00
     -3.281  0.1182E-01  0.1182E-01  0.9723E+00  0.9723E+00
     -3.087  0.1723E-01  0.1723E-01  0.9756E+00  0.9756E+00
     -2.892  0.1095E-01  0.1095E-01  0.9778E+00  0.9778E+00
     -2.698  0.9467E-02  0.9467E-02  0.9796E+00  0.9796E+00
     -2.503  0.1339E-01  0.1339E-01  0.9822E+00  0.9822E+00
     -2.309  0.2595E-05  0.2595E-05  0.9822E+00  0.9822E+00
     -2.114  0.1632E-05  0.1632E-05  0.9822E+00  0.9822E+00
     -1.920  0.1956E-01  0.1956E-01  0.9860E+00  0.9860E+00
     -1.726  0.5366E-01  0.5366E-01  0.9965E+00  0.9965E+00
     -1.531  0.1301E-01  0.1301E-01  0.9990E+00  0.9990E+00
     -1.337  0.3142E-01  0.3142E-01  0.1005E+01  0.1005E+01
     -1.142  0.8357E-01  0.8357E-01  0.1021E+01  0.1021E+01
     -0.948  0.4479E-01  0.4479E-01  0.1030E+01  0.1030E+01
     -0.753  0.3233E-01  0.3233E-01  0.1036E+01  0.1036E+01
     -0.559  0.1016E+00  0.1016E+00  0.1056E+01  0.1056E+01
     -0.365  0.6328E-01  0.6325E-01  0.1068E+01  0.1068E+01
     -0.170  0.2901E-01  0.2901E-01  0.1074E+01  0.1074E+01
      0.024  0.3515E-01  0.3515E-01  0.1081E+01  0.1081E+01
      0.219  0.6223E-01  0.6223E-01  0.1093E+01  0.1093E+01
      0.413  0.5173E-01  0.5174E-01  0.1103E+01  0.1103E+01
      0.607  0.1029E+00  0.1029E+00  0.1123E+01  0.1123E+01
      0.802  0.4954E-01  0.4955E-01  0.1133E+01  0.1133E+01
      0.996  0.1103E+00  0.1103E+00  0.1154E+01  0.1154E+01
      1.191  0.1229E+00  0.1228E+00  0.1178E+01  0.1178E+01
      1.385  0.7867E-01  0.7881E-01  0.1193E+01  0.1193E+01
      1.580  0.1570E+00  0.1571E+00  0.1224E+01  0.1224E+01
      1.774  0.1359E+00  0.1357E+00  0.1250E+01  0.1250E+01
      1.968  0.1408E+00  0.1406E+00  0.1278E+01  0.1278E+01
      2.163  0.1230E-01  0.1229E-01  0.1280E+01  0.1280E+01
      2.357  0.1614E-05  0.1624E-05  0.1280E+01  0.1280E+01
      2.552  0.0000E+00  0.0000E+00  0.1280E+01  0.1280E+01
      2.746  0.0000E+00  0.0000E+00  0.1280E+01  0.1280E+01
      2.941  0.0000E+00  0.0000E+00  0.1280E+01  0.1280E+01
      3.135  0.0000E+00  0.0000E+00  0.1280E+01  0.1280E+01
      3.329  0.0000E+00  0.0000E+00  0.1280E+01  0.1280E+01
      3.524  0.0000E+00  0.0000E+00  0.1280E+01  0.1280E+01
      3.718  0.0000E+00  0.0000E+00  0.1280E+01  0.1280E+01
      3.913  0.0000E+00  0.0000E+00  0.1280E+01  0.1280E+01
      4.107  0.0000E+00  0.0000E+00  0.1280E+01  0.1280E+01
      4.302  0.0000E+00  0.0000E+00  0.1280E+01  0.1280E+01
      4.496  0.0000E+00  0.0000E+00  0.1280E+01  0.1280E+01
      4.690  0.0000E+00  0.0000E+00  0.1280E+01  0.1280E+01
