       N       E                     dE             d eps       ncg     rms          rms(c)
DAV:   1     0.184512192638E+04    0.18451E+04   -0.64443E+04  3160   0.104E+03
DAV:   2     0.475482299491E+02   -0.17976E+04   -0.16546E+04  3928   0.230E+02
DAV:   3    -0.438433818327E+03   -0.48598E+03   -0.48155E+03  3360   0.127E+02
DAV:   4    -0.465620381207E+03   -0.27187E+02   -0.26728E+02  3248   0.390E+01
DAV:   5    -0.466639465537E+03   -0.10191E+01   -0.10088E+01  3672   0.633E+00    0.325E+01
DAV:   6    -0.443675620748E+03    0.22964E+02   -0.26078E+01  2920   0.117E+01    0.189E+01
DAV:   7    -0.433236441197E+03    0.10439E+02   -0.14269E+01  2856   0.924E+00    0.104E+01
DAV:   8    -0.431949787968E+03    0.12867E+01   -0.61842E+00  2936   0.578E+00    0.382E+00
DAV:   9    -0.432647572991E+03   -0.69779E+00   -0.14660E+00  3352   0.267E+00    0.283E+00
DAV:  10    -0.432818362064E+03   -0.17079E+00   -0.38442E-01  2856   0.154E+00    0.121E+00
DAV:  11    -0.433141723329E+03   -0.32336E+00   -0.18374E-01  3032   0.822E-01    0.833E-01
DAV:  12    -0.433374332876E+03   -0.23261E+00   -0.46334E-02  2944   0.430E-01    0.689E-01
DAV:  13    -0.433906804358E+03   -0.53247E+00   -0.12215E-01  2760   0.591E-01    0.481E-01
DAV:  14    -0.433907078995E+03   -0.27464E-03   -0.93998E-02  2704   0.539E-01    0.344E-01
DAV:  15    -0.434551409596E+03   -0.64433E+00   -0.37405E-02  2816   0.302E-01    0.240E-01
DAV:  16    -0.435111722184E+03   -0.56031E+00   -0.24081E-02  2824   0.224E-01    0.153E-01
DAV:  17    -0.435365620628E+03   -0.25390E+00   -0.36345E-03  2944   0.122E-01    0.120E-01
DAV:  18    -0.435619222130E+03   -0.25360E+00   -0.42036E-03  2736   0.116E-01    0.799E-02
DAV:  19    -0.435710918456E+03   -0.91696E-01   -0.16798E-03  2808   0.676E-02    0.583E-02
DAV:  20    -0.435738215959E+03   -0.27298E-01   -0.67368E-04  2792   0.436E-02    0.439E-02
DAV:  21    -0.435748012237E+03   -0.97963E-02   -0.36276E-04  2352   0.297E-02    0.311E-02
DAV:  22    -0.435764761149E+03   -0.16749E-01   -0.14407E-04  2432   0.204E-02    0.205E-02
DAV:  23    -0.435786692888E+03   -0.21932E-01   -0.34429E-05  2352   0.127E-02    0.132E-02
DAV:  24    -0.435798684836E+03   -0.11992E-01   -0.15779E-05  2144   0.981E-03    0.799E-03
DAV:  25    -0.435802091730E+03   -0.34069E-02   -0.11358E-05  2152   0.799E-03    0.531E-03
DAV:  26    -0.435803643602E+03   -0.15519E-02   -0.19305E-05  2256   0.953E-03    0.322E-03
DAV:  27    -0.435804471719E+03   -0.82812E-03   -0.95559E-06  2008   0.795E-03    0.192E-03
DAV:  28    -0.435804743798E+03   -0.27208E-03   -0.28176E-06  1800   0.448E-03    0.126E-03
DAV:  29    -0.435804918789E+03   -0.17499E-03   -0.17064E-06  1840   0.292E-03    0.822E-04
DAV:  30    -0.435804990735E+03   -0.71946E-04   -0.70803E-07  1984   0.196E-03    0.571E-04
DAV:  31    -0.435805046288E+03   -0.55553E-04   -0.40587E-07  1872   0.140E-03    0.373E-04
DAV:  32    -0.435805075793E+03   -0.29506E-04   -0.19817E-07  1896   0.979E-04    0.265E-04
DAV:  33    -0.435805088263E+03   -0.12470E-04   -0.79157E-08  1832   0.652E-04    0.185E-04
DAV:  34    -0.435805095971E+03   -0.77077E-05   -0.42794E-08  1800   0.453E-04
   1 F= -.43580510E+03 E0= -.43580478E+03  d E =-.435805E+03  mag=     0.9992
       N       E                     dE             d eps       ncg     rms          rms(c)
DAV:   1    -0.434635930217E+03    0.11692E+01   -0.17997E+02  2560   0.404E+01    0.454E+00
DAV:   2    -0.434752608672E+03   -0.11668E+00   -0.49634E+00  3112   0.666E+00    0.316E+00
DAV:   3    -0.434680693552E+03    0.71915E-01   -0.51678E-01  3000   0.212E+00    0.172E+00
DAV:   4    -0.434660429454E+03    0.20264E-01   -0.17238E-01  2872   0.103E+00    0.127E+00
DAV:   5    -0.434668712955E+03   -0.82835E-02   -0.17574E-01  3088   0.113E+00    0.129E+00
DAV:   6    -0.434662573660E+03    0.61393E-02   -0.67485E-02  2856   0.625E-01    0.237E-01
DAV:   7    -0.434664684327E+03   -0.21107E-02   -0.74544E-03  2928   0.216E-01    0.118E-01
DAV:   8    -0.434666046411E+03   -0.13621E-02   -0.12079E-03  2848   0.870E-02    0.741E-02
DAV:   9    -0.434667053635E+03   -0.10072E-02   -0.19138E-04  2880   0.441E-02    0.348E-02
DAV:  10    -0.434667717856E+03   -0.66422E-03   -0.75653E-05  2832   0.220E-02    0.144E-02
DAV:  11    -0.434668073744E+03   -0.35589E-03   -0.79886E-06  1912   0.873E-03    0.820E-03
DAV:  12    -0.434668407862E+03   -0.33412E-03   -0.94897E-06  1976   0.697E-03    0.601E-03
DAV:  13    -0.434668538261E+03   -0.13040E-03   -0.28824E-06  1848   0.436E-03    0.390E-03
DAV:  14    -0.434668630391E+03   -0.92130E-04   -0.22947E-06  1864   0.336E-03    0.176E-03
DAV:  15    -0.434668694994E+03   -0.64603E-04   -0.13087E-06  1888   0.225E-03    0.126E-03
DAV:  16    -0.434668762128E+03   -0.67134E-04   -0.15408E-06  1880   0.197E-03    0.105E-03
DAV:  17    -0.434668818352E+03   -0.56224E-04   -0.18498E-06  1896   0.181E-03    0.843E-04
DAV:  18    -0.434668838771E+03   -0.20419E-04   -0.48480E-07  1912   0.107E-03    0.335E-04
DAV:  19    -0.434668856454E+03   -0.17684E-04   -0.25306E-07  1760   0.776E-04    0.240E-04
DAV:  20    -0.434668868401E+03   -0.11946E-04   -0.13905E-07  1880   0.577E-04    0.172E-04
DAV:  21    -0.434668875070E+03   -0.66694E-05   -0.58995E-08  1824   0.393E-04
   2 F= -.43466888E+03 E0= -.43466276E+03  d E =0.113622E+01  mag=     0.9750
       N       E                     dE             d eps       ncg     rms          rms(c)
DAV:   1    -0.435966406519E+03   -0.12975E+01   -0.92989E+01  2560   0.294E+01    0.289E+00
DAV:   2    -0.436046258624E+03   -0.79852E-01   -0.26835E+00  3072   0.475E+00    0.192E+00
DAV:   3    -0.436013091877E+03    0.33167E-01   -0.21699E-01  2856   0.135E+00    0.126E+00
DAV:   4    -0.435991315581E+03    0.21776E-01   -0.60358E-02  2880   0.684E-01    0.695E-01
DAV:   5    -0.435990164089E+03    0.11515E-02   -0.38379E-02  2872   0.489E-01    0.417E-01
DAV:   6    -0.435992968006E+03   -0.28039E-02   -0.10713E-02  2928   0.285E-01    0.114E-01
DAV:   7    -0.435995449952E+03   -0.24819E-02   -0.42493E-03  2888   0.130E-01    0.911E-02
DAV:   8    -0.435995992650E+03   -0.54270E-03   -0.83245E-04  2864   0.593E-02    0.360E-02
DAV:   9    -0.435996335076E+03   -0.34243E-03   -0.92012E-05  2872   0.256E-02    0.186E-02
DAV:  10    -0.435996510165E+03   -0.17509E-03   -0.22679E-05  2168   0.116E-02    0.941E-03
DAV:  11    -0.435996619553E+03   -0.10939E-03   -0.71314E-06  1968   0.734E-03    0.527E-03
DAV:  12    -0.435996750770E+03   -0.13122E-03   -0.66066E-06  2040   0.538E-03    0.360E-03
DAV:  13    -0.435996922323E+03   -0.17155E-03   -0.80040E-06  2056   0.463E-03    0.270E-03
DAV:  14    -0.435997052597E+03   -0.13027E-03   -0.37349E-06  1992   0.318E-03    0.189E-03
DAV:  15    -0.435997169175E+03   -0.11658E-03   -0.36411E-06  1968   0.263E-03    0.135E-03
DAV:  16    -0.435997256412E+03   -0.87237E-04   -0.25403E-06  1928   0.217E-03    0.907E-04
DAV:  17    -0.435997318825E+03   -0.62414E-04   -0.13442E-06  1904   0.162E-03    0.666E-04
DAV:  18    -0.435997374654E+03   -0.55829E-04   -0.93595E-07  1880   0.131E-03    0.486E-04
DAV:  19    -0.435997418210E+03   -0.43557E-04   -0.51919E-07  1848   0.103E-03    0.339E-04
DAV:  20    -0.435997449730E+03   -0.31519E-04   -0.27178E-07  1832   0.747E-04    0.250E-04
DAV:  21    -0.435997472145E+03   -0.22415E-04   -0.14232E-07  1800   0.582E-04    0.191E-04
DAV:  22    -0.435997488044E+03   -0.15900E-04   -0.77481E-08  1824   0.449E-04    0.145E-04
DAV:  23    -0.435997499845E+03   -0.11801E-04   -0.41858E-08  1824   0.366E-04    0.115E-04
DAV:  24    -0.435997505378E+03   -0.55329E-05   -0.77083E-09  1848   0.261E-04
   3 F= -.43599751E+03 E0= -.43599629E+03  d E =-.192409E+00  mag=     0.9948
       N       E                     dE             d eps       ncg     rms          rms(c)
DAV:   1    -0.436098962838E+03   -0.10146E+00   -0.29070E+01  2560   0.157E+01    0.120E+00
DAV:   2    -0.436139362066E+03   -0.40399E-01   -0.62045E-01  3120   0.203E+00    0.778E-01
DAV:   3    -0.436136806223E+03    0.25558E-02   -0.44698E-02  3072   0.614E-01    0.470E-01
DAV:   4    -0.436134479439E+03    0.23268E-02   -0.16622E-02  2952   0.336E-01    0.265E-01
DAV:   5    -0.436134163251E+03    0.31619E-03   -0.71545E-03  2944   0.211E-01    0.156E-01
DAV:   6    -0.436134281272E+03   -0.11802E-03   -0.12395E-03  2904   0.106E-01    0.614E-02
DAV:   7    -0.436134755690E+03   -0.47442E-03   -0.61505E-04  3048   0.534E-02    0.502E-02
DAV:   8    -0.436135252008E+03   -0.49632E-03   -0.15346E-04  2792   0.301E-02    0.184E-02
DAV:   9    -0.436135756568E+03   -0.50456E-03   -0.25886E-05  2280   0.125E-02    0.104E-02
DAV:  10    -0.436136202071E+03   -0.44550E-03   -0.11435E-05  2072   0.816E-03    0.717E-03
DAV:  11    -0.436136613332E+03   -0.41126E-03   -0.85370E-06  2112   0.589E-03    0.550E-03
DAV:  12    -0.436137178363E+03   -0.56503E-03   -0.14619E-05  2152   0.582E-03    0.446E-03
DAV:  13    -0.436137651128E+03   -0.47276E-03   -0.12038E-05  2224   0.474E-03    0.321E-03
DAV:  14    -0.436138023776E+03   -0.37265E-03   -0.97144E-06  2144   0.407E-03    0.212E-03
DAV:  15    -0.436138248912E+03   -0.22514E-03   -0.37451E-06  1952   0.274E-03    0.154E-03
DAV:  16    -0.436138397296E+03   -0.14838E-03   -0.20002E-06  1936   0.191E-03    0.118E-03
DAV:  17    -0.436138521641E+03   -0.12435E-03   -0.95164E-07  1888   0.145E-03    0.860E-04
DAV:  18    -0.436138639969E+03   -0.11833E-03   -0.86061E-07  1912   0.128E-03    0.595E-04
DAV:  19    -0.436138721615E+03   -0.81646E-04   -0.57572E-07  1848   0.986E-04    0.443E-04
DAV:  20    -0.436138766023E+03   -0.44407E-04   -0.23383E-07  1896   0.716E-04    0.306E-04
DAV:  21    -0.436138805246E+03   -0.39223E-04   -0.17243E-07  1800   0.576E-04    0.221E-04
DAV:  22    -0.436138827276E+03   -0.22030E-04   -0.72268E-08  1832   0.438E-04    0.154E-04
DAV:  23    -0.436138841707E+03   -0.14431E-04   -0.36344E-08  1800   0.330E-04    0.110E-04
DAV:  24    -0.436138849810E+03   -0.81026E-05   -0.11349E-08  1832   0.254E-04
   4 F= -.43613885E+03 E0= -.43613546E+03  d E =-.141344E+00  mag=     0.9437
       N       E                     dE             d eps       ncg     rms          rms(c)
DAV:   1    -0.436141996471E+03   -0.31548E-02   -0.15901E+00  2592   0.369E+00    0.264E-01
DAV:   2    -0.436143856343E+03   -0.18599E-02   -0.28697E-02  3072   0.459E-01    0.177E-01
DAV:   3    -0.436143492073E+03    0.36427E-03   -0.23542E-03  3048   0.143E-01    0.103E-01
DAV:   4    -0.436142947185E+03    0.54489E-03   -0.75522E-04  2920   0.740E-02    0.518E-02
DAV:   5    -0.436142777874E+03    0.16931E-03   -0.28091E-04  2960   0.428E-02    0.342E-02
DAV:   6    -0.436142771166E+03    0.67081E-05   -0.62499E-05  2768   0.231E-02
   5 F= -.43614277E+03 E0= -.43613898E+03  d E =-.145266E+00  mag=     0.9349
       N       E                     dE             d eps       ncg     rms          rms(c)
DAV:   1    -0.436214699870E+03   -0.71922E-01   -0.55575E+00  2560   0.664E+00    0.449E-01
DAV:   2    -0.436221329497E+03   -0.66296E-02   -0.96604E-02  3040   0.782E-01    0.299E-01
DAV:   3    -0.436221511850E+03   -0.18235E-03   -0.80266E-03  3200   0.244E-01    0.185E-01
DAV:   4    -0.436221682819E+03   -0.17097E-03   -0.20145E-03  2896   0.120E-01    0.948E-02
DAV:   5    -0.436221847074E+03   -0.16425E-03   -0.82697E-04  3128   0.740E-02    0.653E-02
DAV:   6    -0.436221961768E+03   -0.11469E-03   -0.16973E-04  2872   0.392E-02    0.234E-02
DAV:   7    -0.436222055162E+03   -0.93394E-04   -0.10474E-04  2720   0.221E-02    0.223E-02
DAV:   8    -0.436222119342E+03   -0.64180E-04   -0.24477E-05  2056   0.126E-02    0.706E-03
DAV:   9    -0.436222200877E+03   -0.81534E-04   -0.67407E-06  1872   0.610E-03    0.358E-03
DAV:  10    -0.436222270947E+03   -0.70071E-04   -0.27821E-06  1936   0.366E-03    0.240E-03
DAV:  11    -0.436222341155E+03   -0.70208E-04   -0.21686E-06  1896   0.263E-03    0.170E-03
DAV:  12    -0.436222425110E+03   -0.83956E-04   -0.35549E-06  1960   0.277E-03    0.125E-03
DAV:  13    -0.436222494236E+03   -0.69126E-04   -0.32029E-06  1960   0.227E-03    0.933E-04
DAV:  14    -0.436222535779E+03   -0.41543E-04   -0.15168E-06  1976   0.165E-03    0.586E-04
DAV:  15    -0.436222560444E+03   -0.24665E-04   -0.75969E-07  1952   0.120E-03    0.388E-04
DAV:  16    -0.436222573242E+03   -0.12798E-04   -0.27788E-07  1864   0.822E-04    0.319E-04
DAV:  17    -0.436222584669E+03   -0.11427E-04   -0.17831E-07  1864   0.609E-04    0.258E-04
DAV:  18    -0.436222597690E+03   -0.13022E-04   -0.12448E-07  1832   0.528E-04    0.196E-04
DAV:  19    -0.436222606498E+03   -0.88072E-05   -0.71698E-08  1848   0.389E-04
   6 F= -.43622261E+03 E0= -.43621860E+03  d E =-.798353E-01  mag=     0.9265
       N       E                     dE             d eps       ncg     rms          rms(c)
DAV:   1    -0.436298805999E+03   -0.76208E-01   -0.20169E+01  2560   0.127E+01    0.847E-01
DAV:   2    -0.436326856117E+03   -0.28050E-01   -0.39377E-01  3168   0.150E+00    0.553E-01
DAV:   3    -0.436325471901E+03    0.13842E-02   -0.23595E-02  3248   0.441E-01    0.352E-01
DAV:   4    -0.436324733548E+03    0.73835E-03   -0.66130E-03  2976   0.224E-01    0.173E-01
DAV:   5    -0.436325132793E+03   -0.39925E-03   -0.20060E-03  2944   0.126E-01    0.996E-02
DAV:   6    -0.436325506900E+03   -0.37411E-03   -0.46218E-04  3048   0.615E-02    0.436E-02
DAV:   7    -0.436325786722E+03   -0.27982E-03   -0.32820E-04  3048   0.400E-02    0.458E-02
DAV:   8    -0.436325935574E+03   -0.14885E-03   -0.66469E-05  2736   0.218E-02    0.175E-02
DAV:   9    -0.436326080352E+03   -0.14478E-03   -0.26200E-05  2016   0.109E-02    0.680E-03
DAV:  10    -0.436326214993E+03   -0.13464E-03   -0.75193E-06  1928   0.645E-03    0.475E-03
DAV:  11    -0.436326359039E+03   -0.14405E-03   -0.55112E-06  1960   0.410E-03    0.351E-03
DAV:  12    -0.436326540595E+03   -0.18156E-03   -0.68394E-06  1976   0.395E-03    0.278E-03
DAV:  13    -0.436326747540E+03   -0.20694E-03   -0.11790E-05  2200   0.414E-03    0.217E-03
DAV:  14    -0.436326865379E+03   -0.11784E-03   -0.37991E-06  1944   0.271E-03    0.126E-03
DAV:  15    -0.436326951897E+03   -0.86519E-04   -0.24661E-06  1928   0.200E-03    0.965E-04
DAV:  16    -0.436327013695E+03   -0.61797E-04   -0.88646E-07  1920   0.131E-03    0.727E-04
DAV:  17    -0.436327070752E+03   -0.57057E-04   -0.54502E-07  1840   0.105E-03    0.544E-04
DAV:  18    -0.436327133033E+03   -0.62281E-04   -0.65055E-07  1928   0.971E-04    0.376E-04
DAV:  19    -0.436327165556E+03   -0.32523E-04   -0.21084E-07  1864   0.670E-04    0.284E-04
DAV:  20    -0.436327189338E+03   -0.23781E-04   -0.10923E-07  1768   0.507E-04    0.199E-04
DAV:  21    -0.436327208986E+03   -0.19648E-04   -0.83745E-08  1864   0.432E-04    0.140E-04
DAV:  22    -0.436327218867E+03   -0.98809E-05   -0.28708E-08  1824   0.314E-04
   7 F= -.43632722E+03 E0= -.43632307E+03  d E =-.184448E+00  mag=     0.9529
       N       E                     dE             d eps       ncg     rms          rms(c)
DAV:   1    -0.436193890825E+03    0.13332E+00   -0.79504E+01  2560   0.255E+01    0.176E+00
DAV:   2    -0.436353377736E+03   -0.15949E+00   -0.20129E+00  3168   0.308E+00    0.108E+00
DAV:   3    -0.436352499074E+03    0.87866E-03   -0.12911E-01  3352   0.878E-01    0.747E-01
DAV:   4    -0.436349059121E+03    0.34400E-02   -0.21887E-02  2976   0.419E-01    0.357E-01
DAV:   5    -0.436349962612E+03   -0.90349E-03   -0.47866E-03  2904   0.205E-01    0.132E-01
DAV:   6    -0.436351157440E+03   -0.11948E-02   -0.18928E-03  3488   0.968E-02    0.947E-02
DAV:   7    -0.436351392633E+03   -0.23519E-03   -0.49923E-04  3176   0.577E-02    0.475E-02
DAV:   8    -0.436351893646E+03   -0.50101E-03   -0.14327E-04  2728   0.274E-02    0.401E-02
DAV:   9    -0.436352204584E+03   -0.31094E-03   -0.99099E-05  2448   0.238E-02    0.140E-02
DAV:  10    -0.436352442062E+03   -0.23748E-03   -0.26922E-05  2312   0.128E-02    0.844E-03
DAV:  11    -0.436352625279E+03   -0.18322E-03   -0.11271E-05  2056   0.682E-03    0.525E-03
DAV:  12    -0.436352873498E+03   -0.24822E-03   -0.14232E-05  2224   0.569E-03    0.392E-03
DAV:  13    -0.436353198705E+03   -0.32521E-03   -0.25876E-05  2344   0.659E-03    0.271E-03
DAV:  14    -0.436353356031E+03   -0.15733E-03   -0.70232E-06  1952   0.374E-03    0.190E-03
DAV:  15    -0.436353482038E+03   -0.12601E-03   -0.55625E-06  1896   0.291E-03    0.139E-03
DAV:  16    -0.436353559347E+03   -0.77310E-04   -0.18390E-06  1936   0.188E-03    0.945E-04
DAV:  17    -0.436353624948E+03   -0.65601E-04   -0.75997E-07  1832   0.138E-03    0.733E-04
DAV:  18    -0.436353704474E+03   -0.79525E-04   -0.97188E-07  1856   0.121E-03    0.527E-04
DAV:  19    -0.436353750807E+03   -0.46334E-04   -0.37566E-07  1864   0.847E-04    0.378E-04
DAV:  20    -0.436353784965E+03   -0.34157E-04   -0.16963E-07  1760   0.631E-04    0.280E-04
DAV:  21    -0.436353809080E+03   -0.24116E-04   -0.11776E-07  1840   0.510E-04    0.213E-04
DAV:  22    -0.436353827256E+03   -0.18176E-04   -0.65511E-08  1728   0.412E-04    0.161E-04
DAV:  23    -0.436353841405E+03   -0.14149E-04   -0.52114E-08  1784   0.355E-04    0.123E-04
DAV:  24    -0.436353847562E+03   -0.61572E-05   -0.15668E-08  1768   0.262E-04
   8 F= -.43635385E+03 E0= -.43635030E+03  d E =-.211076E+00  mag=     0.9855
       N       E                     dE             d eps       ncg     rms          rms(c)
DAV:   1    -0.436358401348E+03   -0.45599E-02   -0.13214E+01  2560   0.104E+01    0.620E-01
DAV:   2    -0.436373793995E+03   -0.15393E-01   -0.21079E-01  3064   0.116E+00    0.415E-01
DAV:   3    -0.436372693860E+03    0.11001E-02   -0.14690E-02  3232   0.366E-01    0.219E-01
DAV:   4    -0.436372588654E+03    0.10521E-03   -0.32073E-03  2880   0.164E-01    0.100E-01
DAV:   5    -0.436372786756E+03   -0.19810E-03   -0.36861E-04  2960   0.598E-02    0.583E-02
DAV:   6    -0.436372900962E+03   -0.11421E-03   -0.10854E-04  2888   0.327E-02    0.288E-02
DAV:   7    -0.436372994784E+03   -0.93821E-04   -0.45089E-05  2312   0.180E-02    0.202E-02
DAV:   8    -0.436373025177E+03   -0.30393E-04   -0.24955E-05  2032   0.137E-02    0.813E-03
DAV:   9    -0.436373057679E+03   -0.32502E-04   -0.59259E-06  1752   0.705E-03    0.512E-03
DAV:  10    -0.436373088755E+03   -0.31076E-04   -0.26525E-06  1976   0.427E-03    0.264E-03
DAV:  11    -0.436373122408E+03   -0.33653E-04   -0.14268E-06  1928   0.279E-03    0.164E-03
DAV:  12    -0.436373158986E+03   -0.36578E-04   -0.12442E-06  1920   0.209E-03    0.118E-03
DAV:  13    -0.436373194837E+03   -0.35851E-04   -0.14468E-06  1952   0.191E-03    0.753E-04
DAV:  14    -0.436373218497E+03   -0.23659E-04   -0.10615E-06  1912   0.148E-03    0.540E-04
DAV:  15    -0.436373229316E+03   -0.10819E-04   -0.46319E-07  1920   0.107E-03    0.330E-04
DAV:  16    -0.436373235790E+03   -0.64741E-05   -0.19357E-07  1752   0.743E-04
   9 F= -.43637324E+03 E0= -.43636945E+03  d E =-.230465E+00  mag=     0.9811
       N       E                     dE             d eps       ncg     rms          rms(c)
DAV:   1    -0.436446580685E+03   -0.73351E-01   -0.17998E+01  2560   0.120E+01    0.816E-01
DAV:   2    -0.436472584197E+03   -0.26004E-01   -0.34022E-01  3104   0.139E+00    0.504E-01
DAV:   3    -0.436472865404E+03   -0.28121E-03   -0.30936E-02  3192   0.403E-01    0.313E-01
DAV:   4    -0.436473005373E+03   -0.13997E-03   -0.44117E-03  2896   0.184E-01    0.161E-01
DAV:   5    -0.436473253797E+03   -0.24842E-03   -0.29030E-03  3152   0.132E-01    0.130E-01
DAV:   6    -0.436473518337E+03   -0.26454E-03   -0.49887E-04  2856   0.710E-02    0.576E-02
DAV:   7    -0.436473677476E+03   -0.15914E-03   -0.42642E-04  2920   0.443E-02    0.291E-02
DAV:   8    -0.436473757432E+03   -0.79955E-04   -0.63796E-05  2744   0.202E-02    0.133E-02
DAV:   9    -0.436473826978E+03   -0.69547E-04   -0.11323E-05  1896   0.792E-03    0.611E-03
DAV:  10    -0.436473892393E+03   -0.65415E-04   -0.69455E-06  1936   0.540E-03    0.413E-03
DAV:  11    -0.436473927568E+03   -0.35175E-04   -0.26484E-06  1936   0.346E-03    0.216E-03
DAV:  12    -0.436473961430E+03   -0.33863E-04   -0.24957E-06  1904   0.289E-03    0.144E-03
DAV:  13    -0.436474005845E+03   -0.44415E-04   -0.48656E-06  1944   0.290E-03    0.118E-03
DAV:  14    -0.436474032101E+03   -0.26256E-04   -0.31010E-06  1944   0.225E-03    0.585E-04
DAV:  15    -0.436474042662E+03   -0.10560E-04   -0.10210E-06  1944   0.149E-03    0.367E-04
DAV:  16    -0.436474047381E+03   -0.47189E-05   -0.41019E-07  1824   0.105E-03
  10 F= -.43647405E+03 E0= -.43647046E+03  d E =-.100812E+00  mag=     0.9776
       N       E                     dE             d eps       ncg     rms          rms(c)
DAV:   1    -0.436478265103E+03   -0.42224E-02   -0.20396E+01  2560   0.128E+01    0.858E-01
DAV:   2    -0.436507710619E+03   -0.29446E-01   -0.39022E-01  3080   0.149E+00    0.531E-01
DAV:   3    -0.436507438722E+03    0.27190E-03   -0.34612E-02  3120   0.426E-01    0.335E-01
DAV:   4    -0.436506758524E+03    0.68020E-03   -0.54283E-03  2856   0.200E-01    0.182E-01
DAV:   5    -0.436506158160E+03    0.60036E-03   -0.36872E-03  3208   0.150E-01    0.141E-01
DAV:   6    -0.436506243222E+03   -0.85061E-04   -0.61056E-04  2792   0.796E-02    0.614E-02
DAV:   7    -0.436506550414E+03   -0.30719E-03   -0.48541E-04  2984   0.471E-02    0.305E-02
DAV:   8    -0.436506766151E+03   -0.21574E-03   -0.66726E-05  2792   0.208E-02    0.157E-02
DAV:   9    -0.436507100263E+03   -0.33411E-03   -0.15601E-05  2064   0.884E-03    0.859E-03
DAV:  10    -0.436507528166E+03   -0.42790E-03   -0.11847E-05  2128   0.651E-03    0.714E-03
DAV:  11    -0.436507819647E+03   -0.29148E-03   -0.39183E-06  1912   0.419E-03    0.529E-03
DAV:  12    -0.436508244863E+03   -0.42522E-03   -0.85402E-06  2088   0.446E-03    0.415E-03
DAV:  13    -0.436508862731E+03   -0.61787E-03   -0.19868E-05  2192   0.527E-03    0.280E-03
DAV:  14    -0.436509217229E+03   -0.35450E-03   -0.10279E-05  2128   0.378E-03    0.169E-03
DAV:  15    -0.436509388938E+03   -0.17171E-03   -0.17294E-06  1920   0.205E-03    0.124E-03
DAV:  16    -0.436509525632E+03   -0.13669E-03   -0.11337E-06  1824   0.158E-03    0.895E-04
DAV:  17    -0.436509644510E+03   -0.11888E-03   -0.74733E-07  1856   0.128E-03    0.644E-04
DAV:  18    -0.436509741378E+03   -0.96868E-04   -0.60396E-07  1816   0.110E-03    0.440E-04
DAV:  19    -0.436509801984E+03   -0.60606E-04   -0.33565E-07  1808   0.806E-04    0.294E-04
DAV:  20    -0.436509837209E+03   -0.35225E-04   -0.13205E-07  1776   0.572E-04    0.211E-04
DAV:  21    -0.436509859645E+03   -0.22436E-04   -0.62568E-08  1760   0.401E-04    0.145E-04
DAV:  22    -0.436509876133E+03   -0.16488E-04   -0.34700E-08  1736   0.304E-04    0.941E-05
DAV:  23    -0.436509884059E+03   -0.79256E-05   -0.13015E-08  1760   0.230E-04
  11 F= -.43650988E+03 E0= -.43650623E+03  d E =-.136648E+00  mag=     0.9267
       N       E                     dE             d eps       ncg     rms          rms(c)
DAV:   1    -0.436580390561E+03   -0.70514E-01   -0.19062E+01  2560   0.124E+01    0.842E-01
DAV:   2    -0.436603148264E+03   -0.22758E-01   -0.34840E-01  3008   0.142E+00    0.521E-01
DAV:   3    -0.436602967830E+03    0.18043E-03   -0.34804E-02  3040   0.421E-01    0.330E-01
DAV:   4    -0.436602179270E+03    0.78856E-03   -0.65205E-03  3000   0.205E-01    0.214E-01
DAV:   5    -0.436600649372E+03    0.15299E-02   -0.41607E-03  2968   0.163E-01    0.108E-01
DAV:   6    -0.436600470661E+03    0.17871E-03   -0.55333E-04  2744   0.720E-02    0.522E-02
DAV:   7    -0.436600966757E+03   -0.49610E-03   -0.29157E-04  2984   0.377E-02    0.249E-02
DAV:   8    -0.436601353281E+03   -0.38652E-03   -0.36736E-05  2520   0.170E-02    0.171E-02
DAV:   9    -0.436601937087E+03   -0.58381E-03   -0.14456E-05  2064   0.877E-03    0.115E-02
DAV:  10    -0.436602618985E+03   -0.68190E-03   -0.10949E-05  2136   0.639E-03    0.931E-03
DAV:  11    -0.436603267992E+03   -0.64901E-03   -0.66522E-06  1952   0.506E-03    0.727E-03
DAV:  12    -0.436604614038E+03   -0.13460E-02   -0.31143E-05  2152   0.762E-03    0.543E-03
DAV:  13    -0.436605718781E+03   -0.11047E-02   -0.36538E-05  2320   0.718E-03    0.290E-03
DAV:  14    -0.436606119132E+03   -0.40035E-03   -0.58073E-06  2000   0.342E-03    0.183E-03
DAV:  15    -0.436606412388E+03   -0.29326E-03   -0.23862E-06  1816   0.231E-03    0.135E-03
DAV:  16    -0.436606595686E+03   -0.18330E-03   -0.94567E-07  1824   0.153E-03    0.106E-03
DAV:  17    -0.436606792532E+03   -0.19685E-03   -0.81483E-07  1856   0.134E-03    0.747E-04
DAV:  18    -0.436606951851E+03   -0.15932E-03   -0.68405E-07  1848   0.108E-03    0.525E-04
DAV:  19    -0.436607026313E+03   -0.74462E-04   -0.20790E-07  1792   0.746E-04    0.369E-04
DAV:  20    -0.436607081926E+03   -0.55613E-04   -0.81865E-08  1776   0.498E-04    0.250E-04
DAV:  21    -0.436607110624E+03   -0.28698E-04   -0.29428E-08  1704   0.339E-04    0.175E-04
DAV:  22    -0.436607125738E+03   -0.15114E-04   -0.17770E-08  1744   0.254E-04    0.122E-04
DAV:  23    -0.436607130403E+03   -0.46653E-05    0.13920E-09  1776   0.173E-04
  12 F= -.43660713E+03 E0= -.43660359E+03  d E =-.972463E-01  mag=     0.8463
       N       E                     dE             d eps       ncg     rms          rms(c)
DAV:   1    -0.436588701358E+03    0.18424E-01   -0.46116E+01  2560   0.193E+01    0.130E+00
DAV:   2    -0.436663600165E+03   -0.74899E-01   -0.10154E+00  3112   0.223E+00    0.771E-01
DAV:   3    -0.436658201433E+03    0.53987E-02   -0.61971E-02  3016   0.591E-01    0.499E-01
DAV:   4    -0.436649158877E+03    0.90426E-02   -0.10189E-02  3032   0.274E-01    0.230E-01
DAV:   5    -0.436642910030E+03    0.62488E-02   -0.47353E-03  2904   0.182E-01    0.108E-01
DAV:   6    -0.436642635786E+03    0.27424E-03   -0.89132E-04  2832   0.848E-02    0.533E-02
DAV:   7    -0.436644371205E+03   -0.17354E-02   -0.33016E-04  3048   0.419E-02    0.436E-02
DAV:   8    -0.436646041592E+03   -0.16704E-02   -0.62056E-05  2568   0.204E-02    0.338E-02
DAV:   9    -0.436648745268E+03   -0.27037E-02   -0.63738E-05  2304   0.164E-02    0.253E-02
DAV:  10    -0.436652333540E+03   -0.35883E-02   -0.63147E-05  2272   0.142E-02    0.222E-02
DAV:  11    -0.436656945539E+03   -0.46120E-02   -0.88065E-05  2296   0.172E-02    0.164E-02
DAV:  12    -0.436662878304E+03   -0.59328E-02   -0.23721E-04  2360   0.249E-02    0.101E-02
DAV:  13    -0.436665051064E+03   -0.21728E-02   -0.63954E-05  2344   0.126E-02    0.610E-03
DAV:  14    -0.436666082774E+03   -0.10317E-02   -0.80038E-06  2072   0.536E-03    0.423E-03
DAV:  15    -0.436667286286E+03   -0.12035E-02   -0.77969E-06  1880   0.489E-03    0.325E-03
DAV:  16    -0.436668070338E+03   -0.78405E-03   -0.39828E-06  1904   0.349E-03    0.245E-03
DAV:  17    -0.436668722086E+03   -0.65175E-03   -0.21714E-06  1912   0.239E-03    0.164E-03
DAV:  18    -0.436669160153E+03   -0.43807E-03   -0.11097E-06  1856   0.165E-03    0.112E-03
DAV:  19    -0.436669403533E+03   -0.24338E-03   -0.41762E-07  1872   0.111E-03    0.754E-04
DAV:  20    -0.436669547382E+03   -0.14385E-03   -0.23073E-07  1896   0.797E-04    0.441E-04
DAV:  21    -0.436669631073E+03   -0.83691E-04   -0.90357E-08  1768   0.605E-04    0.231E-04
DAV:  22    -0.436669652209E+03   -0.21136E-04   -0.46404E-08  1792   0.408E-04    0.150E-04
DAV:  23    -0.436669658592E+03   -0.63829E-05   -0.12272E-08  1712   0.279E-04
  13 F= -.43666966E+03 E0= -.43666480E+03  d E =-.159775E+00  mag=     0.6318
       N       E                     dE             d eps       ncg     rms          rms(c)
DAV:   1    -0.436748469620E+03   -0.78817E-01   -0.23662E+01  2560   0.140E+01    0.106E+00
DAV:   2    -0.436771251105E+03   -0.22781E-01   -0.47255E-01  3072   0.164E+00    0.592E-01
DAV:   3    -0.436743557200E+03    0.27694E-01   -0.38053E-02  3056   0.503E-01    0.391E-01
DAV:   4    -0.436696989502E+03    0.46568E-01   -0.11410E-02  2936   0.250E-01    0.209E-01
DAV:   5    -0.436690316007E+03    0.66735E-02   -0.64341E-03  2872   0.168E-01    0.137E-01
DAV:   6    -0.436693167436E+03   -0.28514E-02   -0.14623E-03  2792   0.834E-02    0.118E-01
DAV:   7    -0.436700751534E+03   -0.75841E-02   -0.27665E-03  2728   0.828E-02    0.878E-02
DAV:   8    -0.436711294753E+03   -0.10543E-01   -0.19188E-03  2816   0.709E-02    0.712E-02
DAV:   9    -0.436723615925E+03   -0.12321E-01   -0.84503E-04  2848   0.495E-02    0.580E-02
DAV:  10    -0.436743328623E+03   -0.19713E-01   -0.25771E-03  2752   0.824E-02    0.392E-02
DAV:  11    -0.436755141662E+03   -0.11813E-01   -0.80788E-04  2848   0.519E-02    0.255E-02
DAV:  12    -0.436764720307E+03   -0.95786E-02   -0.41572E-04  2776   0.367E-02    0.162E-02
DAV:  13    -0.436771986264E+03   -0.72660E-02   -0.11371E-04  2304   0.218E-02    0.116E-02
DAV:  14    -0.436775792433E+03   -0.38062E-02   -0.21284E-05  2376   0.109E-02    0.926E-03
DAV:  15    -0.436779853947E+03   -0.40615E-02   -0.23702E-05  2224   0.955E-03    0.664E-03
DAV:  16    -0.436782325627E+03   -0.24717E-02   -0.11432E-05  2056   0.504E-03    0.478E-03
DAV:  17    -0.436783705119E+03   -0.13795E-02   -0.54470E-06  1848   0.321E-03    0.320E-03
DAV:  18    -0.436784858979E+03   -0.11539E-02   -0.97448E-07  1896   0.214E-03    0.169E-03
DAV:  19    -0.436785436244E+03   -0.57727E-03   -0.50621E-07  1784   0.141E-03    0.894E-04
DAV:  20    -0.436785621469E+03   -0.18522E-03   -0.44271E-07  1864   0.103E-03    0.412E-04
DAV:  21    -0.436785660705E+03   -0.39235E-04   -0.13047E-07  1792   0.639E-04    0.184E-04
DAV:  22    -0.436785665949E+03   -0.52448E-05   -0.28558E-08  1816   0.425E-04
  14 F= -.43678567E+03 E0= -.43678270E+03  d E =-.116007E+00  mag=     0.0005
       N       E                     dE             d eps       ncg     rms          rms(c)
DAV:   1    -0.436789376985E+03   -0.37163E-02   -0.38350E+01  2560   0.178E+01    0.102E+00
DAV:   2    -0.436849204305E+03   -0.59827E-01   -0.75125E-01  3184   0.195E+00    0.645E-01
DAV:   3    -0.436849054447E+03    0.14986E-03   -0.43565E-02  3704   0.488E-01    0.403E-01
DAV:   4    -0.436848263975E+03    0.79047E-03   -0.52446E-03  2856   0.210E-01    0.131E-01
DAV:   5    -0.436848401753E+03   -0.13778E-03   -0.92378E-04  3312   0.833E-02    0.381E-02
DAV:   6    -0.436848469006E+03   -0.67253E-04   -0.14271E-04  3320   0.325E-02    0.174E-02
DAV:   7    -0.436848520348E+03   -0.51342E-04   -0.20220E-05  2128   0.134E-02    0.704E-03
DAV:   8    -0.436848565435E+03   -0.45087E-04   -0.72896E-06  1952   0.728E-03    0.271E-03
DAV:   9    -0.436848596587E+03   -0.31151E-04   -0.31660E-06  1952   0.419E-03    0.145E-03
DAV:  10    -0.436848625367E+03   -0.28781E-04   -0.23802E-06  1912   0.310E-03    0.913E-04
DAV:  11    -0.436848645546E+03   -0.20179E-04   -0.17485E-06  1952   0.239E-03    0.692E-04
DAV:  12    -0.436848660882E+03   -0.15337E-04   -0.14912E-06  1928   0.200E-03    0.363E-04
DAV:  13    -0.436848667850E+03   -0.69678E-05   -0.61267E-07  1912   0.144E-03
  15 F= -.43684867E+03 E0= -.43684592E+03  d E =-.179009E+00  mag=     0.0001
       N       E                     dE             d eps       ncg     rms          rms(c)
DAV:   1    -0.436891804333E+03   -0.43143E-01   -0.33328E+01  2560   0.164E+01    0.974E-01
DAV:   2    -0.436943691931E+03   -0.51888E-01   -0.67667E-01  3152   0.181E+00    0.580E-01
DAV:   3    -0.436944517942E+03   -0.82601E-03   -0.44490E-02  3776   0.496E-01    0.357E-01
DAV:   4    -0.436944018608E+03    0.49933E-03   -0.42179E-03  2880   0.184E-01    0.135E-01
DAV:   5    -0.436944088680E+03   -0.70072E-04   -0.64024E-04  3152   0.747E-02    0.346E-02
DAV:   6    -0.436944138316E+03   -0.49635E-04   -0.12776E-04  3328   0.304E-02    0.149E-02
DAV:   7    -0.436944176711E+03   -0.38396E-04   -0.13504E-05  1968   0.116E-02    0.654E-03
DAV:   8    -0.436944214087E+03   -0.37376E-04   -0.62025E-06  1928   0.670E-03    0.249E-03
DAV:   9    -0.436944237353E+03   -0.23265E-04   -0.20952E-06  1928   0.389E-03    0.142E-03
DAV:  10    -0.436944262672E+03   -0.25320E-04   -0.19144E-06  1880   0.300E-03    0.814E-04
DAV:  11    -0.436944281163E+03   -0.18491E-04   -0.13064E-06  1952   0.225E-03    0.598E-04
DAV:  12    -0.436944294140E+03   -0.12977E-04   -0.93188E-07  1912   0.177E-03    0.362E-04
DAV:  13    -0.436944302776E+03   -0.86359E-05   -0.67495E-07  1912   0.142E-03
  16 F= -.43694430E+03 E0= -.43694149E+03  d E =-.956349E-01  mag=     0.0000
       N       E                     dE             d eps       ncg     rms          rms(c)
DAV:   1    -0.436945810968E+03   -0.15168E-02   -0.80744E+00  2560   0.807E+00    0.444E-01
DAV:   2    -0.436956033508E+03   -0.10223E-01   -0.13346E-01  3112   0.880E-01    0.283E-01
DAV:   3    -0.436956166997E+03   -0.13349E-03   -0.10883E-02  3840   0.247E-01    0.157E-01
DAV:   4    -0.436956117581E+03    0.49416E-04   -0.80949E-04  2824   0.844E-02    0.628E-02
DAV:   5    -0.436956150226E+03   -0.32645E-04   -0.16933E-04  3216   0.366E-02    0.156E-02
DAV:   6    -0.436956161607E+03   -0.11380E-04   -0.22039E-05  2224   0.146E-02    0.750E-03
DAV:   7    -0.436956175149E+03   -0.13542E-04   -0.50981E-06  1896   0.699E-03    0.279E-03
DAV:   8    -0.436956185974E+03   -0.10825E-04   -0.16495E-06  1928   0.366E-03    0.127E-03
DAV:   9    -0.436956195794E+03   -0.98203E-05   -0.84033E-07  1912   0.241E-03
  17 F= -.43695620E+03 E0= -.43695335E+03  d E =-.107528E+00  mag=     0.0000
       N       E                     dE             d eps       ncg     rms          rms(c)
DAV:   1    -0.436993972085E+03   -0.37786E-01   -0.36875E+01  2560   0.169E+01    0.103E+00
DAV:   2    -0.437060694900E+03   -0.66723E-01   -0.84046E-01  3136   0.187E+00    0.573E-01
DAV:   3    -0.437063583799E+03   -0.28889E-02   -0.57197E-02  3888   0.522E-01    0.365E-01
DAV:   4    -0.437063253808E+03    0.32999E-03   -0.45639E-03  3032   0.182E-01    0.156E-01
DAV:   5    -0.437063305931E+03   -0.52123E-04   -0.61779E-04  3000   0.761E-02    0.345E-02
DAV:   6    -0.437063374388E+03   -0.68457E-04   -0.16388E-04  3632   0.316E-02    0.163E-02
DAV:   7    -0.437063417419E+03   -0.43031E-04   -0.13190E-05  2032   0.113E-02    0.856E-03
DAV:   8    -0.437063469529E+03   -0.52110E-04   -0.58307E-06  1968   0.651E-03    0.299E-03
DAV:   9    -0.437063502386E+03   -0.32858E-04   -0.21069E-06  1952   0.373E-03    0.160E-03
DAV:  10    -0.437063539453E+03   -0.37067E-04   -0.21114E-06  1888   0.312E-03    0.939E-04
DAV:  11    -0.437063561215E+03   -0.21762E-04   -0.12519E-06  1952   0.226E-03    0.689E-04
DAV:  12    -0.437063576535E+03   -0.15320E-04   -0.84661E-07  1888   0.197E-03    0.443E-04
DAV:  13    -0.437063587534E+03   -0.10999E-04   -0.77838E-07  1952   0.158E-03    0.249E-04
DAV:  14    -0.437063592056E+03   -0.45218E-05   -0.25010E-07  1872   0.103E-03
  18 F= -.43706359E+03 E0= -.43706070E+03  d E =-.107396E+00  mag=     0.0000
       N       E                     dE             d eps       ncg     rms          rms(c)
DAV:   1    -0.437058046565E+03    0.55410E-02   -0.16580E+01  2560   0.113E+01    0.642E-01
DAV:   2    -0.437082897881E+03   -0.24851E-01   -0.31227E-01  3152   0.125E+00    0.386E-01
DAV:   3    -0.437084541748E+03   -0.16439E-02   -0.31449E-02  3952   0.359E-01    0.224E-01
DAV:   4    -0.437084484763E+03    0.56985E-04   -0.15674E-03  2960   0.115E-01    0.105E-01
DAV:   5    -0.437084537654E+03   -0.52891E-04   -0.41414E-04  3136   0.554E-02    0.197E-02
DAV:   6    -0.437084560695E+03   -0.23042E-04   -0.58135E-05  2928   0.220E-02    0.109E-02
DAV:   7    -0.437084584487E+03   -0.23792E-04   -0.74568E-06  1888   0.872E-03    0.503E-03
DAV:   8    -0.437084609765E+03   -0.25278E-04   -0.33055E-06  1960   0.507E-03    0.200E-03
DAV:   9    -0.437084625961E+03   -0.16196E-04   -0.12850E-06  1920   0.316E-03    0.109E-03
DAV:  10    -0.437084646301E+03   -0.20340E-04   -0.14935E-06  1896   0.288E-03    0.700E-04
DAV:  11    -0.437084656026E+03   -0.97245E-05   -0.80509E-07  1952   0.259E-03
  19 F= -.43708466E+03 E0= -.43708171E+03  d E =-.128460E+00  mag=     0.0000
       N       E                     dE             d eps       ncg     rms          rms(c)
DAV:   1    -0.437120026022E+03   -0.35380E-01   -0.41447E+01  2560   0.177E+01    0.111E+00
DAV:   2    -0.437203942514E+03   -0.83916E-01   -0.10214E+00  3216   0.202E+00    0.620E-01
DAV:   3    -0.437207074353E+03   -0.31318E-02   -0.64507E-02  3936   0.527E-01    0.394E-01
DAV:   4    -0.437206683011E+03    0.39134E-03   -0.56966E-03  2976   0.202E-01    0.155E-01
DAV:   5    -0.437206770901E+03   -0.87890E-04   -0.68306E-04  3104   0.790E-02    0.376E-02
DAV:   6    -0.437206850900E+03   -0.80000E-04   -0.18794E-04  3584   0.331E-02    0.164E-02
DAV:   7    -0.437206890163E+03   -0.39262E-04   -0.11277E-05  2000   0.105E-02    0.899E-03
DAV:   8    -0.437206943532E+03   -0.53369E-04   -0.61392E-06  1904   0.682E-03    0.270E-03
DAV:   9    -0.437206972766E+03   -0.29234E-04   -0.24100E-06  1936   0.503E-03    0.149E-03
DAV:  10    -0.437207008659E+03   -0.35893E-04   -0.33897E-06  1856   0.580E-03    0.100E-03
DAV:  11    -0.437207029047E+03   -0.20388E-04   -0.25290E-06  1952   0.486E-03    0.778E-04
DAV:  12    -0.437207041170E+03   -0.12122E-04   -0.82774E-07  1872   0.217E-03    0.471E-04
DAV:  13    -0.437207054968E+03   -0.13799E-04   -0.10134E-06  1840   0.158E-03    0.267E-04
DAV:  14    -0.437207057639E+03   -0.26710E-05   -0.19886E-07  1856   0.100E-03
  20 F= -.43720706E+03 E0= -.43720413E+03  d E =-.122402E+00  mag=     0.0000
       N       E                     dE             d eps       ncg     rms          rms(c)
DAV:   1    -0.437162394991E+03    0.44660E-01   -0.39742E+01  2560   0.173E+01    0.106E+00
DAV:   2    -0.437244111533E+03   -0.81717E-01   -0.96814E-01  3216   0.200E+00    0.605E-01
DAV:   3    -0.437246887139E+03   -0.27756E-02   -0.59607E-02  3968   0.506E-01    0.381E-01
DAV:   4    -0.437246525671E+03    0.36147E-03   -0.53525E-03  2912   0.198E-01    0.139E-01
DAV:   5    -0.437246637307E+03   -0.11164E-03   -0.63454E-04  3216   0.747E-02    0.359E-02
DAV:   6    -0.437246711800E+03   -0.74493E-04   -0.16222E-04  3504   0.317E-02    0.147E-02
DAV:   7    -0.437246749005E+03   -0.37205E-04   -0.96505E-06  1984   0.974E-03    0.785E-03
DAV:   8    -0.437246796760E+03   -0.47755E-04   -0.54291E-06  1856   0.603E-03    0.243E-03
DAV:   9    -0.437246824880E+03   -0.28121E-04   -0.17692E-06  1952   0.348E-03    0.131E-03
DAV:  10    -0.437246862673E+03   -0.37793E-04   -0.23008E-06  1840   0.316E-03    0.809E-04
DAV:  11    -0.437246883141E+03   -0.20468E-04   -0.14972E-06  1952   0.263E-03    0.575E-04
DAV:  12    -0.437246892806E+03   -0.96642E-05   -0.70077E-07  1848   0.237E-03
  21 F= -.43724689E+03 E0= -.43724395E+03  d E =-.162237E+00  mag=     0.0000
       N       E                     dE             d eps       ncg     rms          rms(c)
DAV:   1    -0.437285036159E+03   -0.38153E-01   -0.33845E+01  2560   0.160E+01    0.952E-01
DAV:   2    -0.437346995850E+03   -0.61960E-01   -0.73016E-01  3024   0.188E+00    0.576E-01
DAV:   3    -0.437351703968E+03   -0.47081E-02   -0.82212E-02  4128   0.539E-01    0.356E-01
DAV:   4    -0.437351485727E+03    0.21824E-03   -0.39327E-03  2800   0.179E-01    0.169E-01
DAV:   5    -0.437351596391E+03   -0.11066E-03   -0.10925E-03  3040   0.838E-02    0.368E-02
DAV:   6    -0.437351651604E+03   -0.55213E-04   -0.18622E-04  3584   0.361E-02    0.217E-02
DAV:   7    -0.437351702955E+03   -0.51351E-04   -0.17431E-05  2112   0.119E-02    0.772E-03
DAV:   8    -0.437351740630E+03   -0.37675E-04   -0.57244E-06  1952   0.724E-03    0.368E-03
DAV:   9    -0.437351776622E+03   -0.35993E-04   -0.31029E-06  1872   0.515E-03    0.141E-03
DAV:  10    -0.437351802579E+03   -0.25957E-04   -0.17505E-06  1936   0.370E-03    0.147E-03
DAV:  11    -0.437351819267E+03   -0.16688E-04   -0.12289E-06  1872   0.355E-03    0.853E-04
DAV:  12    -0.437351833788E+03   -0.14521E-04   -0.11954E-06  1904   0.319E-03    0.492E-04
DAV:  13    -0.437351844985E+03   -0.11197E-04   -0.74198E-07  1888   0.178E-03    0.311E-04
DAV:  14    -0.437351850766E+03   -0.57808E-05   -0.28443E-07  1808   0.104E-03
  22 F= -.43735185E+03 E0= -.43734880E+03  d E =-.104958E+00  mag=    -0.0000
       N       E                     dE             d eps       ncg     rms          rms(c)
DAV:   1    -0.437337141971E+03    0.14703E-01   -0.24301E+01  2560   0.136E+01    0.768E-01
DAV:   2    -0.437378979789E+03   -0.41838E-01   -0.48739E-01  3008   0.159E+00    0.481E-01
DAV:   3    -0.437381260053E+03   -0.22803E-02   -0.48788E-02  4192   0.452E-01    0.286E-01
DAV:   4    -0.437381166448E+03    0.93605E-04   -0.28103E-03  2800   0.152E-01    0.126E-01
DAV:   5    -0.437381273698E+03   -0.10725E-03   -0.63219E-04  3120   0.659E-02    0.289E-02
DAV:   6    -0.437381311285E+03   -0.37586E-04   -0.10589E-04  3264   0.283E-02    0.155E-02
DAV:   7    -0.437381351046E+03   -0.39761E-04   -0.98819E-06  1984   0.957E-03    0.520E-03
DAV:   8    -0.437381377934E+03   -0.26888E-04   -0.34027E-06  1936   0.535E-03    0.244E-03
DAV:   9    -0.437381407283E+03   -0.29349E-04   -0.21265E-06  1872   0.379E-03    0.109E-03
DAV:  10    -0.437381429776E+03   -0.22493E-04   -0.14483E-06  1920   0.299E-03    0.923E-04
DAV:  11    -0.437381443815E+03   -0.14039E-04   -0.97715E-07  1936   0.285E-03    0.579E-04
DAV:  12    -0.437381453914E+03   -0.10099E-04   -0.67184E-07  1888   0.212E-03    0.343E-04
DAV:  13    -0.437381460973E+03   -0.70595E-05   -0.41714E-07  1904   0.127E-03
  23 F= -.43738146E+03 E0= -.43737834E+03  d E =-.134568E+00  mag=     0.0000
       N       E                     dE             d eps       ncg     rms          rms(c)
DAV:   1    -0.437433978326E+03   -0.52524E-01   -0.14739E+01  2560   0.109E+01    0.638E-01
DAV:   2    -0.437457488304E+03   -0.23510E-01   -0.28317E-01  3088   0.133E+00    0.411E-01
DAV:   3    -0.437457194991E+03    0.29331E-03   -0.21761E-02  4080   0.369E-01    0.240E-01
DAV:   4    -0.437457066667E+03    0.12832E-03   -0.23854E-03  2752   0.141E-01    0.939E-02
DAV:   5    -0.437457141385E+03   -0.74718E-04   -0.43361E-04  3104   0.580E-02    0.252E-02
DAV:   6    -0.437457162078E+03   -0.20693E-04   -0.79938E-05  2992   0.267E-02    0.128E-02
DAV:   7    -0.437457184715E+03   -0.22637E-04   -0.87940E-06  1872   0.920E-03    0.463E-03
DAV:   8    -0.437457200182E+03   -0.15467E-04   -0.27201E-06  1952   0.505E-03    0.218E-03
DAV:   9    -0.437457217806E+03   -0.17624E-04   -0.16453E-06  1848   0.346E-03    0.881E-04
DAV:  10    -0.437457229447E+03   -0.11642E-04   -0.76285E-07  1920   0.240E-03    0.628E-04
DAV:  11    -0.437457239034E+03   -0.95862E-05   -0.63897E-07  1888   0.207E-03
  24 F= -.43745724E+03 E0= -.43745406E+03  d E =-.757781E-01  mag=    -0.0000
       N       E                     dE             d eps       ncg     rms          rms(c)
DAV:   1    -0.437459065451E+03   -0.18360E-02   -0.15500E+01  2560   0.112E+01    0.653E-01
DAV:   2    -0.437483753556E+03   -0.24688E-01   -0.29813E-01  3088   0.138E+00    0.420E-01
DAV:   3    -0.437483546757E+03    0.20680E-03   -0.24344E-02  4080   0.391E-01    0.243E-01
DAV:   4    -0.437483392470E+03    0.15429E-03   -0.25114E-03  2784   0.145E-01    0.939E-02
DAV:   5    -0.437483472165E+03   -0.79696E-04   -0.45743E-04  3136   0.597E-02    0.260E-02
DAV:   6    -0.437483494305E+03   -0.22140E-04   -0.84230E-05  2960   0.277E-02    0.131E-02
DAV:   7    -0.437483519729E+03   -0.25425E-04   -0.96293E-06  1904   0.956E-03    0.467E-03
DAV:   8    -0.437483536685E+03   -0.16955E-04   -0.28157E-06  1904   0.515E-03    0.223E-03
DAV:   9    -0.437483556685E+03   -0.20001E-04   -0.18299E-06  1872   0.365E-03    0.918E-04
DAV:  10    -0.437483569113E+03   -0.12428E-04   -0.86527E-07  1888   0.280E-03    0.662E-04
DAV:  11    -0.437483579970E+03   -0.10857E-04   -0.83674E-07  1888   0.270E-03    0.449E-04
DAV:  12    -0.437483589284E+03   -0.93147E-05   -0.65729E-07  1872   0.191E-03
  25 F= -.43748359E+03 E0= -.43748037E+03  d E =-.102128E+00  mag=     0.0000
       N       E                     dE             d eps       ncg     rms          rms(c)
DAV:   1    -0.437517266182E+03   -0.33686E-01   -0.81906E+00  2560   0.848E+00    0.500E-01
DAV:   2    -0.437528902029E+03   -0.11636E-01   -0.15173E-01  3232   0.103E+00    0.334E-01
DAV:   3    -0.437527924207E+03    0.97782E-03   -0.91419E-03  3968   0.280E-01    0.187E-01
DAV:   4    -0.437527810330E+03    0.11388E-03   -0.17771E-03  2784   0.124E-01    0.633E-02
DAV:   5    -0.437527868323E+03   -0.57993E-04   -0.27351E-04  3200   0.448E-02    0.220E-02
DAV:   6    -0.437527877968E+03   -0.96453E-05   -0.42104E-05  2640   0.203E-02
  26 F= -.43752788E+03 E0= -.43752465E+03  d E =-.442887E-01  mag=     0.0000
       N       E                     dE             d eps       ncg     rms          rms(c)
DAV:   1    -0.437530073368E+03   -0.22050E-02   -0.12676E+00  2560   0.334E+00    0.189E-01
DAV:   2    -0.437531835864E+03   -0.17625E-02   -0.23136E-02  3232   0.406E-01    0.130E-01
DAV:   3    -0.437531680704E+03    0.15516E-03   -0.13492E-03  3968   0.112E-01    0.684E-02
DAV:   4    -0.437531683939E+03   -0.32350E-05   -0.28806E-04  2800   0.495E-02    0.220E-02
DAV:   5    -0.437531699718E+03   -0.15779E-04   -0.34360E-05  2256   0.166E-02    0.927E-03
DAV:   6    -0.437531706770E+03   -0.70522E-05   -0.62986E-06  1904   0.863E-03
  27 F= -.43753171E+03 E0= -.43752848E+03  d E =-.481175E-01  mag=     0.0000
       N       E                     dE             d eps       ncg     rms          rms(c)
DAV:   1    -0.437555840798E+03   -0.24141E-01   -0.39182E+00  2560   0.602E+00    0.341E-01
DAV:   2    -0.437560380243E+03   -0.45394E-02   -0.64648E-02  3168   0.696E-01    0.237E-01
DAV:   3    -0.437559890896E+03    0.48935E-03   -0.40153E-03  3744   0.187E-01    0.120E-01
DAV:   4    -0.437559893877E+03   -0.29808E-05   -0.72153E-04  2832   0.773E-02    0.393E-02
DAV:   5    -0.437559930313E+03   -0.36436E-04   -0.98794E-05  2928   0.275E-02    0.143E-02
DAV:   6    -0.437559937105E+03   -0.67924E-05   -0.18187E-05  2000   0.138E-02
  28 F= -.43755994E+03 E0= -.43755671E+03  d E =-.282303E-01  mag=     0.0000
       N       E                     dE             d eps       ncg     rms          rms(c)
DAV:   1    -0.437562969650E+03   -0.30393E-02   -0.13144E+00  2560   0.349E+00    0.196E-01
DAV:   2    -0.437564478296E+03   -0.15086E-02   -0.21673E-02  3104   0.403E-01    0.137E-01
DAV:   3    -0.437564319705E+03    0.15859E-03   -0.13478E-03  3648   0.109E-01    0.679E-02
DAV:   4    -0.437564334244E+03   -0.14539E-04   -0.24518E-04  2816   0.448E-02    0.221E-02
DAV:   5    -0.437564350799E+03   -0.16556E-04   -0.29266E-05  2176   0.158E-02    0.827E-03
DAV:   6    -0.437564356294E+03   -0.54947E-05   -0.66947E-06  1880   0.852E-03
  29 F= -.43756436E+03 E0= -.43756112E+03  d E =-.326495E-01  mag=     0.0000
       N       E                     dE             d eps       ncg     rms          rms(c)
DAV:   1    -0.437582114779E+03   -0.17764E-01   -0.47031E+00  2560   0.660E+00    0.360E-01
DAV:   2    -0.437587201273E+03   -0.50865E-02   -0.71631E-02  3040   0.738E-01    0.261E-01
DAV:   3    -0.437586639904E+03    0.56137E-03   -0.43592E-03  3392   0.200E-01    0.118E-01
DAV:   4    -0.437586687982E+03   -0.48078E-04   -0.79641E-04  2928   0.799E-02    0.350E-02
DAV:   5    -0.437586717554E+03   -0.29572E-04   -0.88518E-05  2976   0.277E-02    0.146E-02
DAV:   6    -0.437586727105E+03   -0.95512E-05   -0.16696E-05  1936   0.130E-02
  30 F= -.43758673E+03 E0= -.43758349E+03  d E =-.223708E-01  mag=     0.0000
       N       E                     dE             d eps       ncg     rms          rms(c)
DAV:   1    -0.437587603188E+03   -0.88563E-03   -0.45878E-01  2560   0.206E+00    0.111E-01
DAV:   2    -0.437588084880E+03   -0.48169E-03   -0.69956E-03  2912   0.231E-01    0.814E-02
DAV:   3    -0.437588042409E+03    0.42470E-04   -0.43529E-04  3216   0.633E-02    0.358E-02
DAV:   4    -0.437588058695E+03   -0.16286E-04   -0.78102E-05  2832   0.250E-02    0.110E-02
DAV:   5    -0.437588065629E+03   -0.69342E-05   -0.72920E-06  1848   0.931E-03
  31 F= -.43758807E+03 E0= -.43758483E+03  d E =-.237093E-01  mag=    -0.0000
       N       E                     dE             d eps       ncg     rms          rms(c)
DAV:   1    -0.437599056576E+03   -0.10998E-01   -0.41542E+00  2560   0.623E+00    0.337E-01
DAV:   2    -0.437603742660E+03   -0.46861E-02   -0.65894E-02  3136   0.708E-01    0.251E-01
DAV:   3    -0.437603151170E+03    0.59149E-03   -0.34364E-03  3224   0.185E-01    0.116E-01
DAV:   4    -0.437603173118E+03   -0.21948E-04   -0.79082E-04  2784   0.830E-02    0.326E-02
DAV:   5    -0.437603193433E+03   -0.20315E-04   -0.10604E-04  2992   0.309E-02    0.159E-02
DAV:   6    -0.437603203720E+03   -0.10287E-04   -0.18785E-05  2064   0.147E-02    0.487E-03
DAV:   7    -0.437603210165E+03   -0.64448E-05   -0.58260E-06  1928   0.970E-03
  32 F= -.43760321E+03 E0= -.43759998E+03  d E =-.151445E-01  mag=     0.0000
       N       E                     dE             d eps       ncg     rms          rms(c)
DAV:   1    -0.437603368834E+03   -0.16511E-03   -0.72473E-02  2656   0.823E-01    0.446E-02
DAV:   2    -0.437603446173E+03   -0.77339E-04   -0.11539E-03  2864   0.939E-02    0.333E-02
DAV:   3    -0.437603441856E+03    0.43168E-05   -0.61547E-05  2864   0.255E-02
  33 F= -.43760344E+03 E0= -.43760021E+03  d E =-.153762E-01  mag=    -0.0000
       N       E                     dE             d eps       ncg     rms          rms(c)
DAV:   1    -0.437610466597E+03   -0.70204E-02   -0.31567E+00  2560   0.545E+00    0.299E-01
DAV:   2    -0.437614191517E+03   -0.37249E-02   -0.52287E-02  3184   0.633E-01    0.224E-01
DAV:   3    -0.437613721605E+03    0.46991E-03   -0.29718E-03  3440   0.172E-01    0.109E-01
DAV:   4    -0.437613726040E+03   -0.44355E-05   -0.73921E-04  2768   0.795E-02    0.323E-02
DAV:   5    -0.437613742812E+03   -0.16772E-04   -0.84412E-05  2976   0.295E-02    0.167E-02
DAV:   6    -0.437613752541E+03   -0.97288E-05   -0.28169E-05  2448   0.187E-02
  34 F= -.43761375E+03 E0= -.43761052E+03  d E =-.103107E-01  mag=    -0.0000
       N       E                     dE             d eps       ncg     rms          rms(c)
DAV:   1    -0.437613790039E+03   -0.47227E-04   -0.23012E-02  2688   0.465E-01    0.254E-02
DAV:   2    -0.437613819903E+03   -0.29863E-04   -0.39485E-04  2928   0.560E-02    0.191E-02
DAV:   3    -0.437613821462E+03   -0.15596E-05   -0.21397E-05  2152   0.169E-02
  35 F= -.43761382E+03 E0= -.43761059E+03  d E =-.103796E-01  mag=     0.0000
       N       E                     dE             d eps       ncg     rms          rms(c)
DAV:   1    -0.437618529290E+03   -0.47094E-02   -0.22419E+00  2560   0.457E+00    0.254E-01
DAV:   2    -0.437621245837E+03   -0.27165E-02   -0.38517E-02  3120   0.544E-01    0.186E-01
DAV:   3    -0.437620939953E+03    0.30588E-03   -0.22821E-03  3664   0.154E-01    0.922E-02
DAV:   4    -0.437620952853E+03   -0.12900E-04   -0.55447E-04  2784   0.692E-02    0.296E-02
DAV:   5    -0.437620969908E+03   -0.17055E-04   -0.67217E-05  2768   0.261E-02    0.148E-02
DAV:   6    -0.437620975230E+03   -0.53223E-05   -0.21221E-05  2256   0.186E-02
  36 F= -.43762098E+03 E0= -.43761774E+03  d E =-.715377E-02  mag=     0.0000
       N       E                     dE             d eps       ncg     rms          rms(c)
DAV:   1    -0.437621044666E+03   -0.74758E-04   -0.52021E-02  2656   0.697E-01    0.385E-02
DAV:   2    -0.437621108010E+03   -0.63344E-04   -0.91636E-04  2976   0.850E-02    0.284E-02
DAV:   3    -0.437621105127E+03    0.28825E-05   -0.54010E-05  2712   0.255E-02
  37 F= -.43762111E+03 E0= -.43761787E+03  d E =-.728367E-02  mag=    -0.0000
       N       E                     dE             d eps       ncg     rms          rms(c)
DAV:   1    -0.437623418100E+03   -0.23101E-02   -0.17420E+00  2560   0.402E+00    0.221E-01
DAV:   2    -0.437625653091E+03   -0.22350E-02   -0.30461E-02  3136   0.471E-01    0.163E-01
DAV:   3    -0.437625436245E+03    0.21685E-03   -0.17835E-03  3744   0.130E-01    0.807E-02
DAV:   4    -0.437625449073E+03   -0.12829E-04   -0.40280E-04  2800   0.591E-02    0.236E-02
DAV:   5    -0.437625464863E+03   -0.15790E-04   -0.48777E-05  2480   0.235E-02    0.112E-02
DAV:   6    -0.437625470746E+03   -0.58832E-05   -0.18536E-05  2176   0.180E-02
  38 F= -.43762547E+03 E0= -.43762223E+03  d E =-.436562E-02  mag=     0.0000
       N       E                     dE             d eps       ncg     rms          rms(c)
DAV:   1    -0.437625476854E+03   -0.11991E-04   -0.71508E-04  2728   0.825E-02    0.505E-03
DAV:   2    -0.437625479477E+03   -0.26229E-05   -0.16091E-05  2096   0.156E-02
  39 F= -.43762548E+03 E0= -.43762224E+03  d E =-.437435E-02  mag=     0.0000
       N       E                     dE             d eps       ncg     rms          rms(c)
DAV:   1    -0.437627480134E+03   -0.20033E-02   -0.13333E+00  2560   0.348E+00    0.179E-01
DAV:   2    -0.437629286530E+03   -0.18064E-02   -0.23192E-02  3200   0.401E-01    0.132E-01
DAV:   3    -0.437629196339E+03    0.90191E-04   -0.12746E-03  3648   0.105E-01    0.641E-02
DAV:   4    -0.437629222461E+03   -0.26122E-04   -0.21830E-04  2880   0.437E-02    0.196E-02
DAV:   5    -0.437629238257E+03   -0.15796E-04   -0.29560E-05  2200   0.179E-02    0.757E-03
DAV:   6    -0.437629243262E+03   -0.50045E-05   -0.10959E-05  2008   0.137E-02
  40 F= -.43762924E+03 E0= -.43762600E+03  d E =-.376378E-02  mag=     0.0000
       N       E                     dE             d eps       ncg     rms          rms(c)
DAV:   1    -0.437629280379E+03   -0.42122E-04   -0.45751E-02  2656   0.644E-01    0.334E-02
DAV:   2    -0.437629340876E+03   -0.60497E-04   -0.80884E-04  3088   0.753E-02    0.246E-02
DAV:   3    -0.437629341722E+03   -0.84657E-06   -0.40835E-05  2640   0.208E-02
  41 F= -.43762934E+03 E0= -.43762610E+03  d E =-.386225E-02  mag=     0.0000
       N       E                     dE             d eps       ncg     rms          rms(c)
DAV:   1    -0.437629984515E+03   -0.64364E-03   -0.14581E+00  2560   0.358E+00    0.186E-01
DAV:   2    -0.437631980333E+03   -0.19958E-02   -0.25526E-02  3264   0.414E-01    0.134E-01
DAV:   3    -0.437631902461E+03    0.77873E-04   -0.14612E-03  3504   0.110E-01    0.608E-02
DAV:   4    -0.437631938979E+03   -0.36519E-04   -0.23066E-04  2936   0.444E-02    0.197E-02
DAV:   5    -0.437631955977E+03   -0.16998E-04   -0.28983E-05  2296   0.188E-02    0.767E-03
DAV:   6    -0.437631962217E+03   -0.62401E-05   -0.14165E-05  2160   0.157E-02
  42 F= -.43763196E+03 E0= -.43762872E+03  d E =-.262049E-02  mag=     0.0000
       N       E                     dE             d eps       ncg     rms          rms(c)
DAV:   1    -0.437631972436E+03   -0.16459E-04   -0.55309E-03  2696   0.221E-01    0.114E-02
DAV:   2    -0.437631980394E+03   -0.79583E-05   -0.95107E-05  2992   0.275E-02
  43 F= -.43763198E+03 E0= -.43762874E+03  d E =-.263867E-02  mag=    -0.0000
       N       E                     dE             d eps       ncg     rms          rms(c)
DAV:   1    -0.437632797686E+03   -0.82525E-03   -0.56182E-01  2560   0.217E+00    0.109E-01
DAV:   2    -0.437633567003E+03   -0.76932E-03   -0.98163E-03  3216   0.253E-01    0.776E-02
DAV:   3    -0.437633545928E+03    0.21075E-04   -0.55284E-04  3472   0.681E-02    0.339E-02
DAV:   4    -0.437633567520E+03   -0.21592E-04   -0.88584E-05  2936   0.273E-02    0.118E-02
DAV:   5    -0.437633576828E+03   -0.93080E-05   -0.98487E-06  1848   0.122E-02
  44 F= -.43763358E+03 E0= -.43763034E+03  d E =-.159643E-02  mag=    -0.0000
       N       E                     dE             d eps       ncg     rms          rms(c)
DAV:   1    -0.437633598185E+03   -0.30665E-04   -0.21888E-02  2688   0.429E-01    0.219E-02
DAV:   2    -0.437633628912E+03   -0.30727E-04   -0.39927E-04  3088   0.519E-02    0.157E-02
DAV:   3    -0.437633631789E+03   -0.28769E-05   -0.20426E-05  2024   0.162E-02
  45 F= -.43763363E+03 E0= -.43763039E+03  d E =-.165140E-02  mag=     0.0000
       N       E                     dE             d eps       ncg     rms          rms(c)
DAV:   1    -0.437634109552E+03   -0.48064E-03   -0.49095E-01  2560   0.200E+00    0.100E-01
DAV:   2    -0.437634787214E+03   -0.67766E-03   -0.85688E-03  3208   0.231E-01    0.711E-02
DAV:   3    -0.437634778223E+03    0.89906E-05   -0.46915E-04  3344   0.639E-02    0.306E-02
DAV:   4    -0.437634803118E+03   -0.24895E-04   -0.87983E-05  2960   0.282E-02    0.106E-02
DAV:   5    -0.437634812424E+03   -0.93056E-05   -0.13203E-05  2008   0.153E-02
  46 F= -.43763481E+03 E0= -.43763157E+03  d E =-.118063E-02  mag=    -0.0000
       N       E                     dE             d eps       ncg     rms          rms(c)
DAV:   1    -0.437634820221E+03   -0.17103E-04   -0.49712E-03  2688   0.202E-01    0.101E-02
DAV:   2    -0.437634828568E+03   -0.83462E-05   -0.99377E-05  2904   0.283E-02
  47 F= -.43763483E+03 E0= -.43763159E+03  d E =-.119678E-02  mag=    -0.0000
       N       E                     dE             d eps       ncg     rms          rms(c)
DAV:   1    -0.437635082431E+03   -0.26221E-03   -0.49498E-01  2560   0.198E+00    0.104E-01
DAV:   2    -0.437635757902E+03   -0.67547E-03   -0.87852E-03  3296   0.235E-01    0.737E-02
DAV:   3    -0.437635740910E+03    0.16992E-04   -0.56101E-04  3344   0.696E-02    0.313E-02
DAV:   4    -0.437635767230E+03   -0.26320E-04   -0.10576E-04  2976   0.296E-02    0.122E-02
DAV:   5    -0.437635779049E+03   -0.11818E-04   -0.11646E-05  1904   0.130E-02    0.486E-03
DAV:   6    -0.437635784209E+03   -0.51600E-05   -0.81738E-06  1984   0.117E-02
  48 F= -.43763578E+03 E0= -.43763254E+03  d E =-.955641E-03  mag=    -0.0000
       N       E                     dE             d eps       ncg     rms          rms(c)
DAV:   1    -0.437635787625E+03   -0.85770E-05   -0.50739E-03  2640   0.201E-01    0.104E-02
DAV:   2    -0.437635795407E+03   -0.77815E-05   -0.94065E-05  2920   0.247E-02
  49 F= -.43763580E+03 E0= -.43763256E+03  d E =-.966840E-03  mag=    -0.0000
       N       E                     dE             d eps       ncg     rms          rms(c)
DAV:   1    -0.437636003930E+03   -0.21630E-03   -0.50512E-01  2560   0.200E+00    0.104E-01
DAV:   2    -0.437636694256E+03   -0.69033E-03   -0.89305E-03  3248   0.236E-01    0.739E-02
DAV:   3    -0.437636680327E+03    0.13929E-04   -0.55138E-04  3424   0.682E-02    0.321E-02
DAV:   4    -0.437636707600E+03   -0.27272E-04   -0.99283E-05  2976   0.281E-02    0.117E-02
DAV:   5    -0.437636719925E+03   -0.12325E-04   -0.98178E-06  1880   0.998E-03    0.445E-03
DAV:   6    -0.437636724676E+03   -0.47506E-05   -0.41121E-06  1896   0.726E-03
  50 F= -.43763672E+03 E0= -.43763349E+03  d E =-.929269E-03  mag=    -0.0000
       N       E                     dE             d eps       ncg     rms          rms(c)
DAV:   1    -0.437636722813E+03   -0.28885E-05   -0.33624E-02  2624   0.516E-01    0.263E-02
DAV:   2    -0.437636767169E+03   -0.44356E-04   -0.60163E-04  3088   0.614E-02    0.189E-02
DAV:   3    -0.437636769151E+03   -0.19821E-05   -0.32596E-05  2512   0.180E-02
  51 F= -.43763677E+03 E0= -.43763353E+03  d E =-.973744E-03  mag=     0.0000
       N       E                     dE             d eps       ncg     rms          rms(c)
DAV:   1    -0.437636970467E+03   -0.20330E-03   -0.43133E-01  2560   0.187E+00    0.985E-02
DAV:   2    -0.437637547362E+03   -0.57690E-03   -0.76447E-03  3248   0.221E-01    0.705E-02
DAV:   3    -0.437637528555E+03    0.18807E-04   -0.44956E-04  3424   0.613E-02    0.312E-02
DAV:   4    -0.437637551308E+03   -0.22753E-04   -0.80252E-05  2944   0.257E-02    0.103E-02
DAV:   5    -0.437637561918E+03   -0.10611E-04   -0.90374E-06  1824   0.990E-03    0.374E-03
DAV:   6    -0.437637566221E+03   -0.43032E-05   -0.37062E-06  1880   0.734E-03
  52 F= -.43763757E+03 E0= -.43763433E+03  d E =-.797070E-03  mag=     0.0000
       N       E                     dE             d eps       ncg     rms          rms(c)
DAV:   1    -0.437637566200E+03   -0.42822E-05   -0.26331E-02  2624   0.461E-01    0.239E-02
DAV:   2    -0.437637599982E+03   -0.33782E-04   -0.47386E-04  3072   0.553E-02    0.173E-02
DAV:   3    -0.437637601453E+03   -0.14711E-05   -0.23598E-05  2136   0.158E-02
  53 F= -.43763760E+03 E0= -.43763436E+03  d E =-.832302E-03  mag=    -0.0000
       N       E                     dE             d eps       ncg     rms          rms(c)
DAV:   1    -0.437637769256E+03   -0.16927E-03   -0.40296E-01  2560   0.184E+00    0.956E-02
DAV:   2    -0.437638301986E+03   -0.53273E-03   -0.71120E-03  3264   0.216E-01    0.696E-02
DAV:   3    -0.437638284006E+03    0.17979E-04   -0.40489E-04  3400   0.591E-02    0.311E-02
DAV:   4    -0.437638304584E+03   -0.20578E-04   -0.74299E-05  2888   0.246E-02    0.104E-02
DAV:   5    -0.437638313456E+03   -0.88715E-05   -0.75132E-06  1856   0.103E-02
  54 F= -.43763831E+03 E0= -.43763508E+03  d E =-.712003E-03  mag=     0.0000
       N       E                     dE             d eps       ncg     rms          rms(c)
DAV:   1    -0.437638316319E+03   -0.11735E-04   -0.19368E-02  2624   0.403E-01    0.208E-02
DAV:   2    -0.437638342000E+03   -0.25681E-04   -0.35374E-04  3088   0.490E-02    0.153E-02
DAV:   3    -0.437638344058E+03   -0.20573E-05   -0.17282E-05  2024   0.146E-02
  55 F= -.43763834E+03 E0= -.43763511E+03  d E =-.742604E-03  mag=    -0.0000
       N       E                     dE             d eps       ncg     rms          rms(c)
DAV:   1    -0.437638592562E+03   -0.25056E-03   -0.20011E-01  2560   0.132E+00    0.689E-02
DAV:   2    -0.437638841120E+03   -0.24856E-03   -0.34919E-03  3224   0.157E-01    0.515E-02
DAV:   3    -0.437638829341E+03    0.11779E-04   -0.20880E-04  3352   0.449E-02    0.218E-02
DAV:   4    -0.437638841784E+03   -0.12442E-04   -0.43262E-05  2560   0.206E-02    0.777E-03
DAV:   5    -0.437638846740E+03   -0.49563E-05   -0.89103E-06  1928   0.125E-02
  56 F= -.43763885E+03 E0= -.43763561E+03  d E =-.502682E-03  mag=     0.0000
       N       E                     dE             d eps       ncg     rms          rms(c)
DAV:   1    -0.437638854189E+03   -0.12405E-04   -0.13183E-02  2632   0.340E-01    0.174E-02
DAV:   2    -0.437638870646E+03   -0.16457E-04   -0.24375E-04  3056   0.430E-02    0.131E-02
DAV:   3    -0.437638871636E+03   -0.99045E-06   -0.13970E-05  1864   0.145E-02
  57 F= -.43763887E+03 E0= -.43763563E+03  d E =-.527579E-03  mag=    -0.0000
       N       E                     dE             d eps       ncg     rms          rms(c)
DAV:   1    -0.437639052087E+03   -0.18144E-03   -0.14523E-01  2560   0.113E+00    0.595E-02
DAV:   2    -0.437639215944E+03   -0.16386E-03   -0.24372E-03  3232   0.133E-01    0.449E-02
DAV:   3    -0.437639204263E+03    0.11681E-04   -0.12917E-04  3128   0.363E-02    0.190E-02
DAV:   4    -0.437639213315E+03   -0.90519E-05   -0.34102E-05  2424   0.203E-02
  58 F= -.43763921E+03 E0= -.43763598E+03  d E =-.341678E-03  mag=    -0.0000
       N       E                     dE             d eps       ncg     rms          rms(c)
DAV:   1    -0.437639220416E+03   -0.16154E-04   -0.40468E-03  2704   0.190E-01    0.103E-02
DAV:   2    -0.437639224636E+03   -0.42193E-05   -0.72309E-05  2760   0.261E-02
  59 F= -.43763922E+03 E0= -.43763599E+03  d E =-.352999E-03  mag=     0.0000
       N       E                     dE             d eps       ncg     rms          rms(c)
DAV:   1    -0.437639362564E+03   -0.14215E-03   -0.88228E-02  2560   0.881E-01    0.491E-02
DAV:   2    -0.437639451925E+03   -0.89361E-04   -0.14425E-03  3024   0.105E-01    0.366E-02
DAV:   3    -0.437639444349E+03    0.75757E-05   -0.93366E-05  2856   0.308E-02
  60 F= -.43763944E+03 E0= -.43763621E+03  d E =-.219714E-03  mag=     0.0000
       N       E                     dE             d eps       ncg     rms          rms(c)
DAV:   1    -0.437639450168E+03    0.17573E-05   -0.23265E-05  2120   0.173E-02    0.456E-03
DAV:   2    -0.437639451510E+03   -0.13424E-05   -0.60760E-06  1832   0.104E-02
  61 F= -.43763945E+03 E0= -.43763621E+03  d E =-.226874E-03  mag=     0.0000
       N       E                     dE             d eps       ncg     rms          rms(c)
DAV:   1    -0.437639598979E+03   -0.14881E-03   -0.53832E-02  2624   0.684E-01    0.358E-02
DAV:   2    -0.437639657312E+03   -0.58333E-04   -0.90624E-04  3032   0.821E-02    0.269E-02
DAV:   3    -0.437639652625E+03    0.46874E-05   -0.51796E-05  2544   0.245E-02
  62 F= -.43763965E+03 E0= -.43763642E+03  d E =-.201115E-03  mag=    -0.0000
       N       E                     dE             d eps       ncg     rms          rms(c)
DAV:   1    -0.437639676047E+03   -0.18734E-04   -0.11617E-02  2720   0.318E-01    0.184E-02
DAV:   2    -0.437639686558E+03   -0.10511E-04   -0.18749E-04  3064   0.387E-02    0.133E-02
DAV:   3    -0.437639687895E+03   -0.13377E-05   -0.14472E-05  1928   0.155E-02
  63 F= -.43763969E+03 E0= -.43763645E+03  d E =-.236385E-03  mag=     0.0000
       N       E                     dE             d eps       ncg     rms          rms(c)
DAV:   1    -0.437639809043E+03   -0.12249E-03   -0.34243E-02  2640   0.540E-01    0.276E-02
DAV:   2    -0.437639845794E+03   -0.36751E-04   -0.57184E-04  3120   0.646E-02    0.206E-02
DAV:   3    -0.437639844408E+03    0.13859E-05   -0.32013E-05  2352   0.206E-02
  64 F= -.43763984E+03 E0= -.43763661E+03  d E =-.156513E-03  mag=    -0.0000
       N       E                     dE             d eps       ncg     rms          rms(c)
DAV:   1    -0.437639858993E+03   -0.13199E-04   -0.62278E-02  2624   0.728E-01    0.380E-02
DAV:   2    -0.437639927393E+03   -0.68400E-04   -0.10294E-03  3120   0.862E-02    0.282E-02
DAV:   3    -0.437639924351E+03    0.30426E-05   -0.60707E-05  2704   0.274E-02
  65 F= -.43763992E+03 E0= -.43763669E+03  d E =-.236455E-03  mag=     0.0000
       N       E                     dE             d eps       ncg     rms          rms(c)
DAV:   1    -0.437640003680E+03   -0.76287E-04   -0.47789E-02  2656   0.631E-01    0.325E-02
DAV:   2    -0.437640057240E+03   -0.53560E-04   -0.79834E-04  3160   0.753E-02    0.240E-02
DAV:   3    -0.437640057932E+03   -0.69179E-06   -0.49806E-05  2552   0.252E-02
  66 F= -.43764006E+03 E0= -.43763682E+03  d E =-.133581E-03  mag=    -0.0000
       N       E                     dE             d eps       ncg     rms          rms(c)
DAV:   1    -0.437640064178E+03   -0.69381E-05   -0.28296E-02  2656   0.486E-01    0.252E-02
DAV:   2    -0.437640094909E+03   -0.30731E-04   -0.47658E-04  3144   0.592E-02    0.185E-02
DAV:   3    -0.437640096878E+03   -0.19683E-05   -0.32906E-05  2296   0.220E-02
  67 F= -.43764010E+03 E0= -.43763686E+03  d E =-.172527E-03  mag=     0.0000
       N       E                     dE             d eps       ncg     rms          rms(c)
DAV:   1    -0.437640179758E+03   -0.84848E-04   -0.37039E-02  2640   0.554E-01    0.281E-02
DAV:   2    -0.437640222683E+03   -0.42926E-04   -0.64785E-04  3128   0.683E-02    0.208E-02
DAV:   3    -0.437640223629E+03   -0.94600E-06   -0.42834E-05  2432   0.241E-02
  68 F= -.43764022E+03 E0= -.43763699E+03  d E =-.126752E-03  mag=    -0.0000
