  51  51   0   0
  0.7707117E+02  0.1230000E-08  0.1230000E-08  0.3000000E-08  0.5000000E-15
  1.000000000000000E-004
  CAR 
 Li defective graphene MACE training lab 
      4.84372925    -54.18446343  301     -1.88388833      1.00000000
    -54.184  0.0000E+00  0.0000E+00  0.0000E+00  0.0000E+00
    -53.988  0.0000E+00  0.0000E+00  0.0000E+00  0.0000E+00
    -53.791  0.0000E+00  0.0000E+00  0.0000E+00  0.0000E+00
    -53.594  0.0000E+00  0.0000E+00  0.0000E+00  0.0000E+00
    -53.397  0.0000E+00  0.0000E+00  0.0000E+00  0.0000E+00
    -53.201  0.0000E+00  0.0000E+00  0.0000E+00  0.0000E+00
    -53.004  0.0000E+00  0.0000E+00  0.0000E+00  0.0000E+00
    -52.807  0.0000E+00  0.0000E+00  0.0000E+00  0.0000E+00
    -52.610  0.0000E+00  0.0000E+00  0.0000E+00  0.0000E+00
    -52.414  0.0000E+00  0.0000E+00  0.0000E+00  0.0000E+00
    -52.217  0.0000E+00  0.0000E+00  0.0000E+00  0.0000E+00
    -52.020  0.0000E+00  0.0000E+00  0.0000E+00  0.0000E+00
    -51.823  0.0000E+00  0.0000E+00  0.0000E+00  0.0000E+00
    -51.627  0.1011E-02  0.1011E-02  0.1989E-03  0.1989E-03
    -51.430  0.4972E+01  0.4972E+01  0.9785E+00  0.9785E+00
    -51.233  0.1093E+00  0.1093E+00  0.1000E+01  0.1000E+01
    -51.036  0.0000E+00  0.0000E+00  0.1000E+01  0.1000E+01
    -50.840  0.0000E+00  0.0000E+00  0.1000E+01  0.1000E+01
    -50.643  0.0000E+00  0.0000E+00  0.1000E+01  0.1000E+01
    -50.446  0.0000E+00  0.0000E+00  0.1000E+01  0.1000E+01
    -50.249  0.0000E+00  0.0000E+00  0.1000E+01  0.1000E+01
    -50.052  0.0000E+00  0.0000E+00  0.1000E+01  0.1000E+01
    -49.856  0.0000E+00  0.0000E+00  0.1000E+01  0.1000E+01
    -49.659  0.0000E+00  0.0000E+00  0.1000E+01  0.1000E+01
    -49.462  0.0000E+00  0.0000E+00  0.1000E+01  0.1000E+01
    -49.265  0.0000E+00  0.0000E+00  0.1000E+01  0.1000E+01
    -49.069  0.0000E+00  0.0000E+00  0.1000E+01  0.1000E+01
    -48.872  0.0000E+00  0.0000E+00  0.1000E+01  0.1000E+01
    -48.675  0.0000E+00  0.0000E+00  0.1000E+01  0.1000E+01
    -48.478  0.0000E+00  0.0000E+00  0.1000E+01  0.1000E+01
    -48.282  0.0000E+00  0.0000E+00  0.1000E+01  0.1000E+01
    -48.085  0.0000E+00  0.0000E+00  0.1000E+01  0.1000E+01
    -47.888  0.0000E+00  0.0000E+00  0.1000E+01  0.1000E+01
    -47.691  0.0000E+00  0.0000E+00  0.1000E+01  0.1000E+01
    -47.495  0.0000E+00  0.0000E+00  0.1000E+01  0.1000E+01
    -47.298  0.0000E+00  0.0000E+00  0.1000E+01  0.1000E+01
    -47.101  0.0000E+00  0.0000E+00  0.1000E+01  0.1000E+01
    -46.904  0.0000E+00  0.0000E+00  0.1000E+01  0.1000E+01
    -46.708  0.0000E+00  0.0000E+00  0.1000E+01  0.1000E+01
    -46.511  0.0000E+00  0.0000E+00  0.1000E+01  0.1000E+01
    -46.314  0.0000E+00  0.0000E+00  0.1000E+01  0.1000E+01
    -46.117  0.0000E+00  0.0000E+00  0.1000E+01  0.1000E+01
    -45.921  0.0000E+00  0.0000E+00  0.1000E+01  0.1000E+01
    -45.724  0.0000E+00  0.0000E+00  0.1000E+01  0.1000E+01
    -45.527  0.0000E+00  0.0000E+00  0.1000E+01  0.1000E+01
    -45.330  0.0000E+00  0.0000E+00  0.1000E+01  0.1000E+01
    -45.133  0.0000E+00  0.0000E+00  0.1000E+01  0.1000E+01
    -44.937  0.0000E+00  0.0000E+00  0.1000E+01  0.1000E+01
    -44.740  0.0000E+00  0.0000E+00  0.1000E+01  0.1000E+01
    -44.543  0.0000E+00  0.0000E+00  0.1000E+01  0.1000E+01
    -44.346  0.0000E+00  0.0000E+00  0.1000E+01  0.1000E+01
    -44.150  0.0000E+00  0.0000E+00  0.1000E+01  0.1000E+01
    -43.953  0.0000E+00  0.0000E+00  0.1000E+01  0.1000E+01
    -43.756  0.0000E+00  0.0000E+00  0.1000E+01  0.1000E+01
    -43.559  0.0000E+00  0.0000E+00  0.1000E+01  0.1000E+01
    -43.363  0.0000E+00  0.0000E+00  0.1000E+01  0.1000E+01
    -43.166  0.0000E+00  0.0000E+00  0.1000E+01  0.1000E+01
    -42.969  0.0000E+00  0.0000E+00  0.1000E+01  0.1000E+01
    -42.772  0.0000E+00  0.0000E+00  0.1000E+01  0.1000E+01
    -42.576  0.0000E+00  0.0000E+00  0.1000E+01  0.1000E+01
    -42.379  0.0000E+00  0.0000E+00  0.1000E+01  0.1000E+01
    -42.182  0.0000E+00  0.0000E+00  0.1000E+01  0.1000E+01
    -41.985  0.0000E+00  0.0000E+00  0.1000E+01  0.1000E+01
    -41.789  0.0000E+00  0.0000E+00  0.1000E+01  0.1000E+01
    -41.592  0.0000E+00  0.0000E+00  0.1000E+01  0.1000E+01
    -41.395  0.0000E+00  0.0000E+00  0.1000E+01  0.1000E+01
    -41.198  0.0000E+00  0.0000E+00  0.1000E+01  0.1000E+01
    -41.002  0.0000E+00  0.0000E+00  0.1000E+01  0.1000E+01
    -40.805  0.0000E+00  0.0000E+00  0.1000E+01  0.1000E+01
    -40.608  0.0000E+00  0.0000E+00  0.1000E+01  0.1000E+01
    -40.411  0.0000E+00  0.0000E+00  0.1000E+01  0.1000E+01
    -40.214  0.0000E+00  0.0000E+00  0.1000E+01  0.1000E+01
    -40.018  0.0000E+00  0.0000E+00  0.1000E+01  0.1000E+01
    -39.821  0.0000E+00  0.0000E+00  0.1000E+01  0.1000E+01
    -39.624  0.0000E+00  0.0000E+00  0.1000E+01  0.1000E+01
    -39.427  0.0000E+00  0.0000E+00  0.1000E+01  0.1000E+01
    -39.231  0.0000E+00  0.0000E+00  0.1000E+01  0.1000E+01
    -39.034  0.0000E+00  0.0000E+00  0.1000E+01  0.1000E+01
    -38.837  0.0000E+00  0.0000E+00  0.1000E+01  0.1000E+01
    -38.640  0.0000E+00  0.0000E+00  0.1000E+01  0.1000E+01
    -38.444  0.0000E+00  0.0000E+00  0.1000E+01  0.1000E+01
    -38.247  0.0000E+00  0.0000E+00  0.1000E+01  0.1000E+01
    -38.050  0.0000E+00  0.0000E+00  0.1000E+01  0.1000E+01
    -37.853  0.0000E+00  0.0000E+00  0.1000E+01  0.1000E+01
    -37.657  0.0000E+00  0.0000E+00  0.1000E+01  0.1000E+01
    -37.460  0.0000E+00  0.0000E+00  0.1000E+01  0.1000E+01
    -37.263  0.0000E+00  0.0000E+00  0.1000E+01  0.1000E+01
    -37.066  0.0000E+00  0.0000E+00  0.1000E+01  0.1000E+01
    -36.870  0.0000E+00  0.0000E+00  0.1000E+01  0.1000E+01
    -36.673  0.0000E+00  0.0000E+00  0.1000E+01  0.1000E+01
    -36.476  0.0000E+00  0.0000E+00  0.1000E+01  0.1000E+01
    -36.279  0.0000E+00  0.0000E+00  0.1000E+01  0.1000E+01
    -36.082  0.0000E+00  0.0000E+00  0.1000E+01  0.1000E+01
    -35.886  0.0000E+00  0.0000E+00  0.1000E+01  0.1000E+01
    -35.689  0.0000E+00  0.0000E+00  0.1000E+01  0.1000E+01
    -35.492  0.0000E+00  0.0000E+00  0.1000E+01  0.1000E+01
    -35.295  0.0000E+00  0.0000E+00  0.1000E+01  0.1000E+01
    -35.099  0.0000E+00  0.0000E+00  0.1000E+01  0.1000E+01
    -34.902  0.0000E+00  0.0000E+00  0.1000E+01  0.1000E+01
    -34.705  0.0000E+00  0.0000E+00  0.1000E+01  0.1000E+01
    -34.508  0.0000E+00  0.0000E+00  0.1000E+01  0.1000E+01
    -34.312  0.0000E+00  0.0000E+00  0.1000E+01  0.1000E+01
    -34.115  0.0000E+00  0.0000E+00  0.1000E+01  0.1000E+01
    -33.918  0.0000E+00  0.0000E+00  0.1000E+01  0.1000E+01
    -33.721  0.0000E+00  0.0000E+00  0.1000E+01  0.1000E+01
    -33.525  0.0000E+00  0.0000E+00  0.1000E+01  0.1000E+01
    -33.328  0.0000E+00  0.0000E+00  0.1000E+01  0.1000E+01
    -33.131  0.0000E+00  0.0000E+00  0.1000E+01  0.1000E+01
    -32.934  0.0000E+00  0.0000E+00  0.1000E+01  0.1000E+01
    -32.738  0.0000E+00  0.0000E+00  0.1000E+01  0.1000E+01
    -32.541  0.0000E+00  0.0000E+00  0.1000E+01  0.1000E+01
    -32.344  0.0000E+00  0.0000E+00  0.1000E+01  0.1000E+01
    -32.147  0.0000E+00  0.0000E+00  0.1000E+01  0.1000E+01
    -31.951  0.0000E+00  0.0000E+00  0.1000E+01  0.1000E+01
    -31.754  0.0000E+00  0.0000E+00  0.1000E+01  0.1000E+01
    -31.557  0.0000E+00  0.0000E+00  0.1000E+01  0.1000E+01
    -31.360  0.0000E+00  0.0000E+00  0.1000E+01  0.1000E+01
    -31.163  0.0000E+00  0.0000E+00  0.1000E+01  0.1000E+01
    -30.967  0.0000E+00  0.0000E+00  0.1000E+01  0.1000E+01
    -30.770  0.0000E+00  0.0000E+00  0.1000E+01  0.1000E+01
    -30.573  0.0000E+00  0.0000E+00  0.1000E+01  0.1000E+01
    -30.376  0.0000E+00  0.0000E+00  0.1000E+01  0.1000E+01
    -30.180  0.0000E+00  0.0000E+00  0.1000E+01  0.1000E+01
    -29.983  0.0000E+00  0.0000E+00  0.1000E+01  0.1000E+01
    -29.786  0.0000E+00  0.0000E+00  0.1000E+01  0.1000E+01
    -29.589  0.0000E+00  0.0000E+00  0.1000E+01  0.1000E+01
    -29.393  0.0000E+00  0.0000E+00  0.1000E+01  0.1000E+01
    -29.196  0.0000E+00  0.0000E+00  0.1000E+01  0.1000E+01
    -28.999  0.0000E+00  0.0000E+00  0.1000E+01  0.1000E+01
    -28.802  0.0000E+00  0.0000E+00  0.1000E+01  0.1000E+01
    -28.606  0.0000E+00  0.0000E+00  0.1000E+01  0.1000E+01
    -28.409  0.0000E+00  0.0000E+00  0.1000E+01  0.1000E+01
    -28.212  0.0000E+00  0.0000E+00  0.1000E+01  0.1000E+01
    -28.015  0.0000E+00  0.0000E+00  0.1000E+01  0.1000E+01
    -27.819  0.0000E+00  0.0000E+00  0.1000E+01  0.1000E+01
    -27.622  0.0000E+00  0.0000E+00  0.1000E+01  0.1000E+01
    -27.425  0.0000E+00  0.0000E+00  0.1000E+01  0.1000E+01
    -27.228  0.0000E+00  0.0000E+00  0.1000E+01  0.1000E+01
    -27.031  0.0000E+00  0.0000E+00  0.1000E+01  0.1000E+01
    -26.835  0.0000E+00  0.0000E+00  0.1000E+01  0.1000E+01
    -26.638  0.0000E+00  0.0000E+00  0.1000E+01  0.1000E+01
    -26.441  0.0000E+00  0.0000E+00  0.1000E+01  0.1000E+01
    -26.244  0.0000E+00  0.0000E+00  0.1000E+01  0.1000E+01
    -26.048  0.0000E+00  0.0000E+00  0.1000E+01  0.1000E+01
    -25.851  0.0000E+00  0.0000E+00  0.1000E+01  0.1000E+01
    -25.654  0.0000E+00  0.0000E+00  0.1000E+01  0.1000E+01
    -25.457  0.0000E+00  0.0000E+00  0.1000E+01  0.1000E+01
    -25.261  0.0000E+00  0.0000E+00  0.1000E+01  0.1000E+01
    -25.064  0.0000E+00  0.0000E+00  0.1000E+01  0.1000E+01
    -24.867  0.0000E+00  0.0000E+00  0.1000E+01  0.1000E+01
    -24.670  0.0000E+00  0.0000E+00  0.1000E+01  0.1000E+01
    -24.474  0.0000E+00  0.0000E+00  0.1000E+01  0.1000E+01
    -24.277  0.0000E+00  0.0000E+00  0.1000E+01  0.1000E+01
    -24.080  0.0000E+00  0.0000E+00  0.1000E+01  0.1000E+01
    -23.883  0.0000E+00  0.0000E+00  0.1000E+01  0.1000E+01
    -23.687  0.0000E+00  0.0000E+00  0.1000E+01  0.1000E+01
    -23.490  0.0000E+00  0.0000E+00  0.1000E+01  0.1000E+01
    -23.293  0.0000E+00  0.0000E+00  0.1000E+01  0.1000E+01
    -23.096  0.0000E+00  0.0000E+00  0.1000E+01  0.1000E+01
    -22.900  0.0000E+00  0.0000E+00  0.1000E+01  0.1000E+01
    -22.703  0.5856E-13  0.5853E-13  0.1000E+01  0.1000E+01
    -22.506  0.2129E-01  0.2129E-01  0.1004E+01  0.1004E+01
    -22.309  0.3772E+01  0.3772E+01  0.1746E+01  0.1746E+01
    -22.112  0.1299E+01  0.1299E+01  0.2002E+01  0.2002E+01
    -21.916  0.5580E+01  0.5580E+01  0.3100E+01  0.3100E+01
    -21.719  0.3857E+00  0.3857E+00  0.3176E+01  0.3176E+01
    -21.522  0.7172E+01  0.7172E+01  0.4587E+01  0.4587E+01
    -21.325  0.2435E+01  0.2435E+01  0.5066E+01  0.5066E+01
    -21.129  0.2610E+01  0.2610E+01  0.5580E+01  0.5580E+01
    -20.932  0.7731E+01  0.7731E+01  0.7101E+01  0.7101E+01
    -20.735  0.6180E+00  0.6179E+00  0.7223E+01  0.7223E+01
    -20.538  0.2854E+01  0.2854E+01  0.7784E+01  0.7784E+01
    -20.342  0.6714E+01  0.6714E+01  0.9105E+01  0.9105E+01
    -20.145  0.4926E+01  0.4926E+01  0.1007E+02  0.1007E+02
    -19.948  0.1881E+01  0.1881E+01  0.1044E+02  0.1044E+02
    -19.751  0.2943E+01  0.2943E+01  0.1102E+02  0.1102E+02
    -19.555  0.3916E+01  0.3916E+01  0.1179E+02  0.1179E+02
    -19.358  0.6693E+01  0.6693E+01  0.1311E+02  0.1311E+02
    -19.161  0.4669E+01  0.4669E+01  0.1403E+02  0.1403E+02
    -18.964  0.2107E+01  0.2107E+01  0.1444E+02  0.1444E+02
    -18.768  0.1428E+00  0.1428E+00  0.1447E+02  0.1447E+02
    -18.571  0.8495E+01  0.8495E+01  0.1614E+02  0.1614E+02
    -18.374  0.5327E+01  0.5327E+01  0.1719E+02  0.1719E+02
    -18.177  0.2976E+01  0.2976E+01  0.1778E+02  0.1778E+02
    -17.981  0.5447E+01  0.5447E+01  0.1885E+02  0.1885E+02
    -17.784  0.1329E+01  0.1329E+01  0.1911E+02  0.1911E+02
    -17.587  0.9276E+00  0.9275E+00  0.1929E+02  0.1929E+02
    -17.390  0.1204E+02  0.1204E+02  0.2166E+02  0.2166E+02
    -17.193  0.3803E+01  0.3803E+01  0.2241E+02  0.2241E+02
    -16.997  0.6516E+01  0.6516E+01  0.2369E+02  0.2369E+02
    -16.800  0.4332E+00  0.4333E+00  0.2378E+02  0.2378E+02
    -16.603  0.2641E+00  0.2641E+00  0.2383E+02  0.2383E+02
    -16.406  0.5451E+01  0.5450E+01  0.2490E+02  0.2490E+02
    -16.210  0.4450E+01  0.4450E+01  0.2578E+02  0.2578E+02
    -16.013  0.2382E+01  0.2382E+01  0.2625E+02  0.2625E+02
    -15.816  0.1007E+01  0.1007E+01  0.2644E+02  0.2644E+02
    -15.619  0.3439E+01  0.3439E+01  0.2712E+02  0.2712E+02
    -15.423  0.9497E+01  0.9496E+01  0.2899E+02  0.2899E+02
    -15.226  0.2875E+01  0.2876E+01  0.2956E+02  0.2956E+02
    -15.029  0.2130E-01  0.2130E-01  0.2956E+02  0.2956E+02
    -14.832  0.1245E+02  0.1245E+02  0.3201E+02  0.3201E+02
    -14.636  0.1082E+01  0.1082E+01  0.3222E+02  0.3222E+02
    -14.439  0.5689E+01  0.5689E+01  0.3334E+02  0.3334E+02
    -14.242  0.1200E+01  0.1200E+01  0.3358E+02  0.3358E+02
    -14.045  0.3782E+01  0.3782E+01  0.3432E+02  0.3432E+02
    -13.849  0.7552E+01  0.7552E+01  0.3581E+02  0.3581E+02
    -13.652  0.2106E+01  0.2106E+01  0.3622E+02  0.3622E+02
    -13.455  0.1316E+00  0.1316E+00  0.3625E+02  0.3625E+02
    -13.258  0.6304E+01  0.6304E+01  0.3749E+02  0.3749E+02
    -13.061  0.4844E+01  0.4844E+01  0.3844E+02  0.3844E+02
    -12.865  0.3594E+01  0.3594E+01  0.3915E+02  0.3915E+02
    -12.668  0.6584E+01  0.6584E+01  0.4044E+02  0.4044E+02
    -12.471  0.1460E+01  0.1460E+01  0.4073E+02  0.4073E+02
    -12.274  0.9704E+01  0.9704E+01  0.4264E+02  0.4264E+02
    -12.078  0.2390E+01  0.2390E+01  0.4311E+02  0.4311E+02
    -11.881  0.7660E-01  0.7659E-01  0.4313E+02  0.4313E+02
    -11.684  0.4477E+01  0.4477E+01  0.4401E+02  0.4401E+02
    -11.487  0.1507E+02  0.1507E+02  0.4697E+02  0.4697E+02
    -11.291  0.7075E+00  0.7076E+00  0.4711E+02  0.4711E+02
    -11.094  0.5070E+01  0.5070E+01  0.4811E+02  0.4811E+02
    -10.897  0.1707E+01  0.1707E+01  0.4844E+02  0.4844E+02
    -10.700  0.7722E+01  0.7722E+01  0.4996E+02  0.4996E+02
    -10.504  0.6469E+01  0.6469E+01  0.5124E+02  0.5124E+02
    -10.307  0.1121E+02  0.1121E+02  0.5344E+02  0.5344E+02
    -10.110  0.7220E+01  0.7220E+01  0.5486E+02  0.5486E+02
     -9.913  0.5401E+01  0.5401E+01  0.5592E+02  0.5592E+02
     -9.717  0.1372E+02  0.1372E+02  0.5862E+02  0.5862E+02
     -9.520  0.1107E+02  0.1107E+02  0.6080E+02  0.6080E+02
     -9.323  0.1027E+02  0.1027E+02  0.6282E+02  0.6282E+02
     -9.126  0.1320E+02  0.1320E+02  0.6542E+02  0.6542E+02
     -8.930  0.1772E+02  0.1772E+02  0.6891E+02  0.6891E+02
     -8.733  0.5398E+01  0.5398E+01  0.6997E+02  0.6997E+02
     -8.536  0.1091E+02  0.1091E+02  0.7212E+02  0.7212E+02
     -8.339  0.2442E+01  0.2442E+01  0.7260E+02  0.7260E+02
     -8.142  0.1597E+02  0.1597E+02  0.7574E+02  0.7574E+02
     -7.946  0.1299E+02  0.1299E+02  0.7830E+02  0.7830E+02
     -7.749  0.4711E+01  0.4711E+01  0.7922E+02  0.7922E+02
     -7.552  0.3409E+00  0.3408E+00  0.7929E+02  0.7929E+02
     -7.355  0.8495E+01  0.8495E+01  0.8096E+02  0.8096E+02
     -7.159  0.1695E+02  0.1695E+02  0.8429E+02  0.8429E+02
     -6.962  0.3699E+01  0.3699E+01  0.8502E+02  0.8502E+02
     -6.765  0.7591E+01  0.7591E+01  0.8652E+02  0.8652E+02
     -6.568  0.3641E+01  0.3641E+01  0.8723E+02  0.8723E+02
     -6.372  0.4828E+01  0.4828E+01  0.8818E+02  0.8818E+02
     -6.175  0.1046E+02  0.1046E+02  0.9024E+02  0.9024E+02
     -5.978  0.8500E+01  0.8500E+01  0.9191E+02  0.9191E+02
     -5.781  0.4499E+01  0.4499E+01  0.9280E+02  0.9280E+02
     -5.585  0.6669E+01  0.6669E+01  0.9411E+02  0.9411E+02
     -5.388  0.2485E+01  0.2485E+01  0.9460E+02  0.9460E+02
     -5.191  0.3004E+01  0.3004E+01  0.9519E+02  0.9519E+02
     -4.994  0.8938E+01  0.8938E+01  0.9695E+02  0.9695E+02
     -4.798  0.9290E+01  0.9291E+01  0.9878E+02  0.9878E+02
     -4.601  0.8701E-03  0.8706E-03  0.9878E+02  0.9878E+02
     -4.404  0.1368E+01  0.1368E+01  0.9905E+02  0.9905E+02
     -4.207  0.1961E+01  0.1961E+01  0.9943E+02  0.9943E+02
     -4.010  0.3389E+00  0.3388E+00  0.9950E+02  0.9950E+02
     -3.814  0.6496E+01  0.6496E+01  0.1008E+03  0.1008E+03
     -3.617  0.8920E-03  0.8926E-03  0.1008E+03  0.1008E+03
     -3.420  0.0000E+00  0.0000E+00  0.1008E+03  0.1008E+03
     -3.223  0.0000E+00  0.0000E+00  0.1008E+03  0.1008E+03
     -3.027  0.1299E-04  0.1298E-04  0.1008E+03  0.1008E+03
     -2.830  0.1956E+01  0.1956E+01  0.1012E+03  0.1012E+03
     -2.633  0.3030E+00  0.3031E+00  0.1012E+03  0.1012E+03
     -2.436  0.0000E+00  0.0000E+00  0.1012E+03  0.1012E+03
     -2.240  0.0000E+00  0.0000E+00  0.1012E+03  0.1012E+03
     -2.043  0.2325E-05  0.2321E-05  0.1012E+03  0.1012E+03
     -1.846  0.3634E+01  0.3633E+01  0.1019E+03  0.1019E+03
     -1.649  0.4581E+01  0.4581E+01  0.1028E+03  0.1028E+03
     -1.453  0.1690E+01  0.1690E+01  0.1032E+03  0.1032E+03
     -1.256  0.6474E+01  0.6473E+01  0.1044E+03  0.1044E+03
     -1.059  0.8169E+01  0.8169E+01  0.1061E+03  0.1061E+03
     -0.862  0.4265E+01  0.4266E+01  0.1069E+03  0.1069E+03
     -0.666  0.8001E+01  0.8000E+01  0.1085E+03  0.1085E+03
     -0.469  0.5862E+01  0.5862E+01  0.1096E+03  0.1096E+03
     -0.272  0.3065E+01  0.3066E+01  0.1102E+03  0.1102E+03
     -0.075  0.3211E+00  0.3210E+00  0.1103E+03  0.1103E+03
      0.121  0.3186E+01  0.3185E+01  0.1109E+03  0.1109E+03
      0.318  0.6019E+01  0.6017E+01  0.1121E+03  0.1121E+03
      0.515  0.7369E+01  0.7370E+01  0.1135E+03  0.1135E+03
      0.712  0.9602E+01  0.9602E+01  0.1154E+03  0.1154E+03
      0.909  0.5327E+01  0.5312E+01  0.1165E+03  0.1165E+03
      1.105  0.8635E+01  0.8772E+01  0.1182E+03  0.1182E+03
      1.302  0.1136E+02  0.1149E+02  0.1204E+03  0.1205E+03
      1.499  0.1145E+02  0.1175E+02  0.1227E+03  0.1228E+03
      1.696  0.1340E+02  0.1298E+02  0.1253E+03  0.1253E+03
      1.892  0.2188E+02  0.2184E+02  0.1296E+03  0.1296E+03
      2.089  0.1035E+02  0.1032E+02  0.1316E+03  0.1317E+03
      2.286  0.1797E+01  0.1721E+01  0.1320E+03  0.1320E+03
      2.483  0.1145E-03  0.6622E-05  0.1320E+03  0.1320E+03
      2.679  0.0000E+00  0.0000E+00  0.1320E+03  0.1320E+03
      2.876  0.0000E+00  0.0000E+00  0.1320E+03  0.1320E+03
      3.073  0.0000E+00  0.0000E+00  0.1320E+03  0.1320E+03
      3.270  0.0000E+00  0.0000E+00  0.1320E+03  0.1320E+03
      3.466  0.0000E+00  0.0000E+00  0.1320E+03  0.1320E+03
      3.663  0.0000E+00  0.0000E+00  0.1320E+03  0.1320E+03
      3.860  0.0000E+00  0.0000E+00  0.1320E+03  0.1320E+03
      4.057  0.0000E+00  0.0000E+00  0.1320E+03  0.1320E+03
      4.253  0.0000E+00  0.0000E+00  0.1320E+03  0.1320E+03
      4.450  0.0000E+00  0.0000E+00  0.1320E+03  0.1320E+03
      4.647  0.0000E+00  0.0000E+00  0.1320E+03  0.1320E+03
      4.844  0.0000E+00  0.0000E+00  0.1320E+03  0.1320E+03
