 vasp.5.4.1 24Jun15 (build Jul 23 2024 06:15:33) complex                        
  
 executed on           IFC91_ompi date 2026.05.05  12:46:44
 running on   16 total cores
 distrk:  each k-point on   16 cores,    1 groups
 distr:  one band on NCORES_PER_BAND=   4 cores,    4 groups


--------------------------------------------------------------------------------------------------------


 INCAR:
 POTCAR:    PAW_PBE C 08Apr2002                   
 POTCAR:    PAW_PBE Li_sv 10Sep2004               
 POTCAR:    PAW_PBE C 08Apr2002                   
   VRHFIN =C: s2p2                                                              
   LEXCH  = PE                                                                  
   EATOM  =   147.1560 eV,   10.8157 Ry                                         
                                                                                
   TITEL  = PAW_PBE C 08Apr2002                                                 
   LULTRA =        F    use ultrasoft PP ?                                      
   IUNSCR =        1    unscreen: 0-lin 1-nonlin 2-no                           
   RPACOR =    1.200    partial core radius                                     
   POMASS =   12.011; ZVAL   =    4.000    mass and valenz                      
   RCORE  =    1.500    outmost cutoff radius                                   
   RWIGS  =    1.630; RWIGS  =    0.863    wigner-seitz radius (au A)           
   ENMAX  =  400.000; ENMIN  =  300.000 eV                                      
   ICORE  =        2    local potential                                         
   LCOR   =        T    correct aug charges                                     
   LPAW   =        T    paw PP                                                  
   EAUG   =  644.873                                                            
   DEXC   =    0.000                                                            
   RMAX   =    1.529    core radius for proj-oper                               
   RAUG   =    1.300    factor for augmentation sphere                          
   RDEP   =    1.501    radius for radial grids                                 
   RDEPT  =    1.300    core radius for aug-charge                              
                                                                                
   Atomic configuration                                                         
    4 entries                                                                   
     n  l   j            E        occ.                                          
     1  0  0.50      -273.3789   2.0000                                         
     2  0  0.50       -13.7508   2.0000                                         
     2  1  0.50        -5.2854   2.0000                                         
     3  2  1.50        -5.4423   0.0000                                         
   Description                                                                  
     l       E           TYP  RCUT    TYP  RCUT                                 
     0    -13.7508458     23  1.200                                             
     0     -8.2022199     23  1.200                                             
     1     -5.2854383     23  1.500                                             
     1     34.0145650     23  1.500                                             
     2     -5.4423304      7  1.500                                             
  local pseudopotential read in
  partial core-charges read in
  partial kinetic energy density read in
  atomic valenz-charges read in
  non local Contribution for L=           0  read in
    real space projection operators read in
  non local Contribution for L=           0  read in
    real space projection operators read in
  non local Contribution for L=           1  read in
    real space projection operators read in
  non local Contribution for L=           1  read in
    real space projection operators read in
    PAW grid and wavefunctions read in
 
   number of l-projection  operators is LMAX  =           4
   number of lm-projection operators is LMMAX =           8
 
 POTCAR:    PAW_PBE Li_sv 10Sep2004               
   VRHFIN =Li: 1s2s2p                                                           
   LEXCH  = PE                                                                  
   EATOM  =   202.7858 eV,   14.9043 Ry                                         
                                                                                
   TITEL  = PAW_PBE Li_sv 10Sep2004                                             
   LULTRA =        F    use ultrasoft PP ?                                      
   IUNSCR =        0    unscreen: 0-lin 1-nonlin 2-no                           
   RPACOR =    0.000    partial core radius                                     
   POMASS =    7.010; ZVAL   =    3.000    mass and valenz                      
   RCORE  =    1.700    outmost cutoff radius                                   
   RWIGS  =    2.050; RWIGS  =    1.085    wigner-seitz radius (au A)           
   ENMAX  =  499.034; ENMIN  =  374.276 eV                                      
   ICORE  =        2    local potential                                         
   LCOR   =        T    correct aug charges                                     
   LPAW   =        T    paw PP                                                  
   EAUG   =  628.945                                                            
   RMAX   =    1.732    core radius for proj-oper                               
   RAUG   =    1.300    factor for augmentation sphere                          
   RDEP   =    1.728    radius for radial grids                                 
   RDEPT  =    1.329    core radius for aug-charge                              
                                                                                
   Atomic configuration                                                         
    4 entries                                                                   
     n  l   j            E        occ.                                          
     1  0  0.50       -51.8549   2.0000                                         
     2  0  0.50        -2.8742   1.0000                                         
     2  1  0.50        -1.3606   0.0000                                         
     3  2  1.50        -1.3606   0.0000                                         
   Description                                                                  
     l       E           TYP  RCUT    TYP  RCUT                                 
     0    -51.8548813     23  1.400                                             
     0     -2.8742052     23  1.700                                             
     1     -1.3605826     23  1.400                                             
     2     -1.3605826     23  1.400                                             
  local pseudopotential read in
  atomic valenz-charges read in
  non local Contribution for L=           0  read in
    real space projection operators read in
  non local Contribution for L=           0  read in
    real space projection operators read in
  non local Contribution for L=           1  read in
    real space projection operators read in
    PAW grid and wavefunctions read in
 
   number of l-projection  operators is LMAX  =           3
   number of lm-projection operators is LMMAX =           5
 
 Optimization of the real space projectors (new method)

 maximal supplied QI-value         = 25.13
 optimisation between [QCUT,QGAM] = [ 11.56, 23.12] = [ 37.43,149.72] Ry 
 Optimized for a Real-space Cutoff    1.04 Angstroem

   l    n(q)    QCUT    max X(q) W(low)/X(q) W(high)/X(q)  e(spline) 
   0      7    11.561   115.676    0.20E-03    0.60E-03    0.21E-06
   0      7    11.561    87.132    0.20E-03    0.59E-03    0.21E-06
   1      7    11.561     4.429    0.23E-03    0.35E-03    0.15E-06
   1      7    11.561     2.733    0.18E-03    0.25E-03    0.12E-06
 Optimization of the real space projectors (new method)

 maximal supplied QI-value         = 22.11
 optimisation between [QCUT,QGAM] = [ 11.50, 23.22] = [ 37.02,150.92] Ry 
 Optimized for a Real-space Cutoff    1.08 Angstroem

   l    n(q)    QCUT    max X(q) W(low)/X(q) W(high)/X(q)  e(spline) 
   0      7    11.497    10.506    0.36E-04    0.62E-04    0.14E-07
   0      7    11.497     8.367    0.65E-04    0.14E-03    0.28E-07
   1      7    11.497     8.983    0.21E-03    0.43E-03    0.90E-07
  PAW_PBE C 08Apr2002                   :
 energy of atom  1       EATOM= -147.1560
 kinetic energy error for atom=    0.0071 (will be added to EATOM!!)
  PAW_PBE Li_sv 10Sep2004               :
 energy of atom  2       EATOM= -202.7858
 kinetic energy error for atom=    0.0130 (will be added to EATOM!!)
 
 
 POSCAR: C  Li                                   
  positions in direct lattice
  velocities in cartesian coordinates
 exchange correlation table for  LEXCH =        8
   RHO(1)=    0.500       N(1)  =     2000
   RHO(2)=  100.500       N(2)  =     4000
 


--------------------------------------------------------------------------------------------------------


 ion  position               nearest neighbor table
   1  1.000  1.000  0.501-   2 1.42  42 1.42  38 1.42
   2  0.133  0.066  0.501-  25 1.42   1 1.42  11 1.42
   3  1.000  0.200  0.501-   4 1.42  42 1.42  44 1.42
   4  0.133  0.266  0.501-  25 1.42   3 1.42  15 1.42
   5  1.000  0.399  0.500-  46 1.42  44 1.42   6 1.42
   6  0.133  0.466  0.501-  15 1.42  17 1.42   5 1.42
   7  0.000  0.600  0.499-   8 1.42  48 1.42  46 1.43  51 2.23
   8  0.133  0.666  0.500-   7 1.42  19 1.42  17 1.42
   9  0.000  0.800  0.500-  10 1.42  38 1.42  48 1.42  51 2.21
  10  0.133  0.866  0.501-  19 1.42  11 1.42   9 1.42
  11  0.200  1.000  0.501-  24 1.42  10 1.42   2 1.42
  12  0.533  0.266  0.499-  23 1.42  33 1.42  35 1.42
  13  0.400  0.399  0.500-  26 1.42  14 1.42  16 1.42
  14  0.333  0.266  0.500-  23 1.42  13 1.42  25 1.42
  15  0.200  0.400  0.501-   6 1.42  16 1.42   4 1.42
  16  0.333  0.466  0.501-  15 1.42  39 1.42  13 1.42
  17  0.200  0.600  0.501-  18 1.42   6 1.42   8 1.42
  18  0.333  0.666  0.501-  39 1.42  17 1.42  29 1.42
  19  0.200  0.800  0.501-  10 1.42  20 1.42   8 1.42
  20  0.333  0.866  0.501-  29 1.42  21 1.42  19 1.42
  21  0.400  1.000  0.500-  20 1.42  24 1.42  22 1.42
  22  0.533  0.066  0.500-  33 1.42  21 1.42  31 1.42
  23  0.399  0.199  0.500-  14 1.42  12 1.42  24 1.42
  24  0.333  0.066  0.500-  11 1.42  21 1.42  23 1.42
  25  0.200  0.200  0.501-   4 1.42   2 1.42  14 1.42
  26  0.532  0.466  0.499-  13 1.42  35 1.42  37 1.43
  27  0.600  0.800  0.501-  40 1.42  30 1.42  28 1.42
  28  0.533  0.666  0.500-  37 1.42  27 1.42  39 1.42
  29  0.400  0.800  0.501-  30 1.42  20 1.42  18 1.42
  30  0.533  0.866  0.501-  29 1.42  31 1.42  27 1.42
  31  0.600  1.000  0.500-  30 1.42  32 1.42  22 1.42
  32  0.733  0.066  0.500-  41 1.42  31 1.42  43 1.42
  33  0.600  0.199  0.499-  22 1.42  34 1.42  12 1.42
  34  0.733  0.266  0.499-  43 1.42  33 1.42  45 1.42
  35  0.599  0.399  0.498-  12 1.42  26 1.42  36 1.43
  36  0.733  0.466  0.496-  35 1.43  45 1.43  47 1.43
  37  0.599  0.600  0.499-  28 1.42  50 1.42  26 1.43
  38  0.933  0.867  0.500-   1 1.42  49 1.42   9 1.42
  39  0.400  0.600  0.501-  18 1.42  16 1.42  28 1.42
  40  0.733  0.866  0.501-  27 1.42  41 1.42  49 1.42
  41  0.800  1.000  0.501-  32 1.42  40 1.42  42 1.42
  42  0.933  0.066  0.501-   3 1.42   1 1.42  41 1.42
  43  0.800  0.199  0.500-  44 1.42  34 1.42  32 1.42
  44  0.933  0.266  0.500-  43 1.42   5 1.42   3 1.42
  45  0.800  0.399  0.498-  34 1.42  46 1.42  36 1.43
  46  0.934  0.466  0.499-   5 1.42  45 1.42   7 1.43
  47  0.800  0.600  0.497-  48 1.43  50 1.43  36 1.43  51 2.29
  48  0.934  0.667  0.499-   9 1.42   7 1.42  47 1.43  51 1.73
  49  0.800  0.800  0.500-  40 1.42  38 1.42  50 1.42
  50  0.733  0.667  0.499-  49 1.42  37 1.42  47 1.43
  51  0.934  0.667  0.557-  48 1.73   9 2.21   7 2.23  47 2.29
 

IMPORTANT INFORMATION: All symmetrisations will be switched off!
NOSYMM: (Re-)initialisation of all symmetry stuff for point group C_1.

 
 
 KPOINTS: Automatic mesh                          

Automatic generation of k-mesh.
Space group operators:
 irot       det(A)        alpha          n_x          n_y          n_z        tau_x        tau_y        tau_z
    1     1.000000     0.000001     1.000000     0.000000     0.000000     0.000000     0.000000     0.000000
 
 Subroutine IBZKPT returns following result:
 ===========================================
 
 Found      5 irreducible k-points:
 
 Following reciprocal coordinates:
            Coordinates               Weight
  0.000000  0.000000  0.000000      1.000000
  0.333333 -0.000000  0.000000      2.000000
  0.000000  0.333333  0.000000      2.000000
  0.333333  0.333333  0.000000      2.000000
 -0.333333  0.333333  0.000000      2.000000
 
 Following cartesian coordinates:
            Coordinates               Weight
  0.000000  0.000000  0.000000      1.000000
  0.027100  0.015646  0.000000      2.000000
  0.000000  0.031293  0.000000      2.000000
  0.027100  0.046939  0.000000      2.000000
 -0.027100  0.015646  0.000000      2.000000
 


--------------------------------------------------------------------------------------------------------




 Dimension of arrays:
   k-points           NKPTS =      5   k-points in BZ     NKDIM =      5   number of bands    NBANDS=    132
   number of dos      NEDOS =    301   number of ions     NIONS =     51
   non local maximal  LDIM  =      4   non local SUM 2l+1 LMDIM =      8
   total plane-waves  NPLWV = ******
   max r-space proj   IRMAX =   2789   max aug-charges    IRDMAX=  51672
   dimension x,y,z NGX =    96 NGY =   96 NGZ =  224
   dimension x,y,z NGXF=   192 NGYF=  192 NGZF=  448
   support grid    NGXF=   384 NGYF=  384 NGZF=  896
   ions per type =              50   1
 NGX,Y,Z   is equivalent  to a cutoff of  12.98, 12.98, 12.41 a.u.
 NGXF,Y,Z  is equivalent  to a cutoff of  25.95, 25.95, 24.83 a.u.


 I would recommend the setting:
   dimension x,y,z NGX =    91 NGY =   91 NGZ =  223
 SYSTEM =  Li defective graphene MACE training lab 
 POSCAR =  C  Li                                   

 Startparameter for this run:
   NWRITE =      2    write-flag & timer
   PREC   = accura    normal or accurate (medium, high low for compatibility)
   ISTART =      0    job   : 0-new  1-cont  2-samecut
   ICHARG =      2    charge: 1-file 2-atom 10-const
   ISPIN  =      2    spin polarized calculation?
   LNONCOLLINEAR =      F non collinear calculations
   LSORBIT =      F    spin-orbit coupling
   INIWAV =      1    electr: 0-lowe 1-rand  2-diag
   LASPH  =      T    aspherical Exc in radial PAW
   METAGGA=      F    non-selfconsistent MetaGGA calc.

 Electronic Relaxation 1
   ENCUT  =  520.0 eV  38.22 Ry    6.18 a.u.  22.87 22.87 55.78*2*pi/ulx,y,z
   ENINI  =  520.0     initial cutoff
   ENAUG  =  644.9 eV  augmentation charge cutoff
   NELM   =    120;   NELMIN=  2; NELMDL= -5     # of ELM steps 
   EDIFF  = 0.1E-05   stopping-criterion for ELM
   LREAL  =      T    real-space projection
   NLSPLINE    = F    spline interpolate recip. space projectors
   LCOMPAT=      F    compatible to vasp.4.4
   GGA_COMPAT  = T    GGA compatible to vasp.4.4-vasp.4.6
   LMAXPAW     = -100 max onsite density
   LMAXMIX     =    2 max onsite mixed and CHGCAR
   VOSKOWN=      0    Vosko Wilk Nusair interpolation
   ROPT   =   -0.00025  -0.00025
 Ionic relaxation
   EDIFFG = 0.1E-04   stopping-criterion for IOM
   NSW    =      0    number of steps for IOM
   NBLOCK =      1;   KBLOCK =      1    inner block; outer block 
   IBRION =     -1    ionic relax: 0-MD 1-quasi-New 2-CG
   NFREE  =      0    steps in history (QN), initial steepest desc. (CG)
   ISIF   =      2    stress and relaxation
   IWAVPR =     10    prediction:  0-non 1-charg 2-wave 3-comb
   ISYM   =      0    0-nonsym 1-usesym 2-fastsym
   LCORR  =      T    Harris-Foulkes like correction to forces

   POTIM  = 0.5000    time-step for ionic-motion
   TEIN   =    0.0    initial temperature
   TEBEG  =    0.0;   TEEND  =   0.0 temperature during run
   SMASS  =  -3.00    Nose mass-parameter (am)
   estimated Nose-frequenzy (Omega)   =  0.10E-29 period in steps =****** mass=  -0.346E-26a.u.
   SCALEE = 1.0000    scale energy and forces
   NPACO  =    256;   APACO  = 16.0  distance and # of slots for P.C.
   PSTRESS=    0.0 pullay stress

  Mass of Ions in am
   POMASS =  12.01  7.01
  Ionic Valenz
   ZVAL   =   4.00  3.00
  Atomic Wigner-Seitz radii
   RWIGS  =  -1.00 -1.00
  virtual crystal weights 
   VCA    =   1.00  1.00
   NELECT =     203.0000    total number of electrons
   NUPDOWN=      -1.0000    fix difference up-down

 DOS related values:
   EMIN   =  10.00;   EMAX   =-10.00  energy-range for DOS
   EFERMI =   0.00
   ISMEAR =     0;   SIGMA  =   0.05  broadening in eV -4-tet -1-fermi 0-gaus

 Electronic relaxation 2 (details)
   IALGO  =     38    algorithm
   LDIAG  =      T    sub-space diagonalisation (order eigenvalues)
   LSUBROT=      F    optimize rotation matrix (better conditioning)
   TURBO    =      0    0=normal 1=particle mesh
   IRESTART =      0    0=no restart 2=restart with 2 vectors
   NREBOOT  =      0    no. of reboots
   NMIN     =      0    reboot dimension
   EREF     =   0.00    reference energy to select bands
   IMIX   =      4    mixing-type and parameters
     AMIX     =   0.40;   BMIX     =  1.00
     AMIX_MAG =   1.60;   BMIX_MAG =  1.00
     AMIN     =   0.10
     WC   =   100.;   INIMIX=   1;  MIXPRE=   1;  MAXMIX= -45

 Intra band minimization:
   WEIMIN = 0.0000     energy-eigenvalue tresh-hold
   EBREAK =  0.19E-08  absolut break condition
   DEPER  =   0.30     relativ break condition  

   TIME   =   0.40     timestep for ELM

  volume/ion in A,a.u.               =      77.07       520.10
  Fermi-wavevector in a.u.,A,eV,Ry     =   0.609658  1.152086  5.057049  0.371683
  Thomas-Fermi vector in A             =   1.664934
 
 Write flags
   LWAVE  =      F    write WAVECAR
   LCHARG =      F    write CHGCAR
   LVTOT  =      F    write LOCPOT, total local potential
   LVHAR  =      F    write LOCPOT, Hartree potential only
   LELF   =      F    write electronic localiz. function (ELF)
   LORBIT =      0    0 simple, 1 ext, 2 COOP (PROOUT)


 Dipole corrections
   LMONO  =      F    monopole corrections only (constant potential shift)
   LDIPOL =      F    correct potential (dipole corrections)
   IDIPOL =      0    1-x, 2-y, 3-z, 4-all directions 
   EPSILON=  1.0000000 bulk dielectric constant

 Exchange correlation treatment:
   GGA     =    --    GGA type
   LEXCH   =     8    internal setting for exchange type
   VOSKOWN=      0    Vosko Wilk Nusair interpolation
   LHFCALC =     F    Hartree Fock is set to
   LHFONE  =     F    Hartree Fock one center treatment
   AEXX    =    0.0000 exact exchange contribution

 Linear response parameters
   LEPSILON=     F    determine dielectric tensor
   LRPA    =     F    only Hartree local field effects (RPA)
   LNABLA  =     F    use nabla operator in PAW spheres
   LVEL    =     F    velocity operator in full k-point grid
   LINTERFAST=   F  fast interpolation
   KINTER  =     0    interpolate to denser k-point grid
   CSHIFT  =0.1000    complex shift for real part using Kramers Kronig
   OMEGAMAX=  -1.0    maximum frequency
   DEG_THRESHOLD= 0.2000000E-02 threshold for treating states as degnerate
   RTIME   =    0.100 relaxation time in fs

 Orbital magnetization related:
   ORBITALMAG=     F  switch on orbital magnetization
   LCHIMAG   =     F  perturbation theory with respect to B field
   DQ        =  0.001000  dq finite difference perturbation B field



--------------------------------------------------------------------------------------------------------


 Static calculation
 charge density and potential will be updated during run
 spin polarized calculation
 Variant of blocked Davidson
 Davidson routine will perform the subspace rotation
 perform sub-space diagonalisation
    after iterative eigenvector-optimisation
 modified Broyden-mixing scheme, WC =      100.0
 initial mixing is a Kerker type mixing with AMIX =  0.4000 and BMIX =      1.0000
 Hartree-type preconditioning will be used
 using additional bands           30
 real space projection scheme for non local part
 use partial core corrections
 calculate Harris-corrections to forces 
   (improved forces if not selfconsistent)
 use gradient corrections 
 use of overlap-Matrix (Vanderbilt PP)
 Gauss-broadening in eV      SIGMA  =   0.05


--------------------------------------------------------------------------------------------------------


  energy-cutoff  :      520.00
  volume of cell :     3930.63
      direct lattice vectors                 reciprocal lattice vectors
    12.300000000  0.000000000  0.000000000     0.081300813  0.046939046  0.000000000
    -6.150000000 10.652112467  0.000000000     0.000000000  0.093878093  0.000000000
     0.000000000  0.000000000 30.000000000     0.000000000  0.000000000  0.033333333

  length of vectors
    12.300000000 12.300000000 30.000000000     0.093878093  0.093878093  0.033333333


 
 k-points in units of 2pi/SCALE and weight: Automatic mesh                          
   0.00000000  0.00000000  0.00000000       0.111
   0.02710027  0.01564635  0.00000000       0.222
   0.00000000  0.03129270  0.00000000       0.222
   0.02710027  0.04693905  0.00000000       0.222
  -0.02710027  0.01564635  0.00000000       0.222
 
 k-points in reciprocal lattice and weights: Automatic mesh                          
   0.00000000  0.00000000  0.00000000       0.111
   0.33333333 -0.00000000  0.00000000       0.222
   0.00000000  0.33333333  0.00000000       0.222
   0.33333333  0.33333333  0.00000000       0.222
  -0.33333333  0.33333333  0.00000000       0.222
 
 position of ions in fractional coordinates (direct lattice) 
   0.99988345  0.99976655  0.50070365
   0.13313835  0.06628113  0.50076414
   0.99986462  0.19951048  0.50066204
   0.13305819  0.26611600  0.50076947
   0.99990120  0.39942212  0.49998752
   0.13338012  0.46632027  0.50055545
   0.00048883  0.59983601  0.49930029
   0.13338223  0.66639362  0.50027805
   0.00013167  0.80005692  0.50007430
   0.13342895  0.86639370  0.50062777
   0.19988452  0.99968809  0.50070413
   0.53269490  0.26567077  0.49881187
   0.39952012  0.39942278  0.49998743
   0.33300586  0.26609951  0.50014356
   0.19981037  0.39962309  0.50075225
   0.33294004  0.46632029  0.50055536
   0.19997977  0.59953607  0.50060301
   0.33310144  0.66620258  0.50078017
   0.19991176  0.79974914  0.50056953
   0.33323385  0.86627322  0.50060775
   0.39973654  0.99953012  0.50025629
   0.53301150  0.06602273  0.49980551
   0.39946049  0.19938192  0.49980423
   0.33298763  0.06605684  0.50031679
   0.19964609  0.19951040  0.50066207
   0.53246359  0.46605661  0.49899750
   0.59983768  0.79974909  0.50056930
   0.53301162  0.66639344  0.50027784
   0.39984966  0.79969901  0.50068206
   0.53303957  0.86627318  0.50060762
   0.59979394  0.99953014  0.50025619
   0.73306943  0.06605683  0.50031666
   0.59959923  0.19919799  0.49887261
   0.73297608  0.26567075  0.49881183
   0.59905631  0.39903661  0.49790284
   0.73285164  0.46570284  0.49584713
   0.59934769  0.59983616  0.49930013
   0.93325060  0.86650095  0.50020757
   0.39955622  0.59953654  0.50060288
   0.73296500  0.86639367  0.50062756
   0.79980395  0.99968811  0.50070396
   0.93314298  0.06628108  0.50076405
   0.79992187  0.19938193  0.49980417
   0.93309373  0.26609919  0.50014357
   0.79998080  0.39903666  0.49790285
   0.93359301  0.46605671  0.49899760
   0.80010598  0.60021136  0.49686686
   0.93384667  0.66677439  0.49886028
   0.79992566  0.80005696  0.50007418
   0.73292796  0.66677434  0.49886021
   0.93384667  0.66677439  0.55656547
 
 position of ions in cartesian coordinates  (Angst):
   6.15000211 10.64962578 15.02110949
   1.22997271  0.70603403 15.02292424
  11.07134542  2.12520807 15.01986130
   0.00000239  2.83469752 15.02308409
   9.84233872  4.25468934 14.99962560
  -1.22729425  4.96729599 15.01666349
  -3.68297885  6.38952063 14.97900858
  -2.45771932  7.09849979 15.00834149
  -4.91873054  8.52229634 15.00222896
  -3.68714513  9.22892316 15.01883306
  -3.68950212 10.64879000 15.02112389
   4.91827198  2.82995495 14.96435597
   2.45764743  4.25469637 14.99962277
   2.45946015  2.83452188 15.00430679
  -0.00001441  4.25683011 15.02256735
   1.22729275  4.96729621 15.01666077
  -1.22739567  6.38632568 15.01809035
   0.00000180  7.09646482 15.02340501
  -2.45954255  8.51901778 15.01708584
  -1.22880397  9.22763977 15.01823262
  -1.23035082 10.64710721 15.00768869
   6.15000161  0.70328155 14.99416520
   3.68716528  2.12383862 14.99412681
   3.68949833  0.70364485 15.00950376
   1.22865795  2.12520724 15.01986198
   3.68305398  4.96448738 14.96992501
   2.45954655  8.51901725 15.01707911
   2.45772319  7.09849792 15.00833506
   0.00000192  8.51848376 15.02046185
   1.22880664  9.22763937 15.01822858
   1.23035510 10.64710749 15.00768564
   8.61050455  0.70364473 15.00949968
   6.15000287  2.12187944 14.96617823
   7.38173073  2.82995467 14.96435504
   4.91431740  4.25058289 14.93708534
   6.15000268  4.96071899 14.87541392
   3.68298417  6.38952219 14.97900395
   6.15000151  9.23006557 15.00622702
   1.22739183  6.38633065 15.01808639
   3.68714850  9.22892279 15.01882683
   3.68950666 10.64879020 15.02111874
  11.07003004  0.70603350 15.02292160
   8.61284012  2.12383879 14.99412524
   9.84054283  2.83451845 15.00430711
   7.38568835  4.25058342 14.93708542
   8.61694531  4.96448846 14.96992788
   6.15000373  6.39351893 14.90600589
   7.38565149  7.10255578 14.96580842
   4.91873534  8.52229670 15.00222554
   4.91435171  7.10255524 14.96580626
   7.38565149  7.10255578 16.69696404
 


--------------------------------------------------------------------------------------------------------


 k-point  1 :   0.0000 0.0000 0.0000  plane waves:  105831
 k-point  2 :   0.3333-0.0000 0.0000  plane waves:  105834
 k-point  3 :   0.0000 0.3333 0.0000  plane waves:  105834
 k-point  4 :   0.3333 0.3333 0.0000  plane waves:  105861
 k-point  5 :  -0.3333 0.3333 0.0000  plane waves:  105834

 maximum and minimum number of plane-waves per node :     26501    26424

 maximum number of plane-waves:    105861
 maximum index in each direction: 
   IXMAX=   23   IYMAX=   22   IZMAX=   55
   IXMIN=  -23   IYMIN=  -23   IZMIN=  -55

 NGX is ok and might be reduce to  94
 NGY is ok and might be reduce to  92
 NGZ is ok and might be reduce to 222

 real space projection operators:
  total allocation   :       7708.73 KBytes
  max/ min on nodes  :       1929.49       1924.35


 parallel 3D FFT for wavefunctions:
    minimum data exchange during FFTs selected (reduces bandwidth)
 parallel 3D FFT for charge:
    minimum data exchange during FFTs selected (reduces bandwidth)


 total amount of memory used by VASP on root node   465217. kBytes
========================================================================

   base      :      30000. kBytes
   nonlr-proj:       4755. kBytes
   fftplans  :     165810. kBytes
   grid      :     124231. kBytes
   one-center:         79. kBytes
   wavefun   :     140342. kBytes
 
     INWAV:  cpu time    0.0000: real time    0.0001
 Broyden mixing: mesh for mixing (old mesh)
   NGX = 45   NGY = 45   NGZ =111
  (NGX  =192   NGY  =192   NGZ  =448)
  gives a total of 224775 points

 initial charge density was supplied:
 charge density of overlapping atoms calculated
 number of electron     203.0000000 magnetization       6.0000000
 keeping initial charge density in first step


--------------------------------------------------------------------------------------------------------


 Maximum index for non-local projection operator          649
 Maximum index for augmentation-charges         3155 (set IRDMAX)


--------------------------------------------------------------------------------------------------------


 First call to EWALD:  gamma=   0.112
 Maximum number of real-space cells 4x 4x 2
 Maximum number of reciprocal cells 2x 2x 5

 FEWALD executed in parallel
    FEWALD:  cpu time    0.0018: real time    0.0018


----------------------------------------- Iteration    1(   1)  ---------------------------------------


    POTLOK:  cpu time    2.7461: real time    2.7493
    SETDIJ:  cpu time    2.3228: real time    2.3229
     EDDAV:  cpu time  107.2762: real time  107.2842
       DOS:  cpu time    0.0007: real time    0.0007
    --------------------------------------------
      LOOP:  cpu time  112.3469: real time  112.3606

 eigenvalue-minimisations  :  3256
 total energy-change (2. order) : 0.1939138E+04  (-0.6810234E+04)
 number of electron     203.0000000 magnetization       6.0000000
 augmentation part      203.0000000 magnetization       6.0000000

 Free energy of the ion-electron system (eV)
  ---------------------------------------------------
  alpha Z        PSCENC =        53.42782116
  Ewald energy   TEWEN  =     56967.57462357
  -Hartree energ DENC   =    -62199.46980876
  -exchange      EXHF   =         0.00000000
  -V(xc)+E(xc)   XCENC  =       672.95415483
  PAW double counting   =      5505.55773403    -5549.36347127
  entropy T*S    EENTRO =        -0.02957673
  eigenvalues    EBANDS =     -1071.73079117
  atomic energy  EATOM  =      7560.21751256
  Solvation  Ediel_sol  =         0.00000000
  ---------------------------------------------------
  free energy    TOTEN  =      1939.13819822 eV

  energy without entropy =     1939.16777495  energy(sigma->0) =     1939.15298659


--------------------------------------------------------------------------------------------------------




----------------------------------------- Iteration    1(   2)  ---------------------------------------


     EDDAV:  cpu time  128.5068: real time  128.5154
       DOS:  cpu time    0.0006: real time    0.0006
    --------------------------------------------
      LOOP:  cpu time  128.5094: real time  128.5216

 eigenvalue-minimisations  :  4080
 total energy-change (2. order) :-0.1902234E+04  (-0.1759065E+04)
 number of electron     203.0000000 magnetization       6.0000000
 augmentation part      203.0000000 magnetization       6.0000000

 Free energy of the ion-electron system (eV)
  ---------------------------------------------------
  alpha Z        PSCENC =        53.42782116
  Ewald energy   TEWEN  =     56967.57462357
  -Hartree energ DENC   =    -62199.46980876
  -exchange      EXHF   =         0.00000000
  -V(xc)+E(xc)   XCENC  =       672.95415483
  PAW double counting   =      5505.55773403    -5549.36347127
  entropy T*S    EENTRO =        -0.00840043
  eigenvalues    EBANDS =     -2973.98640426
  atomic energy  EATOM  =      7560.21751256
  Solvation  Ediel_sol  =         0.00000000
  ---------------------------------------------------
  free energy    TOTEN  =        36.90376143 eV

  energy without entropy =       36.91216186  energy(sigma->0) =       36.90796165


--------------------------------------------------------------------------------------------------------




----------------------------------------- Iteration    1(   3)  ---------------------------------------


     EDDAV:  cpu time  112.9562: real time  112.9639
       DOS:  cpu time    0.0006: real time    0.0006
    --------------------------------------------
      LOOP:  cpu time  112.9578: real time  112.9693

 eigenvalue-minimisations  :  3496
 total energy-change (2. order) :-0.5051244E+03  (-0.4986968E+03)
 number of electron     203.0000000 magnetization       6.0000000
 augmentation part      203.0000000 magnetization       6.0000000

 Free energy of the ion-electron system (eV)
  ---------------------------------------------------
  alpha Z        PSCENC =        53.42782116
  Ewald energy   TEWEN  =     56967.57462357
  -Hartree energ DENC   =    -62199.46980876
  -exchange      EXHF   =         0.00000000
  -V(xc)+E(xc)   XCENC  =       672.95415483
  PAW double counting   =      5505.55773403    -5549.36347127
  entropy T*S    EENTRO =        -0.01078323
  eigenvalues    EBANDS =     -3479.10837760
  atomic energy  EATOM  =      7560.21751256
  Solvation  Ediel_sol  =         0.00000000
  ---------------------------------------------------
  free energy    TOTEN  =      -468.22059472 eV

  energy without entropy =     -468.20981148  energy(sigma->0) =     -468.21520310


--------------------------------------------------------------------------------------------------------




----------------------------------------- Iteration    1(   4)  ---------------------------------------


     EDDAV:  cpu time  110.7822: real time  110.7892
       DOS:  cpu time    0.0006: real time    0.0006
    --------------------------------------------
      LOOP:  cpu time  110.7837: real time  110.7936

 eigenvalue-minimisations  :  3428
 total energy-change (2. order) :-0.2656174E+02  (-0.2626743E+02)
 number of electron     203.0000000 magnetization       6.0000000
 augmentation part      203.0000000 magnetization       6.0000000

 Free energy of the ion-electron system (eV)
  ---------------------------------------------------
  alpha Z        PSCENC =        53.42782116
  Ewald energy   TEWEN  =     56967.57462357
  -Hartree energ DENC   =    -62199.46980876
  -exchange      EXHF   =         0.00000000
  -V(xc)+E(xc)   XCENC  =       672.95415483
  PAW double counting   =      5505.55773403    -5549.36347127
  entropy T*S    EENTRO =        -0.01261623
  eigenvalues    EBANDS =     -3505.66828097
  atomic energy  EATOM  =      7560.21751256
  Solvation  Ediel_sol  =         0.00000000
  ---------------------------------------------------
  free energy    TOTEN  =      -494.78233108 eV

  energy without entropy =     -494.76971485  energy(sigma->0) =     -494.77602297


--------------------------------------------------------------------------------------------------------




----------------------------------------- Iteration    1(   5)  ---------------------------------------


     EDDAV:  cpu time  129.8874: real time  129.8976
       DOS:  cpu time    0.0006: real time    0.0006
    CHARGE:  cpu time   10.2703: real time   10.2711
    MIXING:  cpu time    0.0745: real time    0.0745
    --------------------------------------------
      LOOP:  cpu time  140.2338: real time  140.2487

 eigenvalue-minimisations  :  4192
 total energy-change (2. order) :-0.1047909E+01  (-0.1039174E+01)
 number of electron     203.0000000 magnetization       5.6339424
 augmentation part        6.4647268 magnetization       5.0733105

 Broyden mixing:
  rms(total) = 0.33401E+01    rms(broyden)= 0.33396E+01
  rms(prec ) = 0.34419E+01
  weight for this iteration     100.00

 Free energy of the ion-electron system (eV)
  ---------------------------------------------------
  alpha Z        PSCENC =        53.42782116
  Ewald energy   TEWEN  =     56967.57462357
  -Hartree energ DENC   =    -62199.46980876
  -exchange      EXHF   =         0.00000000
  -V(xc)+E(xc)   XCENC  =       672.95415483
  PAW double counting   =      5505.55773403    -5549.36347127
  entropy T*S    EENTRO =        -0.01202522
  eigenvalues    EBANDS =     -3506.71678116
  atomic energy  EATOM  =      7560.21751256
  Solvation  Ediel_sol  =         0.00000000
  ---------------------------------------------------
  free energy    TOTEN  =      -495.83024026 eV

  energy without entropy =     -495.81821504  energy(sigma->0) =     -495.82422765


--------------------------------------------------------------------------------------------------------




----------------------------------------- Iteration    1(   6)  ---------------------------------------


    POTLOK:  cpu time    2.7423: real time    2.7426
    SETDIJ:  cpu time    2.0661: real time    2.0662
     EDDAV:  cpu time   98.3946: real time   98.4031
       DOS:  cpu time    0.0006: real time    0.0006
    CHARGE:  cpu time   10.2970: real time   10.2976
    MIXING:  cpu time    0.1005: real time    0.1005
    --------------------------------------------
      LOOP:  cpu time  113.6019: real time  113.6152

 eigenvalue-minimisations  :  2944
 total energy-change (2. order) : 0.2527163E+02  (-0.2439509E+01)
 number of electron     203.0000000 magnetization       5.1308397
 augmentation part        6.2163479 magnetization       4.5456519

 Broyden mixing:
  rms(total) = 0.19355E+01    rms(broyden)= 0.19355E+01
  rms(prec ) = 0.19886E+01
  weight for this iteration     100.00

 eigenvalues of (default mixing * dielectric matrix)
  average eigenvalue GAMMA=   0.9865
  0.9865

 Free energy of the ion-electron system (eV)
  ---------------------------------------------------
  alpha Z        PSCENC =        53.42782116
  Ewald energy   TEWEN  =     56967.57462357
  -Hartree energ DENC   =    -62505.37923860
  -exchange      EXHF   =         0.00000000
  -V(xc)+E(xc)   XCENC  =       686.01973685
  PAW double counting   =     10127.27935718   -10175.06810156
  entropy T*S    EENTRO =        -0.01623173
  eigenvalues    EBANDS =     -3184.61409149
  atomic energy  EATOM  =      7560.21751256
  Solvation  Ediel_sol  =         0.00000000
  ---------------------------------------------------
  free energy    TOTEN  =      -470.55861206 eV

  energy without entropy =     -470.54238033  energy(sigma->0) =     -470.55049620


--------------------------------------------------------------------------------------------------------




----------------------------------------- Iteration    1(   7)  ---------------------------------------


    POTLOK:  cpu time    2.7853: real time    2.7855
    SETDIJ:  cpu time    2.0764: real time    2.0765
     EDDAV:  cpu time  100.2046: real time  100.2141
       DOS:  cpu time    0.0005: real time    0.0005
    CHARGE:  cpu time   10.4168: real time   10.4204
    MIXING:  cpu time    0.0711: real time    0.0711
    --------------------------------------------
      LOOP:  cpu time  115.5554: real time  115.5710

 eigenvalue-minimisations  :  3008
 total energy-change (2. order) : 0.1266026E+02  (-0.1612763E+01)
 number of electron     203.0000000 magnetization       4.6765687
 augmentation part        6.0060274 magnetization       4.1159073

 Broyden mixing:
  rms(total) = 0.10113E+01    rms(broyden)= 0.10113E+01
  rms(prec ) = 0.10279E+01
  weight for this iteration     100.00

 eigenvalues of (default mixing * dielectric matrix)
  average eigenvalue GAMMA=   1.4345
  0.6661  2.2029

 Free energy of the ion-electron system (eV)
  ---------------------------------------------------
  alpha Z        PSCENC =        53.42782116
  Ewald energy   TEWEN  =     56967.57462357
  -Hartree energ DENC   =    -62787.04226689
  -exchange      EXHF   =         0.00000000
  -V(xc)+E(xc)   XCENC  =       700.61279769
  PAW double counting   =     15894.46621855   -15944.67547348
  entropy T*S    EENTRO =        -0.01780119
  eigenvalues    EBANDS =     -2902.46178566
  atomic energy  EATOM  =      7560.21751256
  Solvation  Ediel_sol  =         0.00000000
  ---------------------------------------------------
  free energy    TOTEN  =      -457.89835369 eV

  energy without entropy =     -457.88055250  energy(sigma->0) =     -457.88945310


--------------------------------------------------------------------------------------------------------




----------------------------------------- Iteration    1(   8)  ---------------------------------------


    POTLOK:  cpu time    2.7016: real time    2.7018
    SETDIJ:  cpu time    2.0808: real time    2.0889
     EDDAV:  cpu time   99.4651: real time   99.4736
       DOS:  cpu time    0.0005: real time    0.0005
    CHARGE:  cpu time   10.5191: real time   10.5199
    MIXING:  cpu time    0.1128: real time    0.1128
    --------------------------------------------
      LOOP:  cpu time  114.8805: real time  114.9008

 eigenvalue-minimisations  :  3004
 total energy-change (2. order) : 0.5424284E+00  (-0.4733803E+00)
 number of electron     203.0000000 magnetization       4.1596966
 augmentation part        5.8613232 magnetization       3.6109837

 Broyden mixing:
  rms(total) = 0.38318E+00    rms(broyden)= 0.38310E+00
  rms(prec ) = 0.39497E+00
  weight for this iteration     100.00

 eigenvalues of (default mixing * dielectric matrix)
  average eigenvalue GAMMA=   1.4431
  2.3285  1.3422  0.6586

 Free energy of the ion-electron system (eV)
  ---------------------------------------------------
  alpha Z        PSCENC =        53.42782116
  Ewald energy   TEWEN  =     56967.57462357
  -Hartree energ DENC   =    -62955.71951495
  -exchange      EXHF   =         0.00000000
  -V(xc)+E(xc)   XCENC  =       706.33339920
  PAW double counting   =     19978.59341040   -20029.66083508
  entropy T*S    EENTRO =        -0.01655719
  eigenvalues    EBANDS =     -2738.10578498
  atomic energy  EATOM  =      7560.21751256
  Solvation  Ediel_sol  =         0.00000000
  ---------------------------------------------------
  free energy    TOTEN  =      -457.35592531 eV

  energy without entropy =     -457.33936812  energy(sigma->0) =     -457.34764672


--------------------------------------------------------------------------------------------------------




----------------------------------------- Iteration    1(   9)  ---------------------------------------


    POTLOK:  cpu time    2.7038: real time    2.7043
    SETDIJ:  cpu time    2.2278: real time    2.2279
     EDDAV:  cpu time  115.9586: real time  115.9714
       DOS:  cpu time    0.0006: real time    0.0006
    CHARGE:  cpu time   10.1837: real time   10.1847
    MIXING:  cpu time    0.0804: real time    0.0804
    --------------------------------------------
      LOOP:  cpu time  131.1555: real time  131.1731

 eigenvalue-minimisations  :  3620
 total energy-change (2. order) :-0.1174898E+01  (-0.6153279E-01)
 number of electron     203.0000000 magnetization       3.8842469
 augmentation part        5.8313088 magnetization       3.3424635

 Broyden mixing:
  rms(total) = 0.14328E+00    rms(broyden)= 0.14316E+00
  rms(prec ) = 0.15661E+00
  weight for this iteration     100.00

 eigenvalues of (default mixing * dielectric matrix)
  average eigenvalue GAMMA=   1.4354
  2.2641  2.1021  0.7258  0.6495

 Free energy of the ion-electron system (eV)
  ---------------------------------------------------
  alpha Z        PSCENC =        53.42782116
  Ewald energy   TEWEN  =     56967.57462357
  -Hartree energ DENC   =    -63012.27314788
  -exchange      EXHF   =         0.00000000
  -V(xc)+E(xc)   XCENC  =       705.36011062
  PAW double counting   =     21277.32138250   -21327.66762563
  entropy T*S    EENTRO =        -0.01495388
  eigenvalues    EBANDS =     -2682.47654637
  atomic energy  EATOM  =      7560.21751256
  Solvation  Ediel_sol  =         0.00000000
  ---------------------------------------------------
  free energy    TOTEN  =      -458.53082336 eV

  energy without entropy =     -458.51586947  energy(sigma->0) =     -458.52334641


--------------------------------------------------------------------------------------------------------




----------------------------------------- Iteration    1(  10)  ---------------------------------------


    POTLOK:  cpu time    2.4180: real time    2.4183
    SETDIJ:  cpu time    2.4055: real time    2.4057
     EDDAV:  cpu time   96.9168: real time   96.9270
       DOS:  cpu time    0.0006: real time    0.0006
    CHARGE:  cpu time   10.2174: real time   10.2181
    MIXING:  cpu time    0.1242: real time    0.1243
    --------------------------------------------
      LOOP:  cpu time  112.0833: real time  112.0975

 eigenvalue-minimisations  :  2900
 total energy-change (2. order) :-0.2937236E+00  (-0.1755864E-01)
 number of electron     203.0000000 magnetization       3.5791795
 augmentation part        5.8287405 magnetization       3.0533481

 Broyden mixing:
  rms(total) = 0.93667E-01    rms(broyden)= 0.93649E-01
  rms(prec ) = 0.10720E+00
  weight for this iteration     100.00

 eigenvalues of (default mixing * dielectric matrix)
  average eigenvalue GAMMA=   1.3497
  2.2148  2.2148  0.9737  0.7003  0.6450

 Free energy of the ion-electron system (eV)
  ---------------------------------------------------
  alpha Z        PSCENC =        53.42782116
  Ewald energy   TEWEN  =     56967.57462357
  -Hartree energ DENC   =    -63039.57988657
  -exchange      EXHF   =         0.00000000
  -V(xc)+E(xc)   XCENC  =       705.27003602
  PAW double counting   =     21442.49660674   -21492.64923027
  entropy T*S    EENTRO =        -0.01581995
  eigenvalues    EBANDS =     -2655.56621018
  atomic energy  EATOM  =      7560.21751256
  Solvation  Ediel_sol  =         0.00000000
  ---------------------------------------------------
  free energy    TOTEN  =      -458.82454693 eV

  energy without entropy =     -458.80872697  energy(sigma->0) =     -458.81663695


--------------------------------------------------------------------------------------------------------




----------------------------------------- Iteration    1(  11)  ---------------------------------------


    POTLOK:  cpu time    2.7099: real time    2.7139
    SETDIJ:  cpu time    2.1168: real time    2.1185
     EDDAV:  cpu time  104.5263: real time  104.6075
       DOS:  cpu time    0.0006: real time    0.0006
    CHARGE:  cpu time   10.6215: real time   10.6291
    MIXING:  cpu time    0.0892: real time    0.0892
    --------------------------------------------
      LOOP:  cpu time  120.0649: real time  120.1629

 eigenvalue-minimisations  :  3180
 total energy-change (2. order) :-0.3093276E+00  (-0.5446539E-02)
 number of electron     203.0000000 magnetization       2.8324129
 augmentation part        5.8244081 magnetization       2.3169861

 Broyden mixing:
  rms(total) = 0.78131E-01    rms(broyden)= 0.78128E-01
  rms(prec ) = 0.88708E-01
  weight for this iteration     100.00

 eigenvalues of (default mixing * dielectric matrix)
  average eigenvalue GAMMA=   1.4410
  2.3853  2.3853  1.6844  0.8679  0.6862  0.6371

 Free energy of the ion-electron system (eV)
  ---------------------------------------------------
  alpha Z        PSCENC =        53.42782116
  Ewald energy   TEWEN  =     56967.57462357
  -Hartree energ DENC   =    -63068.63364376
  -exchange      EXHF   =         0.00000000
  -V(xc)+E(xc)   XCENC  =       705.28154999
  PAW double counting   =     21396.89225456   -21446.99094053
  entropy T*S    EENTRO =        -0.01630575
  eigenvalues    EBANDS =     -2626.88674630
  atomic energy  EATOM  =      7560.21751256
  Solvation  Ediel_sol  =         0.00000000
  ---------------------------------------------------
  free energy    TOTEN  =      -459.13387450 eV

  energy without entropy =     -459.11756875  energy(sigma->0) =     -459.12572162


--------------------------------------------------------------------------------------------------------




----------------------------------------- Iteration    1(  12)  ---------------------------------------


    POTLOK:  cpu time    2.7242: real time    2.7257
    SETDIJ:  cpu time    2.2031: real time    2.2082
     EDDAV:  cpu time   96.8694: real time   96.9663
       DOS:  cpu time    0.0006: real time    0.0006
    CHARGE:  cpu time   10.3186: real time   10.3201
    MIXING:  cpu time    0.1195: real time    0.1195
    --------------------------------------------
      LOOP:  cpu time  112.2362: real time  112.3439

 eigenvalue-minimisations  :  2896
 total energy-change (2. order) :-0.5677479E+00  (-0.2163909E-01)
 number of electron     203.0000000 magnetization       2.3229685
 augmentation part        5.8186578 magnetization       1.8281097

 Broyden mixing:
  rms(total) = 0.52924E-01    rms(broyden)= 0.52922E-01
  rms(prec ) = 0.57178E-01
  weight for this iteration     100.00

 eigenvalues of (default mixing * dielectric matrix)
  average eigenvalue GAMMA=   1.5946
  3.6481  2.4470  1.9325  1.0456  0.7798  0.6781  0.6309

 Free energy of the ion-electron system (eV)
  ---------------------------------------------------
  alpha Z        PSCENC =        53.42782116
  Ewald energy   TEWEN  =     56967.57462357
  -Hartree energ DENC   =    -63132.63882173
  -exchange      EXHF   =         0.00000000
  -V(xc)+E(xc)   XCENC  =       705.38594509
  PAW double counting   =     21314.64537035   -21364.62178279
  entropy T*S    EENTRO =        -0.01665292
  eigenvalues    EBANDS =     -2563.67563771
  atomic energy  EATOM  =      7560.21751256
  Solvation  Ediel_sol  =         0.00000000
  ---------------------------------------------------
  free energy    TOTEN  =      -459.70162242 eV

  energy without entropy =     -459.68496950  energy(sigma->0) =     -459.69329596


--------------------------------------------------------------------------------------------------------




----------------------------------------- Iteration    1(  13)  ---------------------------------------


    POTLOK:  cpu time    2.9308: real time    2.9317
    SETDIJ:  cpu time    2.3004: real time    2.3005
     EDDAV:  cpu time   95.3611: real time   95.3712
       DOS:  cpu time    0.0005: real time    0.0005
    CHARGE:  cpu time   10.6457: real time   10.6469
    MIXING:  cpu time    0.0942: real time    0.0942
    --------------------------------------------
      LOOP:  cpu time  111.3334: real time  111.3482

 eigenvalue-minimisations  :  2828
 total energy-change (2. order) :-0.8544477E-02  (-0.7885731E-02)
 number of electron     203.0000000 magnetization       1.8145581
 augmentation part        5.8148105 magnetization       1.3556239

 Broyden mixing:
  rms(total) = 0.40500E-01    rms(broyden)= 0.40497E-01
  rms(prec ) = 0.42476E-01
  weight for this iteration     100.00

 eigenvalues of (default mixing * dielectric matrix)
  average eigenvalue GAMMA=   1.6960
  4.8544  2.3195  2.0609  1.2851  0.9961  0.7519  0.6294  0.6711

 Free energy of the ion-electron system (eV)
  ---------------------------------------------------
  alpha Z        PSCENC =        53.42782116
  Ewald energy   TEWEN  =     56967.57462357
  -Hartree energ DENC   =    -63168.62015773
  -exchange      EXHF   =         0.00000000
  -V(xc)+E(xc)   XCENC  =       705.70057424
  PAW double counting   =     21300.96489990   -21350.90208047
  entropy T*S    EENTRO =        -0.01740867
  eigenvalues    EBANDS =     -2528.05595146
  atomic energy  EATOM  =      7560.21751256
  Solvation  Ediel_sol  =         0.00000000
  ---------------------------------------------------
  free energy    TOTEN  =      -459.71016690 eV

  energy without entropy =     -459.69275823  energy(sigma->0) =     -459.70146256


--------------------------------------------------------------------------------------------------------




----------------------------------------- Iteration    1(  14)  ---------------------------------------


    POTLOK:  cpu time    2.7264: real time    2.7266
    SETDIJ:  cpu time    2.2524: real time    2.2525
     EDDAV:  cpu time   97.0480: real time   97.0648
       DOS:  cpu time    0.0006: real time    0.0006
    CHARGE:  cpu time   10.5636: real time   10.5657
    MIXING:  cpu time    0.1214: real time    0.1214
    --------------------------------------------
      LOOP:  cpu time  112.7131: real time  112.7348

 eigenvalue-minimisations  :  2912
 total energy-change (2. order) :-0.7645652E+00  (-0.5488891E-02)
 number of electron     203.0000000 magnetization       1.3503708
 augmentation part        5.8124791 magnetization       0.9473029

 Broyden mixing:
  rms(total) = 0.27973E-01    rms(broyden)= 0.27972E-01
  rms(prec ) = 0.29103E-01
  weight for this iteration     100.00

 eigenvalues of (default mixing * dielectric matrix)
  average eigenvalue GAMMA=   1.9636
  7.1289  2.3876  2.3876  1.8248  1.0373  0.8746  0.7383  0.6276  0.6653

 Free energy of the ion-electron system (eV)
  ---------------------------------------------------
  alpha Z        PSCENC =        53.42782116
  Ewald energy   TEWEN  =     56967.57462357
  -Hartree energ DENC   =    -63192.63154362
  -exchange      EXHF   =         0.00000000
  -V(xc)+E(xc)   XCENC  =       705.05966034
  PAW double counting   =     21281.29935784   -21331.24959686
  entropy T*S    EENTRO =        -0.01948202
  eigenvalues    EBANDS =     -2504.15308506
  atomic energy  EATOM  =      7560.21751256
  Solvation  Ediel_sol  =         0.00000000
  ---------------------------------------------------
  free energy    TOTEN  =      -460.47473208 eV

  energy without entropy =     -460.45525007  energy(sigma->0) =     -460.46499108


--------------------------------------------------------------------------------------------------------




----------------------------------------- Iteration    1(  15)  ---------------------------------------


    POTLOK:  cpu time    2.8261: real time    2.8263
    SETDIJ:  cpu time    2.2511: real time    2.2558
     EDDAV:  cpu time   95.7229: real time   95.7366
       DOS:  cpu time    0.0005: real time    0.0005
    CHARGE:  cpu time   10.5433: real time   10.5477
    MIXING:  cpu time    0.1168: real time    0.1168
    --------------------------------------------
      LOOP:  cpu time  111.4615: real time  111.4883

 eigenvalue-minimisations  :  2880
 total energy-change (2. order) :-0.7305268E+00  (-0.3157906E-02)
 number of electron     203.0000000 magnetization       1.1355611
 augmentation part        5.8107739 magnetization       0.8019959

 Broyden mixing:
  rms(total) = 0.19045E-01    rms(broyden)= 0.19043E-01
  rms(prec ) = 0.20457E-01
  weight for this iteration     100.00

 eigenvalues of (default mixing * dielectric matrix)
  average eigenvalue GAMMA=   2.1107
  9.1800  2.5565  2.5565  1.8641  1.2203  0.8648  0.8648  0.7111  0.6268  0.6620

 Free energy of the ion-electron system (eV)
  ---------------------------------------------------
  alpha Z        PSCENC =        53.42782116
  Ewald energy   TEWEN  =     56967.57462357
  -Hartree energ DENC   =    -63207.77006773
  -exchange      EXHF   =         0.00000000
  -V(xc)+E(xc)   XCENC  =       704.35227741
  PAW double counting   =     21269.62300845   -21319.58603362
  entropy T*S    EENTRO =        -0.02072293
  eigenvalues    EBANDS =     -2489.02367770
  atomic energy  EATOM  =      7560.21751256
  Solvation  Ediel_sol  =         0.00000000
  ---------------------------------------------------
  free energy    TOTEN  =      -461.20525883 eV

  energy without entropy =     -461.18453591  energy(sigma->0) =     -461.19489737


--------------------------------------------------------------------------------------------------------




----------------------------------------- Iteration    1(  16)  ---------------------------------------


    POTLOK:  cpu time    2.8603: real time    2.8605
    SETDIJ:  cpu time    2.3106: real time    2.3127
     EDDAV:  cpu time  100.7163: real time  100.7285
       DOS:  cpu time    0.0006: real time    0.0006
    CHARGE:  cpu time   10.5597: real time   10.5609
    MIXING:  cpu time    0.1389: real time    0.1389
    --------------------------------------------
      LOOP:  cpu time  116.5872: real time  116.6056

 eigenvalue-minimisations  :  3056
 total energy-change (2. order) :-0.3087522E+00  (-0.3846618E-03)
 number of electron     203.0000000 magnetization       0.8598754
 augmentation part        5.8099143 magnetization       0.5657254

 Broyden mixing:
  rms(total) = 0.15440E-01    rms(broyden)= 0.15438E-01
  rms(prec ) = 0.16866E-01
  weight for this iteration     100.00

 eigenvalues of (default mixing * dielectric matrix)
  average eigenvalue GAMMA=   2.1869
 10.4291  2.6713  2.6713  1.7569  1.7569  1.0581  0.9594  0.7715  0.6980  0.6239
  0.6592

 Free energy of the ion-electron system (eV)
  ---------------------------------------------------
  alpha Z        PSCENC =        53.42782116
  Ewald energy   TEWEN  =     56967.57462357
  -Hartree energ DENC   =    -63209.57407800
  -exchange      EXHF   =         0.00000000
  -V(xc)+E(xc)   XCENC  =       704.00588353
  PAW double counting   =     21272.17778021   -21322.14619243
  entropy T*S    EENTRO =        -0.02127321
  eigenvalues    EBANDS =     -2487.17608839
  atomic energy  EATOM  =      7560.21751256
  Solvation  Ediel_sol  =         0.00000000
  ---------------------------------------------------
  free energy    TOTEN  =      -461.51401100 eV

  energy without entropy =     -461.49273780  energy(sigma->0) =     -461.50337440


--------------------------------------------------------------------------------------------------------




----------------------------------------- Iteration    1(  17)  ---------------------------------------


    POTLOK:  cpu time    2.8175: real time    2.8177
    SETDIJ:  cpu time    2.2693: real time    2.2694
     EDDAV:  cpu time   95.0629: real time   95.0747
       DOS:  cpu time    0.0006: real time    0.0006
    CHARGE:  cpu time   10.3658: real time   10.3684
    MIXING:  cpu time    0.0974: real time    0.0974
    --------------------------------------------
      LOOP:  cpu time  110.6142: real time  110.6315

 eigenvalue-minimisations  :  2836
 total energy-change (2. order) :-0.2690509E+00  (-0.4292446E-03)
 number of electron     203.0000000 magnetization       0.6208976
 augmentation part        5.8102641 magnetization       0.3710750

 Broyden mixing:
  rms(total) = 0.10755E-01    rms(broyden)= 0.10753E-01
  rms(prec ) = 0.11922E-01
  weight for this iteration     100.00

 eigenvalues of (default mixing * dielectric matrix)
  average eigenvalue GAMMA=   2.3329
 11.9117  3.6717  2.5410  2.0950  2.0950  1.1181  0.9242  0.9242  0.7465  0.6222
  0.6885  0.6567

 Free energy of the ion-electron system (eV)
  ---------------------------------------------------
  alpha Z        PSCENC =        53.42782116
  Ewald energy   TEWEN  =     56967.57462357
  -Hartree energ DENC   =    -63207.81305496
  -exchange      EXHF   =         0.00000000
  -V(xc)+E(xc)   XCENC  =       703.67122887
  PAW double counting   =     21278.93595391   -21328.90537574
  entropy T*S    EENTRO =        -0.02190563
  eigenvalues    EBANDS =     -2488.86986559
  atomic energy  EATOM  =      7560.21751256
  Solvation  Ediel_sol  =         0.00000000
  ---------------------------------------------------
  free energy    TOTEN  =      -461.78306186 eV

  energy without entropy =     -461.76115623  energy(sigma->0) =     -461.77210904


--------------------------------------------------------------------------------------------------------




----------------------------------------- Iteration    1(  18)  ---------------------------------------


    POTLOK:  cpu time    2.6605: real time    2.6632
    SETDIJ:  cpu time    2.1398: real time    2.1401
     EDDAV:  cpu time   95.4990: real time   95.5089
       DOS:  cpu time    0.0005: real time    0.0005
    CHARGE:  cpu time   10.5960: real time   10.5969
    MIXING:  cpu time    0.1258: real time    0.1258
    --------------------------------------------
      LOOP:  cpu time  111.0224: real time  111.0392

 eigenvalue-minimisations  :  2848
 total energy-change (2. order) :-0.1111826E+00  (-0.4472736E-03)
 number of electron     203.0000000 magnetization       0.4789831
 augmentation part        5.8106625 magnetization       0.2724967

 Broyden mixing:
  rms(total) = 0.76352E-02    rms(broyden)= 0.76324E-02
  rms(prec ) = 0.87104E-02
  weight for this iteration     100.00

 eigenvalues of (default mixing * dielectric matrix)
  average eigenvalue GAMMA=   2.3664
 12.8444  4.4635  2.4448  2.3394  2.0399  1.0992  1.0992  0.8764  0.8764  0.7309
  0.6206  0.6761  0.6525

 Free energy of the ion-electron system (eV)
  ---------------------------------------------------
  alpha Z        PSCENC =        53.42782116
  Ewald energy   TEWEN  =     56967.57462357
  -Hartree energ DENC   =    -63204.75016801
  -exchange      EXHF   =         0.00000000
  -V(xc)+E(xc)   XCENC  =       703.51237968
  PAW double counting   =     21283.45667467   -21333.42753034
  entropy T*S    EENTRO =        -0.02221695
  eigenvalues    EBANDS =     -2491.88334076
  atomic energy  EATOM  =      7560.21751256
  Solvation  Ediel_sol  =         0.00000000
  ---------------------------------------------------
  free energy    TOTEN  =      -461.89424442 eV

  energy without entropy =     -461.87202747  energy(sigma->0) =     -461.88313595


--------------------------------------------------------------------------------------------------------




----------------------------------------- Iteration    1(  19)  ---------------------------------------


    POTLOK:  cpu time    2.8135: real time    2.8138
    SETDIJ:  cpu time    2.2366: real time    2.2379
     EDDAV:  cpu time   98.6548: real time   98.6631
       DOS:  cpu time    0.0005: real time    0.0005
    CHARGE:  cpu time   10.3697: real time   10.3707
    MIXING:  cpu time    0.1173: real time    0.1173
    --------------------------------------------
      LOOP:  cpu time  114.1932: real time  114.2069

 eigenvalue-minimisations  :  2988
 total energy-change (2. order) :-0.2537233E-01  (-0.1690429E-03)
 number of electron     203.0000000 magnetization       0.3226697
 augmentation part        5.8110534 magnetization       0.1538178

 Broyden mixing:
  rms(total) = 0.59512E-02    rms(broyden)= 0.59483E-02
  rms(prec ) = 0.68584E-02
  weight for this iteration     100.00

 eigenvalues of (default mixing * dielectric matrix)
  average eigenvalue GAMMA=   2.4025
 13.7238  4.9986  2.5245  2.3917  2.0192  1.2941  1.2941  0.9715  0.9715  0.7473
  0.7473  0.6216  0.6768  0.6533

 Free energy of the ion-electron system (eV)
  ---------------------------------------------------
  alpha Z        PSCENC =        53.42782116
  Ewald energy   TEWEN  =     56967.57462357
  -Hartree energ DENC   =    -63201.76634505
  -exchange      EXHF   =         0.00000000
  -V(xc)+E(xc)   XCENC  =       703.46495923
  PAW double counting   =     21282.67063313   -21332.64099526
  entropy T*S    EENTRO =        -0.02249396
  eigenvalues    EBANDS =     -2494.84533213
  atomic energy  EATOM  =      7560.21751256
  Solvation  Ediel_sol  =         0.00000000
  ---------------------------------------------------
  free energy    TOTEN  =      -461.91961675 eV

  energy without entropy =     -461.89712279  energy(sigma->0) =     -461.90836977


--------------------------------------------------------------------------------------------------------




----------------------------------------- Iteration    1(  20)  ---------------------------------------


    POTLOK:  cpu time    2.9438: real time    2.9443
    SETDIJ:  cpu time    2.2873: real time    2.2875
     EDDAV:  cpu time   96.5655: real time   96.5746
       DOS:  cpu time    0.0007: real time    0.0007
    CHARGE:  cpu time   10.5632: real time   10.5641
    MIXING:  cpu time    0.1440: real time    0.1440
    --------------------------------------------
      LOOP:  cpu time  112.5053: real time  112.5200

 eigenvalue-minimisations  :  2900
 total energy-change (2. order) :-0.2485296E-01  (-0.1016495E-03)
 number of electron     203.0000000 magnetization       0.1994835
 augmentation part        5.8112828 magnetization       0.0734264

 Broyden mixing:
  rms(total) = 0.42309E-02    rms(broyden)= 0.42256E-02
  rms(prec ) = 0.49988E-02
  weight for this iteration     100.00

 eigenvalues of (default mixing * dielectric matrix)
  average eigenvalue GAMMA=   2.4985
 14.9619  5.6296  2.9397  2.2527  2.0962  1.6593  1.6593  1.0289  1.0289  0.8269
  0.7796  0.6991  0.6610  0.6176  0.6370

 Free energy of the ion-electron system (eV)
  ---------------------------------------------------
  alpha Z        PSCENC =        53.42782116
  Ewald energy   TEWEN  =     56967.57462357
  -Hartree energ DENC   =    -63199.18660903
  -exchange      EXHF   =         0.00000000
  -V(xc)+E(xc)   XCENC  =       703.42784959
  PAW double counting   =     21282.51562220   -21332.48205815
  entropy T*S    EENTRO =        -0.02279533
  eigenvalues    EBANDS =     -2497.41643628
  atomic energy  EATOM  =      7560.21751256
  Solvation  Ediel_sol  =         0.00000000
  ---------------------------------------------------
  free energy    TOTEN  =      -461.94446972 eV

  energy without entropy =     -461.92167439  energy(sigma->0) =     -461.93307205


--------------------------------------------------------------------------------------------------------




----------------------------------------- Iteration    1(  21)  ---------------------------------------


    POTLOK:  cpu time    2.8302: real time    2.8324
    SETDIJ:  cpu time    2.1808: real time    2.1839
     EDDAV:  cpu time   95.9673: real time   95.9919
       DOS:  cpu time    0.0006: real time    0.0006
    CHARGE:  cpu time   10.6091: real time   10.6121
    MIXING:  cpu time    0.1055: real time    0.1055
    --------------------------------------------
      LOOP:  cpu time  111.6941: real time  111.7311

 eigenvalue-minimisations  :  2892
 total energy-change (2. order) :-0.4324759E-01  (-0.5270352E-04)
 number of electron     203.0000000 magnetization       0.0975387
 augmentation part        5.8114475 magnetization       0.0094551

 Broyden mixing:
  rms(total) = 0.27624E-02    rms(broyden)= 0.27552E-02
  rms(prec ) = 0.33781E-02
  weight for this iteration     100.00

 eigenvalues of (default mixing * dielectric matrix)
  average eigenvalue GAMMA=   2.6642
 16.7019  6.5107  3.8091  2.3706  2.3706  1.9264  1.6825  1.2042  0.9589  0.9589
  0.8054  0.7485  0.6856  0.6553  0.6269  0.6113

 Free energy of the ion-electron system (eV)
  ---------------------------------------------------
  alpha Z        PSCENC =        53.42782116
  Ewald energy   TEWEN  =     56967.57462357
  -Hartree energ DENC   =    -63197.26641802
  -exchange      EXHF   =         0.00000000
  -V(xc)+E(xc)   XCENC  =       703.38248405
  PAW double counting   =     21282.65164896   -21332.61617132
  entropy T*S    EENTRO =        -0.02296050
  eigenvalues    EBANDS =     -2499.33625777
  atomic energy  EATOM  =      7560.21751256
  Solvation  Ediel_sol  =         0.00000000
  ---------------------------------------------------
  free energy    TOTEN  =      -461.98771731 eV

  energy without entropy =     -461.96475681  energy(sigma->0) =     -461.97623706


--------------------------------------------------------------------------------------------------------




----------------------------------------- Iteration    1(  22)  ---------------------------------------


    POTLOK:  cpu time    2.9555: real time    2.9560
    SETDIJ:  cpu time    2.3276: real time    2.3281
     EDDAV:  cpu time   96.9956: real time   97.0045
       DOS:  cpu time    0.0006: real time    0.0006
    CHARGE:  cpu time   10.5042: real time   10.5050
    MIXING:  cpu time    0.1556: real time    0.1556
    --------------------------------------------
      LOOP:  cpu time  112.9399: real time  112.9529

 eigenvalue-minimisations  :  2936
 total energy-change (2. order) :-0.2382745E-01  (-0.3193850E-04)
 number of electron     203.0000000 magnetization       0.0470258
 augmentation part        5.8115170 magnetization      -0.0029521

 Broyden mixing:
  rms(total) = 0.14985E-02    rms(broyden)= 0.14854E-02
  rms(prec ) = 0.19296E-02
  weight for this iteration     100.00

 eigenvalues of (default mixing * dielectric matrix)
  average eigenvalue GAMMA=   2.7695
 18.4968  7.3532  4.4403  2.4541  2.4541  1.8844  1.8844  1.0825  1.0825  0.9270
  0.9270  0.7635  0.7576  0.6837  0.6550  0.6261  0.6097

 Free energy of the ion-electron system (eV)
  ---------------------------------------------------
  alpha Z        PSCENC =        53.42782116
  Ewald energy   TEWEN  =     56967.57462357
  -Hartree energ DENC   =    -63195.24172089
  -exchange      EXHF   =         0.00000000
  -V(xc)+E(xc)   XCENC  =       703.35452252
  PAW double counting   =     21281.40838168   -21331.37518590
  entropy T*S    EENTRO =        -0.02305141
  eigenvalues    EBANDS =     -2501.35444806
  atomic energy  EATOM  =      7560.21751256
  Solvation  Ediel_sol  =         0.00000000
  ---------------------------------------------------
  free energy    TOTEN  =      -462.01154476 eV

  energy without entropy =     -461.98849336  energy(sigma->0) =     -462.00001906


--------------------------------------------------------------------------------------------------------




----------------------------------------- Iteration    1(  23)  ---------------------------------------


    POTLOK:  cpu time    2.9527: real time    2.9543
    SETDIJ:  cpu time    2.3120: real time    2.3146
     EDDAV:  cpu time   97.0211: real time   97.0308
       DOS:  cpu time    0.0006: real time    0.0006
    CHARGE:  cpu time   10.3088: real time   10.3094
    MIXING:  cpu time    0.1281: real time    0.1281
    --------------------------------------------
      LOOP:  cpu time  112.7240: real time  112.7423

 eigenvalue-minimisations  :  2920
 total energy-change (2. order) :-0.3342565E-02  (-0.9575642E-05)
 number of electron     203.0000000 magnetization       0.0214123
 augmentation part        5.8115554 magnetization      -0.0082151

 Broyden mixing:
  rms(total) = 0.97862E-03    rms(broyden)= 0.97041E-03
  rms(prec ) = 0.13119E-02
  weight for this iteration     100.00

 eigenvalues of (default mixing * dielectric matrix)
  average eigenvalue GAMMA=   2.7787
 19.3708  7.6191  4.7612  2.5004  2.5004  2.0008  2.0008  1.1856  1.1856  0.9997
  0.9997  0.8049  0.8049  0.7238  0.6731  0.6517  0.6230  0.6115

 Free energy of the ion-electron system (eV)
  ---------------------------------------------------
  alpha Z        PSCENC =        53.42782116
  Ewald energy   TEWEN  =     56967.57462357
  -Hartree energ DENC   =    -63194.24445367
  -exchange      EXHF   =         0.00000000
  -V(xc)+E(xc)   XCENC  =       703.34761599
  PAW double counting   =     21280.69705587   -21330.66606523
  entropy T*S    EENTRO =        -0.02309833
  eigenvalues    EBANDS =     -2502.34589923
  atomic energy  EATOM  =      7560.21751256
  Solvation  Ediel_sol  =         0.00000000
  ---------------------------------------------------
  free energy    TOTEN  =      -462.01488733 eV

  energy without entropy =     -461.99178899  energy(sigma->0) =     -462.00333816


--------------------------------------------------------------------------------------------------------




----------------------------------------- Iteration    1(  24)  ---------------------------------------


    POTLOK:  cpu time    2.9804: real time    2.9819
    SETDIJ:  cpu time    2.3098: real time    2.3111
     EDDAV:  cpu time   95.2413: real time   95.2499
       DOS:  cpu time    0.0006: real time    0.0006
    CHARGE:  cpu time   10.5615: real time   10.5622
    MIXING:  cpu time    0.1664: real time    0.1664
    --------------------------------------------
      LOOP:  cpu time  111.2608: real time  111.2755

 eigenvalue-minimisations  :  2840
 total energy-change (2. order) :-0.3224177E-03  (-0.4884461E-05)
 number of electron     203.0000000 magnetization       0.0060455
 augmentation part        5.8116166 magnetization      -0.0113153

 Broyden mixing:
  rms(total) = 0.65007E-03    rms(broyden)= 0.64518E-03
  rms(prec ) = 0.89381E-03
  weight for this iteration     100.00

 eigenvalues of (default mixing * dielectric matrix)
  average eigenvalue GAMMA=   2.7918
 20.0257  7.7257  5.2104  2.6904  2.6904  2.1085  2.1085  1.3626  1.3626  1.0931
  0.9232  0.9232  0.8227  0.7451  0.6905  0.6669  0.6611  0.6232  0.6111

 Free energy of the ion-electron system (eV)
  ---------------------------------------------------
  alpha Z        PSCENC =        53.42782116
  Ewald energy   TEWEN  =     56967.57462357
  -Hartree energ DENC   =    -63193.70111318
  -exchange      EXHF   =         0.00000000
  -V(xc)+E(xc)   XCENC  =       703.34510799
  PAW double counting   =     21281.47917118   -21331.44962577
  entropy T*S    EENTRO =        -0.02312702
  eigenvalues    EBANDS =     -2502.88558023
  atomic energy  EATOM  =      7560.21751256
  Solvation  Ediel_sol  =         0.00000000
  ---------------------------------------------------
  free energy    TOTEN  =      -462.01520974 eV

  energy without entropy =     -461.99208272  energy(sigma->0) =     -462.00364623


--------------------------------------------------------------------------------------------------------




----------------------------------------- Iteration    1(  25)  ---------------------------------------


    POTLOK:  cpu time    2.9932: real time    2.9935
    SETDIJ:  cpu time    2.2715: real time    2.2733
     EDDAV:  cpu time   94.5821: real time   94.5922
       DOS:  cpu time    0.0006: real time    0.0006
    CHARGE:  cpu time   10.7009: real time   10.7018
    MIXING:  cpu time    0.1055: real time    0.1055
    --------------------------------------------
      LOOP:  cpu time  110.6545: real time  110.6711

 eigenvalue-minimisations  :  2812
 total energy-change (2. order) : 0.2364185E-03  (-0.4875710E-05)
 number of electron     203.0000000 magnetization       0.0009221
 augmentation part        5.8116692 magnetization      -0.0076632

 Broyden mixing:
  rms(total) = 0.43531E-03    rms(broyden)= 0.43180E-03
  rms(prec ) = 0.58750E-03
  weight for this iteration     100.00

 eigenvalues of (default mixing * dielectric matrix)
  average eigenvalue GAMMA=   2.7709
 20.3920  7.7266  5.6886  3.1884  2.5492  2.2478  2.0538  1.4361  1.4361  1.0554
  1.0554  0.9100  0.9100  0.7995  0.7360  0.6883  0.6590  0.6532  0.6207  0.6124

 Free energy of the ion-electron system (eV)
  ---------------------------------------------------
  alpha Z        PSCENC =        53.42782116
  Ewald energy   TEWEN  =     56967.57462357
  -Hartree energ DENC   =    -63193.25419839
  -exchange      EXHF   =         0.00000000
  -V(xc)+E(xc)   XCENC  =       703.34362138
  PAW double counting   =     21282.10219681   -21332.07362085
  entropy T*S    EENTRO =        -0.02314171
  eigenvalues    EBANDS =     -2503.32978785
  atomic energy  EATOM  =      7560.21751256
  Solvation  Ediel_sol  =         0.00000000
  ---------------------------------------------------
  free energy    TOTEN  =      -462.01497333 eV

  energy without entropy =     -461.99183162  energy(sigma->0) =     -462.00340247


--------------------------------------------------------------------------------------------------------




----------------------------------------- Iteration    1(  26)  ---------------------------------------


    POTLOK:  cpu time    2.6531: real time    2.6533
    SETDIJ:  cpu time    2.1665: real time    2.1666
     EDDAV:  cpu time   65.4775: real time   65.4827
       DOS:  cpu time    0.0006: real time    0.0006
    CHARGE:  cpu time    6.7047: real time    6.7050
    MIXING:  cpu time    0.1160: real time    0.1160
    --------------------------------------------
      LOOP:  cpu time   77.1192: real time   77.1290

 eigenvalue-minimisations  :  2380
 total energy-change (2. order) : 0.1483557E-03  (-0.2841516E-05)
 number of electron     203.0000000 magnetization       0.0002806
 augmentation part        5.8116875 magnetization      -0.0048580

 Broyden mixing:
  rms(total) = 0.32903E-03    rms(broyden)= 0.32778E-03
  rms(prec ) = 0.43123E-03
  weight for this iteration     100.00

 eigenvalues of (default mixing * dielectric matrix)
  average eigenvalue GAMMA=   2.7363
 20.4727  7.5439  6.1614  3.4444  2.5609  2.2823  2.0752  1.5705  1.5705  1.1836
  1.1836  0.9453  0.9453  0.8048  0.8048  0.7193  0.6755  0.6489  0.6393  0.6112
  0.6183

 Free energy of the ion-electron system (eV)
  ---------------------------------------------------
  alpha Z        PSCENC =        53.42782116
  Ewald energy   TEWEN  =     56967.57462357
  -Hartree energ DENC   =    -63192.97529399
  -exchange      EXHF   =         0.00000000
  -V(xc)+E(xc)   XCENC  =       703.34325431
  PAW double counting   =     21282.03608293   -21332.00760535
  entropy T*S    EENTRO =        -0.02315133
  eigenvalues    EBANDS =     -2503.60806882
  atomic energy  EATOM  =      7560.21751256
  Solvation  Ediel_sol  =         0.00000000
  ---------------------------------------------------
  free energy    TOTEN  =      -462.01482497 eV

  energy without entropy =     -461.99167364  energy(sigma->0) =     -462.00324930


--------------------------------------------------------------------------------------------------------




----------------------------------------- Iteration    1(  27)  ---------------------------------------


    POTLOK:  cpu time    1.8547: real time    1.8549
    SETDIJ:  cpu time    1.6539: real time    1.6540
     EDDAV:  cpu time   54.4711: real time   54.4750
       DOS:  cpu time    0.0005: real time    0.0005
    CHARGE:  cpu time    6.6841: real time    6.6846
    MIXING:  cpu time    0.1036: real time    0.1036
    --------------------------------------------
      LOOP:  cpu time   64.7686: real time   64.7761

 eigenvalue-minimisations  :  2456
 total energy-change (2. order) :-0.1878744E-03  (-0.1233487E-05)
 number of electron     203.0000000 magnetization       0.0018539
 augmentation part        5.8116923 magnetization      -0.0023381

 Broyden mixing:
  rms(total) = 0.23947E-03    rms(broyden)= 0.23898E-03
  rms(prec ) = 0.30940E-03
  weight for this iteration     100.00

 eigenvalues of (default mixing * dielectric matrix)
  average eigenvalue GAMMA=   2.7150
 20.4674  7.0097  7.0097  3.7173  2.7602  2.2542  2.2542  1.9637  1.3788  1.3788
  1.1191  1.1191  0.9195  0.9195  0.8109  0.7594  0.7099  0.6750  0.6505  0.6286
  0.6119  0.6119

 Free energy of the ion-electron system (eV)
  ---------------------------------------------------
  alpha Z        PSCENC =        53.42782116
  Ewald energy   TEWEN  =     56967.57462357
  -Hartree energ DENC   =    -63192.75513001
  -exchange      EXHF   =         0.00000000
  -V(xc)+E(xc)   XCENC  =       703.34306161
  PAW double counting   =     21282.13638559   -21332.10752414
  entropy T*S    EENTRO =        -0.02315919
  eigenvalues    EBANDS =     -2503.82860399
  atomic energy  EATOM  =      7560.21751256
  Solvation  Ediel_sol  =         0.00000000
  ---------------------------------------------------
  free energy    TOTEN  =      -462.01501285 eV

  energy without entropy =     -461.99185365  energy(sigma->0) =     -462.00343325


--------------------------------------------------------------------------------------------------------




----------------------------------------- Iteration    1(  28)  ---------------------------------------


    POTLOK:  cpu time    1.9324: real time    1.9325
    SETDIJ:  cpu time    1.7217: real time    1.7218
     EDDAV:  cpu time   53.0486: real time   53.0515
       DOS:  cpu time    0.0173: real time    0.0173
    CHARGE:  cpu time    6.6108: real time    6.6110
    MIXING:  cpu time    0.1395: real time    0.1395
    --------------------------------------------
      LOOP:  cpu time   63.4708: real time   63.4782

 eigenvalue-minimisations  :  2372
 total energy-change (2. order) :-0.5045639E-03  (-0.9347898E-06)
 number of electron     203.0000000 magnetization       0.0026262
 augmentation part        5.8116930 magnetization      -0.0014567

 Broyden mixing:
  rms(total) = 0.15875E-03    rms(broyden)= 0.15832E-03
  rms(prec ) = 0.19823E-03
  weight for this iteration     100.00

 eigenvalues of (default mixing * dielectric matrix)
  average eigenvalue GAMMA=   2.7136
 20.4969  7.2972  7.2972  4.1604  3.0486  2.3657  2.3657  2.0108  1.2918  1.2918
  1.3257  1.3257  0.9311  0.9311  0.8422  0.8422  0.7267  0.6969  0.6698  0.6545
  0.6257  0.6080  0.6080

 Free energy of the ion-electron system (eV)
  ---------------------------------------------------
  alpha Z        PSCENC =        53.42782116
  Ewald energy   TEWEN  =     56967.57462357
  -Hartree energ DENC   =    -63192.50818279
  -exchange      EXHF   =         0.00000000
  -V(xc)+E(xc)   XCENC  =       703.34231502
  PAW double counting   =     21282.28789972   -21332.25862134
  entropy T*S    EENTRO =        -0.02316313
  eigenvalues    EBANDS =     -2504.07572217
  atomic energy  EATOM  =      7560.21751256
  Solvation  Ediel_sol  =         0.00000000
  ---------------------------------------------------
  free energy    TOTEN  =      -462.01551741 eV

  energy without entropy =     -461.99235428  energy(sigma->0) =     -462.00393584


--------------------------------------------------------------------------------------------------------




----------------------------------------- Iteration    1(  29)  ---------------------------------------


    POTLOK:  cpu time    2.0467: real time    2.0474
    SETDIJ:  cpu time    1.7577: real time    1.7608
     EDDAV:  cpu time   53.2936: real time   53.3073
       DOS:  cpu time    0.0005: real time    0.0005
    CHARGE:  cpu time    6.7004: real time    6.7020
    MIXING:  cpu time    0.1019: real time    0.1019
    --------------------------------------------
      LOOP:  cpu time   63.9014: real time   63.9238

 eigenvalue-minimisations  :  2392
 total energy-change (2. order) :-0.2889039E-03  (-0.3757994E-06)
 number of electron     203.0000000 magnetization       0.0023727
 augmentation part        5.8116877 magnetization      -0.0014682

 Broyden mixing:
  rms(total) = 0.11436E-03    rms(broyden)= 0.11379E-03
  rms(prec ) = 0.13671E-03
  weight for this iteration     100.00

 eigenvalues of (default mixing * dielectric matrix)
  average eigenvalue GAMMA=   2.7102
 20.5644  7.6402  7.6402  4.5684  3.1775  2.3941  2.3941  1.9650  1.8232  1.3526
  1.3526  1.0998  1.0120  0.9230  0.9230  0.8290  0.8290  0.7243  0.6833  0.6546
  0.6546  0.6249  0.6161  0.5994

 Free energy of the ion-electron system (eV)
  ---------------------------------------------------
  alpha Z        PSCENC =        53.42782116
  Ewald energy   TEWEN  =     56967.57462357
  -Hartree energ DENC   =    -63192.33610970
  -exchange      EXHF   =         0.00000000
  -V(xc)+E(xc)   XCENC  =       703.34150940
  PAW double counting   =     21282.20756460   -21332.17830541
  entropy T*S    EENTRO =        -0.02316401
  eigenvalues    EBANDS =     -2504.24725849
  atomic energy  EATOM  =      7560.21751256
  Solvation  Ediel_sol  =         0.00000000
  ---------------------------------------------------
  free energy    TOTEN  =      -462.01580631 eV

  energy without entropy =     -461.99264231  energy(sigma->0) =     -462.00422431


--------------------------------------------------------------------------------------------------------




----------------------------------------- Iteration    1(  30)  ---------------------------------------


    POTLOK:  cpu time    1.9759: real time    1.9765
    SETDIJ:  cpu time    1.7542: real time    1.7543
     EDDAV:  cpu time   49.5180: real time   49.5208
       DOS:  cpu time    0.0006: real time    0.0006
    CHARGE:  cpu time    6.6288: real time    6.6291
    MIXING:  cpu time    0.1345: real time    0.1345
    --------------------------------------------
      LOOP:  cpu time   60.0125: real time   60.0199

 eigenvalue-minimisations  :  2152
 total energy-change (2. order) :-0.1592128E-03  (-0.1178365E-06)
 number of electron     203.0000000 magnetization       0.0015733
 augmentation part        5.8116856 magnetization      -0.0015982

 Broyden mixing:
  rms(total) = 0.79004E-04    rms(broyden)= 0.78136E-04
  rms(prec ) = 0.90417E-04
  weight for this iteration     100.00

 eigenvalues of (default mixing * dielectric matrix)
  average eigenvalue GAMMA=   2.7344
 20.6751  8.1329  8.1329  4.9474  3.2458  2.4515  2.4515  2.1224  2.1224  1.4371
  1.4371  1.1156  1.1156  0.9530  0.9530  0.9015  0.8720  0.7519  0.7127  0.6885
  0.6553  0.6480  0.6216  0.6170  0.5975

 Free energy of the ion-electron system (eV)
  ---------------------------------------------------
  alpha Z        PSCENC =        53.42782116
  Ewald energy   TEWEN  =     56967.57462357
  -Hartree energ DENC   =    -63192.21139192
  -exchange      EXHF   =         0.00000000
  -V(xc)+E(xc)   XCENC  =       703.34081982
  PAW double counting   =     21282.15663979   -21332.12759398
  entropy T*S    EENTRO =        -0.02316519
  eigenvalues    EBANDS =     -2504.37123134
  atomic energy  EATOM  =      7560.21751256
  Solvation  Ediel_sol  =         0.00000000
  ---------------------------------------------------
  free energy    TOTEN  =      -462.01596553 eV

  energy without entropy =     -461.99280034  energy(sigma->0) =     -462.00438293


--------------------------------------------------------------------------------------------------------




----------------------------------------- Iteration    1(  31)  ---------------------------------------


    POTLOK:  cpu time    2.0087: real time    2.0091
    SETDIJ:  cpu time    1.7906: real time    1.7926
     EDDAV:  cpu time   48.3831: real time   48.3860
       DOS:  cpu time    0.0005: real time    0.0005
    CHARGE:  cpu time    6.6694: real time    6.6697
    MIXING:  cpu time    0.1269: real time    0.1269
    --------------------------------------------
      LOOP:  cpu time   58.9798: real time   58.9895

 eigenvalue-minimisations  :  2084
 total energy-change (2. order) :-0.9485859E-04  (-0.8849851E-07)
 number of electron     203.0000000 magnetization       0.0006437
 augmentation part        5.8116868 magnetization      -0.0014271

 Broyden mixing:
  rms(total) = 0.61495E-04    rms(broyden)= 0.60249E-04
  rms(prec ) = 0.65282E-04
  weight for this iteration     100.00

 eigenvalues of (default mixing * dielectric matrix)
  average eigenvalue GAMMA=   2.7631
 20.8762  8.7708  8.7708  5.1974  3.2337  2.6956  2.6956  2.2166  2.1259  1.5379
  1.5379  1.1888  1.1888  1.0279  0.8968  0.8968  0.9108  0.8007  0.7614  0.7147
  0.6738  0.6435  0.6435  0.6240  0.6168  0.5954

 Free energy of the ion-electron system (eV)
  ---------------------------------------------------
  alpha Z        PSCENC =        53.42782116
  Ewald energy   TEWEN  =     56967.57462357
  -Hartree energ DENC   =    -63192.12030384
  -exchange      EXHF   =         0.00000000
  -V(xc)+E(xc)   XCENC  =       703.34028256
  PAW double counting   =     21282.16670513   -21332.13782412
  entropy T*S    EENTRO =        -0.02316592
  eigenvalues    EBANDS =     -2504.46171148
  atomic energy  EATOM  =      7560.21751256
  Solvation  Ediel_sol  =         0.00000000
  ---------------------------------------------------
  free energy    TOTEN  =      -462.01606038 eV

  energy without entropy =     -461.99289447  energy(sigma->0) =     -462.00447743


--------------------------------------------------------------------------------------------------------




----------------------------------------- Iteration    1(  32)  ---------------------------------------


    POTLOK:  cpu time    1.9392: real time    1.9397
    SETDIJ:  cpu time    1.7495: real time    1.7496
     EDDAV:  cpu time   48.3811: real time   48.3931
       DOS:  cpu time    0.0005: real time    0.0005
    CHARGE:  cpu time    6.7164: real time    6.7193
    MIXING:  cpu time    0.1569: real time    0.1569
    --------------------------------------------
      LOOP:  cpu time   58.9440: real time   58.9615

 eigenvalue-minimisations  :  2084
 total energy-change (2. order) :-0.1128422E-04  (-0.3363160E-07)
 number of electron     203.0000000 magnetization      -0.0002817
 augmentation part        5.8116878 magnetization      -0.0014718

 Broyden mixing:
  rms(total) = 0.53282E-04    rms(broyden)= 0.51879E-04
  rms(prec ) = 0.55310E-04
  weight for this iteration     100.00

 eigenvalues of (default mixing * dielectric matrix)
  average eigenvalue GAMMA=   2.7723
 21.0933 10.4210  8.1786  5.2293  3.1725  3.1725  2.6390  2.2374  2.1236  1.6648
  1.6648  1.2408  1.2408  1.0816  0.9843  0.9086  0.9086  0.8303  0.8303  0.7313
  0.6823  0.6823  0.6555  0.6429  0.6225  0.6164  0.5955

 Free energy of the ion-electron system (eV)
  ---------------------------------------------------
  alpha Z        PSCENC =        53.42782116
  Ewald energy   TEWEN  =     56967.57462357
  -Hartree energ DENC   =    -63192.09225583
  -exchange      EXHF   =         0.00000000
  -V(xc)+E(xc)   XCENC  =       703.34015772
  PAW double counting   =     21282.18537991   -21332.15649593
  entropy T*S    EENTRO =        -0.02316572
  eigenvalues    EBANDS =     -2504.48964912
  atomic energy  EATOM  =      7560.21751256
  Solvation  Ediel_sol  =         0.00000000
  ---------------------------------------------------
  free energy    TOTEN  =      -462.01607167 eV

  energy without entropy =     -461.99290595  energy(sigma->0) =     -462.00448881


--------------------------------------------------------------------------------------------------------




----------------------------------------- Iteration    1(  33)  ---------------------------------------


    POTLOK:  cpu time    1.9282: real time    1.9287
    SETDIJ:  cpu time    1.6349: real time    1.6354
     EDDAV:  cpu time   47.3863: real time   47.3983
       DOS:  cpu time    0.0006: real time    0.0006
    CHARGE:  cpu time    6.6930: real time    6.6947
    MIXING:  cpu time    0.1291: real time    0.1295
    --------------------------------------------
      LOOP:  cpu time   57.7725: real time   57.7896

 eigenvalue-minimisations  :  2020
 total energy-change (2. order) :-0.3102796E-05  (-0.1304150E-07)
 number of electron     203.0000000 magnetization      -0.0008564
 augmentation part        5.8116874 magnetization      -0.0012289

 Broyden mixing:
  rms(total) = 0.41729E-04    rms(broyden)= 0.39951E-04
  rms(prec ) = 0.42933E-04
  weight for this iteration     100.00

 eigenvalues of (default mixing * dielectric matrix)
  average eigenvalue GAMMA=   2.8234
 21.2621 11.7747  8.1584  5.3671  3.7081  2.9923  2.9923  2.2896  2.2896  2.0295
  1.6447  1.3389  1.3389  1.1437  1.1437  0.9248  0.9248  0.8901  0.8503  0.7795
  0.7279  0.6940  0.6704  0.6483  0.6337  0.6247  0.6176  0.5948

 Free energy of the ion-electron system (eV)
  ---------------------------------------------------
  alpha Z        PSCENC =        53.42782116
  Ewald energy   TEWEN  =     56967.57462357
  -Hartree energ DENC   =    -63192.08244576
  -exchange      EXHF   =         0.00000000
  -V(xc)+E(xc)   XCENC  =       703.34017488
  PAW double counting   =     21282.18860619   -21332.15967286
  entropy T*S    EENTRO =        -0.02316536
  eigenvalues    EBANDS =     -2504.49952915
  atomic energy  EATOM  =      7560.21751256
  Solvation  Ediel_sol  =         0.00000000
  ---------------------------------------------------
  free energy    TOTEN  =      -462.01607477 eV

  energy without entropy =     -461.99290941  energy(sigma->0) =     -462.00449209


--------------------------------------------------------------------------------------------------------




----------------------------------------- Iteration    1(  34)  ---------------------------------------


    POTLOK:  cpu time    1.9673: real time    1.9674
    SETDIJ:  cpu time    1.7592: real time    1.7597
     EDDAV:  cpu time   46.0332: real time   46.0365
       DOS:  cpu time    0.0005: real time    0.0005
    CHARGE:  cpu time    6.5789: real time    6.5792
    MIXING:  cpu time    0.1556: real time    0.1556
    --------------------------------------------
      LOOP:  cpu time   56.4952: real time   56.5015

 eigenvalue-minimisations  :  1980
 total energy-change (2. order) :-0.3447713E-04  (-0.1677639E-07)
 number of electron     203.0000000 magnetization      -0.0006898
 augmentation part        5.8116862 magnetization      -0.0004110

 Broyden mixing:
  rms(total) = 0.27199E-04    rms(broyden)= 0.24502E-04
  rms(prec ) = 0.27395E-04
  weight for this iteration     100.00

 eigenvalues of (default mixing * dielectric matrix)
  average eigenvalue GAMMA=   2.7863
 21.1343 11.6137  8.4105  5.5373  4.0309  2.9119  2.9119  2.3938  2.3938  1.9721
  1.9721  1.3119  1.3119  1.2435  1.1305  1.0126  0.9418  0.9418  0.8474  0.8474
  0.7479  0.7066  0.6992  0.6680  0.6463  0.6311  0.6197  0.6197  0.5947

 Free energy of the ion-electron system (eV)
  ---------------------------------------------------
  alpha Z        PSCENC =        53.42782116
  Ewald energy   TEWEN  =     56967.57462357
  -Hartree energ DENC   =    -63192.07973293
  -exchange      EXHF   =         0.00000000
  -V(xc)+E(xc)   XCENC  =       703.34019454
  PAW double counting   =     21282.18748026   -21332.15850636
  entropy T*S    EENTRO =        -0.02316505
  eigenvalues    EBANDS =     -2504.50233699
  atomic energy  EATOM  =      7560.21751256
  Solvation  Ediel_sol  =         0.00000000
  ---------------------------------------------------
  free energy    TOTEN  =      -462.01610925 eV

  energy without entropy =     -461.99294420  energy(sigma->0) =     -462.00452673


--------------------------------------------------------------------------------------------------------




----------------------------------------- Iteration    1(  35)  ---------------------------------------


    POTLOK:  cpu time    2.0190: real time    2.0193
    SETDIJ:  cpu time    1.7925: real time    1.7926
     EDDAV:  cpu time   45.4023: real time   45.4047
       DOS:  cpu time    0.0006: real time    0.0006
    CHARGE:  cpu time    5.7720: real time    5.7723
    MIXING:  cpu time    0.1403: real time    0.1403
    --------------------------------------------
      LOOP:  cpu time   55.1270: real time   55.1337

 eigenvalue-minimisations  :  1948
 total energy-change (2. order) :-0.2583092E-04  (-0.1212341E-07)
 number of electron     203.0000000 magnetization      -0.0004211
 augmentation part        5.8116856 magnetization      -0.0001384

 Broyden mixing:
  rms(total) = 0.19435E-04    rms(broyden)= 0.15824E-04
  rms(prec ) = 0.18629E-04
  weight for this iteration     100.00
  WARNING: grid for Broyden might be to small

 eigenvalues of (default mixing * dielectric matrix)
  average eigenvalue GAMMA=   2.7707
 21.0813 11.6641  8.5528  5.7477  4.3000  3.0444  3.0444  2.4358  2.4358  2.0495
  1.7418  1.7418  1.3391  1.3391  1.1557  1.1557  0.9372  0.9372  0.8706  0.8706
  0.7775  0.7467  0.7067  0.6815  0.6537  0.6537  0.6286  0.6171  0.6171  0.5945

 Free energy of the ion-electron system (eV)
  ---------------------------------------------------
  alpha Z        PSCENC =        53.42782116
  Ewald energy   TEWEN  =     56967.57462357
  -Hartree energ DENC   =    -63192.08024881
  -exchange      EXHF   =         0.00000000
  -V(xc)+E(xc)   XCENC  =       703.34013319
  PAW double counting   =     21282.19712706   -21332.16816291
  entropy T*S    EENTRO =        -0.02316470
  eigenvalues    EBANDS =     -2504.50177619
  atomic energy  EATOM  =      7560.21751256
  Solvation  Ediel_sol  =         0.00000000
  ---------------------------------------------------
  free energy    TOTEN  =      -462.01613508 eV

  energy without entropy =     -461.99297038  energy(sigma->0) =     -462.00455273


--------------------------------------------------------------------------------------------------------




----------------------------------------- Iteration    1(  36)  ---------------------------------------


    POTLOK:  cpu time    1.9072: real time    1.9077
    SETDIJ:  cpu time    1.3835: real time    1.3835
     EDDAV:  cpu time   31.2223: real time   31.2234
       DOS:  cpu time    0.0005: real time    0.0005
    CHARGE:  cpu time    4.0983: real time    4.0984
    MIXING:  cpu time    0.0918: real time    0.0918
    --------------------------------------------
      LOOP:  cpu time   38.7040: real time   38.7085

 eigenvalue-minimisations  :  1956
 total energy-change (2. order) :-0.1761701E-04  (-0.1077255E-07)
 number of electron     203.0000000 magnetization      -0.0000725
 augmentation part        5.8116853 magnetization       0.0000961

 Broyden mixing:
  rms(total) = 0.15575E-04    rms(broyden)= 0.10773E-04
  rms(prec ) = 0.13025E-04
  weight for this iteration     100.00
  WARNING: grid for Broyden might be to small

 eigenvalues of (default mixing * dielectric matrix)
  average eigenvalue GAMMA=   2.7419
 20.9850 11.2776  8.7570  6.0561  4.2800  3.1658  3.1658  2.5143  2.5143  2.0844
  2.0844  1.9096  1.3637  1.3637  1.1555  1.1555  0.9232  0.9232  0.9464  0.9464
  0.7912  0.7912  0.7159  0.7027  0.6782  0.6540  0.5946  0.6384  0.6246  0.6246
  0.6118

 Free energy of the ion-electron system (eV)
  ---------------------------------------------------
  alpha Z        PSCENC =        53.42782116
  Ewald energy   TEWEN  =     56967.57462357
  -Hartree energ DENC   =    -63192.07958694
  -exchange      EXHF   =         0.00000000
  -V(xc)+E(xc)   XCENC  =       703.34006549
  PAW double counting   =     21282.20453316   -21332.17558701
  entropy T*S    EENTRO =        -0.02316429
  eigenvalues    EBANDS =     -2504.50237040
  atomic energy  EATOM  =      7560.21751256
  Solvation  Ediel_sol  =         0.00000000
  ---------------------------------------------------
  free energy    TOTEN  =      -462.01615270 eV

  energy without entropy =     -461.99298841  energy(sigma->0) =     -462.00457055


--------------------------------------------------------------------------------------------------------




----------------------------------------- Iteration    1(  37)  ---------------------------------------


    POTLOK:  cpu time    1.3465: real time    1.3465
    SETDIJ:  cpu time    1.2914: real time    1.2914
     EDDAV:  cpu time   31.1516: real time   31.1530
       DOS:  cpu time    0.0005: real time    0.0005
    CHARGE:  cpu time    3.9517: real time    3.9518
    MIXING:  cpu time    0.0771: real time    0.0771
    --------------------------------------------
      LOOP:  cpu time   37.8191: real time   37.8255

 eigenvalue-minimisations  :  1952
 total energy-change (2. order) :-0.5034624E-05  (-0.1473389E-08)
 number of electron     203.0000000 magnetization       0.0001114
 augmentation part        5.8116852 magnetization       0.0000637

 Broyden mixing:
  rms(total) = 0.13069E-04    rms(broyden)= 0.66035E-05
  rms(prec ) = 0.85478E-05
  weight for this iteration     100.00
  WARNING: grid for Broyden might be to small

 eigenvalues of (default mixing * dielectric matrix)
  average eigenvalue GAMMA=   2.7228
 20.9384 11.1695  8.8091  6.3014  4.1543  3.3587  3.3587  2.7224  2.4562  2.2864
  2.2864  1.9430  1.3708  1.3708  1.2031  1.2031  1.1414  0.9328  0.9328  0.9544
  0.8374  0.8374  0.7479  0.7055  0.7055  0.6734  0.6411  0.6403  0.6235  0.6235
  0.5945  0.6064

 Free energy of the ion-electron system (eV)
  ---------------------------------------------------
  alpha Z        PSCENC =        53.42782116
  Ewald energy   TEWEN  =     56967.57462357
  -Hartree energ DENC   =    -63192.07933701
  -exchange      EXHF   =         0.00000000
  -V(xc)+E(xc)   XCENC  =       703.34002550
  PAW double counting   =     21282.19889936   -21332.16996952
  entropy T*S    EENTRO =        -0.02316414
  eigenvalues    EBANDS =     -2504.50256921
  atomic energy  EATOM  =      7560.21751256
  Solvation  Ediel_sol  =         0.00000000
  ---------------------------------------------------
  free energy    TOTEN  =      -462.01615773 eV

  energy without entropy =     -461.99299360  energy(sigma->0) =     -462.00457566


--------------------------------------------------------------------------------------------------------




----------------------------------------- Iteration    1(  38)  ---------------------------------------


    POTLOK:  cpu time    1.3444: real time    1.3444
    SETDIJ:  cpu time    1.2937: real time    1.2937
     EDDAV:  cpu time   31.7177: real time   31.7191
       DOS:  cpu time    0.0005: real time    0.0005
    CHARGE:  cpu time    3.9271: real time    3.9272
    MIXING:  cpu time    0.0815: real time    0.0815
    --------------------------------------------
      LOOP:  cpu time   38.3652: real time   38.3693

 eigenvalue-minimisations  :  2004
 total energy-change (2. order) :-0.2888439E-05  ( 0.6193939E-09)
 number of electron     203.0000000 magnetization       0.0001536
 augmentation part        5.8116853 magnetization       0.0000028

 Broyden mixing:
  rms(total) = 0.12085E-04    rms(broyden)= 0.43886E-05
  rms(prec ) = 0.56599E-05
  weight for this iteration     100.00
  WARNING: grid for Broyden might be to small

 eigenvalues of (default mixing * dielectric matrix)
  average eigenvalue GAMMA=   2.7029
 20.9267 11.2448  8.7551  6.5136  4.0941  3.4197  3.4197  3.2894  2.3724  2.3533
  2.3533  1.9958  1.3737  1.3737  1.3332  1.2219  1.2219  0.9345  0.9345  0.9548
  0.9548  0.8181  0.8181  0.7387  0.7137  0.6860  0.6665  0.6461  0.6329  0.6205
  0.6205  0.5954  0.5997

 Free energy of the ion-electron system (eV)
  ---------------------------------------------------
  alpha Z        PSCENC =        53.42782116
  Ewald energy   TEWEN  =     56967.57462357
  -Hartree energ DENC   =    -63192.07868632
  -exchange      EXHF   =         0.00000000
  -V(xc)+E(xc)   XCENC  =       703.33999522
  PAW double counting   =     21282.19815185   -21332.16922406
  entropy T*S    EENTRO =        -0.02316401
  eigenvalues    EBANDS =     -2504.50319059
  atomic energy  EATOM  =      7560.21751256
  Solvation  Ediel_sol  =         0.00000000
  ---------------------------------------------------
  free energy    TOTEN  =      -462.01616062 eV

  energy without entropy =     -461.99299661  energy(sigma->0) =     -462.00457861


--------------------------------------------------------------------------------------------------------




----------------------------------------- Iteration    1(  39)  ---------------------------------------


    POTLOK:  cpu time    1.3491: real time    1.3492
    SETDIJ:  cpu time    1.2904: real time    1.2904
     EDDAV:  cpu time   30.7808: real time   30.7820
       DOS:  cpu time    0.0005: real time    0.0005
    CHARGE:  cpu time    3.9508: real time    3.9520
    MIXING:  cpu time    0.0883: real time    0.0883
    --------------------------------------------
      LOOP:  cpu time   37.4603: real time   37.4668

 eigenvalue-minimisations  :  1920
 total energy-change (2. order) :-0.2319190E-05  ( 0.5476204E-09)
 number of electron     203.0000000 magnetization       0.0001351
 augmentation part        5.8116854 magnetization      -0.0000271

 Broyden mixing:
  rms(total) = 0.11643E-04    rms(broyden)= 0.30128E-05
  rms(prec ) = 0.37147E-05
  weight for this iteration     100.00
  WARNING: grid for Broyden might be to small

 eigenvalues of (default mixing * dielectric matrix)
  average eigenvalue GAMMA=   2.6936
 20.9427 11.5617  8.5502  6.7781  4.3603  3.7680  3.3971  3.3971  2.4240  2.4240
  2.1554  2.1554  1.6637  1.3524  1.3524  1.1938  1.1938  1.1208  0.9346  0.9346
  0.9591  0.8512  0.8512  0.7685  0.7146  0.7146  0.6824  0.6626  0.6474  0.6308
  0.6201  0.6201  0.5953  0.6026

 Free energy of the ion-electron system (eV)
  ---------------------------------------------------
  alpha Z        PSCENC =        53.42782116
  Ewald energy   TEWEN  =     56967.57462357
  -Hartree energ DENC   =    -63192.07787910
  -exchange      EXHF   =         0.00000000
  -V(xc)+E(xc)   XCENC  =       703.33997386
  PAW double counting   =     21282.20109527   -21332.17216410
  entropy T*S    EENTRO =        -0.02316386
  eigenvalues    EBANDS =     -2504.50398229
  atomic energy  EATOM  =      7560.21751256
  Solvation  Ediel_sol  =         0.00000000
  ---------------------------------------------------
  free energy    TOTEN  =      -462.01616294 eV

  energy without entropy =     -461.99299908  energy(sigma->0) =     -462.00458101


--------------------------------------------------------------------------------------------------------




----------------------------------------- Iteration    1(  40)  ---------------------------------------


    POTLOK:  cpu time    1.3464: real time    1.3464
    SETDIJ:  cpu time    1.2949: real time    1.2949
     EDDAV:  cpu time   30.4761: real time   30.4774
       DOS:  cpu time    0.0005: real time    0.0005
    CHARGE:  cpu time    3.9380: real time    3.9381
    MIXING:  cpu time    0.1090: real time    0.1090
    --------------------------------------------
      LOOP:  cpu time   37.1652: real time   37.1687

 eigenvalue-minimisations  :  1888
 total energy-change (2. order) :-0.1592507E-05  ( 0.1484242E-08)
 number of electron     203.0000000 magnetization       0.0001042
 augmentation part        5.8116855 magnetization      -0.0000291

 Broyden mixing:
  rms(total) = 0.11447E-04    rms(broyden)= 0.21423E-05
  rms(prec ) = 0.25043E-05
  weight for this iteration     100.00
  WARNING: grid for Broyden might be to small

 eigenvalues of (default mixing * dielectric matrix)
  average eigenvalue GAMMA=   2.6873
 20.9562 11.8083  8.3494  7.0780  4.7346  3.8805  3.4499  3.4499  2.4882  2.4882
  2.1720  2.1720  1.8702  1.3773  1.3773  1.2372  1.2372  1.2080  0.9924  0.9924
  0.9295  0.9295  0.8271  0.8271  0.7585  0.7215  0.6981  0.6781  0.6522  0.6522
  0.6267  0.6199  0.6199  0.5952  0.6003

 Free energy of the ion-electron system (eV)
  ---------------------------------------------------
  alpha Z        PSCENC =        53.42782116
  Ewald energy   TEWEN  =     56967.57462357
  -Hartree energ DENC   =    -63192.07757578
  -exchange      EXHF   =         0.00000000
  -V(xc)+E(xc)   XCENC  =       703.33996956
  PAW double counting   =     21282.20287435   -21332.17394046
  entropy T*S    EENTRO =        -0.02316374
  eigenvalues    EBANDS =     -2504.50428576
  atomic energy  EATOM  =      7560.21751256
  Solvation  Ediel_sol  =         0.00000000
  ---------------------------------------------------
  free energy    TOTEN  =      -462.01616453 eV

  energy without entropy =     -461.99300080  energy(sigma->0) =     -462.00458266


--------------------------------------------------------------------------------------------------------




----------------------------------------- Iteration    1(  41)  ---------------------------------------


    POTLOK:  cpu time    1.3493: real time    1.3493
    SETDIJ:  cpu time    1.2897: real time    1.2912
     EDDAV:  cpu time   30.3941: real time   30.3955
       DOS:  cpu time    0.0004: real time    0.0004
    --------------------------------------------
      LOOP:  cpu time   33.0338: real time   33.0394

 eigenvalue-minimisations  :  1884
 total energy-change (2. order) :-0.9617415E-06  ( 0.1926596E-08)
 number of electron     203.0000000 magnetization       0.0001042
 augmentation part        5.8116855 magnetization      -0.0000291

 Free energy of the ion-electron system (eV)
  ---------------------------------------------------
  alpha Z        PSCENC =        53.42782116
  Ewald energy   TEWEN  =     56967.57462357
  -Hartree energ DENC   =    -63192.07797794
  -exchange      EXHF   =         0.00000000
  -V(xc)+E(xc)   XCENC  =       703.33997652
  PAW double counting   =     21282.20188045   -21332.17294565
  entropy T*S    EENTRO =        -0.02316366
  eigenvalues    EBANDS =     -2504.50389250
  atomic energy  EATOM  =      7560.21751256
  Solvation  Ediel_sol  =         0.00000000
  ---------------------------------------------------
  free energy    TOTEN  =      -462.01616549 eV

  energy without entropy =     -461.99300184  energy(sigma->0) =     -462.00458366


--------------------------------------------------------------------------------------------------------




 average (electrostatic) potential at core
  the test charge radii are     0.6991  0.7079
  (the norm of the test charge is              1.0000)
       1 -58.2034       2 -58.1803       3 -58.1070       4 -58.1266       5 -58.2013
       6 -58.1767       7 -58.5363       8 -58.3776       9 -58.5360      10 -58.3849
      11 -58.2049      12 -58.1412      13 -58.1097      14 -58.1238      15 -58.1046
      16 -58.1243      17 -58.2060      18 -58.1377      19 -58.2754      20 -58.1410
      21 -58.1309      22 -58.0898      23 -58.1005      24 -58.1361      25 -58.1069
      26 -58.1653      27 -58.1377      28 -58.1413      29 -58.1261      30 -58.0917
      31 -58.0680      32 -58.0941      33 -58.1351      34 -58.1393      35 -58.2027
      36 -58.3650      37 -58.2001      38 -58.3896      39 -58.1034      40 -58.1376
      41 -58.1244      42 -58.1383      43 -58.1306      44 -58.1348      45 -58.2849
      46 -58.3826      47 -58.5444      48 -58.5420      49 -58.2869      50 -58.3762
      51 -70.5804
 
 
 
 E-fermi :  -1.8839     XC(G=0):  -1.4778     alpha+bet : -1.3130


 spin component 1

 k-point     1 :       0.0000    0.0000    0.0000
  band No.  band energies     occupation 
      1     -51.5014      1.00000
      2     -22.4431      1.00000
      3     -21.6580      1.00000
      4     -21.4951      1.00000
      5     -21.4681      1.00000
      6     -21.3803      1.00000
      7     -21.3762      1.00000
      8     -21.3472      1.00000
      9     -19.6898      1.00000
     10     -19.6352      1.00000
     11     -19.6175      1.00000
     12     -19.5745      1.00000
     13     -19.5621      1.00000
     14     -19.5587      1.00000
     15     -18.7325      1.00000
     16     -18.7095      1.00000
     17     -18.7031      1.00000
     18     -18.6771      1.00000
     19     -18.6651      1.00000
     20     -18.6405      1.00000
     21     -16.5873      1.00000
     22     -16.5603      1.00000
     23     -16.5336      1.00000
     24     -16.5092      1.00000
     25     -16.4476      1.00000
     26     -16.4364      1.00000
     27     -15.5815      1.00000
     28     -15.5617      1.00000
     29     -15.5475      1.00000
     30     -15.5120      1.00000
     31     -15.5081      1.00000
     32     -15.4972      1.00000
     33     -14.1931      1.00000
     34     -14.1883      1.00000
     35     -14.1787      1.00000
     36     -14.1549      1.00000
     37     -14.1516      1.00000
     38     -14.1483      1.00000
     39     -11.8306      1.00000
     40     -11.8164      1.00000
     41     -11.8093      1.00000
     42     -11.7806      1.00000
     43     -11.7480      1.00000
     44     -11.7432      1.00000
     45     -11.7265      1.00000
     46     -11.7219      1.00000
     47     -11.6440      1.00000
     48     -11.6389      1.00000
     49     -11.6340      1.00000
     50     -11.6246      1.00000
     51     -10.6114      1.00000
     52     -10.3311      1.00000
     53     -10.3247      1.00000
     54     -10.3004      1.00000
     55     -10.2889      1.00000
     56     -10.2846      1.00000
     57     -10.2803      1.00000
     58      -9.7005      1.00000
     59      -9.4700      1.00000
     60      -9.4439      1.00000
     61      -9.3104      1.00000
     62      -9.3067      1.00000
     63      -9.2705      1.00000
     64      -9.0846      1.00000
     65      -9.0696      1.00000
     66      -9.0455      1.00000
     67      -8.9929      1.00000
     68      -8.9771      1.00000
     69      -8.9729      1.00000
     70      -8.9554      1.00000
     71      -8.9488      1.00000
     72      -8.9449      1.00000
     73      -8.9254      1.00000
     74      -8.9140      1.00000
     75      -8.8949      1.00000
     76      -7.4329      1.00000
     77      -7.3937      1.00000
     78      -7.3824      1.00000
     79      -7.3592      1.00000
     80      -7.3393      1.00000
     81      -7.3177      1.00000
     82      -7.3081      1.00000
     83      -7.2921      1.00000
     84      -7.2774      1.00000
     85      -7.2259      1.00000
     86      -7.2152      1.00000
     87      -7.2068      1.00000
     88      -6.4339      1.00000
     89      -6.4100      1.00000
     90      -6.3984      1.00000
     91      -6.3081      1.00000
     92      -6.2995      1.00000
     93      -6.2695      1.00000
     94      -5.8375      1.00000
     95      -5.8222      1.00000
     96      -4.4655      1.00000
     97      -4.4385      1.00000
     98      -4.4089      1.00000
     99      -4.3528      1.00000
    100      -4.2684      1.00000
    101      -4.2614      1.00000
    102      -1.7351      0.00001
    103      -1.6808      0.00000
    104      -1.6721      0.00000
    105      -1.5480      0.00000
    106      -1.4747      0.00000
    107      -1.4729      0.00000
    108      -1.0884      0.00000
    109       0.1109      0.00000
    110       0.1265      0.00000
    111       0.2090      0.00000
    112       0.3721      0.00000
    113       0.3771      0.00000
    114       0.3832      0.00000
    115       0.5274      0.00000
    116       0.7570      0.00000
    117       0.7590      0.00000
    118       0.8184      0.00000
    119       1.0485      0.00000
    120       1.3766      0.00000
    121       1.4348      0.00000
    122       1.4351      0.00000
    123       1.5272      0.00000
    124       1.5341      0.00000
    125       1.9470      0.00000
    126       1.9631      0.00000
    127       2.0219      0.00000
    128       2.0479      0.00000
    129       2.0822      0.00000
    130       2.0985      0.00000
    131       2.1274      0.00000
    132       2.1606      0.00000

 k-point     2 :       0.3333   -0.0000    0.0000
  band No.  band energies     occupation 
      1     -51.5014      1.00000
      2     -22.3564      1.00000
      3     -21.9893      1.00000
      4     -21.6661      1.00000
      5     -21.6500      1.00000
      6     -21.0716      1.00000
      7     -21.0135      1.00000
      8     -20.7015      1.00000
      9     -20.4475      1.00000
     10     -20.3959      1.00000
     11     -19.7901      1.00000
     12     -19.5185      1.00000
     13     -19.5088      1.00000
     14     -19.1796      1.00000
     15     -19.1755      1.00000
     16     -18.6309      1.00000
     17     -18.5819      1.00000
     18     -18.0135      1.00000
     19     -18.0085      1.00000
     20     -17.5257      1.00000
     21     -17.4431      1.00000
     22     -17.4376      1.00000
     23     -17.1948      1.00000
     24     -17.1899      1.00000
     25     -16.3974      1.00000
     26     -16.3924      1.00000
     27     -15.6923      1.00000
     28     -15.4436      1.00000
     29     -15.4378      1.00000
     30     -14.9348      1.00000
     31     -14.9310      1.00000
     32     -14.8684      1.00000
     33     -14.8622      1.00000
     34     -14.5012      1.00000
     35     -14.4642      1.00000
     36     -13.2879      1.00000
     37     -13.2831      1.00000
     38     -13.0811      1.00000
     39     -13.0422      1.00000
     40     -12.7993      1.00000
     41     -12.7966      1.00000
     42     -12.4668      1.00000
     43     -12.3434      1.00000
     44     -12.3380      1.00000
     45     -11.5821      1.00000
     46     -11.5430      1.00000
     47     -11.1263      1.00000
     48     -11.1060      1.00000
     49     -10.7535      1.00000
     50     -10.7461      1.00000
     51     -10.6982      1.00000
     52     -10.5191      1.00000
     53     -10.4736      1.00000
     54     -10.4682      1.00000
     55     -10.0535      1.00000
     56      -9.8473      1.00000
     57      -9.8377      1.00000
     58      -9.8006      1.00000
     59      -9.7956      1.00000
     60      -9.6619      1.00000
     61      -9.6438      1.00000
     62      -9.4803      1.00000
     63      -9.4717      1.00000
     64      -9.2230      1.00000
     65      -9.1980      1.00000
     66      -9.1831      1.00000
     67      -9.0902      1.00000
     68      -9.0809      1.00000
     69      -8.9800      1.00000
     70      -8.8894      1.00000
     71      -8.5903      1.00000
     72      -8.5266      1.00000
     73      -8.2708      1.00000
     74      -8.2607      1.00000
     75      -8.2412      1.00000
     76      -8.1726      1.00000
     77      -8.0381      1.00000
     78      -7.9980      1.00000
     79      -7.9612      1.00000
     80      -7.5079      1.00000
     81      -7.4266      1.00000
     82      -7.2326      1.00000
     83      -7.2228      1.00000
     84      -7.2034      1.00000
     85      -7.2001      1.00000
     86      -6.8349      1.00000
     87      -6.8296      1.00000
     88      -6.6230      1.00000
     89      -6.2666      1.00000
     90      -6.2379      1.00000
     91      -6.1477      1.00000
     92      -6.0476      1.00000
     93      -5.7195      1.00000
     94      -5.7143      1.00000
     95      -5.4037      1.00000
     96      -5.1118      1.00000
     97      -5.0700      1.00000
     98      -4.9370      1.00000
     99      -4.9253      1.00000
    100      -3.9541      1.00000
    101      -3.9436      1.00000
    102      -1.8630      0.27719
    103      -1.8282      0.05757
    104      -1.3127      0.00000
    105      -1.1736      0.00000
    106      -1.1260      0.00000
    107      -0.9720      0.00000
    108      -0.7674      0.00000
    109      -0.7611      0.00000
    110      -0.4870      0.00000
    111      -0.4526      0.00000
    112       0.3291      0.00000
    113       0.5392      0.00000
    114       0.6003      0.00000
    115       0.6489      0.00000
    116       0.8333      0.00000
    117       0.9586      0.00000
    118       1.0962      0.00000
    119       1.1073      0.00000
    120       1.1587      0.00000
    121       1.3101      0.00000
    122       1.3820      0.00000
    123       1.5148      0.00000
    124       1.5854      0.00000
    125       1.6722      0.00000
    126       1.6887      0.00000
    127       1.7841      0.00000
    128       1.8103      0.00000
    129       1.8218      0.00000
    130       1.8561      0.00000
    131       1.8604      0.00000
    132       2.0080      0.00000

 k-point     3 :       0.0000    0.3333    0.0000
  band No.  band energies     occupation 
      1     -51.5014      1.00000
      2     -22.3559      1.00000
      3     -21.9919      1.00000
      4     -21.6679      1.00000
      5     -21.6441      1.00000
      6     -21.0786      1.00000
      7     -21.0088      1.00000
      8     -20.7012      1.00000
      9     -20.4538      1.00000
     10     -20.3906      1.00000
     11     -19.7894      1.00000
     12     -19.5147      1.00000
     13     -19.5099      1.00000
     14     -19.1829      1.00000
     15     -19.1742      1.00000
     16     -18.6371      1.00000
     17     -18.5769      1.00000
     18     -18.0130      1.00000
     19     -18.0085      1.00000
     20     -17.5301      1.00000
     21     -17.4448      1.00000
     22     -17.4336      1.00000
     23     -17.1929      1.00000
     24     -17.1892      1.00000
     25     -16.4033      1.00000
     26     -16.3854      1.00000
     27     -15.6888      1.00000
     28     -15.4438      1.00000
     29     -15.4410      1.00000
     30     -14.9390      1.00000
     31     -14.9269      1.00000
     32     -14.8785      1.00000
     33     -14.8619      1.00000
     34     -14.5023      1.00000
     35     -14.4558      1.00000
     36     -13.2931      1.00000
     37     -13.2821      1.00000
     38     -13.0840      1.00000
     39     -13.0332      1.00000
     40     -12.7989      1.00000
     41     -12.7911      1.00000
     42     -12.4617      1.00000
     43     -12.3494      1.00000
     44     -12.3378      1.00000
     45     -11.5864      1.00000
     46     -11.5454      1.00000
     47     -11.1324      1.00000
     48     -11.1108      1.00000
     49     -10.7564      1.00000
     50     -10.7485      1.00000
     51     -10.6879      1.00000
     52     -10.5148      1.00000
     53     -10.4730      1.00000
     54     -10.4691      1.00000
     55     -10.0561      1.00000
     56      -9.8474      1.00000
     57      -9.8436      1.00000
     58      -9.7968      1.00000
     59      -9.7869      1.00000
     60      -9.6642      1.00000
     61      -9.6352      1.00000
     62      -9.4768      1.00000
     63      -9.4733      1.00000
     64      -9.2245      1.00000
     65      -9.1962      1.00000
     66      -9.1802      1.00000
     67      -9.0898      1.00000
     68      -9.0799      1.00000
     69      -8.9891      1.00000
     70      -8.8848      1.00000
     71      -8.5961      1.00000
     72      -8.5286      1.00000
     73      -8.2815      1.00000
     74      -8.2651      1.00000
     75      -8.2446      1.00000
     76      -8.1687      1.00000
     77      -8.0430      1.00000
     78      -7.9983      1.00000
     79      -7.9596      1.00000
     80      -7.5063      1.00000
     81      -7.4239      1.00000
     82      -7.2282      1.00000
     83      -7.2187      1.00000
     84      -7.2020      1.00000
     85      -7.1839      1.00000
     86      -6.8366      1.00000
     87      -6.8257      1.00000
     88      -6.6335      1.00000
     89      -6.2612      1.00000
     90      -6.2431      1.00000
     91      -6.1452      1.00000
     92      -6.0578      1.00000
     93      -5.7152      1.00000
     94      -5.7120      1.00000
     95      -5.4154      1.00000
     96      -5.1178      1.00000
     97      -5.0632      1.00000
     98      -4.9383      1.00000
     99      -4.9228      1.00000
    100      -3.9574      1.00000
    101      -3.9309      1.00000
    102      -1.8764      0.41653
    103      -1.8366      0.09051
    104      -1.2952      0.00000
    105      -1.1750      0.00000
    106      -1.1235      0.00000
    107      -0.9725      0.00000
    108      -0.7634      0.00000
    109      -0.7552      0.00000
    110      -0.4898      0.00000
    111      -0.4629      0.00000
    112       0.3341      0.00000
    113       0.5370      0.00000
    114       0.6042      0.00000
    115       0.6470      0.00000
    116       0.8360      0.00000
    117       0.9577      0.00000
    118       1.0781      0.00000
    119       1.1120      0.00000
    120       1.1618      0.00000
    121       1.3184      0.00000
    122       1.3833      0.00000
    123       1.5174      0.00000
    124       1.5851      0.00000
    125       1.6731      0.00000
    126       1.6933      0.00000
    127       1.7847      0.00000
    128       1.8074      0.00000
    129       1.8145      0.00000
    130       1.8525      0.00000
    131       1.8592      0.00000
    132       2.0088      0.00000

 k-point     4 :       0.3333    0.3333    0.0000
  band No.  band energies     occupation 
      1     -51.5014      1.00000
      2     -22.2713      1.00000
      3     -22.0231      1.00000
      4     -22.0109      1.00000
      5     -21.1837      1.00000
      6     -21.1305      1.00000
      7     -21.1198      1.00000
      8     -20.3130      1.00000
      9     -20.2608      1.00000
     10     -20.2470      1.00000
     11     -20.1470      1.00000
     12     -20.1392      1.00000
     13     -20.1338      1.00000
     14     -18.5095      1.00000
     15     -18.4783      1.00000
     16     -18.4283      1.00000
     17     -18.3510      1.00000
     18     -18.3286      1.00000
     19     -18.3224      1.00000
     20     -17.5765      1.00000
     21     -17.5648      1.00000
     22     -17.4961      1.00000
     23     -17.0473      1.00000
     24     -17.0368      1.00000
     25     -17.0292      1.00000
     26     -16.0408      1.00000
     27     -16.0314      1.00000
     28     -16.0241      1.00000
     29     -15.4371      1.00000
     30     -15.4329      1.00000
     31     -14.0192      1.00000
     32     -14.0110      1.00000
     33     -13.9858      1.00000
     34     -13.9584      1.00000
     35     -13.9243      1.00000
     36     -13.9200      1.00000
     37     -13.8600      1.00000
     38     -13.8510      1.00000
     39     -13.7752      1.00000
     40     -13.4128      1.00000
     41     -12.3564      1.00000
     42     -12.2168      1.00000
     43     -12.2048      1.00000
     44     -11.6080      1.00000
     45     -11.5920      1.00000
     46     -11.5787      1.00000
     47     -11.5339      1.00000
     48     -11.5281      1.00000
     49     -11.5167      1.00000
     50     -10.4355      1.00000
     51     -10.3575      1.00000
     52     -10.3062      1.00000
     53     -10.2812      1.00000
     54     -10.1915      1.00000
     55     -10.1869      1.00000
     56     -10.1687      1.00000
     57     -10.0749      1.00000
     58     -10.0633      1.00000
     59      -9.5934      1.00000
     60      -9.5834      1.00000
     61      -9.5737      1.00000
     62      -9.3623      1.00000
     63      -9.3522      1.00000
     64      -9.3379      1.00000
     65      -9.1083      1.00000
     66      -9.0355      1.00000
     67      -9.0208      1.00000
     68      -8.7033      1.00000
     69      -8.6868      1.00000
     70      -8.6773      1.00000
     71      -8.6405      1.00000
     72      -8.6325      1.00000
     73      -8.6288      1.00000
     74      -8.2173      1.00000
     75      -8.2067      1.00000
     76      -8.1919      1.00000
     77      -8.1083      1.00000
     78      -8.0578      1.00000
     79      -8.0243      1.00000
     80      -7.8860      1.00000
     81      -7.8761      1.00000
     82      -7.8636      1.00000
     83      -7.0331      1.00000
     84      -7.0215      1.00000
     85      -6.9281      1.00000
     86      -6.5296      1.00000
     87      -6.5162      1.00000
     88      -6.4532      1.00000
     89      -6.1885      1.00000
     90      -6.1710      1.00000
     91      -6.0155      1.00000
     92      -5.9593      1.00000
     93      -5.8981      1.00000
     94      -5.8917      1.00000
     95      -5.2438      1.00000
     96      -5.2309      1.00000
     97      -5.0936      1.00000
     98      -4.9735      1.00000
     99      -4.9676      1.00000
    100      -4.9526      1.00000
    101      -2.8755      1.00000
    102      -2.8637      1.00000
    103      -1.3928      0.00000
    104      -1.3375      0.00000
    105      -1.2798      0.00000
    106      -1.0506      0.00000
    107      -0.6903      0.00000
    108      -0.6523      0.00000
    109      -0.5718      0.00000
    110      -0.0550      0.00000
    111       0.0339      0.00000
    112       0.1185      0.00000
    113       0.1817      0.00000
    114       0.2656      0.00000
    115       0.2708      0.00000
    116       0.4173      0.00000
    117       0.4224      0.00000
    118       1.0811      0.00000
    119       1.2246      0.00000
    120       1.2571      0.00000
    121       1.2619      0.00000
    122       1.3219      0.00000
    123       1.3273      0.00000
    124       1.5067      0.00000
    125       1.5095      0.00000
    126       1.5367      0.00000
    127       1.8074      0.00000
    128       1.8257      0.00000
    129       1.8264      0.00000
    130       1.9074      0.00000
    131       2.0177      0.00000
    132       2.0185      0.00000

 k-point     5 :      -0.3333    0.3333    0.0000
  band No.  band energies     occupation 
      1     -51.5014      1.00000
      2     -22.3550      1.00000
      3     -21.9964      1.00000
      4     -21.6683      1.00000
      5     -21.6366      1.00000
      6     -21.0862      1.00000
      7     -21.0044      1.00000
      8     -20.7004      1.00000
      9     -20.4613      1.00000
     10     -20.3862      1.00000
     11     -19.7899      1.00000
     12     -19.5111      1.00000
     13     -19.5056      1.00000
     14     -19.1818      1.00000
     15     -19.1774      1.00000
     16     -18.6449      1.00000
     17     -18.5724      1.00000
     18     -18.0118      1.00000
     19     -18.0094      1.00000
     20     -17.5353      1.00000
     21     -17.4455      1.00000
     22     -17.4298      1.00000
     23     -17.1914      1.00000
     24     -17.1889      1.00000
     25     -16.3976      1.00000
     26     -16.3911      1.00000
     27     -15.6934      1.00000
     28     -15.4423      1.00000
     29     -15.4383      1.00000
     30     -14.9330      1.00000
     31     -14.9252      1.00000
     32     -14.8736      1.00000
     33     -14.8662      1.00000
     34     -14.5089      1.00000
     35     -14.4561      1.00000
     36     -13.2877      1.00000
     37     -13.2826      1.00000
     38     -13.0915      1.00000
     39     -13.0356      1.00000
     40     -12.8010      1.00000
     41     -12.7952      1.00000
     42     -12.4663      1.00000
     43     -12.3430      1.00000
     44     -12.3363      1.00000
     45     -11.5794      1.00000
     46     -11.5377      1.00000
     47     -11.1291      1.00000
     48     -11.1073      1.00000
     49     -10.7563      1.00000
     50     -10.7482      1.00000
     51     -10.6958      1.00000
     52     -10.5167      1.00000
     53     -10.4746      1.00000
     54     -10.4711      1.00000
     55     -10.0612      1.00000
     56      -9.8505      1.00000
     57      -9.8401      1.00000
     58      -9.7990      1.00000
     59      -9.7915      1.00000
     60      -9.6624      1.00000
     61      -9.6288      1.00000
     62      -9.4818      1.00000
     63      -9.4776      1.00000
     64      -9.2165      1.00000
     65      -9.1949      1.00000
     66      -9.1820      1.00000
     67      -9.0899      1.00000
     68      -9.0800      1.00000
     69      -8.9978      1.00000
     70      -8.8807      1.00000
     71      -8.5906      1.00000
     72      -8.5264      1.00000
     73      -8.2830      1.00000
     74      -8.2654      1.00000
     75      -8.2355      1.00000
     76      -8.1626      1.00000
     77      -8.0397      1.00000
     78      -8.0029      1.00000
     79      -7.9585      1.00000
     80      -7.5064      1.00000
     81      -7.4307      1.00000
     82      -7.2361      1.00000
     83      -7.2231      1.00000
     84      -7.1970      1.00000
     85      -7.1878      1.00000
     86      -6.8383      1.00000
     87      -6.8298      1.00000
     88      -6.6219      1.00000
     89      -6.2653      1.00000
     90      -6.2562      1.00000
     91      -6.1382      1.00000
     92      -6.0483      1.00000
     93      -5.7183      1.00000
     94      -5.7116      1.00000
     95      -5.4109      1.00000
     96      -5.1198      1.00000
     97      -5.0624      1.00000
     98      -4.9360      1.00000
     99      -4.9201      1.00000
    100      -3.9537      1.00000
    101      -3.9440      1.00000
    102      -1.8715      0.36301
    103      -1.8241      0.04542
    104      -1.3049      0.00000
    105      -1.1730      0.00000
    106      -1.1304      0.00000
    107      -0.9679      0.00000
    108      -0.7651      0.00000
    109      -0.7620      0.00000
    110      -0.4901      0.00000
    111      -0.4585      0.00000
    112       0.3357      0.00000
    113       0.5413      0.00000
    114       0.5822      0.00000
    115       0.6577      0.00000
    116       0.8315      0.00000
    117       0.9604      0.00000
    118       1.0859      0.00000
    119       1.1115      0.00000
    120       1.1616      0.00000
    121       1.3183      0.00000
    122       1.3823      0.00000
    123       1.5192      0.00000
    124       1.5849      0.00000
    125       1.6715      0.00000
    126       1.6932      0.00000
    127       1.7886      0.00000
    128       1.8081      0.00000
    129       1.8219      0.00000
    130       1.8496      0.00000
    131       1.8645      0.00000
    132       2.0123      0.00000

 spin component 2

 k-point     1 :       0.0000    0.0000    0.0000
  band No.  band energies     occupation 
      1     -51.5014      1.00000
      2     -22.4431      1.00000
      3     -21.6580      1.00000
      4     -21.4951      1.00000
      5     -21.4681      1.00000
      6     -21.3803      1.00000
      7     -21.3762      1.00000
      8     -21.3472      1.00000
      9     -19.6898      1.00000
     10     -19.6352      1.00000
     11     -19.6175      1.00000
     12     -19.5745      1.00000
     13     -19.5621      1.00000
     14     -19.5587      1.00000
     15     -18.7324      1.00000
     16     -18.7095      1.00000
     17     -18.7031      1.00000
     18     -18.6771      1.00000
     19     -18.6651      1.00000
     20     -18.6405      1.00000
     21     -16.5873      1.00000
     22     -16.5603      1.00000
     23     -16.5336      1.00000
     24     -16.5092      1.00000
     25     -16.4476      1.00000
     26     -16.4364      1.00000
     27     -15.5815      1.00000
     28     -15.5617      1.00000
     29     -15.5475      1.00000
     30     -15.5120      1.00000
     31     -15.5081      1.00000
     32     -15.4972      1.00000
     33     -14.1931      1.00000
     34     -14.1883      1.00000
     35     -14.1787      1.00000
     36     -14.1549      1.00000
     37     -14.1516      1.00000
     38     -14.1483      1.00000
     39     -11.8306      1.00000
     40     -11.8164      1.00000
     41     -11.8093      1.00000
     42     -11.7806      1.00000
     43     -11.7480      1.00000
     44     -11.7432      1.00000
     45     -11.7265      1.00000
     46     -11.7219      1.00000
     47     -11.6440      1.00000
     48     -11.6389      1.00000
     49     -11.6340      1.00000
     50     -11.6246      1.00000
     51     -10.6114      1.00000
     52     -10.3311      1.00000
     53     -10.3247      1.00000
     54     -10.3004      1.00000
     55     -10.2889      1.00000
     56     -10.2846      1.00000
     57     -10.2803      1.00000
     58      -9.7005      1.00000
     59      -9.4700      1.00000
     60      -9.4438      1.00000
     61      -9.3104      1.00000
     62      -9.3067      1.00000
     63      -9.2705      1.00000
     64      -9.0846      1.00000
     65      -9.0696      1.00000
     66      -9.0455      1.00000
     67      -8.9929      1.00000
     68      -8.9771      1.00000
     69      -8.9729      1.00000
     70      -8.9554      1.00000
     71      -8.9488      1.00000
     72      -8.9449      1.00000
     73      -8.9254      1.00000
     74      -8.9140      1.00000
     75      -8.8949      1.00000
     76      -7.4329      1.00000
     77      -7.3937      1.00000
     78      -7.3824      1.00000
     79      -7.3592      1.00000
     80      -7.3393      1.00000
     81      -7.3177      1.00000
     82      -7.3081      1.00000
     83      -7.2921      1.00000
     84      -7.2774      1.00000
     85      -7.2259      1.00000
     86      -7.2152      1.00000
     87      -7.2068      1.00000
     88      -6.4339      1.00000
     89      -6.4100      1.00000
     90      -6.3984      1.00000
     91      -6.3081      1.00000
     92      -6.2995      1.00000
     93      -6.2695      1.00000
     94      -5.8375      1.00000
     95      -5.8222      1.00000
     96      -4.4655      1.00000
     97      -4.4385      1.00000
     98      -4.4089      1.00000
     99      -4.3528      1.00000
    100      -4.2684      1.00000
    101      -4.2614      1.00000
    102      -1.7351      0.00001
    103      -1.6808      0.00000
    104      -1.6721      0.00000
    105      -1.5480      0.00000
    106      -1.4747      0.00000
    107      -1.4729      0.00000
    108      -1.0883      0.00000
    109       0.1109      0.00000
    110       0.1265      0.00000
    111       0.2091      0.00000
    112       0.3721      0.00000
    113       0.3771      0.00000
    114       0.3833      0.00000
    115       0.5275      0.00000
    116       0.7572      0.00000
    117       0.7591      0.00000
    118       0.8193      0.00000
    119       1.0361      0.00000
    120       1.3709      0.00000
    121       1.4349      0.00000
    122       1.4352      0.00000
    123       1.5244      0.00000
    124       1.5338      0.00000
    125       1.9468      0.00000
    126       1.9631      0.00000
    127       2.0221      0.00000
    128       2.0360      0.00000
    129       2.0831      0.00000
    130       2.0877      0.00000
    131       2.1278      0.00000
    132       2.1331      0.00000

 k-point     2 :       0.3333   -0.0000    0.0000
  band No.  band energies     occupation 
      1     -51.5014      1.00000
      2     -22.3564      1.00000
      3     -21.9893      1.00000
      4     -21.6661      1.00000
      5     -21.6500      1.00000
      6     -21.0716      1.00000
      7     -21.0135      1.00000
      8     -20.7015      1.00000
      9     -20.4475      1.00000
     10     -20.3959      1.00000
     11     -19.7901      1.00000
     12     -19.5185      1.00000
     13     -19.5088      1.00000
     14     -19.1796      1.00000
     15     -19.1755      1.00000
     16     -18.6309      1.00000
     17     -18.5819      1.00000
     18     -18.0135      1.00000
     19     -18.0085      1.00000
     20     -17.5257      1.00000
     21     -17.4431      1.00000
     22     -17.4376      1.00000
     23     -17.1948      1.00000
     24     -17.1899      1.00000
     25     -16.3974      1.00000
     26     -16.3924      1.00000
     27     -15.6923      1.00000
     28     -15.4436      1.00000
     29     -15.4378      1.00000
     30     -14.9348      1.00000
     31     -14.9310      1.00000
     32     -14.8684      1.00000
     33     -14.8622      1.00000
     34     -14.5012      1.00000
     35     -14.4642      1.00000
     36     -13.2879      1.00000
     37     -13.2831      1.00000
     38     -13.0811      1.00000
     39     -13.0422      1.00000
     40     -12.7993      1.00000
     41     -12.7966      1.00000
     42     -12.4668      1.00000
     43     -12.3434      1.00000
     44     -12.3380      1.00000
     45     -11.5821      1.00000
     46     -11.5430      1.00000
     47     -11.1263      1.00000
     48     -11.1060      1.00000
     49     -10.7535      1.00000
     50     -10.7461      1.00000
     51     -10.6982      1.00000
     52     -10.5191      1.00000
     53     -10.4736      1.00000
     54     -10.4682      1.00000
     55     -10.0535      1.00000
     56      -9.8473      1.00000
     57      -9.8377      1.00000
     58      -9.8006      1.00000
     59      -9.7956      1.00000
     60      -9.6619      1.00000
     61      -9.6438      1.00000
     62      -9.4803      1.00000
     63      -9.4717      1.00000
     64      -9.2230      1.00000
     65      -9.1980      1.00000
     66      -9.1831      1.00000
     67      -9.0902      1.00000
     68      -9.0809      1.00000
     69      -8.9800      1.00000
     70      -8.8894      1.00000
     71      -8.5903      1.00000
     72      -8.5266      1.00000
     73      -8.2707      1.00000
     74      -8.2607      1.00000
     75      -8.2412      1.00000
     76      -8.1726      1.00000
     77      -8.0381      1.00000
     78      -7.9980      1.00000
     79      -7.9612      1.00000
     80      -7.5079      1.00000
     81      -7.4266      1.00000
     82      -7.2326      1.00000
     83      -7.2228      1.00000
     84      -7.2034      1.00000
     85      -7.2001      1.00000
     86      -6.8349      1.00000
     87      -6.8296      1.00000
     88      -6.6230      1.00000
     89      -6.2666      1.00000
     90      -6.2379      1.00000
     91      -6.1477      1.00000
     92      -6.0476      1.00000
     93      -5.7195      1.00000
     94      -5.7143      1.00000
     95      -5.4037      1.00000
     96      -5.1118      1.00000
     97      -5.0699      1.00000
     98      -4.9370      1.00000
     99      -4.9253      1.00000
    100      -3.9541      1.00000
    101      -3.9436      1.00000
    102      -1.8630      0.27708
    103      -1.8282      0.05755
    104      -1.3126      0.00000
    105      -1.1736      0.00000
    106      -1.1260      0.00000
    107      -0.9719      0.00000
    108      -0.7674      0.00000
    109      -0.7611      0.00000
    110      -0.4870      0.00000
    111      -0.4526      0.00000
    112       0.3292      0.00000
    113       0.5393      0.00000
    114       0.6004      0.00000
    115       0.6489      0.00000
    116       0.8335      0.00000
    117       0.9597      0.00000
    118       1.0956      0.00000
    119       1.1073      0.00000
    120       1.1516      0.00000
    121       1.3040      0.00000
    122       1.3827      0.00000
    123       1.5113      0.00000
    124       1.5785      0.00000
    125       1.6683      0.00000
    126       1.6886      0.00000
    127       1.7795      0.00000
    128       1.8108      0.00000
    129       1.8209      0.00000
    130       1.8548      0.00000
    131       1.8592      0.00000
    132       2.0232      0.00000

 k-point     3 :       0.0000    0.3333    0.0000
  band No.  band energies     occupation 
      1     -51.5014      1.00000
      2     -22.3559      1.00000
      3     -21.9919      1.00000
      4     -21.6679      1.00000
      5     -21.6441      1.00000
      6     -21.0786      1.00000
      7     -21.0088      1.00000
      8     -20.7011      1.00000
      9     -20.4538      1.00000
     10     -20.3906      1.00000
     11     -19.7894      1.00000
     12     -19.5147      1.00000
     13     -19.5099      1.00000
     14     -19.1829      1.00000
     15     -19.1742      1.00000
     16     -18.6371      1.00000
     17     -18.5769      1.00000
     18     -18.0130      1.00000
     19     -18.0085      1.00000
     20     -17.5301      1.00000
     21     -17.4448      1.00000
     22     -17.4336      1.00000
     23     -17.1929      1.00000
     24     -17.1892      1.00000
     25     -16.4033      1.00000
     26     -16.3854      1.00000
     27     -15.6888      1.00000
     28     -15.4438      1.00000
     29     -15.4410      1.00000
     30     -14.9390      1.00000
     31     -14.9269      1.00000
     32     -14.8785      1.00000
     33     -14.8619      1.00000
     34     -14.5023      1.00000
     35     -14.4558      1.00000
     36     -13.2931      1.00000
     37     -13.2821      1.00000
     38     -13.0840      1.00000
     39     -13.0332      1.00000
     40     -12.7989      1.00000
     41     -12.7911      1.00000
     42     -12.4617      1.00000
     43     -12.3494      1.00000
     44     -12.3378      1.00000
     45     -11.5864      1.00000
     46     -11.5454      1.00000
     47     -11.1324      1.00000
     48     -11.1108      1.00000
     49     -10.7564      1.00000
     50     -10.7485      1.00000
     51     -10.6879      1.00000
     52     -10.5148      1.00000
     53     -10.4730      1.00000
     54     -10.4691      1.00000
     55     -10.0561      1.00000
     56      -9.8474      1.00000
     57      -9.8436      1.00000
     58      -9.7968      1.00000
     59      -9.7869      1.00000
     60      -9.6642      1.00000
     61      -9.6352      1.00000
     62      -9.4768      1.00000
     63      -9.4733      1.00000
     64      -9.2245      1.00000
     65      -9.1962      1.00000
     66      -9.1802      1.00000
     67      -9.0898      1.00000
     68      -9.0799      1.00000
     69      -8.9891      1.00000
     70      -8.8848      1.00000
     71      -8.5961      1.00000
     72      -8.5286      1.00000
     73      -8.2815      1.00000
     74      -8.2650      1.00000
     75      -8.2446      1.00000
     76      -8.1686      1.00000
     77      -8.0430      1.00000
     78      -7.9983      1.00000
     79      -7.9596      1.00000
     80      -7.5063      1.00000
     81      -7.4239      1.00000
     82      -7.2282      1.00000
     83      -7.2187      1.00000
     84      -7.2020      1.00000
     85      -7.1839      1.00000
     86      -6.8366      1.00000
     87      -6.8257      1.00000
     88      -6.6335      1.00000
     89      -6.2612      1.00000
     90      -6.2431      1.00000
     91      -6.1452      1.00000
     92      -6.0578      1.00000
     93      -5.7152      1.00000
     94      -5.7120      1.00000
     95      -5.4154      1.00000
     96      -5.1178      1.00000
     97      -5.0632      1.00000
     98      -4.9383      1.00000
     99      -4.9228      1.00000
    100      -3.9574      1.00000
    101      -3.9309      1.00000
    102      -1.8764      0.41638
    103      -1.8366      0.09048
    104      -1.2952      0.00000
    105      -1.1749      0.00000
    106      -1.1234      0.00000
    107      -0.9724      0.00000
    108      -0.7634      0.00000
    109      -0.7552      0.00000
    110      -0.4898      0.00000
    111      -0.4628      0.00000
    112       0.3341      0.00000
    113       0.5370      0.00000
    114       0.6042      0.00000
    115       0.6470      0.00000
    116       0.8362      0.00000
    117       0.9588      0.00000
    118       1.0776      0.00000
    119       1.1119      0.00000
    120       1.1543      0.00000
    121       1.3127      0.00000
    122       1.3837      0.00000
    123       1.5139      0.00000
    124       1.5783      0.00000
    125       1.6692      0.00000
    126       1.6933      0.00000
    127       1.7808      0.00000
    128       1.8078      0.00000
    129       1.8128      0.00000
    130       1.8534      0.00000
    131       1.8560      0.00000
    132       2.0195      0.00000

 k-point     4 :       0.3333    0.3333    0.0000
  band No.  band energies     occupation 
      1     -51.5014      1.00000
      2     -22.2713      1.00000
      3     -22.0231      1.00000
      4     -22.0109      1.00000
      5     -21.1837      1.00000
      6     -21.1305      1.00000
      7     -21.1198      1.00000
      8     -20.3130      1.00000
      9     -20.2608      1.00000
     10     -20.2470      1.00000
     11     -20.1470      1.00000
     12     -20.1392      1.00000
     13     -20.1338      1.00000
     14     -18.5095      1.00000
     15     -18.4783      1.00000
     16     -18.4283      1.00000
     17     -18.3510      1.00000
     18     -18.3286      1.00000
     19     -18.3224      1.00000
     20     -17.5765      1.00000
     21     -17.5648      1.00000
     22     -17.4961      1.00000
     23     -17.0473      1.00000
     24     -17.0368      1.00000
     25     -17.0292      1.00000
     26     -16.0408      1.00000
     27     -16.0314      1.00000
     28     -16.0241      1.00000
     29     -15.4371      1.00000
     30     -15.4329      1.00000
     31     -14.0192      1.00000
     32     -14.0110      1.00000
     33     -13.9858      1.00000
     34     -13.9584      1.00000
     35     -13.9243      1.00000
     36     -13.9200      1.00000
     37     -13.8600      1.00000
     38     -13.8510      1.00000
     39     -13.7752      1.00000
     40     -13.4128      1.00000
     41     -12.3564      1.00000
     42     -12.2168      1.00000
     43     -12.2048      1.00000
     44     -11.6080      1.00000
     45     -11.5920      1.00000
     46     -11.5787      1.00000
     47     -11.5339      1.00000
     48     -11.5281      1.00000
     49     -11.5167      1.00000
     50     -10.4355      1.00000
     51     -10.3575      1.00000
     52     -10.3062      1.00000
     53     -10.2812      1.00000
     54     -10.1915      1.00000
     55     -10.1869      1.00000
     56     -10.1687      1.00000
     57     -10.0749      1.00000
     58     -10.0633      1.00000
     59      -9.5934      1.00000
     60      -9.5834      1.00000
     61      -9.5737      1.00000
     62      -9.3623      1.00000
     63      -9.3522      1.00000
     64      -9.3379      1.00000
     65      -9.1083      1.00000
     66      -9.0355      1.00000
     67      -9.0207      1.00000
     68      -8.7033      1.00000
     69      -8.6868      1.00000
     70      -8.6773      1.00000
     71      -8.6405      1.00000
     72      -8.6325      1.00000
     73      -8.6288      1.00000
     74      -8.2173      1.00000
     75      -8.2067      1.00000
     76      -8.1919      1.00000
     77      -8.1083      1.00000
     78      -8.0578      1.00000
     79      -8.0243      1.00000
     80      -7.8860      1.00000
     81      -7.8761      1.00000
     82      -7.8636      1.00000
     83      -7.0331      1.00000
     84      -7.0215      1.00000
     85      -6.9281      1.00000
     86      -6.5296      1.00000
     87      -6.5162      1.00000
     88      -6.4532      1.00000
     89      -6.1885      1.00000
     90      -6.1710      1.00000
     91      -6.0155      1.00000
     92      -5.9593      1.00000
     93      -5.8981      1.00000
     94      -5.8917      1.00000
     95      -5.2437      1.00000
     96      -5.2309      1.00000
     97      -5.0936      1.00000
     98      -4.9735      1.00000
     99      -4.9675      1.00000
    100      -4.9526      1.00000
    101      -2.8755      1.00000
    102      -2.8637      1.00000
    103      -1.3928      0.00000
    104      -1.3375      0.00000
    105      -1.2798      0.00000
    106      -1.0505      0.00000
    107      -0.6903      0.00000
    108      -0.6522      0.00000
    109      -0.5718      0.00000
    110      -0.0550      0.00000
    111       0.0339      0.00000
    112       0.1185      0.00000
    113       0.1817      0.00000
    114       0.2656      0.00000
    115       0.2709      0.00000
    116       0.4173      0.00000
    117       0.4224      0.00000
    118       1.0821      0.00000
    119       1.2272      0.00000
    120       1.2574      0.00000
    121       1.2623      0.00000
    122       1.3198      0.00000
    123       1.3251      0.00000
    124       1.4958      0.00000
    125       1.4989      0.00000
    126       1.5214      0.00000
    127       1.8022      0.00000
    128       1.8206      0.00000
    129       1.8215      0.00000
    130       1.9065      0.00000
    131       2.0137      0.00000
    132       2.0144      0.00000

 k-point     5 :      -0.3333    0.3333    0.0000
  band No.  band energies     occupation 
      1     -51.5014      1.00000
      2     -22.3550      1.00000
      3     -21.9964      1.00000
      4     -21.6683      1.00000
      5     -21.6366      1.00000
      6     -21.0862      1.00000
      7     -21.0044      1.00000
      8     -20.7004      1.00000
      9     -20.4613      1.00000
     10     -20.3862      1.00000
     11     -19.7899      1.00000
     12     -19.5111      1.00000
     13     -19.5056      1.00000
     14     -19.1818      1.00000
     15     -19.1774      1.00000
     16     -18.6449      1.00000
     17     -18.5724      1.00000
     18     -18.0118      1.00000
     19     -18.0094      1.00000
     20     -17.5353      1.00000
     21     -17.4455      1.00000
     22     -17.4298      1.00000
     23     -17.1914      1.00000
     24     -17.1889      1.00000
     25     -16.3976      1.00000
     26     -16.3911      1.00000
     27     -15.6934      1.00000
     28     -15.4423      1.00000
     29     -15.4383      1.00000
     30     -14.9330      1.00000
     31     -14.9252      1.00000
     32     -14.8736      1.00000
     33     -14.8662      1.00000
     34     -14.5089      1.00000
     35     -14.4561      1.00000
     36     -13.2877      1.00000
     37     -13.2826      1.00000
     38     -13.0915      1.00000
     39     -13.0356      1.00000
     40     -12.8010      1.00000
     41     -12.7952      1.00000
     42     -12.4663      1.00000
     43     -12.3430      1.00000
     44     -12.3363      1.00000
     45     -11.5794      1.00000
     46     -11.5377      1.00000
     47     -11.1291      1.00000
     48     -11.1073      1.00000
     49     -10.7563      1.00000
     50     -10.7482      1.00000
     51     -10.6958      1.00000
     52     -10.5167      1.00000
     53     -10.4746      1.00000
     54     -10.4711      1.00000
     55     -10.0612      1.00000
     56      -9.8505      1.00000
     57      -9.8401      1.00000
     58      -9.7990      1.00000
     59      -9.7915      1.00000
     60      -9.6624      1.00000
     61      -9.6288      1.00000
     62      -9.4818      1.00000
     63      -9.4776      1.00000
     64      -9.2165      1.00000
     65      -9.1949      1.00000
     66      -9.1820      1.00000
     67      -9.0899      1.00000
     68      -9.0800      1.00000
     69      -8.9978      1.00000
     70      -8.8807      1.00000
     71      -8.5906      1.00000
     72      -8.5264      1.00000
     73      -8.2830      1.00000
     74      -8.2654      1.00000
     75      -8.2355      1.00000
     76      -8.1626      1.00000
     77      -8.0397      1.00000
     78      -8.0029      1.00000
     79      -7.9585      1.00000
     80      -7.5064      1.00000
     81      -7.4307      1.00000
     82      -7.2361      1.00000
     83      -7.2230      1.00000
     84      -7.1970      1.00000
     85      -7.1877      1.00000
     86      -6.8383      1.00000
     87      -6.8298      1.00000
     88      -6.6219      1.00000
     89      -6.2653      1.00000
     90      -6.2562      1.00000
     91      -6.1382      1.00000
     92      -6.0483      1.00000
     93      -5.7183      1.00000
     94      -5.7116      1.00000
     95      -5.4109      1.00000
     96      -5.1198      1.00000
     97      -5.0623      1.00000
     98      -4.9360      1.00000
     99      -4.9201      1.00000
    100      -3.9537      1.00000
    101      -3.9440      1.00000
    102      -1.8715      0.36288
    103      -1.8241      0.04540
    104      -1.3048      0.00000
    105      -1.1730      0.00000
    106      -1.1304      0.00000
    107      -0.9679      0.00000
    108      -0.7651      0.00000
    109      -0.7620      0.00000
    110      -0.4901      0.00000
    111      -0.4585      0.00000
    112       0.3358      0.00000
    113       0.5413      0.00000
    114       0.5823      0.00000
    115       0.6577      0.00000
    116       0.8317      0.00000
    117       0.9616      0.00000
    118       1.0855      0.00000
    119       1.1115      0.00000
    120       1.1541      0.00000
    121       1.3124      0.00000
    122       1.3828      0.00000
    123       1.5157      0.00000
    124       1.5781      0.00000
    125       1.6676      0.00000
    126       1.6931      0.00000
    127       1.7842      0.00000
    128       1.8084      0.00000
    129       1.8209      0.00000
    130       1.8486      0.00000
    131       1.8628      0.00000
    132       2.0308      0.00000


--------------------------------------------------------------------------------------------------------


 soft charge-density along one line, spin component           1
         0         1         2         3         4         5         6         7         8         9
 total charge-density along one line
 
 soft charge-density along one line, spin component           2
         0         1         2         3         4         5         6         7         8         9
 total charge-density along one line
 
 pseudopotential strength for first ion, spin component:           1
 10.221  13.593  -0.001   0.000   0.000   0.002  -0.000  -0.000
 13.593  18.075  -0.001   0.000   0.000   0.002  -0.000  -0.000
 -0.001  -0.001  -4.352  -0.000  -0.000   8.512   0.000   0.000
  0.000   0.000  -0.000  -4.331  -0.000   0.000   8.478   0.000
  0.000   0.000  -0.000  -0.000  -4.352   0.000   0.000   8.511
  0.002   0.002   8.512   0.000   0.000 -18.782  -0.000  -0.000
 -0.000  -0.000   0.000   8.478   0.000  -0.000 -18.729  -0.000
 -0.000  -0.000   0.000   0.000   8.511  -0.000  -0.000 -18.782
 pseudopotential strength for first ion, spin component:           2
 10.221  13.593  -0.001   0.000   0.000   0.002  -0.000  -0.000
 13.593  18.075  -0.001   0.000   0.000   0.002  -0.000  -0.000
 -0.001  -0.001  -4.352  -0.000  -0.000   8.512   0.000   0.000
  0.000   0.000  -0.000  -4.331  -0.000   0.000   8.478   0.000
  0.000   0.000  -0.000  -0.000  -4.352   0.000   0.000   8.511
  0.002   0.002   8.512   0.000   0.000 -18.782  -0.000  -0.000
 -0.000  -0.000   0.000   8.478   0.000  -0.000 -18.729  -0.000
 -0.000  -0.000   0.000   0.000   8.511  -0.000  -0.000 -18.782
 total augmentation occupancy for first ion, spin component:           1
  8.144  -3.618  -0.006  -0.003   0.002  -0.002  -0.000   0.000
 -3.618   1.665   0.009   0.001  -0.002   0.001   0.000  -0.000
 -0.006   0.009   1.819   0.004  -0.000   0.168   0.001  -0.000
 -0.003   0.001   0.004   1.207   0.000   0.001   0.072   0.000
  0.002  -0.002  -0.000   0.000   1.828  -0.000   0.000   0.168
 -0.002   0.001   0.168   0.001  -0.000   0.017   0.000  -0.000
 -0.000   0.000   0.001   0.072   0.000   0.000   0.005   0.000
  0.000  -0.000  -0.000   0.000   0.168  -0.000   0.000   0.017
 total augmentation occupancy for first ion, spin component:           2
  0.000  -0.000  -0.000   0.000   0.000   0.000  -0.000   0.000
 -0.000  -0.000   0.000  -0.000  -0.000  -0.000   0.000  -0.000
 -0.000   0.000  -0.000  -0.000  -0.000   0.000  -0.000   0.000
  0.000  -0.000  -0.000   0.000  -0.000  -0.000   0.000   0.000
  0.000  -0.000  -0.000  -0.000  -0.000   0.000  -0.000   0.000
  0.000  -0.000   0.000  -0.000   0.000   0.000   0.000   0.000
 -0.000   0.000  -0.000   0.000  -0.000   0.000  -0.000  -0.000
  0.000  -0.000   0.000   0.000   0.000   0.000  -0.000   0.000


------------------------ aborting loop because EDIFF is reached ----------------------------------------


    CHARGE:  cpu time    3.9929: real time    3.9931
    FORLOC:  cpu time    0.1509: real time    0.1509
    FORNL :  cpu time   14.8575: real time   14.8581
    STRESS:  cpu time   45.1130: real time   45.1152
    FORCOR:  cpu time    1.4480: real time    1.4480
    FORHAR:  cpu time    0.2974: real time    0.2974
    MIXING:  cpu time    0.1036: real time    0.1036
    OFIELD:  cpu time    0.0000: real time    0.0000

  FORCE on cell =-STRESS in cart. coord.  units (eV):
  Direction    XX          YY          ZZ          XY          YZ          ZX
  --------------------------------------------------------------------------------------
  Alpha Z    53.42782    53.42782    53.42782
  Ewald   63715.97329 63709.09430-70457.51779    -2.95133    -1.72160    -1.42732
  Hartree 62858.83007 62857.19433-62523.94549    -1.95645     0.10718    -0.09383
  E(xc)    -758.69627  -758.72029  -786.04879    -0.00131    -0.00816    -0.00642
  Local  ************************130414.36743     4.83007     1.49642     1.44424
  n-local  -197.27735  -197.34242  -185.96737     0.00993     0.04749     0.04793
  augment    -1.96787    -1.95716    -0.37629    -0.00052     0.00087     0.00076
  Kinetic  3056.38121  3057.75784  3490.23488    -0.05331     0.06340     0.02960
  Fock        0.00000     0.00000     0.00000     0.00000     0.00000     0.00000
  -------------------------------------------------------------------------------------
  Total      14.94318    15.24477     4.17439    -0.12292    -0.01439    -0.00505
  in kB       6.09104     6.21397     1.70154    -0.05010    -0.00587    -0.00206
  external pressure =        4.67 kB  Pullay stress =        0.00 kB


 VOLUME and BASIS-vectors are now :
 -----------------------------------------------------------------------------
  energy-cutoff  :      520.00
  volume of cell :     3930.63
      direct lattice vectors                 reciprocal lattice vectors
    12.300000000  0.000000000  0.000000000     0.081300813  0.046939046  0.000000000
    -6.150000000 10.652112467  0.000000000     0.000000000  0.093878093  0.000000000
     0.000000000  0.000000000 30.000000000     0.000000000  0.000000000  0.033333333

  length of vectors
    12.300000000 12.300000000 30.000000000     0.093878093  0.093878093  0.033333333


 FORCES acting on ions
    electron-ion (+dipol)            ewald-force                    non-local-force                 convergence-correction
 -----------------------------------------------------------------------------------------------
   0.237E+01 -.627E+01 -.536E-01   -.239E+01 0.663E+01 -.133E-02   0.941E-01 -.368E+00 0.529E-01   -.388E-06 -.246E-06 -.249E-05
   -.221E+00 -.506E+01 -.141E+01   0.205E+00 0.518E+01 0.130E+01   -.367E-02 -.186E+00 0.858E-01   -.993E-06 -.916E-06 -.238E-05
   -.267E-01 -.509E+00 -.202E+01   -.508E-02 0.529E+00 0.200E+01   -.471E-01 -.154E-01 0.283E-01   0.648E-07 -.971E-06 -.206E-05
   -.577E+00 -.104E+01 -.280E+01   0.603E+00 0.110E+01 0.274E+01   0.270E-02 0.326E-01 0.463E-01   -.180E-05 -.189E-05 -.195E-05
   -.463E+01 0.534E+01 0.345E+01   0.500E+01 -.552E+01 -.351E+01   -.238E+00 0.271E+00 0.647E-01   -.222E-06 0.642E-07 -.234E-05
   -.366E+01 0.279E+01 -.758E+00   0.372E+01 -.291E+01 0.678E+00   -.187E+00 0.717E-01 0.601E-01   -.210E-06 0.442E-06 -.237E-05
   -.150E+02 0.117E+02 0.292E+02   0.160E+02 -.124E+02 -.308E+02   -.940E+00 0.436E+00 0.157E+01   -.956E-06 0.189E-05 -.667E-06
   -.143E+02 0.859E-01 0.810E+01   0.151E+02 0.221E-01 -.851E+01   -.519E+00 -.115E+00 0.496E+00   0.253E-06 -.148E-05 -.216E-05
   0.857E+00 -.198E+02 0.232E+02   -.856E+00 0.211E+02 -.247E+02   0.753E-02 -.104E+01 0.152E+01   -.301E-06 -.137E-05 -.844E-06
   -.655E+01 -.119E+02 0.525E+01   0.697E+01 0.125E+02 -.569E+01   -.389E+00 -.410E+00 0.498E+00   -.107E-05 0.122E-05 -.216E-05
   -.174E+01 -.657E+01 -.699E+00   0.175E+01 0.689E+01 0.629E+00   -.932E-01 -.375E+00 0.681E-01   -.352E-06 -.119E-05 -.243E-05
   0.642E+00 0.153E+01 0.935E+01   -.659E+00 -.170E+01 -.941E+01   0.409E-01 0.193E+00 0.337E-01   0.226E-06 0.473E-07 -.167E-05
   0.167E+01 0.918E+00 0.107E+01   -.184E+01 -.974E+00 -.109E+01   0.437E-01 0.500E-01 0.282E-01   0.610E-06 0.114E-06 -.180E-05
   0.402E+00 -.802E+00 0.951E+00   -.472E+00 0.818E+00 -.101E+01   -.247E-01 0.118E-01 0.726E-01   0.349E-06 -.149E-05 -.181E-05
   -.155E+01 0.182E+01 -.311E+01   0.168E+01 -.193E+01 0.307E+01   -.640E-01 0.129E-01 0.360E-01   -.238E-05 0.970E-06 -.200E-05
   -.102E+01 0.762E+00 -.219E+01   0.106E+01 -.842E+00 0.216E+01   0.272E-01 -.297E-01 0.268E-01   -.151E-05 0.143E-05 -.187E-05
   -.597E+01 0.129E+01 0.396E+00   0.622E+01 -.140E+01 -.491E+00   -.376E+00 0.117E+00 0.954E-01   -.419E-06 0.331E-06 -.245E-05
   -.305E+01 -.721E+00 -.260E+01   0.324E+01 0.885E+00 0.258E+01   -.132E+00 -.111E-01 0.143E-01   -.149E-05 -.531E-06 -.220E-05
   -.994E+01 -.527E+01 0.402E+01   0.106E+02 0.558E+01 -.436E+01   -.322E+00 -.201E+00 0.326E+00   -.167E-06 0.523E-06 -.247E-05
   -.452E+01 -.248E+01 -.428E+00   0.463E+01 0.255E+01 0.377E+00   -.267E+00 -.133E+00 0.460E-01   -.901E-06 -.718E-06 -.227E-05
   -.217E+01 -.212E+01 0.102E+01   0.222E+01 0.223E+01 -.109E+01   -.709E-01 -.415E-01 0.673E-01   -.197E-05 -.103E-05 -.195E-05
   -.537E+00 0.105E+00 0.334E+01   0.609E+00 -.150E+00 -.336E+01   -.641E-01 0.446E-01 0.144E-01   -.128E-05 -.993E-07 -.161E-05
   0.412E-01 -.647E+00 0.256E+01   -.108E-01 0.628E+00 -.258E+01   0.678E-01 -.288E-01 0.303E-01   -.738E-06 -.549E-06 -.179E-05
   -.192E+01 -.303E+01 0.249E+00   0.211E+01 0.318E+01 -.302E+00   -.815E-01 -.772E-01 0.499E-01   -.168E-05 -.208E-05 -.207E-05
   -.293E+00 -.211E+01 -.206E+01   0.327E+00 0.227E+01 0.203E+01   0.233E-01 -.795E-01 0.342E-01   -.128E-05 -.288E-05 -.195E-05
   0.206E+01 0.122E+01 0.891E+01   -.205E+01 -.121E+01 -.903E+01   0.241E+00 0.108E+00 0.724E-01   0.915E-07 0.421E-06 -.187E-05
   0.247E+01 -.475E+00 -.161E+01   -.264E+01 0.446E+00 0.154E+01   0.632E-01 -.654E-01 0.738E-01   0.127E-05 -.715E-06 -.208E-05
   0.321E+01 0.553E-01 -.751E-01   -.347E+01 0.423E-01 0.538E-01   0.108E+00 -.288E-01 0.239E-01   0.446E-06 0.697E-06 -.209E-05
   -.262E+01 -.425E+00 -.126E+01   0.275E+01 0.355E+00 0.118E+01   -.725E-01 -.741E-01 0.846E-01   -.101E-05 -.110E-05 -.212E-05
   -.172E+00 -.410E+00 -.189E+01   0.182E+00 0.481E+00 0.187E+01   0.301E-01 -.762E-01 0.191E-01   -.170E-06 -.179E-05 -.181E-05
   -.392E-01 -.366E+00 0.403E+00   0.275E-01 0.370E+00 -.452E+00   -.369E-02 0.521E-02 0.518E-01   0.557E-06 -.480E-06 -.158E-05
   0.102E+01 -.405E-01 -.434E+00   -.110E+01 0.242E-01 0.401E+00   0.555E-01 0.680E-01 0.338E-01   0.282E-05 0.354E-06 -.178E-05
   0.415E+00 0.121E+01 0.107E+02   -.476E+00 -.128E+01 -.108E+02   -.115E-02 0.115E+00 0.130E+00   -.341E-06 0.112E-05 -.170E-05
   0.906E+00 0.422E+01 0.101E+02   -.915E+00 -.437E+01 -.102E+02   0.219E-02 0.345E+00 0.532E-01   0.601E-06 0.430E-06 -.179E-05
   0.327E+01 0.319E+01 0.175E+02   -.346E+01 -.324E+01 -.175E+02   0.351E+00 0.289E+00 -.190E+00   0.794E-06 0.905E-07 -.165E-05
   0.650E+01 0.941E+01 0.515E+02   -.676E+01 -.992E+01 -.520E+02   0.177E+00 0.607E+00 0.111E+01   -.120E-05 0.624E-06 -.117E-05
   0.432E+01 0.284E+01 0.831E+01   -.450E+01 -.310E+01 -.843E+01   0.435E+00 0.743E-01 0.102E+00   0.191E-06 0.178E-05 -.208E-05
   0.696E+01 -.110E+02 0.966E+01   -.741E+01 0.115E+02 -.101E+02   0.336E+00 -.434E+00 0.575E+00   0.104E-05 0.151E-05 -.210E-05
   -.974E+00 0.372E+00 -.195E+01   0.102E+01 -.336E+00 0.190E+01   0.357E-01 0.530E-01 0.556E-01   -.933E-06 0.607E-06 -.197E-05
   0.418E+01 -.220E+01 -.217E+01   -.429E+01 0.232E+01 0.212E+01   0.275E+00 -.143E+00 0.486E-01   0.105E-05 0.161E-06 -.229E-05
   0.160E+01 -.165E+01 -.274E+01   -.162E+01 0.174E+01 0.270E+01   0.802E-01 -.600E-01 0.345E-01   0.229E-05 0.498E-06 -.212E-05
   0.164E+01 -.234E+01 -.217E+01   -.183E+01 0.244E+01 0.210E+01   0.877E-01 -.992E-01 0.656E-01   0.101E-05 -.511E-06 -.225E-05
   -.124E+00 0.231E+01 0.288E+01   0.174E+00 -.242E+01 -.291E+01   -.368E-01 0.704E-01 0.377E-01   0.240E-05 0.984E-06 -.193E-05
   -.143E+01 0.211E+01 0.163E+01   0.147E+01 -.232E+01 -.171E+01   -.293E-01 0.125E+00 0.864E-01   0.527E-06 0.140E-06 -.217E-05
   0.111E+01 0.912E+01 0.210E+02   -.121E+01 -.960E+01 -.212E+02   -.917E-01 0.446E+00 0.479E-01   0.131E-05 -.703E-06 -.159E-05
   -.441E+01 0.104E+02 0.162E+02   0.456E+01 -.110E+02 -.167E+02   -.292E+00 0.517E+00 0.482E+00   0.271E-05 0.499E-06 -.167E-05
   0.162E+02 0.110E+02 0.532E+02   -.172E+02 -.117E+02 -.548E+02   0.787E+00 0.299E+00 0.182E+01   0.220E-05 0.224E-05 0.247E-06
   0.110E+01 0.208E+01 0.596E+02   -.124E+01 -.225E+01 -.636E+02   -.992E-01 -.618E-01 0.892E+00   0.856E-06 0.138E-05 0.101E-05
   0.916E+01 -.488E+01 0.547E+01   -.971E+01 0.516E+01 -.577E+01   0.331E+00 -.243E+00 0.264E+00   0.260E-06 0.207E-05 -.232E-05
   0.124E+02 0.222E+01 0.166E+02   -.131E+02 -.225E+01 -.170E+02   0.631E+00 -.155E+00 0.299E+00   -.302E-06 -.164E-06 -.168E-05
   0.307E+01 0.425E+01 -.372E+03   -.299E+01 -.416E+01 0.368E+03   -.110E+00 -.107E+00 0.642E+01   0.423E-07 0.279E-06 -.106E-04
 -----------------------------------------------------------------------------------------------
   0.218E+00 0.289E+00 -.181E+02   -.405E-12 0.111E-12 -.568E-13   -.219E+00 -.301E+00 0.181E+02   -.939E-07 0.452E-07 -.103E-03
 
 
 POSITION                                       TOTAL-FORCE (eV/Angst)
 -----------------------------------------------------------------------------------
      6.15000     10.64963     15.02111         0.080386     -0.011940     -0.001971
      1.22997      0.70603     15.02292        -0.020089     -0.060306     -0.022157
     11.07135      2.12521     15.01986        -0.078894      0.005271      0.002096
      0.00000      2.83470     15.02308         0.028986      0.088608     -0.005550
      9.84234      4.25469     14.99963         0.129443      0.086426      0.000828
     -1.22729      4.96730     15.01666        -0.130249     -0.048762     -0.019762
     -3.68298      6.38952     14.97901         0.051008     -0.289081      0.026383
     -2.45772      7.09850     15.00834         0.293116     -0.006493      0.081778
     -4.91873      8.52230     15.00223         0.008210      0.265496      0.006864
     -3.68715      9.22892     15.01883         0.028460      0.209745      0.064520
     -3.68950     10.64879     15.02112        -0.078119     -0.057614     -0.001649
      4.91827      2.82995     14.96436         0.024201      0.026833     -0.023877
      2.45765      4.25470     14.99962        -0.122687     -0.006078      0.006845
      2.45946      2.83452     15.00431        -0.094656      0.027230      0.009352
     -0.00001      4.25683     15.02257         0.061301     -0.096381      0.000458
      1.22729      4.96730     15.01666         0.068250     -0.109369     -0.002317
     -1.22740      6.38633     15.01809        -0.122989      0.006022      0.001101
      0.00000      7.09646     15.02341         0.060107      0.153786     -0.013592
     -2.45954      8.51902     15.01709         0.292163      0.105999     -0.014713
     -1.22880      9.22764     15.01823        -0.160481     -0.057190     -0.004246
     -1.23035     10.64711     15.00769        -0.020714      0.069819      0.003641
      6.15000      0.70328     14.99417         0.008407     -0.000669     -0.003624
      3.68717      2.12384     14.99413         0.098270     -0.047319      0.003578
      3.68950      0.70364     15.00950         0.111535      0.066432     -0.002774
      1.22866      2.12521     15.01986         0.057058      0.078967      0.006275
      3.68305      4.96449     14.96993         0.248235      0.119330     -0.046661
      2.45955      8.51902     15.01708        -0.100454     -0.094265      0.002878
      2.45772      7.09850     15.00834        -0.155258      0.069026      0.002715
      0.00000      8.51848     15.02046         0.057152     -0.143996      0.004755
      1.22881      9.22764     15.01823         0.040347     -0.005135     -0.000744
      1.23036     10.64711     15.00769        -0.015344      0.009785      0.002997
      8.61050      0.70364     15.00950        -0.017101      0.052005      0.001182
      6.15000      2.12188     14.96618        -0.061392      0.044097      0.033475
      7.38173      2.82995     14.96436        -0.007349      0.196018     -0.023049
      4.91432      4.25058     14.93709         0.166875      0.237676     -0.174381
      6.15000      4.96072     14.87541        -0.085875      0.096644      0.565495
      3.68298      6.38952     14.97900         0.259819     -0.188073     -0.012219
      6.15000      9.23007     15.00623        -0.108927      0.137927      0.094043
      1.22739      6.38633     15.01809         0.085078      0.089616     -0.000400
      3.68715      9.22892     15.01883         0.169043     -0.016584     -0.006959
      3.68951     10.64879     15.02112         0.059316      0.033365     -0.002678
     11.07003      0.70603     15.02292        -0.108010      0.001964     -0.006166
      8.61284      2.12384     14.99413         0.012746     -0.039004      0.006388
      9.84054      2.83452     15.00431         0.019376     -0.089368      0.006052
      7.38569      4.25058     14.93709        -0.198470     -0.027212     -0.180078
      8.61695      4.96449     14.96993        -0.147913     -0.076770      0.034939
      6.15000      6.39352     14.90601        -0.183402     -0.418429      0.260210
      7.38565      7.10256     14.96581        -0.246535     -0.229799     -3.180195
      4.91874      8.52230     15.00223        -0.218377      0.041251     -0.036893
      4.91435      7.10256     14.96581        -0.010457     -0.176697     -0.052111
      7.38565      7.10256     16.69696        -0.025146     -0.022807      2.609917
 -----------------------------------------------------------------------------------
    total drift:                               -0.001391     -0.012266     -0.003330


--------------------------------------------------------------------------------------------------------



  FREE ENERGIE OF THE ION-ELECTRON SYSTEM (eV)
  ---------------------------------------------------
  free  energy   TOTEN  =      -462.01616549 eV

  energy  without entropy=     -461.99300184  energy(sigma->0) =     -462.00458366
 


--------------------------------------------------------------------------------------------------------


    POTLOK:  cpu time    2.6675: real time    2.6676


--------------------------------------------------------------------------------------------------------


     LOOP+:  cpu time 3793.1776: real time 3793.9237
    4ORBIT:  cpu time    0.0000: real time    0.0000

 total amount of memory used by VASP on root node   465217. kBytes
========================================================================

   base      :      30000. kBytes
   nonlr-proj:       4755. kBytes
   fftplans  :     165810. kBytes
   grid      :     124231. kBytes
   one-center:         79. kBytes
   wavefun   :     140342. kBytes
 
  
  
 General timing and accounting informations for this job:
 ========================================================
  
                  Total CPU time used (sec):     3825.147
                            User time (sec):     3642.087
                          System time (sec):      183.060
                         Elapsed time (sec):     3827.835
  
                   Maximum memory used (kb):      854000.
                   Average memory used (kb):           0.
  
                          Minor page faults:      6992226
                          Major page faults:          431
                 Voluntary context switches:         2305
