<?xml version="1.0" encoding="ISO-8859-1"?>
<modeling>
 <generator>
  <i name="program" type="string">vasp </i>
  <i name="version" type="string">5.4.1  </i>
  <i name="subversion" type="string">24Jun15 (build Jul 23 2024 06:15:33) complex                          parallel </i>
  <i name="platform" type="string">IFC91_ompi </i>
  <i name="date" type="string">2026 05 05 </i>
  <i name="time" type="string">12:46:44 </i>
 </generator>
 <incar>
  <i type="string" name="SYSTEM"> Li defective graphene MACE training lab</i>
  <i type="int" name="ISTART">     0</i>
  <i type="string" name="PREC">accurate</i>
  <i type="string" name="ALGO"> Normal</i>
  <i type="logical" name="ADDGRID"> T  </i>
  <i type="int" name="ISPIN">     2</i>
  <i type="int" name="ICHARG">     2</i>
  <i type="int" name="NELM">   120</i>
  <i type="int" name="IBRION">    -1</i>
  <i name="EDIFF">      0.00000100</i>
  <i type="int" name="NSW">     0</i>
  <i type="int" name="ISIF">     2</i>
  <i type="int" name="ISYM">     0</i>
  <i name="ENCUT">    520.00000000</i>
  <v name="MAGMOM">      0.10000000      0.10000000      0.10000000      0.10000000      0.10000000      0.10000000      0.10000000      0.10000000      0.10000000      0.10000000      0.10000000      0.10000000      0.10000000      0.10000000      0.10000000      0.10000000      0.10000000      0.10000000      0.10000000      0.10000000
      0.10000000      0.10000000      0.10000000      0.10000000      0.10000000      0.10000000      0.10000000      0.10000000      0.10000000      0.10000000      0.10000000      0.10000000      0.10000000      0.10000000      0.10000000      0.10000000      0.10000000      0.10000000      0.10000000      0.10000000
      0.10000000      0.10000000      0.10000000      0.10000000      0.10000000      0.10000000      0.10000000      0.10000000      0.10000000      0.10000000      1.00000000</v>
  <i type="string" name="LREAL"> Auto</i>
  <i type="int" name="ISMEAR">     0</i>
  <i name="SIGMA">      0.05000000</i>
  <i type="logical" name="LWAVE"> F  </i>
  <i type="logical" name="LCHARG"> F  </i>
  <i type="logical" name="LASPH"> T  </i>
  <v type="int" name="KPOINT_BSE">    -1     0     0     0</v>
  <i type="int" name="NELM">   120</i>
  <i type="logical" name="LASPH"> T  </i>
 </incar>
 <kpoints>
  <generation param="Gamma">
   <v type="int" name="divisions">       3        3        1 </v>
   <v name="usershift">      0.00000000       0.00000000       0.00000000 </v>
   <v name="genvec1">      0.33333333       0.00000000       0.00000000 </v>
   <v name="genvec2">      0.00000000       0.33333333       0.00000000 </v>
   <v name="genvec3">      0.00000000       0.00000000       1.00000000 </v>
   <v name="shift">      0.00000000       0.00000000       0.00000000 </v>
  </generation>
  <varray name="kpointlist" >
   <v>       0.00000000       0.00000000       0.00000000 </v>
   <v>       0.33333333      -0.00000000       0.00000000 </v>
   <v>       0.00000000       0.33333333       0.00000000 </v>
   <v>       0.33333333       0.33333333       0.00000000 </v>
   <v>      -0.33333333       0.33333333       0.00000000 </v>
  </varray>
  <varray name="weights" >
   <v>       0.11111111 </v>
   <v>       0.22222222 </v>
   <v>       0.22222222 </v>
   <v>       0.22222222 </v>
   <v>       0.22222222 </v>
  </varray>
 </kpoints>
 <parameters>
  <separator name="general" >
   <i type="string" name="SYSTEM">Li defective graphene MACE training lab</i>
   <i type="logical" name="LCOMPAT"> F  </i>
  </separator>
  <separator name="electronic" >
   <i type="string" name="PREC">accura</i>
   <i name="ENMAX">    520.00000000</i>
   <i name="ENAUG">    644.87300000</i>
   <i name="EDIFF">      0.00000100</i>
   <i type="int" name="IALGO">    38</i>
   <i type="int" name="IWAVPR">    10</i>
   <i type="int" name="NBANDS">   132</i>
   <i name="NELECT">    203.00000000</i>
   <i type="int" name="TURBO">     0</i>
   <i type="int" name="IRESTART">     0</i>
   <i type="int" name="NREBOOT">     0</i>
   <i type="int" name="NMIN">     0</i>
   <i name="EREF">      0.00000000</i>
   <separator name="electronic smearing" >
    <i type="int" name="ISMEAR">     0</i>
    <i name="SIGMA">      0.05000000</i>
    <i name="KSPACING">      0.50000000</i>
    <i type="logical" name="KGAMMA"> T  </i>
   </separator>
   <separator name="electronic projectors" >
    <i type="logical" name="LREAL"> T  </i>
    <v name="ROPT">     -0.00025000     -0.00025000</v>
    <i type="int" name="LMAXPAW">  -100</i>
    <i type="int" name="LMAXMIX">     2</i>
    <i type="logical" name="NLSPLINE"> F  </i>
   </separator>
   <separator name="electronic startup" >
    <i type="int" name="ISTART">     0</i>
    <i type="int" name="ICHARG">     2</i>
    <i type="int" name="INIWAV">     1</i>
   </separator>
   <separator name="electronic spin" >
    <i type="int" name="ISPIN">     2</i>
    <i type="logical" name="LNONCOLLINEAR"> F  </i>
    <v name="MAGMOM">      0.10000000      0.10000000      0.10000000      0.10000000      0.10000000      0.10000000      0.10000000      0.10000000      0.10000000      0.10000000      0.10000000      0.10000000      0.10000000      0.10000000      0.10000000      0.10000000      0.10000000      0.10000000      0.10000000      0.10000000
      0.10000000      0.10000000      0.10000000      0.10000000      0.10000000      0.10000000      0.10000000      0.10000000      0.10000000      0.10000000      0.10000000      0.10000000      0.10000000      0.10000000      0.10000000      0.10000000      0.10000000      0.10000000      0.10000000      0.10000000
      0.10000000      0.10000000      0.10000000      0.10000000      0.10000000      0.10000000      0.10000000      0.10000000      0.10000000      0.10000000      1.00000000</v>
    <i name="NUPDOWN">     -1.00000000</i>
    <i type="logical" name="LSORBIT"> F  </i>
    <v name="SAXIS">      0.00000000      0.00000000      1.00000000</v>
    <i type="logical" name="LSPIRAL"> F  </i>
    <v name="QSPIRAL">      0.00000000      0.00000000      0.00000000</v>
    <i type="logical" name="LZEROZ"> F  </i>
   </separator>
   <separator name="electronic exchange-correlation" >
    <i type="logical" name="LASPH"> T  </i>
    <i type="logical" name="LMETAGGA"> F  </i>
   </separator>
   <separator name="electronic convergence" >
    <i type="int" name="NELM">   120</i>
    <i type="int" name="NELMDL">    -5</i>
    <i type="int" name="NELMIN">     2</i>
    <i name="ENINI">    520.00000000</i>
    <separator name="electronic convergence detail" >
     <i type="logical" name="LDIAG"> T  </i>
     <i type="logical" name="LSUBROT"> F  </i>
     <i name="WEIMIN">      0.00000000</i>
     <i name="EBREAK">      0.00000000</i>
     <i name="DEPER">      0.30000000</i>
     <i type="int" name="NRMM">     4</i>
     <i name="TIME">      0.40000000</i>
    </separator>
   </separator>
   <separator name="electronic mixer" >
    <i name="AMIX">      0.40000000</i>
    <i name="BMIX">      1.00000000</i>
    <i name="AMIN">      0.10000000</i>
    <i name="AMIX_MAG">      1.60000000</i>
    <i name="BMIX_MAG">      1.00000000</i>
    <separator name="electronic mixer details" >
     <i type="int" name="IMIX">     4</i>
     <i type="logical" name="MIXFIRST"> F  </i>
     <i type="int" name="MAXMIX">   -45</i>
     <i name="WC">    100.00000000</i>
     <i type="int" name="INIMIX">     1</i>
     <i type="int" name="MIXPRE">     1</i>
     <i type="int" name="MREMOVE">     5</i>
    </separator>
   </separator>
   <separator name="electronic dipolcorrection" >
    <i type="logical" name="LDIPOL"> F  </i>
    <i type="logical" name="LMONO"> F  </i>
    <i type="int" name="IDIPOL">     0</i>
    <i name="EPSILON">      1.00000000</i>
    <v name="DIPOL">   -100.00000000   -100.00000000   -100.00000000</v>
    <i name="EFIELD">      0.00000000</i>
   </separator>
  </separator>
  <separator name="grids" >
   <i type="int" name="NGX">    96</i>
   <i type="int" name="NGY">    96</i>
   <i type="int" name="NGZ">   224</i>
   <i type="int" name="NGXF">   192</i>
   <i type="int" name="NGYF">   192</i>
   <i type="int" name="NGZF">   448</i>
   <i type="logical" name="ADDGRID"> T  </i>
  </separator>
  <separator name="ionic" >
   <i type="int" name="NSW">     0</i>
   <i type="int" name="IBRION">    -1</i>
   <i type="int" name="ISIF">     2</i>
   <i name="PSTRESS">      0.00000000</i>
   <i name="EDIFFG">      0.00001000</i>
   <i type="int" name="NFREE">     0</i>
   <i name="POTIM">      0.50000000</i>
   <i name="SMASS">     -3.00000000</i>
   <i name="SCALEE">      1.00000000</i>
  </separator>
  <separator name="ionic md" >
   <i name="TEBEG">      0.00010000</i>
   <i name="TEEND">      0.00010000</i>
   <i type="int" name="NBLOCK">     1</i>
   <i type="int" name="KBLOCK">     1</i>
   <i type="int" name="NPACO">   256</i>
   <i name="APACO">     16.00000000</i>
  </separator>
  <separator name="symmetry" >
   <i type="int" name="ISYM">     0</i>
   <i name="SYMPREC">      0.00001000</i>
  </separator>
  <separator name="dos" >
   <i type="logical" name="LORBIT"> F  </i>
   <v name="RWIGS">     -1.00000000     -1.00000000</v>
   <i type="int" name="NEDOS">   301</i>
   <i name="EMIN">     10.00000000</i>
   <i name="EMAX">    -10.00000000</i>
   <i name="EFERMI">      0.00000000</i>
  </separator>
  <separator name="writing" >
   <i type="int" name="NWRITE">     2</i>
   <i type="logical" name="LWAVE"> F  </i>
   <i type="logical" name="LCHARG"> F  </i>
   <i type="logical" name="LPARD"> F  </i>
   <i type="logical" name="LVTOT"> F  </i>
   <i type="logical" name="LVHAR"> F  </i>
   <i type="logical" name="LELF"> F  </i>
   <i type="logical" name="LOPTICS"> F  </i>
   <v name="STM">      0.00000000      0.00000000      0.00000000      0.00000000      0.00000000      0.00000000      0.00000000</v>
  </separator>
  <separator name="performance" >
   <i type="int" name="NPAR">     4</i>
   <i type="int" name="NSIM">     4</i>
   <i type="int" name="NBLK">    -1</i>
   <i type="logical" name="LPLANE"> T  </i>
   <i type="logical" name="LSCALAPACK"> T  </i>
   <i type="logical" name="LSCAAWARE"> F  </i>
   <i type="logical" name="LSCALU"> F  </i>
   <i type="logical" name="LASYNC"> F  </i>
   <i type="logical" name="LORBITALREAL"> F  </i>
  </separator>
  <separator name="miscellaneous" >
   <i type="int" name="IDIOT">     3</i>
   <i type="logical" name="LMUSIC"> F  </i>
   <v name="POMASS">     12.01100000      7.01000000</v>
   <v name="DARWINR">      0.00000000      0.00000000</v>
   <v name="DARWINV">      1.00000000      1.00000000</v>
   <i type="logical" name="LCORR"> T  </i>
  </separator>
  <i type="logical" name="GGA_COMPAT"> T  </i>
  <i type="logical" name="LBERRY"> F  </i>
  <i type="int" name="ICORELEVEL">     0</i>
  <i type="logical" name="LDAU"> F  </i>
  <i type="int" name="I_CONSTRAINED_M">     0</i>
  <separator name="electronic exchange-correlation" >
   <i type="string" name="GGA">--</i>
   <i type="int" name="VOSKOWN">     0</i>
   <i type="logical" name="LHFCALC"> F  </i>
   <i type="string" name="PRECFOCK"></i>
   <i type="logical" name="LSYMGRAD"> F  </i>
   <i type="logical" name="LHFONE"> F  </i>
   <i type="logical" name="LRHFCALC"> F  </i>
   <i type="logical" name="LTHOMAS"> F  </i>
   <i type="logical" name="LMODELHF"> F  </i>
   <i name="ENCUT4O">     -1.00000000</i>
   <i type="int" name="EXXOEP">     0</i>
   <i type="int" name="FOURORBIT">     0</i>
   <i name="AEXX">      0.00000000</i>
   <i name="HFALPHA">      0.00000000</i>
   <i name="MCALPHA">      0.00000000</i>
   <i name="ALDAX">      1.00000000</i>
   <i name="AGGAX">      1.00000000</i>
   <i name="ALDAC">      1.00000000</i>
   <i name="AGGAC">      1.00000000</i>
   <i type="int" name="NKREDX">     1</i>
   <i type="int" name="NKREDY">     1</i>
   <i type="int" name="NKREDZ">     1</i>
   <i type="logical" name="SHIFTRED"> F  </i>
   <i type="logical" name="ODDONLY"> F  </i>
   <i type="logical" name="EVENONLY"> F  </i>
   <i type="int" name="LMAXFOCK">     0</i>
   <i type="int" name="NMAXFOCKAE">     0</i>
   <i type="logical" name="LFOCKAEDFT"> F  </i>
   <i name="HFSCREEN">      0.00000000</i>
   <i name="HFSCREENC">      0.00000000</i>
   <i type="int" name="NBANDSGWLOW">     0</i>
  </separator>
  <separator name="vdW DFT" >
   <i type="logical" name="LUSE_VDW"> F  </i>
   <i name="Zab_VDW">     -0.84910000</i>
   <i name="PARAM1">      0.12340000</i>
   <i name="PARAM2">      1.00000000</i>
   <i name="PARAM3">      0.00000000</i>
  </separator>
  <separator name="model GW" >
   <i type="int" name="MODEL_GW">     0</i>
   <i name="MODEL_EPS0">     46.24270000</i>
   <i name="MODEL_ALPHA">      1.00000000</i>
  </separator>
  <separator name="linear response parameters" >
   <i type="logical" name="LEPSILON"> F  </i>
   <i type="logical" name="LRPA"> F  </i>
   <i type="logical" name="LNABLA"> F  </i>
   <i type="logical" name="LVEL"> F  </i>
   <i type="int" name="KINTER">     0</i>
   <i name="CSHIFT">      0.10000000</i>
   <i name="OMEGAMAX">     -1.00000000</i>
   <i name="DEG_THRESHOLD">      0.00200000</i>
  </separator>
  <separator name="orbital magnetization" >
   <i type="logical" name="NUCIND"> F  </i>
   <v name="MAGPOS">      0.00000000      0.00000000      0.00000000</v>
   <i type="logical" name="LNICSALL"> T  </i>
   <i type="logical" name="ORBITALMAG"> F  </i>
   <i type="logical" name="LMAGBLOCH"> F  </i>
   <i type="logical" name="LCHIMAG"> F  </i>
   <i type="logical" name="LGAUGE"> T  </i>
   <i type="int" name="MAGATOM">     0</i>
   <v name="MAGDIPOL">      0.00000000      0.00000000      0.00000000</v>
   <v name="AVECCONST">      0.00000000      0.00000000      0.00000000</v>
  </separator>
  <separator name="response functions" >
   <i type="logical" name="LADDER"> F  </i>
   <i type="logical" name="LFXC"> F  </i>
   <i type="logical" name="LHARTREE"> T  </i>
   <i type="int" name="IBSE">     0</i>
   <v type="int" name="KPOINT">    -1     0     0     0</v>
   <i type="logical" name="LTCTE"> F  </i>
   <i type="logical" name="LTETE"> F  </i>
   <i type="logical" name="LTRIPLET"> F  </i>
   <i type="logical" name="LFXCEPS"> F  </i>
   <i type="logical" name="LFXHEG"> F  </i>
   <i type="int" name="NATURALO">     0</i>
   <i type="logical" name="L2ORDER"> F  </i>
   <i type="logical" name="LUSEW"> F  </i>
   <i name="ENCUTGW">     -2.00000000</i>
   <i name="ENCUTGWSOFT">     -2.00000000</i>
   <i name="ENCUTLF">     -1.00000000</i>
   <i type="int" name="LMAXMP2">    -1</i>
   <i name="SCISSOR">      0.00000000</i>
   <i type="int" name="NOMEGA">     0</i>
   <i type="int" name="NOMEGAR">     0</i>
   <i type="int" name="NBANDSGW">    -1</i>
   <i type="int" name="NBANDSO">    -1</i>
   <i type="int" name="NBANDSV">    -1</i>
   <i type="int" name="NELM">   120</i>
   <i type="int" name="NELMHF">     1</i>
   <i type="int" name="DIM">     3</i>
   <i type="int" name="ANTIRES">     0</i>
   <i name="OMEGAMAX">    -30.00000000</i>
   <i name="OMEGAMIN">    -30.00000000</i>
   <i name="OMEGATL">   -200.00000000</i>
   <i type="int" name="OMEGAGRID">     0</i>
   <i name="CSHIFT">     -0.10000000</i>
   <i type="logical" name="SELFENERGY"> F  </i>
   <i type="logical" name="LSPECTRAL"> F  </i>
   <i type="logical" name="LSPECTRALGW"> F  </i>
   <i type="logical" name="LSINGLES"> F  </i>
   <i type="logical" name="LFERMIGW"> F  </i>
   <i type="logical" name="ODDONLYGW"> F  </i>
   <i type="logical" name="EVENONLYGW"> F  </i>
   <i type="int" name="NKREDLFX">     1</i>
   <i type="int" name="NKREDLFY">     1</i>
   <i type="int" name="NKREDLFZ">     1</i>
   <i type="int" name="MAXMEM">  1800</i>
   <i type="int" name="TELESCOPE">     0</i>
   <i type="int" name="TAUPAR">     1</i>
   <i type="int" name="OMEGAPAR">    -1</i>
   <i name="LAMBDA">      1.00000000</i>
  </separator>
  <separator name="External order field" >
   <i name="OFIELD_KAPPA">      0.00000000</i>
   <v name="OFIELD_K">      0.00000000      0.00000000      0.00000000</v>
   <i name="OFIELD_Q6_NEAR">      0.00000000</i>
   <i name="OFIELD_Q6_FAR">      0.00000000</i>
   <i name="OFIELD_A">      0.00000000</i>
  </separator>
 </parameters>
 <atominfo>
  <atoms>      51 </atoms>
  <types>       2 </types>
  <array name="atoms" >
   <dimension dim="1">ion</dimension>
   <field type="string">element</field>
   <field type="int">atomtype</field>
   <set>
    <rc><c>C </c><c>   1</c></rc>
    <rc><c>C </c><c>   1</c></rc>
    <rc><c>C </c><c>   1</c></rc>
    <rc><c>C </c><c>   1</c></rc>
    <rc><c>C </c><c>   1</c></rc>
    <rc><c>C </c><c>   1</c></rc>
    <rc><c>C </c><c>   1</c></rc>
    <rc><c>C </c><c>   1</c></rc>
    <rc><c>C </c><c>   1</c></rc>
    <rc><c>C </c><c>   1</c></rc>
    <rc><c>C </c><c>   1</c></rc>
    <rc><c>C </c><c>   1</c></rc>
    <rc><c>C </c><c>   1</c></rc>
    <rc><c>C </c><c>   1</c></rc>
    <rc><c>C </c><c>   1</c></rc>
    <rc><c>C </c><c>   1</c></rc>
    <rc><c>C </c><c>   1</c></rc>
    <rc><c>C </c><c>   1</c></rc>
    <rc><c>C </c><c>   1</c></rc>
    <rc><c>C </c><c>   1</c></rc>
    <rc><c>C </c><c>   1</c></rc>
    <rc><c>C </c><c>   1</c></rc>
    <rc><c>C </c><c>   1</c></rc>
    <rc><c>C </c><c>   1</c></rc>
    <rc><c>C </c><c>   1</c></rc>
    <rc><c>C </c><c>   1</c></rc>
    <rc><c>C </c><c>   1</c></rc>
    <rc><c>C </c><c>   1</c></rc>
    <rc><c>C </c><c>   1</c></rc>
    <rc><c>C </c><c>   1</c></rc>
    <rc><c>C </c><c>   1</c></rc>
    <rc><c>C </c><c>   1</c></rc>
    <rc><c>C </c><c>   1</c></rc>
    <rc><c>C </c><c>   1</c></rc>
    <rc><c>C </c><c>   1</c></rc>
    <rc><c>C </c><c>   1</c></rc>
    <rc><c>C </c><c>   1</c></rc>
    <rc><c>C </c><c>   1</c></rc>
    <rc><c>C </c><c>   1</c></rc>
    <rc><c>C </c><c>   1</c></rc>
    <rc><c>C </c><c>   1</c></rc>
    <rc><c>C </c><c>   1</c></rc>
    <rc><c>C </c><c>   1</c></rc>
    <rc><c>C </c><c>   1</c></rc>
    <rc><c>C </c><c>   1</c></rc>
    <rc><c>C </c><c>   1</c></rc>
    <rc><c>C </c><c>   1</c></rc>
    <rc><c>C </c><c>   1</c></rc>
    <rc><c>C </c><c>   1</c></rc>
    <rc><c>C </c><c>   1</c></rc>
    <rc><c>Li</c><c>   2</c></rc>
   </set>
  </array>
  <array name="atomtypes" >
   <dimension dim="1">type</dimension>
   <field type="int">atomspertype</field>
   <field type="string">element</field>
   <field>mass</field>
   <field>valence</field>
   <field type="string">pseudopotential</field>
   <set>
    <rc><c>  50</c><c>C </c><c>     12.01100000</c><c>      4.00000000</c><c>  PAW_PBE C 08Apr2002                   </c></rc>
    <rc><c>   1</c><c>Li</c><c>      7.01000000</c><c>      3.00000000</c><c>  PAW_PBE Li_sv 10Sep2004               </c></rc>
   </set>
  </array>
 </atominfo>
 <structure name="initialpos" >
  <crystal>
   <varray name="basis" >
    <v>      12.30000000       0.00000000       0.00000000 </v>
    <v>      -6.15000000      10.65211247       0.00000000 </v>
    <v>       0.00000000       0.00000000      30.00000000 </v>
   </varray>
   <i name="volume">   3930.62950016 </i>
   <varray name="rec_basis" >
    <v>       0.08130081       0.04693905       0.00000000 </v>
    <v>       0.00000000       0.09387809       0.00000000 </v>
    <v>       0.00000000       0.00000000       0.03333333 </v>
   </varray>
  </crystal>
  <varray name="positions" >
   <v>       0.99988345       0.99976655       0.50070365 </v>
   <v>       0.13313835       0.06628113       0.50076414 </v>
   <v>       0.99986462       0.19951048       0.50066204 </v>
   <v>       0.13305819       0.26611600       0.50076947 </v>
   <v>       0.99990120       0.39942212       0.49998752 </v>
   <v>       0.13338012       0.46632027       0.50055545 </v>
   <v>       0.00048883       0.59983601       0.49930029 </v>
   <v>       0.13338223       0.66639362       0.50027805 </v>
   <v>       0.00013167       0.80005692       0.50007430 </v>
   <v>       0.13342895       0.86639370       0.50062777 </v>
   <v>       0.19988452       0.99968809       0.50070413 </v>
   <v>       0.53269490       0.26567077       0.49881187 </v>
   <v>       0.39952012       0.39942278       0.49998743 </v>
   <v>       0.33300586       0.26609951       0.50014356 </v>
   <v>       0.19981037       0.39962309       0.50075225 </v>
   <v>       0.33294004       0.46632029       0.50055536 </v>
   <v>       0.19997977       0.59953607       0.50060301 </v>
   <v>       0.33310144       0.66620258       0.50078017 </v>
   <v>       0.19991176       0.79974914       0.50056953 </v>
   <v>       0.33323385       0.86627322       0.50060775 </v>
   <v>       0.39973654       0.99953012       0.50025629 </v>
   <v>       0.53301150       0.06602273       0.49980551 </v>
   <v>       0.39946049       0.19938192       0.49980423 </v>
   <v>       0.33298763       0.06605684       0.50031679 </v>
   <v>       0.19964609       0.19951040       0.50066207 </v>
   <v>       0.53246359       0.46605661       0.49899750 </v>
   <v>       0.59983768       0.79974909       0.50056930 </v>
   <v>       0.53301162       0.66639344       0.50027784 </v>
   <v>       0.39984966       0.79969901       0.50068206 </v>
   <v>       0.53303957       0.86627318       0.50060762 </v>
   <v>       0.59979394       0.99953014       0.50025619 </v>
   <v>       0.73306943       0.06605683       0.50031666 </v>
   <v>       0.59959923       0.19919799       0.49887261 </v>
   <v>       0.73297608       0.26567075       0.49881183 </v>
   <v>       0.59905631       0.39903661       0.49790284 </v>
   <v>       0.73285164       0.46570284       0.49584713 </v>
   <v>       0.59934769       0.59983616       0.49930013 </v>
   <v>       0.93325060       0.86650095       0.50020757 </v>
   <v>       0.39955622       0.59953654       0.50060288 </v>
   <v>       0.73296500       0.86639367       0.50062756 </v>
   <v>       0.79980395       0.99968811       0.50070396 </v>
   <v>       0.93314298       0.06628108       0.50076405 </v>
   <v>       0.79992187       0.19938193       0.49980417 </v>
   <v>       0.93309373       0.26609919       0.50014357 </v>
   <v>       0.79998080       0.39903666       0.49790285 </v>
   <v>       0.93359301       0.46605671       0.49899760 </v>
   <v>       0.80010598       0.60021136       0.49686686 </v>
   <v>       0.93384667       0.66677439       0.49886028 </v>
   <v>       0.79992566       0.80005696       0.50007418 </v>
   <v>       0.73292796       0.66677434       0.49886021 </v>
   <v>       0.93384667       0.66677439       0.55656547 </v>
  </varray>
 </structure>
 <calculation>
  <scstep>
   <time name="dav">  107.28  107.28</time>
   <time name="total">  112.35  112.36</time>
   <energy>
    <i name="alphaZ">     53.42782116 </i>
    <i name="ewald">  56967.57462357 </i>
    <i name="hartreedc"> -62199.46980876 </i>
    <i name="XCdc">    672.95415483 </i>
    <i name="pawpsdc">   5505.55773403 </i>
    <i name="pawaedc">  -5549.36347127 </i>
    <i name="eentropy">     -0.02957673 </i>
    <i name="bandstr">  -1071.73079117 </i>
    <i name="atom">   7560.21751256 </i>
    <i name="e_fr_energy">   1939.13819822 </i>
    <i name="e_wo_entrp">   1939.16777495 </i>
    <i name="e_0_energy">   1939.15298659 </i>
   </energy>
  </scstep>
  <scstep>
   <time name="dav">  128.51  128.52</time>
   <time name="total">  128.51  128.52</time>
   <energy>
    <i name="e_fr_energy">     36.90376143 </i>
    <i name="e_wo_entrp">     36.91216186 </i>
    <i name="e_0_energy">     36.90796165 </i>
   </energy>
  </scstep>
  <scstep>
   <time name="dav">  112.96  112.96</time>
   <time name="total">  112.96  112.97</time>
   <energy>
    <i name="e_fr_energy">   -468.22059472 </i>
    <i name="e_wo_entrp">   -468.20981148 </i>
    <i name="e_0_energy">   -468.21520310 </i>
   </energy>
  </scstep>
  <scstep>
   <time name="dav">  110.78  110.79</time>
   <time name="total">  110.78  110.79</time>
   <energy>
    <i name="e_fr_energy">   -494.78233108 </i>
    <i name="e_wo_entrp">   -494.76971485 </i>
    <i name="e_0_energy">   -494.77602297 </i>
   </energy>
  </scstep>
  <scstep>
   <time name="dav">  129.89  129.90</time>
   <time name="total">  140.23  140.25</time>
   <energy>
    <i name="e_fr_energy">   -495.83024026 </i>
    <i name="e_wo_entrp">   -495.81821504 </i>
    <i name="e_0_energy">   -495.82422765 </i>
   </energy>
  </scstep>
  <scstep>
   <time name="dav">   98.39   98.40</time>
   <time name="total">  113.60  113.62</time>
   <energy>
    <i name="e_fr_energy">   -470.55861206 </i>
    <i name="e_wo_entrp">   -470.54238033 </i>
    <i name="e_0_energy">   -470.55049620 </i>
   </energy>
  </scstep>
  <scstep>
   <time name="dav">  100.20  100.21</time>
   <time name="total">  115.56  115.57</time>
   <energy>
    <i name="e_fr_energy">   -457.89835369 </i>
    <i name="e_wo_entrp">   -457.88055250 </i>
    <i name="e_0_energy">   -457.88945310 </i>
   </energy>
  </scstep>
  <scstep>
   <time name="dav">   99.47   99.47</time>
   <time name="total">  114.88  114.90</time>
   <energy>
    <i name="e_fr_energy">   -457.35592531 </i>
    <i name="e_wo_entrp">   -457.33936812 </i>
    <i name="e_0_energy">   -457.34764672 </i>
   </energy>
  </scstep>
  <scstep>
   <time name="dav">  115.96  115.97</time>
   <time name="total">  131.16  131.17</time>
   <energy>
    <i name="e_fr_energy">   -458.53082336 </i>
    <i name="e_wo_entrp">   -458.51586947 </i>
    <i name="e_0_energy">   -458.52334641 </i>
   </energy>
  </scstep>
  <scstep>
   <time name="dav">   96.92   96.93</time>
   <time name="total">  112.08  112.10</time>
   <energy>
    <i name="e_fr_energy">   -458.82454693 </i>
    <i name="e_wo_entrp">   -458.80872697 </i>
    <i name="e_0_energy">   -458.81663695 </i>
   </energy>
  </scstep>
  <scstep>
   <time name="dav">  104.53  104.61</time>
   <time name="total">  120.06  120.16</time>
   <energy>
    <i name="e_fr_energy">   -459.13387450 </i>
    <i name="e_wo_entrp">   -459.11756875 </i>
    <i name="e_0_energy">   -459.12572162 </i>
   </energy>
  </scstep>
  <scstep>
   <time name="dav">   96.87   96.97</time>
   <time name="total">  112.24  112.34</time>
   <energy>
    <i name="e_fr_energy">   -459.70162242 </i>
    <i name="e_wo_entrp">   -459.68496950 </i>
    <i name="e_0_energy">   -459.69329596 </i>
   </energy>
  </scstep>
  <scstep>
   <time name="dav">   95.36   95.37</time>
   <time name="total">  111.33  111.35</time>
   <energy>
    <i name="e_fr_energy">   -459.71016690 </i>
    <i name="e_wo_entrp">   -459.69275823 </i>
    <i name="e_0_energy">   -459.70146256 </i>
   </energy>
  </scstep>
  <scstep>
   <time name="dav">   97.05   97.06</time>
   <time name="total">  112.71  112.73</time>
   <energy>
    <i name="e_fr_energy">   -460.47473208 </i>
    <i name="e_wo_entrp">   -460.45525007 </i>
    <i name="e_0_energy">   -460.46499108 </i>
   </energy>
  </scstep>
  <scstep>
   <time name="dav">   95.72   95.74</time>
   <time name="total">  111.46  111.49</time>
   <energy>
    <i name="e_fr_energy">   -461.20525883 </i>
    <i name="e_wo_entrp">   -461.18453591 </i>
    <i name="e_0_energy">   -461.19489737 </i>
   </energy>
  </scstep>
  <scstep>
   <time name="dav">  100.72  100.73</time>
   <time name="total">  116.59  116.61</time>
   <energy>
    <i name="e_fr_energy">   -461.51401100 </i>
    <i name="e_wo_entrp">   -461.49273780 </i>
    <i name="e_0_energy">   -461.50337440 </i>
   </energy>
  </scstep>
  <scstep>
   <time name="dav">   95.06   95.07</time>
   <time name="total">  110.61  110.63</time>
   <energy>
    <i name="e_fr_energy">   -461.78306186 </i>
    <i name="e_wo_entrp">   -461.76115623 </i>
    <i name="e_0_energy">   -461.77210904 </i>
   </energy>
  </scstep>
  <scstep>
   <time name="dav">   95.50   95.51</time>
   <time name="total">  111.02  111.04</time>
   <energy>
    <i name="e_fr_energy">   -461.89424442 </i>
    <i name="e_wo_entrp">   -461.87202747 </i>
    <i name="e_0_energy">   -461.88313595 </i>
   </energy>
  </scstep>
  <scstep>
   <time name="dav">   98.65   98.66</time>
   <time name="total">  114.19  114.21</time>
   <energy>
    <i name="e_fr_energy">   -461.91961675 </i>
    <i name="e_wo_entrp">   -461.89712279 </i>
    <i name="e_0_energy">   -461.90836977 </i>
   </energy>
  </scstep>
  <scstep>
   <time name="dav">   96.57   96.57</time>
   <time name="total">  112.51  112.52</time>
   <energy>
    <i name="e_fr_energy">   -461.94446972 </i>
    <i name="e_wo_entrp">   -461.92167439 </i>
    <i name="e_0_energy">   -461.93307205 </i>
   </energy>
  </scstep>
  <scstep>
   <time name="dav">   95.97   95.99</time>
   <time name="total">  111.69  111.73</time>
   <energy>
    <i name="e_fr_energy">   -461.98771731 </i>
    <i name="e_wo_entrp">   -461.96475681 </i>
    <i name="e_0_energy">   -461.97623706 </i>
   </energy>
  </scstep>
  <scstep>
   <time name="dav">   97.00   97.00</time>
   <time name="total">  112.94  112.95</time>
   <energy>
    <i name="e_fr_energy">   -462.01154476 </i>
    <i name="e_wo_entrp">   -461.98849336 </i>
    <i name="e_0_energy">   -462.00001906 </i>
   </energy>
  </scstep>
  <scstep>
   <time name="dav">   97.02   97.03</time>
   <time name="total">  112.72  112.74</time>
   <energy>
    <i name="e_fr_energy">   -462.01488733 </i>
    <i name="e_wo_entrp">   -461.99178899 </i>
    <i name="e_0_energy">   -462.00333816 </i>
   </energy>
  </scstep>
  <scstep>
   <time name="dav">   95.24   95.25</time>
   <time name="total">  111.26  111.28</time>
   <energy>
    <i name="e_fr_energy">   -462.01520974 </i>
    <i name="e_wo_entrp">   -461.99208272 </i>
    <i name="e_0_energy">   -462.00364623 </i>
   </energy>
  </scstep>
  <scstep>
   <time name="dav">   94.58   94.59</time>
   <time name="total">  110.65  110.67</time>
   <energy>
    <i name="e_fr_energy">   -462.01497333 </i>
    <i name="e_wo_entrp">   -461.99183162 </i>
    <i name="e_0_energy">   -462.00340247 </i>
   </energy>
  </scstep>
  <scstep>
   <time name="dav">   65.48   65.48</time>
   <time name="total">   77.12   77.13</time>
   <energy>
    <i name="e_fr_energy">   -462.01482497 </i>
    <i name="e_wo_entrp">   -461.99167364 </i>
    <i name="e_0_energy">   -462.00324930 </i>
   </energy>
  </scstep>
  <scstep>
   <time name="dav">   54.47   54.47</time>
   <time name="total">   64.77   64.78</time>
   <energy>
    <i name="e_fr_energy">   -462.01501285 </i>
    <i name="e_wo_entrp">   -461.99185365 </i>
    <i name="e_0_energy">   -462.00343325 </i>
   </energy>
  </scstep>
  <scstep>
   <time name="dav">   53.05   53.05</time>
   <time name="total">   63.47   63.48</time>
   <energy>
    <i name="e_fr_energy">   -462.01551741 </i>
    <i name="e_wo_entrp">   -461.99235428 </i>
    <i name="e_0_energy">   -462.00393584 </i>
   </energy>
  </scstep>
  <scstep>
   <time name="dav">   53.29   53.31</time>
   <time name="total">   63.90   63.92</time>
   <energy>
    <i name="e_fr_energy">   -462.01580631 </i>
    <i name="e_wo_entrp">   -461.99264231 </i>
    <i name="e_0_energy">   -462.00422431 </i>
   </energy>
  </scstep>
  <scstep>
   <time name="dav">   49.52   49.52</time>
   <time name="total">   60.01   60.02</time>
   <energy>
    <i name="e_fr_energy">   -462.01596553 </i>
    <i name="e_wo_entrp">   -461.99280034 </i>
    <i name="e_0_energy">   -462.00438293 </i>
   </energy>
  </scstep>
  <scstep>
   <time name="dav">   48.38   48.39</time>
   <time name="total">   58.98   58.99</time>
   <energy>
    <i name="e_fr_energy">   -462.01606038 </i>
    <i name="e_wo_entrp">   -461.99289447 </i>
    <i name="e_0_energy">   -462.00447743 </i>
   </energy>
  </scstep>
  <scstep>
   <time name="dav">   48.38   48.39</time>
   <time name="total">   58.94   58.96</time>
   <energy>
    <i name="e_fr_energy">   -462.01607167 </i>
    <i name="e_wo_entrp">   -461.99290595 </i>
    <i name="e_0_energy">   -462.00448881 </i>
   </energy>
  </scstep>
  <scstep>
   <time name="dav">   47.39   47.40</time>
   <time name="total">   57.77   57.79</time>
   <energy>
    <i name="e_fr_energy">   -462.01607477 </i>
    <i name="e_wo_entrp">   -461.99290941 </i>
    <i name="e_0_energy">   -462.00449209 </i>
   </energy>
  </scstep>
  <scstep>
   <time name="dav">   46.03   46.04</time>
   <time name="total">   56.50   56.50</time>
   <energy>
    <i name="e_fr_energy">   -462.01610925 </i>
    <i name="e_wo_entrp">   -461.99294420 </i>
    <i name="e_0_energy">   -462.00452673 </i>
   </energy>
  </scstep>
  <scstep>
   <time name="dav">   45.40   45.40</time>
   <time name="total">   55.13   55.13</time>
   <energy>
    <i name="e_fr_energy">   -462.01613508 </i>
    <i name="e_wo_entrp">   -461.99297038 </i>
    <i name="e_0_energy">   -462.00455273 </i>
   </energy>
  </scstep>
  <scstep>
   <time name="dav">   31.22   31.22</time>
   <time name="total">   38.70   38.71</time>
   <energy>
    <i name="e_fr_energy">   -462.01615270 </i>
    <i name="e_wo_entrp">   -461.99298841 </i>
    <i name="e_0_energy">   -462.00457055 </i>
   </energy>
  </scstep>
  <scstep>
   <time name="dav">   31.15   31.15</time>
   <time name="total">   37.82   37.83</time>
   <energy>
    <i name="e_fr_energy">   -462.01615773 </i>
    <i name="e_wo_entrp">   -461.99299360 </i>
    <i name="e_0_energy">   -462.00457566 </i>
   </energy>
  </scstep>
  <scstep>
   <time name="dav">   31.72   31.72</time>
   <time name="total">   38.37   38.37</time>
   <energy>
    <i name="e_fr_energy">   -462.01616062 </i>
    <i name="e_wo_entrp">   -461.99299661 </i>
    <i name="e_0_energy">   -462.00457861 </i>
   </energy>
  </scstep>
  <scstep>
   <time name="dav">   30.78   30.78</time>
   <time name="total">   37.46   37.47</time>
   <energy>
    <i name="e_fr_energy">   -462.01616294 </i>
    <i name="e_wo_entrp">   -461.99299908 </i>
    <i name="e_0_energy">   -462.00458101 </i>
   </energy>
  </scstep>
  <scstep>
   <time name="dav">   30.48   30.48</time>
   <time name="total">   37.17   37.17</time>
   <energy>
    <i name="e_fr_energy">   -462.01616453 </i>
    <i name="e_wo_entrp">   -461.99300080 </i>
    <i name="e_0_energy">   -462.00458266 </i>
   </energy>
  </scstep>
  <scstep>
   <time name="dav">   30.39   30.40</time>
   <time name="total">   33.03   33.04</time>
   <energy>
    <i name="alphaZ">     53.42782116 </i>
    <i name="ewald">  56967.57462357 </i>
    <i name="hartreedc"> -63192.07797794 </i>
    <i name="XCdc">    703.33997652 </i>
    <i name="pawpsdc">  21282.20188045 </i>
    <i name="pawaedc"> -21332.17294565 </i>
    <i name="eentropy">     -0.02316366 </i>
    <i name="bandstr">  -2504.50389250 </i>
    <i name="atom">   7560.21751256 </i>
    <i name="e_fr_energy">   -462.01616549 </i>
    <i name="e_wo_entrp">   -461.99300184 </i>
    <i name="e_0_energy">   -462.00458366 </i>
   </energy>
  </scstep>
  <structure>
   <crystal>
    <varray name="basis" >
     <v>      12.30000000       0.00000000       0.00000000 </v>
     <v>      -6.15000000      10.65211247       0.00000000 </v>
     <v>       0.00000000       0.00000000      30.00000000 </v>
    </varray>
    <i name="volume">   3930.62950016 </i>
    <varray name="rec_basis" >
     <v>       0.08130081       0.04693905       0.00000000 </v>
     <v>       0.00000000       0.09387809       0.00000000 </v>
     <v>       0.00000000       0.00000000       0.03333333 </v>
    </varray>
   </crystal>
   <varray name="positions" >
    <v>       0.99988345       0.99976655       0.50070365 </v>
    <v>       0.13313835       0.06628113       0.50076414 </v>
    <v>       0.99986462       0.19951048       0.50066204 </v>
    <v>       0.13305819       0.26611600       0.50076947 </v>
    <v>       0.99990120       0.39942212       0.49998752 </v>
    <v>       0.13338012       0.46632027       0.50055545 </v>
    <v>       0.00048883       0.59983601       0.49930029 </v>
    <v>       0.13338223       0.66639362       0.50027805 </v>
    <v>       0.00013167       0.80005692       0.50007430 </v>
    <v>       0.13342895       0.86639370       0.50062777 </v>
    <v>       0.19988452       0.99968809       0.50070413 </v>
    <v>       0.53269490       0.26567077       0.49881187 </v>
    <v>       0.39952012       0.39942278       0.49998743 </v>
    <v>       0.33300586       0.26609951       0.50014356 </v>
    <v>       0.19981037       0.39962309       0.50075225 </v>
    <v>       0.33294004       0.46632029       0.50055536 </v>
    <v>       0.19997977       0.59953607       0.50060301 </v>
    <v>       0.33310144       0.66620258       0.50078017 </v>
    <v>       0.19991176       0.79974914       0.50056953 </v>
    <v>       0.33323385       0.86627322       0.50060775 </v>
    <v>       0.39973654       0.99953012       0.50025629 </v>
    <v>       0.53301150       0.06602273       0.49980551 </v>
    <v>       0.39946049       0.19938192       0.49980423 </v>
    <v>       0.33298763       0.06605684       0.50031679 </v>
    <v>       0.19964609       0.19951040       0.50066207 </v>
    <v>       0.53246359       0.46605661       0.49899750 </v>
    <v>       0.59983768       0.79974909       0.50056930 </v>
    <v>       0.53301162       0.66639344       0.50027784 </v>
    <v>       0.39984966       0.79969901       0.50068206 </v>
    <v>       0.53303957       0.86627318       0.50060762 </v>
    <v>       0.59979394       0.99953014       0.50025619 </v>
    <v>       0.73306943       0.06605683       0.50031666 </v>
    <v>       0.59959923       0.19919799       0.49887261 </v>
    <v>       0.73297608       0.26567075       0.49881183 </v>
    <v>       0.59905631       0.39903661       0.49790284 </v>
    <v>       0.73285164       0.46570284       0.49584713 </v>
    <v>       0.59934769       0.59983616       0.49930013 </v>
    <v>       0.93325060       0.86650095       0.50020757 </v>
    <v>       0.39955622       0.59953654       0.50060288 </v>
    <v>       0.73296500       0.86639367       0.50062756 </v>
    <v>       0.79980395       0.99968811       0.50070396 </v>
    <v>       0.93314298       0.06628108       0.50076405 </v>
    <v>       0.79992187       0.19938193       0.49980417 </v>
    <v>       0.93309373       0.26609919       0.50014357 </v>
    <v>       0.79998080       0.39903666       0.49790285 </v>
    <v>       0.93359301       0.46605671       0.49899760 </v>
    <v>       0.80010598       0.60021136       0.49686686 </v>
    <v>       0.93384667       0.66677439       0.49886028 </v>
    <v>       0.79992566       0.80005696       0.50007418 </v>
    <v>       0.73292796       0.66677434       0.49886021 </v>
    <v>       0.93384667       0.66677439       0.55656547 </v>
   </varray>
  </structure>
  <varray name="forces" >
   <v>       0.08038577      -0.01193956      -0.00197123 </v>
   <v>      -0.02008938      -0.06030621      -0.02215696 </v>
   <v>      -0.07889435       0.00527141       0.00209588 </v>
   <v>       0.02898633       0.08860834      -0.00555015 </v>
   <v>       0.12944338       0.08642558       0.00082821 </v>
   <v>      -0.13024934      -0.04876177      -0.01976153 </v>
   <v>       0.05100815      -0.28908064       0.02638345 </v>
   <v>       0.29311603      -0.00649270       0.08177762 </v>
   <v>       0.00821039       0.26549590       0.00686396 </v>
   <v>       0.02846036       0.20974532       0.06452021 </v>
   <v>      -0.07811862      -0.05761353      -0.00164876 </v>
   <v>       0.02420108       0.02683260      -0.02387693 </v>
   <v>      -0.12268699      -0.00607789       0.00684533 </v>
   <v>      -0.09465611       0.02723010       0.00935155 </v>
   <v>       0.06130087      -0.09638128       0.00045771 </v>
   <v>       0.06824998      -0.10936852      -0.00231718 </v>
   <v>      -0.12298855       0.00602153       0.00110142 </v>
   <v>       0.06010705       0.15378627      -0.01359197 </v>
   <v>       0.29216258       0.10599897      -0.01471265 </v>
   <v>      -0.16048126      -0.05718962      -0.00424626 </v>
   <v>      -0.02071429       0.06981894       0.00364063 </v>
   <v>       0.00840688      -0.00066895      -0.00362438 </v>
   <v>       0.09826977      -0.04731926       0.00357812 </v>
   <v>       0.11153506       0.06643191      -0.00277381 </v>
   <v>       0.05705841       0.07896706       0.00627510 </v>
   <v>       0.24823494       0.11933022      -0.04666098 </v>
   <v>      -0.10045381      -0.09426457       0.00287812 </v>
   <v>      -0.15525755       0.06902571       0.00271459 </v>
   <v>       0.05715205      -0.14399557       0.00475491 </v>
   <v>       0.04034717      -0.00513526      -0.00074440 </v>
   <v>      -0.01534400       0.00978542       0.00299713 </v>
   <v>      -0.01710145       0.05200537       0.00118219 </v>
   <v>      -0.06139218       0.04409743       0.03347518 </v>
   <v>      -0.00734893       0.19601816      -0.02304866 </v>
   <v>       0.16687489       0.23767584      -0.17438095 </v>
   <v>      -0.08587472       0.09664395       0.56549514 </v>
   <v>       0.25981894      -0.18807346      -0.01221921 </v>
   <v>      -0.10892671       0.13792707       0.09404280 </v>
   <v>       0.08507763       0.08961554      -0.00039992 </v>
   <v>       0.16904263      -0.01658361      -0.00695897 </v>
   <v>       0.05931611       0.03336549      -0.00267826 </v>
   <v>      -0.10800997       0.00196408      -0.00616558 </v>
   <v>       0.01274639      -0.03900407       0.00638839 </v>
   <v>       0.01937615      -0.08936795       0.00605187 </v>
   <v>      -0.19846977      -0.02721186      -0.18007797 </v>
   <v>      -0.14791301      -0.07676988       0.03493907 </v>
   <v>      -0.18340249      -0.41842940       0.26020976 </v>
   <v>      -0.24653458      -0.22979916      -3.18019459 </v>
   <v>      -0.21837738       0.04125070      -0.03689288 </v>
   <v>      -0.01045749      -0.17669720      -0.05211142 </v>
   <v>      -0.02514606      -0.02280697       2.60991721 </v>
  </varray>
  <varray name="stress" >
   <v>       6.09104189      -0.05010183      -0.00205665 </v>
   <v>      -0.05010184       6.21397270      -0.00586673 </v>
   <v>      -0.00205644      -0.00586654       1.70153803 </v>
  </varray>
  <energy>
   <i name="e_fr_energy">   -462.01616549 </i>
   <i name="e_wo_entrp">   -462.00458366 </i>
   <i name="e_0_energy">     -0.02316366 </i>
  </energy>
  <time name="totalsc"> 3793.18 3793.92</time>
  <eigenvalues>
   <array>
    <dimension dim="1">band</dimension>
    <dimension dim="2">kpoint</dimension>
    <dimension dim="3">spin</dimension>
    <field>eigene</field>
    <field>occ</field>
    <set>
     <set comment="spin 1">
      <set comment="kpoint 1">
       <r>  -51.5014    1.0000 </r>
       <r>  -22.4431    1.0000 </r>
       <r>  -21.6580    1.0000 </r>
       <r>  -21.4951    1.0000 </r>
       <r>  -21.4681    1.0000 </r>
       <r>  -21.3803    1.0000 </r>
       <r>  -21.3762    1.0000 </r>
       <r>  -21.3472    1.0000 </r>
       <r>  -19.6898    1.0000 </r>
       <r>  -19.6352    1.0000 </r>
       <r>  -19.6175    1.0000 </r>
       <r>  -19.5745    1.0000 </r>
       <r>  -19.5621    1.0000 </r>
       <r>  -19.5587    1.0000 </r>
       <r>  -18.7325    1.0000 </r>
       <r>  -18.7095    1.0000 </r>
       <r>  -18.7031    1.0000 </r>
       <r>  -18.6771    1.0000 </r>
       <r>  -18.6651    1.0000 </r>
       <r>  -18.6405    1.0000 </r>
       <r>  -16.5873    1.0000 </r>
       <r>  -16.5603    1.0000 </r>
       <r>  -16.5336    1.0000 </r>
       <r>  -16.5092    1.0000 </r>
       <r>  -16.4476    1.0000 </r>
       <r>  -16.4364    1.0000 </r>
       <r>  -15.5815    1.0000 </r>
       <r>  -15.5617    1.0000 </r>
       <r>  -15.5475    1.0000 </r>
       <r>  -15.5120    1.0000 </r>
       <r>  -15.5081    1.0000 </r>
       <r>  -15.4972    1.0000 </r>
       <r>  -14.1931    1.0000 </r>
       <r>  -14.1883    1.0000 </r>
       <r>  -14.1787    1.0000 </r>
       <r>  -14.1549    1.0000 </r>
       <r>  -14.1516    1.0000 </r>
       <r>  -14.1483    1.0000 </r>
       <r>  -11.8306    1.0000 </r>
       <r>  -11.8164    1.0000 </r>
       <r>  -11.8093    1.0000 </r>
       <r>  -11.7806    1.0000 </r>
       <r>  -11.7480    1.0000 </r>
       <r>  -11.7432    1.0000 </r>
       <r>  -11.7265    1.0000 </r>
       <r>  -11.7219    1.0000 </r>
       <r>  -11.6440    1.0000 </r>
       <r>  -11.6389    1.0000 </r>
       <r>  -11.6340    1.0000 </r>
       <r>  -11.6246    1.0000 </r>
       <r>  -10.6114    1.0000 </r>
       <r>  -10.3311    1.0000 </r>
       <r>  -10.3247    1.0000 </r>
       <r>  -10.3004    1.0000 </r>
       <r>  -10.2889    1.0000 </r>
       <r>  -10.2846    1.0000 </r>
       <r>  -10.2803    1.0000 </r>
       <r>   -9.7005    1.0000 </r>
       <r>   -9.4700    1.0000 </r>
       <r>   -9.4439    1.0000 </r>
       <r>   -9.3104    1.0000 </r>
       <r>   -9.3067    1.0000 </r>
       <r>   -9.2705    1.0000 </r>
       <r>   -9.0846    1.0000 </r>
       <r>   -9.0696    1.0000 </r>
       <r>   -9.0455    1.0000 </r>
       <r>   -8.9929    1.0000 </r>
       <r>   -8.9771    1.0000 </r>
       <r>   -8.9729    1.0000 </r>
       <r>   -8.9554    1.0000 </r>
       <r>   -8.9488    1.0000 </r>
       <r>   -8.9449    1.0000 </r>
       <r>   -8.9254    1.0000 </r>
       <r>   -8.9140    1.0000 </r>
       <r>   -8.8949    1.0000 </r>
       <r>   -7.4329    1.0000 </r>
       <r>   -7.3937    1.0000 </r>
       <r>   -7.3824    1.0000 </r>
       <r>   -7.3592    1.0000 </r>
       <r>   -7.3393    1.0000 </r>
       <r>   -7.3177    1.0000 </r>
       <r>   -7.3081    1.0000 </r>
       <r>   -7.2921    1.0000 </r>
       <r>   -7.2774    1.0000 </r>
       <r>   -7.2259    1.0000 </r>
       <r>   -7.2152    1.0000 </r>
       <r>   -7.2068    1.0000 </r>
       <r>   -6.4339    1.0000 </r>
       <r>   -6.4100    1.0000 </r>
       <r>   -6.3984    1.0000 </r>
       <r>   -6.3081    1.0000 </r>
       <r>   -6.2995    1.0000 </r>
       <r>   -6.2695    1.0000 </r>
       <r>   -5.8375    1.0000 </r>
       <r>   -5.8222    1.0000 </r>
       <r>   -4.4655    1.0000 </r>
       <r>   -4.4385    1.0000 </r>
       <r>   -4.4089    1.0000 </r>
       <r>   -4.3528    1.0000 </r>
       <r>   -4.2684    1.0000 </r>
       <r>   -4.2614    1.0000 </r>
       <r>   -1.7351    0.0000 </r>
       <r>   -1.6808    0.0000 </r>
       <r>   -1.6721    0.0000 </r>
       <r>   -1.5480    0.0000 </r>
       <r>   -1.4747    0.0000 </r>
       <r>   -1.4729    0.0000 </r>
       <r>   -1.0884    0.0000 </r>
       <r>    0.1109    0.0000 </r>
       <r>    0.1265    0.0000 </r>
       <r>    0.2090    0.0000 </r>
       <r>    0.3721    0.0000 </r>
       <r>    0.3771    0.0000 </r>
       <r>    0.3832    0.0000 </r>
       <r>    0.5274    0.0000 </r>
       <r>    0.7570    0.0000 </r>
       <r>    0.7590    0.0000 </r>
       <r>    0.8184    0.0000 </r>
       <r>    1.0485    0.0000 </r>
       <r>    1.3766    0.0000 </r>
       <r>    1.4348    0.0000 </r>
       <r>    1.4351    0.0000 </r>
       <r>    1.5272    0.0000 </r>
       <r>    1.5341    0.0000 </r>
       <r>    1.9470    0.0000 </r>
       <r>    1.9631    0.0000 </r>
       <r>    2.0219    0.0000 </r>
       <r>    2.0479    0.0000 </r>
       <r>    2.0822    0.0000 </r>
       <r>    2.0985    0.0000 </r>
       <r>    2.1274    0.0000 </r>
       <r>    2.1606    0.0000 </r>
      </set>
      <set comment="kpoint 2">
       <r>  -51.5014    1.0000 </r>
       <r>  -22.3564    1.0000 </r>
       <r>  -21.9893    1.0000 </r>
       <r>  -21.6661    1.0000 </r>
       <r>  -21.6500    1.0000 </r>
       <r>  -21.0716    1.0000 </r>
       <r>  -21.0135    1.0000 </r>
       <r>  -20.7015    1.0000 </r>
       <r>  -20.4475    1.0000 </r>
       <r>  -20.3959    1.0000 </r>
       <r>  -19.7901    1.0000 </r>
       <r>  -19.5185    1.0000 </r>
       <r>  -19.5088    1.0000 </r>
       <r>  -19.1796    1.0000 </r>
       <r>  -19.1755    1.0000 </r>
       <r>  -18.6309    1.0000 </r>
       <r>  -18.5819    1.0000 </r>
       <r>  -18.0135    1.0000 </r>
       <r>  -18.0085    1.0000 </r>
       <r>  -17.5257    1.0000 </r>
       <r>  -17.4431    1.0000 </r>
       <r>  -17.4376    1.0000 </r>
       <r>  -17.1948    1.0000 </r>
       <r>  -17.1899    1.0000 </r>
       <r>  -16.3974    1.0000 </r>
       <r>  -16.3924    1.0000 </r>
       <r>  -15.6923    1.0000 </r>
       <r>  -15.4436    1.0000 </r>
       <r>  -15.4378    1.0000 </r>
       <r>  -14.9348    1.0000 </r>
       <r>  -14.9310    1.0000 </r>
       <r>  -14.8684    1.0000 </r>
       <r>  -14.8622    1.0000 </r>
       <r>  -14.5012    1.0000 </r>
       <r>  -14.4642    1.0000 </r>
       <r>  -13.2879    1.0000 </r>
       <r>  -13.2831    1.0000 </r>
       <r>  -13.0811    1.0000 </r>
       <r>  -13.0422    1.0000 </r>
       <r>  -12.7993    1.0000 </r>
       <r>  -12.7966    1.0000 </r>
       <r>  -12.4668    1.0000 </r>
       <r>  -12.3434    1.0000 </r>
       <r>  -12.3380    1.0000 </r>
       <r>  -11.5821    1.0000 </r>
       <r>  -11.5430    1.0000 </r>
       <r>  -11.1263    1.0000 </r>
       <r>  -11.1060    1.0000 </r>
       <r>  -10.7535    1.0000 </r>
       <r>  -10.7461    1.0000 </r>
       <r>  -10.6982    1.0000 </r>
       <r>  -10.5191    1.0000 </r>
       <r>  -10.4736    1.0000 </r>
       <r>  -10.4682    1.0000 </r>
       <r>  -10.0535    1.0000 </r>
       <r>   -9.8473    1.0000 </r>
       <r>   -9.8377    1.0000 </r>
       <r>   -9.8006    1.0000 </r>
       <r>   -9.7956    1.0000 </r>
       <r>   -9.6619    1.0000 </r>
       <r>   -9.6438    1.0000 </r>
       <r>   -9.4803    1.0000 </r>
       <r>   -9.4717    1.0000 </r>
       <r>   -9.2230    1.0000 </r>
       <r>   -9.1980    1.0000 </r>
       <r>   -9.1831    1.0000 </r>
       <r>   -9.0902    1.0000 </r>
       <r>   -9.0809    1.0000 </r>
       <r>   -8.9800    1.0000 </r>
       <r>   -8.8894    1.0000 </r>
       <r>   -8.5903    1.0000 </r>
       <r>   -8.5266    1.0000 </r>
       <r>   -8.2708    1.0000 </r>
       <r>   -8.2607    1.0000 </r>
       <r>   -8.2412    1.0000 </r>
       <r>   -8.1726    1.0000 </r>
       <r>   -8.0381    1.0000 </r>
       <r>   -7.9980    1.0000 </r>
       <r>   -7.9612    1.0000 </r>
       <r>   -7.5079    1.0000 </r>
       <r>   -7.4266    1.0000 </r>
       <r>   -7.2326    1.0000 </r>
       <r>   -7.2228    1.0000 </r>
       <r>   -7.2034    1.0000 </r>
       <r>   -7.2001    1.0000 </r>
       <r>   -6.8349    1.0000 </r>
       <r>   -6.8296    1.0000 </r>
       <r>   -6.6230    1.0000 </r>
       <r>   -6.2666    1.0000 </r>
       <r>   -6.2379    1.0000 </r>
       <r>   -6.1477    1.0000 </r>
       <r>   -6.0476    1.0000 </r>
       <r>   -5.7195    1.0000 </r>
       <r>   -5.7143    1.0000 </r>
       <r>   -5.4037    1.0000 </r>
       <r>   -5.1118    1.0000 </r>
       <r>   -5.0700    1.0000 </r>
       <r>   -4.9370    1.0000 </r>
       <r>   -4.9253    1.0000 </r>
       <r>   -3.9541    1.0000 </r>
       <r>   -3.9436    1.0000 </r>
       <r>   -1.8630    0.2772 </r>
       <r>   -1.8282    0.0576 </r>
       <r>   -1.3127    0.0000 </r>
       <r>   -1.1736    0.0000 </r>
       <r>   -1.1260    0.0000 </r>
       <r>   -0.9720    0.0000 </r>
       <r>   -0.7674    0.0000 </r>
       <r>   -0.7611    0.0000 </r>
       <r>   -0.4870    0.0000 </r>
       <r>   -0.4526    0.0000 </r>
       <r>    0.3291    0.0000 </r>
       <r>    0.5392    0.0000 </r>
       <r>    0.6003    0.0000 </r>
       <r>    0.6489    0.0000 </r>
       <r>    0.8333    0.0000 </r>
       <r>    0.9586    0.0000 </r>
       <r>    1.0962    0.0000 </r>
       <r>    1.1073    0.0000 </r>
       <r>    1.1587    0.0000 </r>
       <r>    1.3101    0.0000 </r>
       <r>    1.3820    0.0000 </r>
       <r>    1.5148    0.0000 </r>
       <r>    1.5854    0.0000 </r>
       <r>    1.6722    0.0000 </r>
       <r>    1.6887    0.0000 </r>
       <r>    1.7841    0.0000 </r>
       <r>    1.8103    0.0000 </r>
       <r>    1.8218    0.0000 </r>
       <r>    1.8561    0.0000 </r>
       <r>    1.8604    0.0000 </r>
       <r>    2.0080    0.0000 </r>
      </set>
      <set comment="kpoint 3">
       <r>  -51.5014    1.0000 </r>
       <r>  -22.3559    1.0000 </r>
       <r>  -21.9919    1.0000 </r>
       <r>  -21.6679    1.0000 </r>
       <r>  -21.6441    1.0000 </r>
       <r>  -21.0786    1.0000 </r>
       <r>  -21.0088    1.0000 </r>
       <r>  -20.7012    1.0000 </r>
       <r>  -20.4538    1.0000 </r>
       <r>  -20.3906    1.0000 </r>
       <r>  -19.7894    1.0000 </r>
       <r>  -19.5147    1.0000 </r>
       <r>  -19.5099    1.0000 </r>
       <r>  -19.1829    1.0000 </r>
       <r>  -19.1742    1.0000 </r>
       <r>  -18.6371    1.0000 </r>
       <r>  -18.5769    1.0000 </r>
       <r>  -18.0130    1.0000 </r>
       <r>  -18.0085    1.0000 </r>
       <r>  -17.5301    1.0000 </r>
       <r>  -17.4448    1.0000 </r>
       <r>  -17.4336    1.0000 </r>
       <r>  -17.1929    1.0000 </r>
       <r>  -17.1892    1.0000 </r>
       <r>  -16.4033    1.0000 </r>
       <r>  -16.3854    1.0000 </r>
       <r>  -15.6888    1.0000 </r>
       <r>  -15.4438    1.0000 </r>
       <r>  -15.4410    1.0000 </r>
       <r>  -14.9390    1.0000 </r>
       <r>  -14.9269    1.0000 </r>
       <r>  -14.8785    1.0000 </r>
       <r>  -14.8619    1.0000 </r>
       <r>  -14.5023    1.0000 </r>
       <r>  -14.4558    1.0000 </r>
       <r>  -13.2931    1.0000 </r>
       <r>  -13.2821    1.0000 </r>
       <r>  -13.0840    1.0000 </r>
       <r>  -13.0332    1.0000 </r>
       <r>  -12.7989    1.0000 </r>
       <r>  -12.7911    1.0000 </r>
       <r>  -12.4617    1.0000 </r>
       <r>  -12.3494    1.0000 </r>
       <r>  -12.3378    1.0000 </r>
       <r>  -11.5864    1.0000 </r>
       <r>  -11.5454    1.0000 </r>
       <r>  -11.1324    1.0000 </r>
       <r>  -11.1108    1.0000 </r>
       <r>  -10.7564    1.0000 </r>
       <r>  -10.7485    1.0000 </r>
       <r>  -10.6879    1.0000 </r>
       <r>  -10.5148    1.0000 </r>
       <r>  -10.4730    1.0000 </r>
       <r>  -10.4691    1.0000 </r>
       <r>  -10.0561    1.0000 </r>
       <r>   -9.8474    1.0000 </r>
       <r>   -9.8436    1.0000 </r>
       <r>   -9.7968    1.0000 </r>
       <r>   -9.7869    1.0000 </r>
       <r>   -9.6642    1.0000 </r>
       <r>   -9.6352    1.0000 </r>
       <r>   -9.4768    1.0000 </r>
       <r>   -9.4733    1.0000 </r>
       <r>   -9.2245    1.0000 </r>
       <r>   -9.1962    1.0000 </r>
       <r>   -9.1802    1.0000 </r>
       <r>   -9.0898    1.0000 </r>
       <r>   -9.0799    1.0000 </r>
       <r>   -8.9891    1.0000 </r>
       <r>   -8.8848    1.0000 </r>
       <r>   -8.5961    1.0000 </r>
       <r>   -8.5286    1.0000 </r>
       <r>   -8.2815    1.0000 </r>
       <r>   -8.2651    1.0000 </r>
       <r>   -8.2446    1.0000 </r>
       <r>   -8.1687    1.0000 </r>
       <r>   -8.0430    1.0000 </r>
       <r>   -7.9983    1.0000 </r>
       <r>   -7.9596    1.0000 </r>
       <r>   -7.5063    1.0000 </r>
       <r>   -7.4239    1.0000 </r>
       <r>   -7.2282    1.0000 </r>
       <r>   -7.2187    1.0000 </r>
       <r>   -7.2020    1.0000 </r>
       <r>   -7.1839    1.0000 </r>
       <r>   -6.8366    1.0000 </r>
       <r>   -6.8257    1.0000 </r>
       <r>   -6.6335    1.0000 </r>
       <r>   -6.2612    1.0000 </r>
       <r>   -6.2431    1.0000 </r>
       <r>   -6.1452    1.0000 </r>
       <r>   -6.0578    1.0000 </r>
       <r>   -5.7152    1.0000 </r>
       <r>   -5.7120    1.0000 </r>
       <r>   -5.4154    1.0000 </r>
       <r>   -5.1178    1.0000 </r>
       <r>   -5.0632    1.0000 </r>
       <r>   -4.9383    1.0000 </r>
       <r>   -4.9228    1.0000 </r>
       <r>   -3.9574    1.0000 </r>
       <r>   -3.9309    1.0000 </r>
       <r>   -1.8764    0.4165 </r>
       <r>   -1.8366    0.0905 </r>
       <r>   -1.2952    0.0000 </r>
       <r>   -1.1750    0.0000 </r>
       <r>   -1.1235    0.0000 </r>
       <r>   -0.9725    0.0000 </r>
       <r>   -0.7634    0.0000 </r>
       <r>   -0.7552    0.0000 </r>
       <r>   -0.4898    0.0000 </r>
       <r>   -0.4629    0.0000 </r>
       <r>    0.3341    0.0000 </r>
       <r>    0.5370    0.0000 </r>
       <r>    0.6042    0.0000 </r>
       <r>    0.6470    0.0000 </r>
       <r>    0.8360    0.0000 </r>
       <r>    0.9577    0.0000 </r>
       <r>    1.0781    0.0000 </r>
       <r>    1.1120    0.0000 </r>
       <r>    1.1618    0.0000 </r>
       <r>    1.3184    0.0000 </r>
       <r>    1.3833    0.0000 </r>
       <r>    1.5174    0.0000 </r>
       <r>    1.5851    0.0000 </r>
       <r>    1.6731    0.0000 </r>
       <r>    1.6933    0.0000 </r>
       <r>    1.7847    0.0000 </r>
       <r>    1.8074    0.0000 </r>
       <r>    1.8145    0.0000 </r>
       <r>    1.8525    0.0000 </r>
       <r>    1.8592    0.0000 </r>
       <r>    2.0088    0.0000 </r>
      </set>
      <set comment="kpoint 4">
       <r>  -51.5014    1.0000 </r>
       <r>  -22.2713    1.0000 </r>
       <r>  -22.0231    1.0000 </r>
       <r>  -22.0109    1.0000 </r>
       <r>  -21.1837    1.0000 </r>
       <r>  -21.1305    1.0000 </r>
       <r>  -21.1198    1.0000 </r>
       <r>  -20.3130    1.0000 </r>
       <r>  -20.2608    1.0000 </r>
       <r>  -20.2470    1.0000 </r>
       <r>  -20.1470    1.0000 </r>
       <r>  -20.1392    1.0000 </r>
       <r>  -20.1338    1.0000 </r>
       <r>  -18.5095    1.0000 </r>
       <r>  -18.4783    1.0000 </r>
       <r>  -18.4283    1.0000 </r>
       <r>  -18.3510    1.0000 </r>
       <r>  -18.3286    1.0000 </r>
       <r>  -18.3224    1.0000 </r>
       <r>  -17.5765    1.0000 </r>
       <r>  -17.5648    1.0000 </r>
       <r>  -17.4961    1.0000 </r>
       <r>  -17.0473    1.0000 </r>
       <r>  -17.0368    1.0000 </r>
       <r>  -17.0292    1.0000 </r>
       <r>  -16.0408    1.0000 </r>
       <r>  -16.0314    1.0000 </r>
       <r>  -16.0241    1.0000 </r>
       <r>  -15.4371    1.0000 </r>
       <r>  -15.4329    1.0000 </r>
       <r>  -14.0192    1.0000 </r>
       <r>  -14.0110    1.0000 </r>
       <r>  -13.9858    1.0000 </r>
       <r>  -13.9584    1.0000 </r>
       <r>  -13.9243    1.0000 </r>
       <r>  -13.9200    1.0000 </r>
       <r>  -13.8600    1.0000 </r>
       <r>  -13.8510    1.0000 </r>
       <r>  -13.7752    1.0000 </r>
       <r>  -13.4128    1.0000 </r>
       <r>  -12.3564    1.0000 </r>
       <r>  -12.2168    1.0000 </r>
       <r>  -12.2048    1.0000 </r>
       <r>  -11.6080    1.0000 </r>
       <r>  -11.5920    1.0000 </r>
       <r>  -11.5787    1.0000 </r>
       <r>  -11.5339    1.0000 </r>
       <r>  -11.5281    1.0000 </r>
       <r>  -11.5167    1.0000 </r>
       <r>  -10.4355    1.0000 </r>
       <r>  -10.3575    1.0000 </r>
       <r>  -10.3062    1.0000 </r>
       <r>  -10.2812    1.0000 </r>
       <r>  -10.1915    1.0000 </r>
       <r>  -10.1869    1.0000 </r>
       <r>  -10.1687    1.0000 </r>
       <r>  -10.0749    1.0000 </r>
       <r>  -10.0633    1.0000 </r>
       <r>   -9.5934    1.0000 </r>
       <r>   -9.5834    1.0000 </r>
       <r>   -9.5737    1.0000 </r>
       <r>   -9.3623    1.0000 </r>
       <r>   -9.3522    1.0000 </r>
       <r>   -9.3379    1.0000 </r>
       <r>   -9.1083    1.0000 </r>
       <r>   -9.0355    1.0000 </r>
       <r>   -9.0208    1.0000 </r>
       <r>   -8.7033    1.0000 </r>
       <r>   -8.6868    1.0000 </r>
       <r>   -8.6773    1.0000 </r>
       <r>   -8.6405    1.0000 </r>
       <r>   -8.6325    1.0000 </r>
       <r>   -8.6288    1.0000 </r>
       <r>   -8.2173    1.0000 </r>
       <r>   -8.2067    1.0000 </r>
       <r>   -8.1919    1.0000 </r>
       <r>   -8.1083    1.0000 </r>
       <r>   -8.0578    1.0000 </r>
       <r>   -8.0243    1.0000 </r>
       <r>   -7.8860    1.0000 </r>
       <r>   -7.8761    1.0000 </r>
       <r>   -7.8636    1.0000 </r>
       <r>   -7.0331    1.0000 </r>
       <r>   -7.0215    1.0000 </r>
       <r>   -6.9281    1.0000 </r>
       <r>   -6.5296    1.0000 </r>
       <r>   -6.5162    1.0000 </r>
       <r>   -6.4532    1.0000 </r>
       <r>   -6.1885    1.0000 </r>
       <r>   -6.1710    1.0000 </r>
       <r>   -6.0155    1.0000 </r>
       <r>   -5.9593    1.0000 </r>
       <r>   -5.8981    1.0000 </r>
       <r>   -5.8917    1.0000 </r>
       <r>   -5.2438    1.0000 </r>
       <r>   -5.2309    1.0000 </r>
       <r>   -5.0936    1.0000 </r>
       <r>   -4.9735    1.0000 </r>
       <r>   -4.9676    1.0000 </r>
       <r>   -4.9526    1.0000 </r>
       <r>   -2.8755    1.0000 </r>
       <r>   -2.8637    1.0000 </r>
       <r>   -1.3928    0.0000 </r>
       <r>   -1.3375    0.0000 </r>
       <r>   -1.2798    0.0000 </r>
       <r>   -1.0506    0.0000 </r>
       <r>   -0.6903    0.0000 </r>
       <r>   -0.6523    0.0000 </r>
       <r>   -0.5718    0.0000 </r>
       <r>   -0.0550    0.0000 </r>
       <r>    0.0339    0.0000 </r>
       <r>    0.1185    0.0000 </r>
       <r>    0.1817    0.0000 </r>
       <r>    0.2656    0.0000 </r>
       <r>    0.2708    0.0000 </r>
       <r>    0.4173    0.0000 </r>
       <r>    0.4224    0.0000 </r>
       <r>    1.0811    0.0000 </r>
       <r>    1.2246    0.0000 </r>
       <r>    1.2571    0.0000 </r>
       <r>    1.2619    0.0000 </r>
       <r>    1.3219    0.0000 </r>
       <r>    1.3273    0.0000 </r>
       <r>    1.5067    0.0000 </r>
       <r>    1.5095    0.0000 </r>
       <r>    1.5367    0.0000 </r>
       <r>    1.8074    0.0000 </r>
       <r>    1.8257    0.0000 </r>
       <r>    1.8264    0.0000 </r>
       <r>    1.9074    0.0000 </r>
       <r>    2.0177    0.0000 </r>
       <r>    2.0185    0.0000 </r>
      </set>
      <set comment="kpoint 5">
       <r>  -51.5014    1.0000 </r>
       <r>  -22.3550    1.0000 </r>
       <r>  -21.9964    1.0000 </r>
       <r>  -21.6683    1.0000 </r>
       <r>  -21.6366    1.0000 </r>
       <r>  -21.0862    1.0000 </r>
       <r>  -21.0044    1.0000 </r>
       <r>  -20.7004    1.0000 </r>
       <r>  -20.4613    1.0000 </r>
       <r>  -20.3862    1.0000 </r>
       <r>  -19.7899    1.0000 </r>
       <r>  -19.5111    1.0000 </r>
       <r>  -19.5056    1.0000 </r>
       <r>  -19.1818    1.0000 </r>
       <r>  -19.1774    1.0000 </r>
       <r>  -18.6449    1.0000 </r>
       <r>  -18.5724    1.0000 </r>
       <r>  -18.0118    1.0000 </r>
       <r>  -18.0094    1.0000 </r>
       <r>  -17.5353    1.0000 </r>
       <r>  -17.4455    1.0000 </r>
       <r>  -17.4298    1.0000 </r>
       <r>  -17.1914    1.0000 </r>
       <r>  -17.1889    1.0000 </r>
       <r>  -16.3976    1.0000 </r>
       <r>  -16.3911    1.0000 </r>
       <r>  -15.6934    1.0000 </r>
       <r>  -15.4423    1.0000 </r>
       <r>  -15.4383    1.0000 </r>
       <r>  -14.9330    1.0000 </r>
       <r>  -14.9252    1.0000 </r>
       <r>  -14.8736    1.0000 </r>
       <r>  -14.8662    1.0000 </r>
       <r>  -14.5089    1.0000 </r>
       <r>  -14.4561    1.0000 </r>
       <r>  -13.2877    1.0000 </r>
       <r>  -13.2826    1.0000 </r>
       <r>  -13.0915    1.0000 </r>
       <r>  -13.0356    1.0000 </r>
       <r>  -12.8010    1.0000 </r>
       <r>  -12.7952    1.0000 </r>
       <r>  -12.4663    1.0000 </r>
       <r>  -12.3430    1.0000 </r>
       <r>  -12.3363    1.0000 </r>
       <r>  -11.5794    1.0000 </r>
       <r>  -11.5377    1.0000 </r>
       <r>  -11.1291    1.0000 </r>
       <r>  -11.1073    1.0000 </r>
       <r>  -10.7563    1.0000 </r>
       <r>  -10.7482    1.0000 </r>
       <r>  -10.6958    1.0000 </r>
       <r>  -10.5167    1.0000 </r>
       <r>  -10.4746    1.0000 </r>
       <r>  -10.4711    1.0000 </r>
       <r>  -10.0612    1.0000 </r>
       <r>   -9.8505    1.0000 </r>
       <r>   -9.8401    1.0000 </r>
       <r>   -9.7990    1.0000 </r>
       <r>   -9.7915    1.0000 </r>
       <r>   -9.6624    1.0000 </r>
       <r>   -9.6288    1.0000 </r>
       <r>   -9.4818    1.0000 </r>
       <r>   -9.4776    1.0000 </r>
       <r>   -9.2165    1.0000 </r>
       <r>   -9.1949    1.0000 </r>
       <r>   -9.1820    1.0000 </r>
       <r>   -9.0899    1.0000 </r>
       <r>   -9.0800    1.0000 </r>
       <r>   -8.9978    1.0000 </r>
       <r>   -8.8807    1.0000 </r>
       <r>   -8.5906    1.0000 </r>
       <r>   -8.5264    1.0000 </r>
       <r>   -8.2830    1.0000 </r>
       <r>   -8.2654    1.0000 </r>
       <r>   -8.2355    1.0000 </r>
       <r>   -8.1626    1.0000 </r>
       <r>   -8.0397    1.0000 </r>
       <r>   -8.0029    1.0000 </r>
       <r>   -7.9585    1.0000 </r>
       <r>   -7.5064    1.0000 </r>
       <r>   -7.4307    1.0000 </r>
       <r>   -7.2361    1.0000 </r>
       <r>   -7.2231    1.0000 </r>
       <r>   -7.1970    1.0000 </r>
       <r>   -7.1878    1.0000 </r>
       <r>   -6.8383    1.0000 </r>
       <r>   -6.8298    1.0000 </r>
       <r>   -6.6219    1.0000 </r>
       <r>   -6.2653    1.0000 </r>
       <r>   -6.2562    1.0000 </r>
       <r>   -6.1382    1.0000 </r>
       <r>   -6.0483    1.0000 </r>
       <r>   -5.7183    1.0000 </r>
       <r>   -5.7116    1.0000 </r>
       <r>   -5.4109    1.0000 </r>
       <r>   -5.1198    1.0000 </r>
       <r>   -5.0624    1.0000 </r>
       <r>   -4.9360    1.0000 </r>
       <r>   -4.9201    1.0000 </r>
       <r>   -3.9537    1.0000 </r>
       <r>   -3.9440    1.0000 </r>
       <r>   -1.8715    0.3630 </r>
       <r>   -1.8241    0.0454 </r>
       <r>   -1.3049    0.0000 </r>
       <r>   -1.1730    0.0000 </r>
       <r>   -1.1304    0.0000 </r>
       <r>   -0.9679    0.0000 </r>
       <r>   -0.7651    0.0000 </r>
       <r>   -0.7620    0.0000 </r>
       <r>   -0.4901    0.0000 </r>
       <r>   -0.4585    0.0000 </r>
       <r>    0.3357    0.0000 </r>
       <r>    0.5413    0.0000 </r>
       <r>    0.5822    0.0000 </r>
       <r>    0.6577    0.0000 </r>
       <r>    0.8315    0.0000 </r>
       <r>    0.9604    0.0000 </r>
       <r>    1.0859    0.0000 </r>
       <r>    1.1115    0.0000 </r>
       <r>    1.1616    0.0000 </r>
       <r>    1.3183    0.0000 </r>
       <r>    1.3823    0.0000 </r>
       <r>    1.5192    0.0000 </r>
       <r>    1.5849    0.0000 </r>
       <r>    1.6715    0.0000 </r>
       <r>    1.6932    0.0000 </r>
       <r>    1.7886    0.0000 </r>
       <r>    1.8081    0.0000 </r>
       <r>    1.8219    0.0000 </r>
       <r>    1.8496    0.0000 </r>
       <r>    1.8645    0.0000 </r>
       <r>    2.0123    0.0000 </r>
      </set>
     </set>
     <set comment="spin 2">
      <set comment="kpoint 1">
       <r>  -51.5014    1.0000 </r>
       <r>  -22.4431    1.0000 </r>
       <r>  -21.6580    1.0000 </r>
       <r>  -21.4951    1.0000 </r>
       <r>  -21.4681    1.0000 </r>
       <r>  -21.3803    1.0000 </r>
       <r>  -21.3762    1.0000 </r>
       <r>  -21.3472    1.0000 </r>
       <r>  -19.6898    1.0000 </r>
       <r>  -19.6352    1.0000 </r>
       <r>  -19.6175    1.0000 </r>
       <r>  -19.5745    1.0000 </r>
       <r>  -19.5621    1.0000 </r>
       <r>  -19.5587    1.0000 </r>
       <r>  -18.7324    1.0000 </r>
       <r>  -18.7095    1.0000 </r>
       <r>  -18.7031    1.0000 </r>
       <r>  -18.6771    1.0000 </r>
       <r>  -18.6651    1.0000 </r>
       <r>  -18.6405    1.0000 </r>
       <r>  -16.5873    1.0000 </r>
       <r>  -16.5603    1.0000 </r>
       <r>  -16.5336    1.0000 </r>
       <r>  -16.5092    1.0000 </r>
       <r>  -16.4476    1.0000 </r>
       <r>  -16.4364    1.0000 </r>
       <r>  -15.5815    1.0000 </r>
       <r>  -15.5617    1.0000 </r>
       <r>  -15.5475    1.0000 </r>
       <r>  -15.5120    1.0000 </r>
       <r>  -15.5081    1.0000 </r>
       <r>  -15.4972    1.0000 </r>
       <r>  -14.1931    1.0000 </r>
       <r>  -14.1883    1.0000 </r>
       <r>  -14.1787    1.0000 </r>
       <r>  -14.1549    1.0000 </r>
       <r>  -14.1516    1.0000 </r>
       <r>  -14.1483    1.0000 </r>
       <r>  -11.8306    1.0000 </r>
       <r>  -11.8164    1.0000 </r>
       <r>  -11.8093    1.0000 </r>
       <r>  -11.7806    1.0000 </r>
       <r>  -11.7480    1.0000 </r>
       <r>  -11.7432    1.0000 </r>
       <r>  -11.7265    1.0000 </r>
       <r>  -11.7219    1.0000 </r>
       <r>  -11.6440    1.0000 </r>
       <r>  -11.6389    1.0000 </r>
       <r>  -11.6340    1.0000 </r>
       <r>  -11.6246    1.0000 </r>
       <r>  -10.6114    1.0000 </r>
       <r>  -10.3311    1.0000 </r>
       <r>  -10.3247    1.0000 </r>
       <r>  -10.3004    1.0000 </r>
       <r>  -10.2889    1.0000 </r>
       <r>  -10.2846    1.0000 </r>
       <r>  -10.2803    1.0000 </r>
       <r>   -9.7005    1.0000 </r>
       <r>   -9.4700    1.0000 </r>
       <r>   -9.4438    1.0000 </r>
       <r>   -9.3104    1.0000 </r>
       <r>   -9.3067    1.0000 </r>
       <r>   -9.2705    1.0000 </r>
       <r>   -9.0846    1.0000 </r>
       <r>   -9.0696    1.0000 </r>
       <r>   -9.0455    1.0000 </r>
       <r>   -8.9929    1.0000 </r>
       <r>   -8.9771    1.0000 </r>
       <r>   -8.9729    1.0000 </r>
       <r>   -8.9554    1.0000 </r>
       <r>   -8.9488    1.0000 </r>
       <r>   -8.9449    1.0000 </r>
       <r>   -8.9254    1.0000 </r>
       <r>   -8.9140    1.0000 </r>
       <r>   -8.8949    1.0000 </r>
       <r>   -7.4329    1.0000 </r>
       <r>   -7.3937    1.0000 </r>
       <r>   -7.3824    1.0000 </r>
       <r>   -7.3592    1.0000 </r>
       <r>   -7.3393    1.0000 </r>
       <r>   -7.3177    1.0000 </r>
       <r>   -7.3081    1.0000 </r>
       <r>   -7.2921    1.0000 </r>
       <r>   -7.2774    1.0000 </r>
       <r>   -7.2259    1.0000 </r>
       <r>   -7.2152    1.0000 </r>
       <r>   -7.2068    1.0000 </r>
       <r>   -6.4339    1.0000 </r>
       <r>   -6.4100    1.0000 </r>
       <r>   -6.3984    1.0000 </r>
       <r>   -6.3081    1.0000 </r>
       <r>   -6.2995    1.0000 </r>
       <r>   -6.2695    1.0000 </r>
       <r>   -5.8375    1.0000 </r>
       <r>   -5.8222    1.0000 </r>
       <r>   -4.4655    1.0000 </r>
       <r>   -4.4385    1.0000 </r>
       <r>   -4.4089    1.0000 </r>
       <r>   -4.3528    1.0000 </r>
       <r>   -4.2684    1.0000 </r>
       <r>   -4.2614    1.0000 </r>
       <r>   -1.7351    0.0000 </r>
       <r>   -1.6808    0.0000 </r>
       <r>   -1.6721    0.0000 </r>
       <r>   -1.5480    0.0000 </r>
       <r>   -1.4747    0.0000 </r>
       <r>   -1.4729    0.0000 </r>
       <r>   -1.0883    0.0000 </r>
       <r>    0.1109    0.0000 </r>
       <r>    0.1265    0.0000 </r>
       <r>    0.2091    0.0000 </r>
       <r>    0.3721    0.0000 </r>
       <r>    0.3771    0.0000 </r>
       <r>    0.3833    0.0000 </r>
       <r>    0.5275    0.0000 </r>
       <r>    0.7572    0.0000 </r>
       <r>    0.7591    0.0000 </r>
       <r>    0.8193    0.0000 </r>
       <r>    1.0361    0.0000 </r>
       <r>    1.3709    0.0000 </r>
       <r>    1.4349    0.0000 </r>
       <r>    1.4352    0.0000 </r>
       <r>    1.5244    0.0000 </r>
       <r>    1.5338    0.0000 </r>
       <r>    1.9468    0.0000 </r>
       <r>    1.9631    0.0000 </r>
       <r>    2.0221    0.0000 </r>
       <r>    2.0360    0.0000 </r>
       <r>    2.0831    0.0000 </r>
       <r>    2.0877    0.0000 </r>
       <r>    2.1278    0.0000 </r>
       <r>    2.1331    0.0000 </r>
      </set>
      <set comment="kpoint 2">
       <r>  -51.5014    1.0000 </r>
       <r>  -22.3564    1.0000 </r>
       <r>  -21.9893    1.0000 </r>
       <r>  -21.6661    1.0000 </r>
       <r>  -21.6500    1.0000 </r>
       <r>  -21.0716    1.0000 </r>
       <r>  -21.0135    1.0000 </r>
       <r>  -20.7015    1.0000 </r>
       <r>  -20.4475    1.0000 </r>
       <r>  -20.3959    1.0000 </r>
       <r>  -19.7901    1.0000 </r>
       <r>  -19.5185    1.0000 </r>
       <r>  -19.5088    1.0000 </r>
       <r>  -19.1796    1.0000 </r>
       <r>  -19.1755    1.0000 </r>
       <r>  -18.6309    1.0000 </r>
       <r>  -18.5819    1.0000 </r>
       <r>  -18.0135    1.0000 </r>
       <r>  -18.0085    1.0000 </r>
       <r>  -17.5257    1.0000 </r>
       <r>  -17.4431    1.0000 </r>
       <r>  -17.4376    1.0000 </r>
       <r>  -17.1948    1.0000 </r>
       <r>  -17.1899    1.0000 </r>
       <r>  -16.3974    1.0000 </r>
       <r>  -16.3924    1.0000 </r>
       <r>  -15.6923    1.0000 </r>
       <r>  -15.4436    1.0000 </r>
       <r>  -15.4378    1.0000 </r>
       <r>  -14.9348    1.0000 </r>
       <r>  -14.9310    1.0000 </r>
       <r>  -14.8684    1.0000 </r>
       <r>  -14.8622    1.0000 </r>
       <r>  -14.5012    1.0000 </r>
       <r>  -14.4642    1.0000 </r>
       <r>  -13.2879    1.0000 </r>
       <r>  -13.2831    1.0000 </r>
       <r>  -13.0811    1.0000 </r>
       <r>  -13.0422    1.0000 </r>
       <r>  -12.7993    1.0000 </r>
       <r>  -12.7966    1.0000 </r>
       <r>  -12.4668    1.0000 </r>
       <r>  -12.3434    1.0000 </r>
       <r>  -12.3380    1.0000 </r>
       <r>  -11.5821    1.0000 </r>
       <r>  -11.5430    1.0000 </r>
       <r>  -11.1263    1.0000 </r>
       <r>  -11.1060    1.0000 </r>
       <r>  -10.7535    1.0000 </r>
       <r>  -10.7461    1.0000 </r>
       <r>  -10.6982    1.0000 </r>
       <r>  -10.5191    1.0000 </r>
       <r>  -10.4736    1.0000 </r>
       <r>  -10.4682    1.0000 </r>
       <r>  -10.0535    1.0000 </r>
       <r>   -9.8473    1.0000 </r>
       <r>   -9.8377    1.0000 </r>
       <r>   -9.8006    1.0000 </r>
       <r>   -9.7956    1.0000 </r>
       <r>   -9.6619    1.0000 </r>
       <r>   -9.6438    1.0000 </r>
       <r>   -9.4803    1.0000 </r>
       <r>   -9.4717    1.0000 </r>
       <r>   -9.2230    1.0000 </r>
       <r>   -9.1980    1.0000 </r>
       <r>   -9.1831    1.0000 </r>
       <r>   -9.0902    1.0000 </r>
       <r>   -9.0809    1.0000 </r>
       <r>   -8.9800    1.0000 </r>
       <r>   -8.8894    1.0000 </r>
       <r>   -8.5903    1.0000 </r>
       <r>   -8.5266    1.0000 </r>
       <r>   -8.2707    1.0000 </r>
       <r>   -8.2607    1.0000 </r>
       <r>   -8.2412    1.0000 </r>
       <r>   -8.1726    1.0000 </r>
       <r>   -8.0381    1.0000 </r>
       <r>   -7.9980    1.0000 </r>
       <r>   -7.9612    1.0000 </r>
       <r>   -7.5079    1.0000 </r>
       <r>   -7.4266    1.0000 </r>
       <r>   -7.2326    1.0000 </r>
       <r>   -7.2228    1.0000 </r>
       <r>   -7.2034    1.0000 </r>
       <r>   -7.2001    1.0000 </r>
       <r>   -6.8349    1.0000 </r>
       <r>   -6.8296    1.0000 </r>
       <r>   -6.6230    1.0000 </r>
       <r>   -6.2666    1.0000 </r>
       <r>   -6.2379    1.0000 </r>
       <r>   -6.1477    1.0000 </r>
       <r>   -6.0476    1.0000 </r>
       <r>   -5.7195    1.0000 </r>
       <r>   -5.7143    1.0000 </r>
       <r>   -5.4037    1.0000 </r>
       <r>   -5.1118    1.0000 </r>
       <r>   -5.0699    1.0000 </r>
       <r>   -4.9370    1.0000 </r>
       <r>   -4.9253    1.0000 </r>
       <r>   -3.9541    1.0000 </r>
       <r>   -3.9436    1.0000 </r>
       <r>   -1.8630    0.2771 </r>
       <r>   -1.8282    0.0575 </r>
       <r>   -1.3126    0.0000 </r>
       <r>   -1.1736    0.0000 </r>
       <r>   -1.1260    0.0000 </r>
       <r>   -0.9719    0.0000 </r>
       <r>   -0.7674    0.0000 </r>
       <r>   -0.7611    0.0000 </r>
       <r>   -0.4870    0.0000 </r>
       <r>   -0.4526    0.0000 </r>
       <r>    0.3292    0.0000 </r>
       <r>    0.5393    0.0000 </r>
       <r>    0.6004    0.0000 </r>
       <r>    0.6489    0.0000 </r>
       <r>    0.8335    0.0000 </r>
       <r>    0.9597    0.0000 </r>
       <r>    1.0956    0.0000 </r>
       <r>    1.1073    0.0000 </r>
       <r>    1.1516    0.0000 </r>
       <r>    1.3040    0.0000 </r>
       <r>    1.3827    0.0000 </r>
       <r>    1.5113    0.0000 </r>
       <r>    1.5785    0.0000 </r>
       <r>    1.6683    0.0000 </r>
       <r>    1.6886    0.0000 </r>
       <r>    1.7795    0.0000 </r>
       <r>    1.8108    0.0000 </r>
       <r>    1.8209    0.0000 </r>
       <r>    1.8548    0.0000 </r>
       <r>    1.8592    0.0000 </r>
       <r>    2.0232    0.0000 </r>
      </set>
      <set comment="kpoint 3">
       <r>  -51.5014    1.0000 </r>
       <r>  -22.3559    1.0000 </r>
       <r>  -21.9919    1.0000 </r>
       <r>  -21.6679    1.0000 </r>
       <r>  -21.6441    1.0000 </r>
       <r>  -21.0786    1.0000 </r>
       <r>  -21.0088    1.0000 </r>
       <r>  -20.7011    1.0000 </r>
       <r>  -20.4538    1.0000 </r>
       <r>  -20.3906    1.0000 </r>
       <r>  -19.7894    1.0000 </r>
       <r>  -19.5147    1.0000 </r>
       <r>  -19.5099    1.0000 </r>
       <r>  -19.1829    1.0000 </r>
       <r>  -19.1742    1.0000 </r>
       <r>  -18.6371    1.0000 </r>
       <r>  -18.5769    1.0000 </r>
       <r>  -18.0130    1.0000 </r>
       <r>  -18.0085    1.0000 </r>
       <r>  -17.5301    1.0000 </r>
       <r>  -17.4448    1.0000 </r>
       <r>  -17.4336    1.0000 </r>
       <r>  -17.1929    1.0000 </r>
       <r>  -17.1892    1.0000 </r>
       <r>  -16.4033    1.0000 </r>
       <r>  -16.3854    1.0000 </r>
       <r>  -15.6888    1.0000 </r>
       <r>  -15.4438    1.0000 </r>
       <r>  -15.4410    1.0000 </r>
       <r>  -14.9390    1.0000 </r>
       <r>  -14.9269    1.0000 </r>
       <r>  -14.8785    1.0000 </r>
       <r>  -14.8619    1.0000 </r>
       <r>  -14.5023    1.0000 </r>
       <r>  -14.4558    1.0000 </r>
       <r>  -13.2931    1.0000 </r>
       <r>  -13.2821    1.0000 </r>
       <r>  -13.0840    1.0000 </r>
       <r>  -13.0332    1.0000 </r>
       <r>  -12.7989    1.0000 </r>
       <r>  -12.7911    1.0000 </r>
       <r>  -12.4617    1.0000 </r>
       <r>  -12.3494    1.0000 </r>
       <r>  -12.3378    1.0000 </r>
       <r>  -11.5864    1.0000 </r>
       <r>  -11.5454    1.0000 </r>
       <r>  -11.1324    1.0000 </r>
       <r>  -11.1108    1.0000 </r>
       <r>  -10.7564    1.0000 </r>
       <r>  -10.7485    1.0000 </r>
       <r>  -10.6879    1.0000 </r>
       <r>  -10.5148    1.0000 </r>
       <r>  -10.4730    1.0000 </r>
       <r>  -10.4691    1.0000 </r>
       <r>  -10.0561    1.0000 </r>
       <r>   -9.8474    1.0000 </r>
       <r>   -9.8436    1.0000 </r>
       <r>   -9.7968    1.0000 </r>
       <r>   -9.7869    1.0000 </r>
       <r>   -9.6642    1.0000 </r>
       <r>   -9.6352    1.0000 </r>
       <r>   -9.4768    1.0000 </r>
       <r>   -9.4733    1.0000 </r>
       <r>   -9.2245    1.0000 </r>
       <r>   -9.1962    1.0000 </r>
       <r>   -9.1802    1.0000 </r>
       <r>   -9.0898    1.0000 </r>
       <r>   -9.0799    1.0000 </r>
       <r>   -8.9891    1.0000 </r>
       <r>   -8.8848    1.0000 </r>
       <r>   -8.5961    1.0000 </r>
       <r>   -8.5286    1.0000 </r>
       <r>   -8.2815    1.0000 </r>
       <r>   -8.2650    1.0000 </r>
       <r>   -8.2446    1.0000 </r>
       <r>   -8.1686    1.0000 </r>
       <r>   -8.0430    1.0000 </r>
       <r>   -7.9983    1.0000 </r>
       <r>   -7.9596    1.0000 </r>
       <r>   -7.5063    1.0000 </r>
       <r>   -7.4239    1.0000 </r>
       <r>   -7.2282    1.0000 </r>
       <r>   -7.2187    1.0000 </r>
       <r>   -7.2020    1.0000 </r>
       <r>   -7.1839    1.0000 </r>
       <r>   -6.8366    1.0000 </r>
       <r>   -6.8257    1.0000 </r>
       <r>   -6.6335    1.0000 </r>
       <r>   -6.2612    1.0000 </r>
       <r>   -6.2431    1.0000 </r>
       <r>   -6.1452    1.0000 </r>
       <r>   -6.0578    1.0000 </r>
       <r>   -5.7152    1.0000 </r>
       <r>   -5.7120    1.0000 </r>
       <r>   -5.4154    1.0000 </r>
       <r>   -5.1178    1.0000 </r>
       <r>   -5.0632    1.0000 </r>
       <r>   -4.9383    1.0000 </r>
       <r>   -4.9228    1.0000 </r>
       <r>   -3.9574    1.0000 </r>
       <r>   -3.9309    1.0000 </r>
       <r>   -1.8764    0.4164 </r>
       <r>   -1.8366    0.0905 </r>
       <r>   -1.2952    0.0000 </r>
       <r>   -1.1749    0.0000 </r>
       <r>   -1.1234    0.0000 </r>
       <r>   -0.9724    0.0000 </r>
       <r>   -0.7634    0.0000 </r>
       <r>   -0.7552    0.0000 </r>
       <r>   -0.4898    0.0000 </r>
       <r>   -0.4628    0.0000 </r>
       <r>    0.3341    0.0000 </r>
       <r>    0.5370    0.0000 </r>
       <r>    0.6042    0.0000 </r>
       <r>    0.6470    0.0000 </r>
       <r>    0.8362    0.0000 </r>
       <r>    0.9588    0.0000 </r>
       <r>    1.0776    0.0000 </r>
       <r>    1.1119    0.0000 </r>
       <r>    1.1543    0.0000 </r>
       <r>    1.3127    0.0000 </r>
       <r>    1.3837    0.0000 </r>
       <r>    1.5139    0.0000 </r>
       <r>    1.5783    0.0000 </r>
       <r>    1.6692    0.0000 </r>
       <r>    1.6933    0.0000 </r>
       <r>    1.7808    0.0000 </r>
       <r>    1.8078    0.0000 </r>
       <r>    1.8128    0.0000 </r>
       <r>    1.8534    0.0000 </r>
       <r>    1.8560    0.0000 </r>
       <r>    2.0195    0.0000 </r>
      </set>
      <set comment="kpoint 4">
       <r>  -51.5014    1.0000 </r>
       <r>  -22.2713    1.0000 </r>
       <r>  -22.0231    1.0000 </r>
       <r>  -22.0109    1.0000 </r>
       <r>  -21.1837    1.0000 </r>
       <r>  -21.1305    1.0000 </r>
       <r>  -21.1198    1.0000 </r>
       <r>  -20.3130    1.0000 </r>
       <r>  -20.2608    1.0000 </r>
       <r>  -20.2470    1.0000 </r>
       <r>  -20.1470    1.0000 </r>
       <r>  -20.1392    1.0000 </r>
       <r>  -20.1338    1.0000 </r>
       <r>  -18.5095    1.0000 </r>
       <r>  -18.4783    1.0000 </r>
       <r>  -18.4283    1.0000 </r>
       <r>  -18.3510    1.0000 </r>
       <r>  -18.3286    1.0000 </r>
       <r>  -18.3224    1.0000 </r>
       <r>  -17.5765    1.0000 </r>
       <r>  -17.5648    1.0000 </r>
       <r>  -17.4961    1.0000 </r>
       <r>  -17.0473    1.0000 </r>
       <r>  -17.0368    1.0000 </r>
       <r>  -17.0292    1.0000 </r>
       <r>  -16.0408    1.0000 </r>
       <r>  -16.0314    1.0000 </r>
       <r>  -16.0241    1.0000 </r>
       <r>  -15.4371    1.0000 </r>
       <r>  -15.4329    1.0000 </r>
       <r>  -14.0192    1.0000 </r>
       <r>  -14.0110    1.0000 </r>
       <r>  -13.9858    1.0000 </r>
       <r>  -13.9584    1.0000 </r>
       <r>  -13.9243    1.0000 </r>
       <r>  -13.9200    1.0000 </r>
       <r>  -13.8600    1.0000 </r>
       <r>  -13.8510    1.0000 </r>
       <r>  -13.7752    1.0000 </r>
       <r>  -13.4128    1.0000 </r>
       <r>  -12.3564    1.0000 </r>
       <r>  -12.2168    1.0000 </r>
       <r>  -12.2048    1.0000 </r>
       <r>  -11.6080    1.0000 </r>
       <r>  -11.5920    1.0000 </r>
       <r>  -11.5787    1.0000 </r>
       <r>  -11.5339    1.0000 </r>
       <r>  -11.5281    1.0000 </r>
       <r>  -11.5167    1.0000 </r>
       <r>  -10.4355    1.0000 </r>
       <r>  -10.3575    1.0000 </r>
       <r>  -10.3062    1.0000 </r>
       <r>  -10.2812    1.0000 </r>
       <r>  -10.1915    1.0000 </r>
       <r>  -10.1869    1.0000 </r>
       <r>  -10.1687    1.0000 </r>
       <r>  -10.0749    1.0000 </r>
       <r>  -10.0633    1.0000 </r>
       <r>   -9.5934    1.0000 </r>
       <r>   -9.5834    1.0000 </r>
       <r>   -9.5737    1.0000 </r>
       <r>   -9.3623    1.0000 </r>
       <r>   -9.3522    1.0000 </r>
       <r>   -9.3379    1.0000 </r>
       <r>   -9.1083    1.0000 </r>
       <r>   -9.0355    1.0000 </r>
       <r>   -9.0207    1.0000 </r>
       <r>   -8.7033    1.0000 </r>
       <r>   -8.6868    1.0000 </r>
       <r>   -8.6773    1.0000 </r>
       <r>   -8.6405    1.0000 </r>
       <r>   -8.6325    1.0000 </r>
       <r>   -8.6288    1.0000 </r>
       <r>   -8.2173    1.0000 </r>
       <r>   -8.2067    1.0000 </r>
       <r>   -8.1919    1.0000 </r>
       <r>   -8.1083    1.0000 </r>
       <r>   -8.0578    1.0000 </r>
       <r>   -8.0243    1.0000 </r>
       <r>   -7.8860    1.0000 </r>
       <r>   -7.8761    1.0000 </r>
       <r>   -7.8636    1.0000 </r>
       <r>   -7.0331    1.0000 </r>
       <r>   -7.0215    1.0000 </r>
       <r>   -6.9281    1.0000 </r>
       <r>   -6.5296    1.0000 </r>
       <r>   -6.5162    1.0000 </r>
       <r>   -6.4532    1.0000 </r>
       <r>   -6.1885    1.0000 </r>
       <r>   -6.1710    1.0000 </r>
       <r>   -6.0155    1.0000 </r>
       <r>   -5.9593    1.0000 </r>
       <r>   -5.8981    1.0000 </r>
       <r>   -5.8917    1.0000 </r>
       <r>   -5.2437    1.0000 </r>
       <r>   -5.2309    1.0000 </r>
       <r>   -5.0936    1.0000 </r>
       <r>   -4.9735    1.0000 </r>
       <r>   -4.9675    1.0000 </r>
       <r>   -4.9526    1.0000 </r>
       <r>   -2.8755    1.0000 </r>
       <r>   -2.8637    1.0000 </r>
       <r>   -1.3928    0.0000 </r>
       <r>   -1.3375    0.0000 </r>
       <r>   -1.2798    0.0000 </r>
       <r>   -1.0505    0.0000 </r>
       <r>   -0.6903    0.0000 </r>
       <r>   -0.6522    0.0000 </r>
       <r>   -0.5718    0.0000 </r>
       <r>   -0.0550    0.0000 </r>
       <r>    0.0339    0.0000 </r>
       <r>    0.1185    0.0000 </r>
       <r>    0.1817    0.0000 </r>
       <r>    0.2656    0.0000 </r>
       <r>    0.2709    0.0000 </r>
       <r>    0.4173    0.0000 </r>
       <r>    0.4224    0.0000 </r>
       <r>    1.0821    0.0000 </r>
       <r>    1.2272    0.0000 </r>
       <r>    1.2574    0.0000 </r>
       <r>    1.2623    0.0000 </r>
       <r>    1.3198    0.0000 </r>
       <r>    1.3251    0.0000 </r>
       <r>    1.4958    0.0000 </r>
       <r>    1.4989    0.0000 </r>
       <r>    1.5214    0.0000 </r>
       <r>    1.8022    0.0000 </r>
       <r>    1.8206    0.0000 </r>
       <r>    1.8215    0.0000 </r>
       <r>    1.9065    0.0000 </r>
       <r>    2.0137    0.0000 </r>
       <r>    2.0144    0.0000 </r>
      </set>
      <set comment="kpoint 5">
       <r>  -51.5014    1.0000 </r>
       <r>  -22.3550    1.0000 </r>
       <r>  -21.9964    1.0000 </r>
       <r>  -21.6683    1.0000 </r>
       <r>  -21.6366    1.0000 </r>
       <r>  -21.0862    1.0000 </r>
       <r>  -21.0044    1.0000 </r>
       <r>  -20.7004    1.0000 </r>
       <r>  -20.4613    1.0000 </r>
       <r>  -20.3862    1.0000 </r>
       <r>  -19.7899    1.0000 </r>
       <r>  -19.5111    1.0000 </r>
       <r>  -19.5056    1.0000 </r>
       <r>  -19.1818    1.0000 </r>
       <r>  -19.1774    1.0000 </r>
       <r>  -18.6449    1.0000 </r>
       <r>  -18.5724    1.0000 </r>
       <r>  -18.0118    1.0000 </r>
       <r>  -18.0094    1.0000 </r>
       <r>  -17.5353    1.0000 </r>
       <r>  -17.4455    1.0000 </r>
       <r>  -17.4298    1.0000 </r>
       <r>  -17.1914    1.0000 </r>
       <r>  -17.1889    1.0000 </r>
       <r>  -16.3976    1.0000 </r>
       <r>  -16.3911    1.0000 </r>
       <r>  -15.6934    1.0000 </r>
       <r>  -15.4423    1.0000 </r>
       <r>  -15.4383    1.0000 </r>
       <r>  -14.9330    1.0000 </r>
       <r>  -14.9252    1.0000 </r>
       <r>  -14.8736    1.0000 </r>
       <r>  -14.8662    1.0000 </r>
       <r>  -14.5089    1.0000 </r>
       <r>  -14.4561    1.0000 </r>
       <r>  -13.2877    1.0000 </r>
       <r>  -13.2826    1.0000 </r>
       <r>  -13.0915    1.0000 </r>
       <r>  -13.0356    1.0000 </r>
       <r>  -12.8010    1.0000 </r>
       <r>  -12.7952    1.0000 </r>
       <r>  -12.4663    1.0000 </r>
       <r>  -12.3430    1.0000 </r>
       <r>  -12.3363    1.0000 </r>
       <r>  -11.5794    1.0000 </r>
       <r>  -11.5377    1.0000 </r>
       <r>  -11.1291    1.0000 </r>
       <r>  -11.1073    1.0000 </r>
       <r>  -10.7563    1.0000 </r>
       <r>  -10.7482    1.0000 </r>
       <r>  -10.6958    1.0000 </r>
       <r>  -10.5167    1.0000 </r>
       <r>  -10.4746    1.0000 </r>
       <r>  -10.4711    1.0000 </r>
       <r>  -10.0612    1.0000 </r>
       <r>   -9.8505    1.0000 </r>
       <r>   -9.8401    1.0000 </r>
       <r>   -9.7990    1.0000 </r>
       <r>   -9.7915    1.0000 </r>
       <r>   -9.6624    1.0000 </r>
       <r>   -9.6288    1.0000 </r>
       <r>   -9.4818    1.0000 </r>
       <r>   -9.4776    1.0000 </r>
       <r>   -9.2165    1.0000 </r>
       <r>   -9.1949    1.0000 </r>
       <r>   -9.1820    1.0000 </r>
       <r>   -9.0899    1.0000 </r>
       <r>   -9.0800    1.0000 </r>
       <r>   -8.9978    1.0000 </r>
       <r>   -8.8807    1.0000 </r>
       <r>   -8.5906    1.0000 </r>
       <r>   -8.5264    1.0000 </r>
       <r>   -8.2830    1.0000 </r>
       <r>   -8.2654    1.0000 </r>
       <r>   -8.2355    1.0000 </r>
       <r>   -8.1626    1.0000 </r>
       <r>   -8.0397    1.0000 </r>
       <r>   -8.0029    1.0000 </r>
       <r>   -7.9585    1.0000 </r>
       <r>   -7.5064    1.0000 </r>
       <r>   -7.4307    1.0000 </r>
       <r>   -7.2361    1.0000 </r>
       <r>   -7.2230    1.0000 </r>
       <r>   -7.1970    1.0000 </r>
       <r>   -7.1877    1.0000 </r>
       <r>   -6.8383    1.0000 </r>
       <r>   -6.8298    1.0000 </r>
       <r>   -6.6219    1.0000 </r>
       <r>   -6.2653    1.0000 </r>
       <r>   -6.2562    1.0000 </r>
       <r>   -6.1382    1.0000 </r>
       <r>   -6.0483    1.0000 </r>
       <r>   -5.7183    1.0000 </r>
       <r>   -5.7116    1.0000 </r>
       <r>   -5.4109    1.0000 </r>
       <r>   -5.1198    1.0000 </r>
       <r>   -5.0623    1.0000 </r>
       <r>   -4.9360    1.0000 </r>
       <r>   -4.9201    1.0000 </r>
       <r>   -3.9537    1.0000 </r>
       <r>   -3.9440    1.0000 </r>
       <r>   -1.8715    0.3629 </r>
       <r>   -1.8241    0.0454 </r>
       <r>   -1.3048    0.0000 </r>
       <r>   -1.1730    0.0000 </r>
       <r>   -1.1304    0.0000 </r>
       <r>   -0.9679    0.0000 </r>
       <r>   -0.7651    0.0000 </r>
       <r>   -0.7620    0.0000 </r>
       <r>   -0.4901    0.0000 </r>
       <r>   -0.4585    0.0000 </r>
       <r>    0.3358    0.0000 </r>
       <r>    0.5413    0.0000 </r>
       <r>    0.5823    0.0000 </r>
       <r>    0.6577    0.0000 </r>
       <r>    0.8317    0.0000 </r>
       <r>    0.9616    0.0000 </r>
       <r>    1.0855    0.0000 </r>
       <r>    1.1115    0.0000 </r>
       <r>    1.1541    0.0000 </r>
       <r>    1.3124    0.0000 </r>
       <r>    1.3828    0.0000 </r>
       <r>    1.5157    0.0000 </r>
       <r>    1.5781    0.0000 </r>
       <r>    1.6676    0.0000 </r>
       <r>    1.6931    0.0000 </r>
       <r>    1.7842    0.0000 </r>
       <r>    1.8084    0.0000 </r>
       <r>    1.8209    0.0000 </r>
       <r>    1.8486    0.0000 </r>
       <r>    1.8628    0.0000 </r>
       <r>    2.0308    0.0000 </r>
      </set>
     </set>
    </set>
   </array>
  </eigenvalues>
  <separator name="orbital magnetization" >
   <v name="MAGDIPOLOUT">      0.00000000      0.00000000      0.00000000</v>
  </separator>
  <dos>
   <i name="efermi">     -1.88388833 </i>
   <total>
    <array>
     <dimension dim="1">gridpoints</dimension>
     <dimension dim="2">spin</dimension>
     <field>energy</field>
     <field>total</field>
     <field>integrated</field>
     <set>
      <set comment="spin 1">
       <r>   -54.1845     0.0000     0.0000 </r>
       <r>   -53.9877     0.0000     0.0000 </r>
       <r>   -53.7909     0.0000     0.0000 </r>
       <r>   -53.5942     0.0000     0.0000 </r>
       <r>   -53.3974     0.0000     0.0000 </r>
       <r>   -53.2007     0.0000     0.0000 </r>
       <r>   -53.0039     0.0000     0.0000 </r>
       <r>   -52.8071     0.0000     0.0000 </r>
       <r>   -52.6104     0.0000     0.0000 </r>
       <r>   -52.4136     0.0000     0.0000 </r>
       <r>   -52.2169     0.0000     0.0000 </r>
       <r>   -52.0201     0.0000     0.0000 </r>
       <r>   -51.8233     0.0000     0.0000 </r>
       <r>   -51.6266     0.0010     0.0002 </r>
       <r>   -51.4298     4.9720     0.9785 </r>
       <r>   -51.2331     0.1093     1.0000 </r>
       <r>   -51.0363     0.0000     1.0000 </r>
       <r>   -50.8395     0.0000     1.0000 </r>
       <r>   -50.6428     0.0000     1.0000 </r>
       <r>   -50.4460     0.0000     1.0000 </r>
       <r>   -50.2493     0.0000     1.0000 </r>
       <r>   -50.0525     0.0000     1.0000 </r>
       <r>   -49.8557     0.0000     1.0000 </r>
       <r>   -49.6590     0.0000     1.0000 </r>
       <r>   -49.4622     0.0000     1.0000 </r>
       <r>   -49.2654     0.0000     1.0000 </r>
       <r>   -49.0687     0.0000     1.0000 </r>
       <r>   -48.8719     0.0000     1.0000 </r>
       <r>   -48.6752     0.0000     1.0000 </r>
       <r>   -48.4784     0.0000     1.0000 </r>
       <r>   -48.2816     0.0000     1.0000 </r>
       <r>   -48.0849     0.0000     1.0000 </r>
       <r>   -47.8881     0.0000     1.0000 </r>
       <r>   -47.6914     0.0000     1.0000 </r>
       <r>   -47.4946     0.0000     1.0000 </r>
       <r>   -47.2978     0.0000     1.0000 </r>
       <r>   -47.1011     0.0000     1.0000 </r>
       <r>   -46.9043     0.0000     1.0000 </r>
       <r>   -46.7076     0.0000     1.0000 </r>
       <r>   -46.5108     0.0000     1.0000 </r>
       <r>   -46.3140     0.0000     1.0000 </r>
       <r>   -46.1173     0.0000     1.0000 </r>
       <r>   -45.9205     0.0000     1.0000 </r>
       <r>   -45.7238     0.0000     1.0000 </r>
       <r>   -45.5270     0.0000     1.0000 </r>
       <r>   -45.3302     0.0000     1.0000 </r>
       <r>   -45.1335     0.0000     1.0000 </r>
       <r>   -44.9367     0.0000     1.0000 </r>
       <r>   -44.7400     0.0000     1.0000 </r>
       <r>   -44.5432     0.0000     1.0000 </r>
       <r>   -44.3464     0.0000     1.0000 </r>
       <r>   -44.1497     0.0000     1.0000 </r>
       <r>   -43.9529     0.0000     1.0000 </r>
       <r>   -43.7561     0.0000     1.0000 </r>
       <r>   -43.5594     0.0000     1.0000 </r>
       <r>   -43.3626     0.0000     1.0000 </r>
       <r>   -43.1659     0.0000     1.0000 </r>
       <r>   -42.9691     0.0000     1.0000 </r>
       <r>   -42.7723     0.0000     1.0000 </r>
       <r>   -42.5756     0.0000     1.0000 </r>
       <r>   -42.3788     0.0000     1.0000 </r>
       <r>   -42.1821     0.0000     1.0000 </r>
       <r>   -41.9853     0.0000     1.0000 </r>
       <r>   -41.7885     0.0000     1.0000 </r>
       <r>   -41.5918     0.0000     1.0000 </r>
       <r>   -41.3950     0.0000     1.0000 </r>
       <r>   -41.1983     0.0000     1.0000 </r>
       <r>   -41.0015     0.0000     1.0000 </r>
       <r>   -40.8047     0.0000     1.0000 </r>
       <r>   -40.6080     0.0000     1.0000 </r>
       <r>   -40.4112     0.0000     1.0000 </r>
       <r>   -40.2145     0.0000     1.0000 </r>
       <r>   -40.0177     0.0000     1.0000 </r>
       <r>   -39.8209     0.0000     1.0000 </r>
       <r>   -39.6242     0.0000     1.0000 </r>
       <r>   -39.4274     0.0000     1.0000 </r>
       <r>   -39.2307     0.0000     1.0000 </r>
       <r>   -39.0339     0.0000     1.0000 </r>
       <r>   -38.8371     0.0000     1.0000 </r>
       <r>   -38.6404     0.0000     1.0000 </r>
       <r>   -38.4436     0.0000     1.0000 </r>
       <r>   -38.2469     0.0000     1.0000 </r>
       <r>   -38.0501     0.0000     1.0000 </r>
       <r>   -37.8533     0.0000     1.0000 </r>
       <r>   -37.6566     0.0000     1.0000 </r>
       <r>   -37.4598     0.0000     1.0000 </r>
       <r>   -37.2630     0.0000     1.0000 </r>
       <r>   -37.0663     0.0000     1.0000 </r>
       <r>   -36.8695     0.0000     1.0000 </r>
       <r>   -36.6728     0.0000     1.0000 </r>
       <r>   -36.4760     0.0000     1.0000 </r>
       <r>   -36.2792     0.0000     1.0000 </r>
       <r>   -36.0825     0.0000     1.0000 </r>
       <r>   -35.8857     0.0000     1.0000 </r>
       <r>   -35.6890     0.0000     1.0000 </r>
       <r>   -35.4922     0.0000     1.0000 </r>
       <r>   -35.2954     0.0000     1.0000 </r>
       <r>   -35.0987     0.0000     1.0000 </r>
       <r>   -34.9019     0.0000     1.0000 </r>
       <r>   -34.7052     0.0000     1.0000 </r>
       <r>   -34.5084     0.0000     1.0000 </r>
       <r>   -34.3116     0.0000     1.0000 </r>
       <r>   -34.1149     0.0000     1.0000 </r>
       <r>   -33.9181     0.0000     1.0000 </r>
       <r>   -33.7214     0.0000     1.0000 </r>
       <r>   -33.5246     0.0000     1.0000 </r>
       <r>   -33.3278     0.0000     1.0000 </r>
       <r>   -33.1311     0.0000     1.0000 </r>
       <r>   -32.9343     0.0000     1.0000 </r>
       <r>   -32.7376     0.0000     1.0000 </r>
       <r>   -32.5408     0.0000     1.0000 </r>
       <r>   -32.3440     0.0000     1.0000 </r>
       <r>   -32.1473     0.0000     1.0000 </r>
       <r>   -31.9505     0.0000     1.0000 </r>
       <r>   -31.7538     0.0000     1.0000 </r>
       <r>   -31.5570     0.0000     1.0000 </r>
       <r>   -31.3602     0.0000     1.0000 </r>
       <r>   -31.1635     0.0000     1.0000 </r>
       <r>   -30.9667     0.0000     1.0000 </r>
       <r>   -30.7699     0.0000     1.0000 </r>
       <r>   -30.5732     0.0000     1.0000 </r>
       <r>   -30.3764     0.0000     1.0000 </r>
       <r>   -30.1797     0.0000     1.0000 </r>
       <r>   -29.9829     0.0000     1.0000 </r>
       <r>   -29.7861     0.0000     1.0000 </r>
       <r>   -29.5894     0.0000     1.0000 </r>
       <r>   -29.3926     0.0000     1.0000 </r>
       <r>   -29.1959     0.0000     1.0000 </r>
       <r>   -28.9991     0.0000     1.0000 </r>
       <r>   -28.8023     0.0000     1.0000 </r>
       <r>   -28.6056     0.0000     1.0000 </r>
       <r>   -28.4088     0.0000     1.0000 </r>
       <r>   -28.2121     0.0000     1.0000 </r>
       <r>   -28.0153     0.0000     1.0000 </r>
       <r>   -27.8185     0.0000     1.0000 </r>
       <r>   -27.6218     0.0000     1.0000 </r>
       <r>   -27.4250     0.0000     1.0000 </r>
       <r>   -27.2283     0.0000     1.0000 </r>
       <r>   -27.0315     0.0000     1.0000 </r>
       <r>   -26.8347     0.0000     1.0000 </r>
       <r>   -26.6380     0.0000     1.0000 </r>
       <r>   -26.4412     0.0000     1.0000 </r>
       <r>   -26.2445     0.0000     1.0000 </r>
       <r>   -26.0477     0.0000     1.0000 </r>
       <r>   -25.8509     0.0000     1.0000 </r>
       <r>   -25.6542     0.0000     1.0000 </r>
       <r>   -25.4574     0.0000     1.0000 </r>
       <r>   -25.2606     0.0000     1.0000 </r>
       <r>   -25.0639     0.0000     1.0000 </r>
       <r>   -24.8671     0.0000     1.0000 </r>
       <r>   -24.6704     0.0000     1.0000 </r>
       <r>   -24.4736     0.0000     1.0000 </r>
       <r>   -24.2768     0.0000     1.0000 </r>
       <r>   -24.0801     0.0000     1.0000 </r>
       <r>   -23.8833     0.0000     1.0000 </r>
       <r>   -23.6866     0.0000     1.0000 </r>
       <r>   -23.4898     0.0000     1.0000 </r>
       <r>   -23.2930     0.0000     1.0000 </r>
       <r>   -23.0963     0.0000     1.0000 </r>
       <r>   -22.8995     0.0000     1.0000 </r>
       <r>   -22.7028     0.0000     1.0000 </r>
       <r>   -22.5060     0.0213     1.0042 </r>
       <r>   -22.3092     3.7725     1.7465 </r>
       <r>   -22.1125     1.2985     2.0020 </r>
       <r>   -21.9157     5.5802     3.0999 </r>
       <r>   -21.7190     0.3857     3.1758 </r>
       <r>   -21.5222     7.1719     4.5870 </r>
       <r>   -21.3254     2.4353     5.0661 </r>
       <r>   -21.1287     2.6104     5.5798 </r>
       <r>   -20.9319     7.7313     7.1010 </r>
       <r>   -20.7352     0.6180     7.2226 </r>
       <r>   -20.5384     2.8535     7.7840 </r>
       <r>   -20.3416     6.7139     9.1051 </r>
       <r>   -20.1449     4.9265    10.0744 </r>
       <r>   -19.9481     1.8807    10.4444 </r>
       <r>   -19.7514     2.9433    11.0236 </r>
       <r>   -19.5546     3.9163    11.7941 </r>
       <r>   -19.3578     6.6932    13.1111 </r>
       <r>   -19.1611     4.6694    14.0299 </r>
       <r>   -18.9643     2.1071    14.4444 </r>
       <r>   -18.7675     0.1428    14.4726 </r>
       <r>   -18.5708     8.4949    16.1440 </r>
       <r>   -18.3740     5.3271    17.1922 </r>
       <r>   -18.1773     2.9761    17.7778 </r>
       <r>   -17.9805     5.4472    18.8496 </r>
       <r>   -17.7837     1.3293    19.1111 </r>
       <r>   -17.5870     0.9276    19.2936 </r>
       <r>   -17.3902    12.0372    21.6621 </r>
       <r>   -17.1935     3.8031    22.4104 </r>
       <r>   -16.9967     6.5163    23.6925 </r>
       <r>   -16.7999     0.4332    23.7778 </r>
       <r>   -16.6032     0.2641    23.8297 </r>
       <r>   -16.4064     5.4506    24.9022 </r>
       <r>   -16.2097     4.4499    25.7778 </r>
       <r>   -16.0129     2.3822    26.2465 </r>
       <r>   -15.8161     1.0068    26.4446 </r>
       <r>   -15.6194     3.4389    27.1212 </r>
       <r>   -15.4226     9.4967    28.9898 </r>
       <r>   -15.2259     2.8753    29.5556 </r>
       <r>   -15.0291     0.0213    29.5597 </r>
       <r>   -14.8323    12.4503    32.0095 </r>
       <r>   -14.6356     1.0816    32.2223 </r>
       <r>   -14.4388     5.6888    33.3416 </r>
       <r>   -14.2421     1.2002    33.5778 </r>
       <r>   -14.0453     3.7816    34.3218 </r>
       <r>   -13.8485     7.5518    35.8077 </r>
       <r>   -13.6518     2.1062    36.2222 </r>
       <r>   -13.4550     0.1316    36.2481 </r>
       <r>   -13.2582     6.3040    37.4884 </r>
       <r>   -13.0615     4.8442    38.4416 </r>
       <r>   -12.8647     3.5941    39.1488 </r>
       <r>   -12.6680     6.5840    40.4443 </r>
       <r>   -12.4712     1.4598    40.7315 </r>
       <r>   -12.2744     9.7042    42.6409 </r>
       <r>   -12.0777     2.3895    43.1111 </r>
       <r>   -11.8809     0.0766    43.1261 </r>
       <r>   -11.6842     4.4771    44.0070 </r>
       <r>   -11.4874    15.0684    46.9719 </r>
       <r>   -11.2906     0.7075    47.1111 </r>
       <r>   -11.0939     5.0698    48.1086 </r>
       <r>   -10.8971     1.7068    48.4445 </r>
       <r>   -10.7004     7.7220    49.9639 </r>
       <r>   -10.5036     6.4689    51.2367 </r>
       <r>   -10.3068    11.2067    53.4417 </r>
       <r>   -10.1101     7.2198    54.8623 </r>
       <r>    -9.9133     5.4008    55.9250 </r>
       <r>    -9.7166    13.7182    58.6242 </r>
       <r>    -9.5198    11.0691    60.8021 </r>
       <r>    -9.3230    10.2745    62.8237 </r>
       <r>    -9.1263    13.1995    65.4209 </r>
       <r>    -8.9295    17.7241    68.9083 </r>
       <r>    -8.7328     5.3978    69.9703 </r>
       <r>    -8.5360    10.9129    72.1176 </r>
       <r>    -8.3392     2.4420    72.5981 </r>
       <r>    -8.1425    15.9658    75.7395 </r>
       <r>    -7.9457    12.9887    78.2952 </r>
       <r>    -7.7490     4.7107    79.2220 </r>
       <r>    -7.5522     0.3409    79.2891 </r>
       <r>    -7.3554     8.4950    80.9606 </r>
       <r>    -7.1587    16.9461    84.2949 </r>
       <r>    -6.9619     3.6986    85.0227 </r>
       <r>    -6.7651     7.5914    86.5164 </r>
       <r>    -6.5684     3.6412    87.2328 </r>
       <r>    -6.3716     4.8278    88.1827 </r>
       <r>    -6.1749    10.4619    90.2412 </r>
       <r>    -5.9781     8.4995    91.9136 </r>
       <r>    -5.7813     4.4993    92.7989 </r>
       <r>    -5.5846     6.6685    94.1110 </r>
       <r>    -5.3878     2.4848    94.5999 </r>
       <r>    -5.1911     3.0040    95.1909 </r>
       <r>    -4.9943     8.9383    96.9496 </r>
       <r>    -4.7975     9.2903    98.7776 </r>
       <r>    -4.6008     0.0009    98.7778 </r>
       <r>    -4.4040     1.3679    99.0469 </r>
       <r>    -4.2073     1.9610    99.4328 </r>
       <r>    -4.0105     0.3389    99.4995 </r>
       <r>    -3.8137     6.4959   100.7776 </r>
       <r>    -3.6170     0.0009   100.7778 </r>
       <r>    -3.4202     0.0000   100.7778 </r>
       <r>    -3.2235     0.0000   100.7778 </r>
       <r>    -3.0267     0.0000   100.7778 </r>
       <r>    -2.8299     1.9558   101.1626 </r>
       <r>    -2.6332     0.3030   101.2222 </r>
       <r>    -2.4364     0.0000   101.2222 </r>
       <r>    -2.2397     0.0000   101.2222 </r>
       <r>    -2.0429     0.0000   101.2222 </r>
       <r>    -1.8461     3.6339   101.9372 </r>
       <r>    -1.6494     4.5809   102.8386 </r>
       <r>    -1.4526     1.6898   103.1711 </r>
       <r>    -1.2559     6.4740   104.4449 </r>
       <r>    -1.0591     8.1692   106.0523 </r>
       <r>    -0.8623     4.2649   106.8914 </r>
       <r>    -0.6656     8.0007   108.4657 </r>
       <r>    -0.4688     5.8623   109.6191 </r>
       <r>    -0.2720     3.0651   110.2222 </r>
       <r>    -0.0753     0.3211   110.2854 </r>
       <r>     0.1215     3.1856   110.9122 </r>
       <r>     0.3182     6.0186   112.0964 </r>
       <r>     0.5150     7.3690   113.5464 </r>
       <r>     0.7118     9.6023   115.4357 </r>
       <r>     0.9085     5.3270   116.4839 </r>
       <r>     1.1053     8.6348   118.1828 </r>
       <r>     1.3020    11.3555   120.4171 </r>
       <r>     1.4988    11.4455   122.6692 </r>
       <r>     1.6956    13.4045   125.3066 </r>
       <r>     1.8923    21.8752   129.6108 </r>
       <r>     2.0891    10.3454   131.6464 </r>
       <r>     2.2858     1.7970   132.0000 </r>
       <r>     2.4826     0.0001   132.0000 </r>
       <r>     2.6794     0.0000   132.0000 </r>
       <r>     2.8761     0.0000   132.0000 </r>
       <r>     3.0729     0.0000   132.0000 </r>
       <r>     3.2696     0.0000   132.0000 </r>
       <r>     3.4664     0.0000   132.0000 </r>
       <r>     3.6632     0.0000   132.0000 </r>
       <r>     3.8599     0.0000   132.0000 </r>
       <r>     4.0567     0.0000   132.0000 </r>
       <r>     4.2534     0.0000   132.0000 </r>
       <r>     4.4502     0.0000   132.0000 </r>
       <r>     4.6470     0.0000   132.0000 </r>
       <r>     4.8437     0.0000   132.0000 </r>
      </set>
      <set comment="spin 2">
       <r>   -54.1845     0.0000     0.0000 </r>
       <r>   -53.9877     0.0000     0.0000 </r>
       <r>   -53.7909     0.0000     0.0000 </r>
       <r>   -53.5942     0.0000     0.0000 </r>
       <r>   -53.3974     0.0000     0.0000 </r>
       <r>   -53.2007     0.0000     0.0000 </r>
       <r>   -53.0039     0.0000     0.0000 </r>
       <r>   -52.8071     0.0000     0.0000 </r>
       <r>   -52.6104     0.0000     0.0000 </r>
       <r>   -52.4136     0.0000     0.0000 </r>
       <r>   -52.2169     0.0000     0.0000 </r>
       <r>   -52.0201     0.0000     0.0000 </r>
       <r>   -51.8233     0.0000     0.0000 </r>
       <r>   -51.6266     0.0010     0.0002 </r>
       <r>   -51.4298     4.9720     0.9785 </r>
       <r>   -51.2331     0.1093     1.0000 </r>
       <r>   -51.0363     0.0000     1.0000 </r>
       <r>   -50.8395     0.0000     1.0000 </r>
       <r>   -50.6428     0.0000     1.0000 </r>
       <r>   -50.4460     0.0000     1.0000 </r>
       <r>   -50.2493     0.0000     1.0000 </r>
       <r>   -50.0525     0.0000     1.0000 </r>
       <r>   -49.8557     0.0000     1.0000 </r>
       <r>   -49.6590     0.0000     1.0000 </r>
       <r>   -49.4622     0.0000     1.0000 </r>
       <r>   -49.2654     0.0000     1.0000 </r>
       <r>   -49.0687     0.0000     1.0000 </r>
       <r>   -48.8719     0.0000     1.0000 </r>
       <r>   -48.6752     0.0000     1.0000 </r>
       <r>   -48.4784     0.0000     1.0000 </r>
       <r>   -48.2816     0.0000     1.0000 </r>
       <r>   -48.0849     0.0000     1.0000 </r>
       <r>   -47.8881     0.0000     1.0000 </r>
       <r>   -47.6914     0.0000     1.0000 </r>
       <r>   -47.4946     0.0000     1.0000 </r>
       <r>   -47.2978     0.0000     1.0000 </r>
       <r>   -47.1011     0.0000     1.0000 </r>
       <r>   -46.9043     0.0000     1.0000 </r>
       <r>   -46.7076     0.0000     1.0000 </r>
       <r>   -46.5108     0.0000     1.0000 </r>
       <r>   -46.3140     0.0000     1.0000 </r>
       <r>   -46.1173     0.0000     1.0000 </r>
       <r>   -45.9205     0.0000     1.0000 </r>
       <r>   -45.7238     0.0000     1.0000 </r>
       <r>   -45.5270     0.0000     1.0000 </r>
       <r>   -45.3302     0.0000     1.0000 </r>
       <r>   -45.1335     0.0000     1.0000 </r>
       <r>   -44.9367     0.0000     1.0000 </r>
       <r>   -44.7400     0.0000     1.0000 </r>
       <r>   -44.5432     0.0000     1.0000 </r>
       <r>   -44.3464     0.0000     1.0000 </r>
       <r>   -44.1497     0.0000     1.0000 </r>
       <r>   -43.9529     0.0000     1.0000 </r>
       <r>   -43.7561     0.0000     1.0000 </r>
       <r>   -43.5594     0.0000     1.0000 </r>
       <r>   -43.3626     0.0000     1.0000 </r>
       <r>   -43.1659     0.0000     1.0000 </r>
       <r>   -42.9691     0.0000     1.0000 </r>
       <r>   -42.7723     0.0000     1.0000 </r>
       <r>   -42.5756     0.0000     1.0000 </r>
       <r>   -42.3788     0.0000     1.0000 </r>
       <r>   -42.1821     0.0000     1.0000 </r>
       <r>   -41.9853     0.0000     1.0000 </r>
       <r>   -41.7885     0.0000     1.0000 </r>
       <r>   -41.5918     0.0000     1.0000 </r>
       <r>   -41.3950     0.0000     1.0000 </r>
       <r>   -41.1983     0.0000     1.0000 </r>
       <r>   -41.0015     0.0000     1.0000 </r>
       <r>   -40.8047     0.0000     1.0000 </r>
       <r>   -40.6080     0.0000     1.0000 </r>
       <r>   -40.4112     0.0000     1.0000 </r>
       <r>   -40.2145     0.0000     1.0000 </r>
       <r>   -40.0177     0.0000     1.0000 </r>
       <r>   -39.8209     0.0000     1.0000 </r>
       <r>   -39.6242     0.0000     1.0000 </r>
       <r>   -39.4274     0.0000     1.0000 </r>
       <r>   -39.2307     0.0000     1.0000 </r>
       <r>   -39.0339     0.0000     1.0000 </r>
       <r>   -38.8371     0.0000     1.0000 </r>
       <r>   -38.6404     0.0000     1.0000 </r>
       <r>   -38.4436     0.0000     1.0000 </r>
       <r>   -38.2469     0.0000     1.0000 </r>
       <r>   -38.0501     0.0000     1.0000 </r>
       <r>   -37.8533     0.0000     1.0000 </r>
       <r>   -37.6566     0.0000     1.0000 </r>
       <r>   -37.4598     0.0000     1.0000 </r>
       <r>   -37.2630     0.0000     1.0000 </r>
       <r>   -37.0663     0.0000     1.0000 </r>
       <r>   -36.8695     0.0000     1.0000 </r>
       <r>   -36.6728     0.0000     1.0000 </r>
       <r>   -36.4760     0.0000     1.0000 </r>
       <r>   -36.2792     0.0000     1.0000 </r>
       <r>   -36.0825     0.0000     1.0000 </r>
       <r>   -35.8857     0.0000     1.0000 </r>
       <r>   -35.6890     0.0000     1.0000 </r>
       <r>   -35.4922     0.0000     1.0000 </r>
       <r>   -35.2954     0.0000     1.0000 </r>
       <r>   -35.0987     0.0000     1.0000 </r>
       <r>   -34.9019     0.0000     1.0000 </r>
       <r>   -34.7052     0.0000     1.0000 </r>
       <r>   -34.5084     0.0000     1.0000 </r>
       <r>   -34.3116     0.0000     1.0000 </r>
       <r>   -34.1149     0.0000     1.0000 </r>
       <r>   -33.9181     0.0000     1.0000 </r>
       <r>   -33.7214     0.0000     1.0000 </r>
       <r>   -33.5246     0.0000     1.0000 </r>
       <r>   -33.3278     0.0000     1.0000 </r>
       <r>   -33.1311     0.0000     1.0000 </r>
       <r>   -32.9343     0.0000     1.0000 </r>
       <r>   -32.7376     0.0000     1.0000 </r>
       <r>   -32.5408     0.0000     1.0000 </r>
       <r>   -32.3440     0.0000     1.0000 </r>
       <r>   -32.1473     0.0000     1.0000 </r>
       <r>   -31.9505     0.0000     1.0000 </r>
       <r>   -31.7538     0.0000     1.0000 </r>
       <r>   -31.5570     0.0000     1.0000 </r>
       <r>   -31.3602     0.0000     1.0000 </r>
       <r>   -31.1635     0.0000     1.0000 </r>
       <r>   -30.9667     0.0000     1.0000 </r>
       <r>   -30.7699     0.0000     1.0000 </r>
       <r>   -30.5732     0.0000     1.0000 </r>
       <r>   -30.3764     0.0000     1.0000 </r>
       <r>   -30.1797     0.0000     1.0000 </r>
       <r>   -29.9829     0.0000     1.0000 </r>
       <r>   -29.7861     0.0000     1.0000 </r>
       <r>   -29.5894     0.0000     1.0000 </r>
       <r>   -29.3926     0.0000     1.0000 </r>
       <r>   -29.1959     0.0000     1.0000 </r>
       <r>   -28.9991     0.0000     1.0000 </r>
       <r>   -28.8023     0.0000     1.0000 </r>
       <r>   -28.6056     0.0000     1.0000 </r>
       <r>   -28.4088     0.0000     1.0000 </r>
       <r>   -28.2121     0.0000     1.0000 </r>
       <r>   -28.0153     0.0000     1.0000 </r>
       <r>   -27.8185     0.0000     1.0000 </r>
       <r>   -27.6218     0.0000     1.0000 </r>
       <r>   -27.4250     0.0000     1.0000 </r>
       <r>   -27.2283     0.0000     1.0000 </r>
       <r>   -27.0315     0.0000     1.0000 </r>
       <r>   -26.8347     0.0000     1.0000 </r>
       <r>   -26.6380     0.0000     1.0000 </r>
       <r>   -26.4412     0.0000     1.0000 </r>
       <r>   -26.2445     0.0000     1.0000 </r>
       <r>   -26.0477     0.0000     1.0000 </r>
       <r>   -25.8509     0.0000     1.0000 </r>
       <r>   -25.6542     0.0000     1.0000 </r>
       <r>   -25.4574     0.0000     1.0000 </r>
       <r>   -25.2606     0.0000     1.0000 </r>
       <r>   -25.0639     0.0000     1.0000 </r>
       <r>   -24.8671     0.0000     1.0000 </r>
       <r>   -24.6704     0.0000     1.0000 </r>
       <r>   -24.4736     0.0000     1.0000 </r>
       <r>   -24.2768     0.0000     1.0000 </r>
       <r>   -24.0801     0.0000     1.0000 </r>
       <r>   -23.8833     0.0000     1.0000 </r>
       <r>   -23.6866     0.0000     1.0000 </r>
       <r>   -23.4898     0.0000     1.0000 </r>
       <r>   -23.2930     0.0000     1.0000 </r>
       <r>   -23.0963     0.0000     1.0000 </r>
       <r>   -22.8995     0.0000     1.0000 </r>
       <r>   -22.7028     0.0000     1.0000 </r>
       <r>   -22.5060     0.0213     1.0042 </r>
       <r>   -22.3092     3.7724     1.7465 </r>
       <r>   -22.1125     1.2986     2.0020 </r>
       <r>   -21.9157     5.5802     3.0999 </r>
       <r>   -21.7190     0.3857     3.1758 </r>
       <r>   -21.5222     7.1720     4.5870 </r>
       <r>   -21.3254     2.4352     5.0661 </r>
       <r>   -21.1287     2.6103     5.5797 </r>
       <r>   -20.9319     7.7314     7.1010 </r>
       <r>   -20.7352     0.6179     7.2226 </r>
       <r>   -20.5384     2.8536     7.7840 </r>
       <r>   -20.3416     6.7138     9.1050 </r>
       <r>   -20.1449     4.9264    10.0744 </r>
       <r>   -19.9481     1.8808    10.4444 </r>
       <r>   -19.7514     2.9432    11.0236 </r>
       <r>   -19.5546     3.9162    11.7941 </r>
       <r>   -19.3578     6.6933    13.1111 </r>
       <r>   -19.1611     4.6692    14.0298 </r>
       <r>   -18.9643     2.1073    14.4444 </r>
       <r>   -18.7675     0.1428    14.4725 </r>
       <r>   -18.5708     8.4948    16.1440 </r>
       <r>   -18.3740     5.3272    17.1922 </r>
       <r>   -18.1773     2.9762    17.7778 </r>
       <r>   -17.9805     5.4470    18.8495 </r>
       <r>   -17.7837     1.3294    19.1111 </r>
       <r>   -17.5870     0.9275    19.2936 </r>
       <r>   -17.3902    12.0372    21.6621 </r>
       <r>   -17.1935     3.8030    22.4103 </r>
       <r>   -16.9967     6.5165    23.6925 </r>
       <r>   -16.7999     0.4333    23.7778 </r>
       <r>   -16.6032     0.2641    23.8297 </r>
       <r>   -16.4064     5.4504    24.9022 </r>
       <r>   -16.2097     4.4501    25.7778 </r>
       <r>   -16.0129     2.3821    26.2465 </r>
       <r>   -15.8161     1.0068    26.4446 </r>
       <r>   -15.6194     3.4389    27.1212 </r>
       <r>   -15.4226     9.4965    28.9898 </r>
       <r>   -15.2259     2.8756    29.5556 </r>
       <r>   -15.0291     0.0213    29.5597 </r>
       <r>   -14.8323    12.4502    32.0095 </r>
       <r>   -14.6356     1.0817    32.2223 </r>
       <r>   -14.4388     5.6887    33.3416 </r>
       <r>   -14.2421     1.2003    33.5778 </r>
       <r>   -14.0453     3.7815    34.3218 </r>
       <r>   -13.8485     7.5518    35.8077 </r>
       <r>   -13.6518     2.1063    36.2222 </r>
       <r>   -13.4550     0.1316    36.2481 </r>
       <r>   -13.2582     6.3039    37.4884 </r>
       <r>   -13.0615     4.8442    38.4416 </r>
       <r>   -12.8647     3.5943    39.1488 </r>
       <r>   -12.6680     6.5840    40.4443 </r>
       <r>   -12.4712     1.4597    40.7315 </r>
       <r>   -12.2744     9.7043    42.6409 </r>
       <r>   -12.0777     2.3896    43.1111 </r>
       <r>   -11.8809     0.0766    43.1261 </r>
       <r>   -11.6842     4.4770    44.0070 </r>
       <r>   -11.4874    15.0683    46.9719 </r>
       <r>   -11.2906     0.7076    47.1111 </r>
       <r>   -11.0939     5.0697    48.1086 </r>
       <r>   -10.8971     1.7069    48.4445 </r>
       <r>   -10.7004     7.7219    49.9638 </r>
       <r>   -10.5036     6.4687    51.2366 </r>
       <r>   -10.3068    11.2070    53.4417 </r>
       <r>   -10.1101     7.2197    54.8623 </r>
       <r>    -9.9133     5.4009    55.9250 </r>
       <r>    -9.7166    13.7180    58.6241 </r>
       <r>    -9.5198    11.0691    60.8021 </r>
       <r>    -9.3230    10.2744    62.8237 </r>
       <r>    -9.1263    13.1995    65.4208 </r>
       <r>    -8.9295    17.7240    68.9082 </r>
       <r>    -8.7328     5.3980    69.9703 </r>
       <r>    -8.5360    10.9127    72.1175 </r>
       <r>    -8.3392     2.4422    72.5980 </r>
       <r>    -8.1425    15.9656    75.7395 </r>
       <r>    -7.9457    12.9889    78.2951 </r>
       <r>    -7.7490     4.7108    79.2220 </r>
       <r>    -7.5522     0.3408    79.2891 </r>
       <r>    -7.3554     8.4951    80.9606 </r>
       <r>    -7.1587    16.9459    84.2949 </r>
       <r>    -6.9619     3.6989    85.0227 </r>
       <r>    -6.7651     7.5913    86.5163 </r>
       <r>    -6.5684     3.6412    87.2328 </r>
       <r>    -6.3716     4.8277    88.1827 </r>
       <r>    -6.1749    10.4616    90.2411 </r>
       <r>    -5.9781     8.4998    91.9136 </r>
       <r>    -5.7813     4.4993    92.7988 </r>
       <r>    -5.5846     6.6686    94.1110 </r>
       <r>    -5.3878     2.4845    94.5998 </r>
       <r>    -5.1911     3.0041    95.1909 </r>
       <r>    -4.9943     8.9381    96.9496 </r>
       <r>    -4.7975     9.2906    98.7776 </r>
       <r>    -4.6008     0.0009    98.7778 </r>
       <r>    -4.4040     1.3678    99.0469 </r>
       <r>    -4.2073     1.9610    99.4328 </r>
       <r>    -4.0105     0.3388    99.4994 </r>
       <r>    -3.8137     6.4960   100.7776 </r>
       <r>    -3.6170     0.0009   100.7778 </r>
       <r>    -3.4202     0.0000   100.7778 </r>
       <r>    -3.2235     0.0000   100.7778 </r>
       <r>    -3.0267     0.0000   100.7778 </r>
       <r>    -2.8299     1.9557   101.1626 </r>
       <r>    -2.6332     0.3031   101.2222 </r>
       <r>    -2.4364     0.0000   101.2222 </r>
       <r>    -2.2397     0.0000   101.2222 </r>
       <r>    -2.0429     0.0000   101.2222 </r>
       <r>    -1.8461     3.6333   101.9371 </r>
       <r>    -1.6494     4.5814   102.8386 </r>
       <r>    -1.4526     1.6897   103.1710 </r>
       <r>    -1.2559     6.4734   104.4448 </r>
       <r>    -1.0591     8.1685   106.0520 </r>
       <r>    -0.8623     4.2663   106.8914 </r>
       <r>    -0.6656     8.0004   108.4656 </r>
       <r>    -0.4688     5.8619   109.6190 </r>
       <r>    -0.2720     3.0658   110.2222 </r>
       <r>    -0.0753     0.3210   110.2854 </r>
       <r>     0.1215     3.1855   110.9122 </r>
       <r>     0.3182     6.0167   112.0960 </r>
       <r>     0.5150     7.3697   113.5461 </r>
       <r>     0.7118     9.6023   115.4354 </r>
       <r>     0.9085     5.3121   116.4807 </r>
       <r>     1.1053     8.7722   118.2067 </r>
       <r>     1.3020    11.4890   120.4673 </r>
       <r>     1.4988    11.7475   122.7787 </r>
       <r>     1.6956    12.9768   125.3320 </r>
       <r>     1.8923    21.8439   129.6301 </r>
       <r>     2.0891    10.3235   131.6613 </r>
       <r>     2.2858     1.7213   132.0000 </r>
       <r>     2.4826     0.0000   132.0000 </r>
       <r>     2.6794     0.0000   132.0000 </r>
       <r>     2.8761     0.0000   132.0000 </r>
       <r>     3.0729     0.0000   132.0000 </r>
       <r>     3.2696     0.0000   132.0000 </r>
       <r>     3.4664     0.0000   132.0000 </r>
       <r>     3.6632     0.0000   132.0000 </r>
       <r>     3.8599     0.0000   132.0000 </r>
       <r>     4.0567     0.0000   132.0000 </r>
       <r>     4.2534     0.0000   132.0000 </r>
       <r>     4.4502     0.0000   132.0000 </r>
       <r>     4.6470     0.0000   132.0000 </r>
       <r>     4.8437     0.0000   132.0000 </r>
      </set>
     </set>
    </array>
   </total>
  </dos>
 </calculation>
 <structure name="finalpos" >
  <crystal>
   <varray name="basis" >
    <v>      12.30000000       0.00000000       0.00000000 </v>
    <v>      -6.15000000      10.65211247       0.00000000 </v>
    <v>       0.00000000       0.00000000      30.00000000 </v>
   </varray>
   <i name="volume">   3930.62950016 </i>
   <varray name="rec_basis" >
    <v>       0.08130081       0.04693905       0.00000000 </v>
    <v>       0.00000000       0.09387809       0.00000000 </v>
    <v>       0.00000000       0.00000000       0.03333333 </v>
   </varray>
  </crystal>
  <varray name="positions" >
   <v>       0.99988345       0.99976655       0.50070365 </v>
   <v>       0.13313835       0.06628113       0.50076414 </v>
   <v>       0.99986462       0.19951048       0.50066204 </v>
   <v>       0.13305819       0.26611600       0.50076947 </v>
   <v>       0.99990120       0.39942212       0.49998752 </v>
   <v>       0.13338012       0.46632027       0.50055545 </v>
   <v>       0.00048883       0.59983601       0.49930029 </v>
   <v>       0.13338223       0.66639362       0.50027805 </v>
   <v>       0.00013167       0.80005692       0.50007430 </v>
   <v>       0.13342895       0.86639370       0.50062777 </v>
   <v>       0.19988452       0.99968809       0.50070413 </v>
   <v>       0.53269490       0.26567077       0.49881187 </v>
   <v>       0.39952012       0.39942278       0.49998743 </v>
   <v>       0.33300586       0.26609951       0.50014356 </v>
   <v>       0.19981037       0.39962309       0.50075225 </v>
   <v>       0.33294004       0.46632029       0.50055536 </v>
   <v>       0.19997977       0.59953607       0.50060301 </v>
   <v>       0.33310144       0.66620258       0.50078017 </v>
   <v>       0.19991176       0.79974914       0.50056953 </v>
   <v>       0.33323385       0.86627322       0.50060775 </v>
   <v>       0.39973654       0.99953012       0.50025629 </v>
   <v>       0.53301150       0.06602273       0.49980551 </v>
   <v>       0.39946049       0.19938192       0.49980423 </v>
   <v>       0.33298763       0.06605684       0.50031679 </v>
   <v>       0.19964609       0.19951040       0.50066207 </v>
   <v>       0.53246359       0.46605661       0.49899750 </v>
   <v>       0.59983768       0.79974909       0.50056930 </v>
   <v>       0.53301162       0.66639344       0.50027784 </v>
   <v>       0.39984966       0.79969901       0.50068206 </v>
   <v>       0.53303957       0.86627318       0.50060762 </v>
   <v>       0.59979394       0.99953014       0.50025619 </v>
   <v>       0.73306943       0.06605683       0.50031666 </v>
   <v>       0.59959923       0.19919799       0.49887261 </v>
   <v>       0.73297608       0.26567075       0.49881183 </v>
   <v>       0.59905631       0.39903661       0.49790284 </v>
   <v>       0.73285164       0.46570284       0.49584713 </v>
   <v>       0.59934769       0.59983616       0.49930013 </v>
   <v>       0.93325060       0.86650095       0.50020757 </v>
   <v>       0.39955622       0.59953654       0.50060288 </v>
   <v>       0.73296500       0.86639367       0.50062756 </v>
   <v>       0.79980395       0.99968811       0.50070396 </v>
   <v>       0.93314298       0.06628108       0.50076405 </v>
   <v>       0.79992187       0.19938193       0.49980417 </v>
   <v>       0.93309373       0.26609919       0.50014357 </v>
   <v>       0.79998080       0.39903666       0.49790285 </v>
   <v>       0.93359301       0.46605671       0.49899760 </v>
   <v>       0.80010598       0.60021136       0.49686686 </v>
   <v>       0.93384667       0.66677439       0.49886028 </v>
   <v>       0.79992566       0.80005696       0.50007418 </v>
   <v>       0.73292796       0.66677434       0.49886021 </v>
   <v>       0.93384667       0.66677439       0.55656547 </v>
  </varray>
 </structure>
</modeling>
