C  Li
 1.0000000000000000
    12.3000000000000007    0.0000000000000000    0.0000000000000000
    -6.1500000000000004   10.6521124665485960    0.0000000000000000
     0.0000000000000000    0.0000000000000000   30.0000000000000000
 C   Li 
  50   1
Direct
 -0.0001165510913240 -0.0002334457474867  0.5007036495621733
  0.1331383454803802  0.0662811281074840  0.5007641412798511
 -0.0001353763323810  0.1995104798375569  0.5006620432347545
  0.1330581924329945  0.2661159963495827  0.5007694696635504
 -0.0000988001621057  0.3994221195278307  0.4999875198788687
  0.1333801159561273  0.4663202723522373  0.5005554496148256
  0.0004888299171175  0.5998360090275165  0.4993002861077815
  0.1333822311966589  0.6663936202050410  0.5002780497753775
  0.0001316702734126  0.8000569247759290  0.5000742985788018
  0.1334289543134212  0.8663937028199432  0.5006277686552011
  0.1998845243523222 -0.0003119067168810  0.5007041297635920
  0.5326948968086136  0.2656707728979255  0.4988118657005294
  0.3995201237276162  0.3994227794123957  0.4999874255912799
  0.3330058633958470  0.2660995071405828  0.5001435595123919
  0.1998103736158769  0.3996230911016778  0.5007522451602368
  0.3329400447797933  0.4663202935066834  0.5005553591453952
  0.1999797711342342  0.5995360734901878  0.5006030117586052
  0.3331014366342249  0.6662025811540527  0.5007801669167997
  0.1999117607380805  0.7997491391966211  0.5005695280009830
  0.3332338481412008  0.8662732199259270  0.5006077541119893
  0.3997365359876614 -0.0004698839343647  0.5002562898112035
  0.5330114958858473  0.0660227307230431  0.4998055067891352
  0.3994604944978740  0.1993819186434954  0.4998042270156406
  0.3329876325311484  0.0660568366408873  0.5003167918915090
  0.1996460910358473  0.1995104023232204  0.5006620660049066
  0.5324635857173471  0.4660566057207432  0.4989975003464903
  0.5998376792333063  0.7997490900900668  0.5005693036443239
  0.5330116159055612  0.6663934448339551  0.5002778352193138
  0.3998496597040280  0.7996990068279947  0.5006820615719740
  0.5330395699764667  0.8662731829677580  0.5006076193837331
  0.5997939412388801 -0.0004698575185445  0.5002561879396140
  0.7330694330433185  0.0660568253620638  0.5003166561651792
  0.5995992304864075  0.1991979944511512  0.4988726075740564
  0.7329760833231845  0.2656707464182125  0.4988118346168177
  0.5990563067872882  0.3990366143755341  0.4979028445330655
  0.7328516361302962  0.4657028362976232  0.4958471307199068
  0.5993476850929993  0.5998361556452865  0.4993001316260022
  0.9332505981203605  0.8665009500277818  0.5002075674615645
  0.3995562238038503  0.5995365396536634  0.5006028797712998
  0.7329650047144538  0.8663936681079393  0.5006275609511138
  0.7998039470007707 -0.0003118878871380  0.5007039580568059
  0.9331429808830828  0.0662810778941332  0.5007640533589767
  0.7999218707749699  0.1993819341990485  0.4998041747951844
  0.9330937252158022  0.2660991852067201  0.5001435702417708
  0.7999807995088133  0.3990366639523041  0.4979028474270106
  0.9335930127515457  0.4660567073458406  0.4989975960144770
  0.8001059843131463  0.6002113614761673  0.4968668630442724
  0.9338466655895403  0.6667743889654728  0.4988602807050900
  0.7999256610564502  0.8000569581378436  0.5000741845320413
  0.7329279586265947  0.6667743385799145  0.4988602085872769
  0.5000000000000000  0.5000000000000000  0.5565654679029215
Cartesian
  0.0000000000000000  0.0000000000000000  0.0000000000000000
  0.0000000000000000  0.0000000000000000  0.0000000000000000
  0.0000000000000000  0.0000000000000000  0.0000000000000000
  0.0000000000000000  0.0000000000000000  0.0000000000000000
  0.0000000000000000  0.0000000000000000  0.0000000000000000
  0.0000000000000000  0.0000000000000000  0.0000000000000000
  0.0000000000000000  0.0000000000000000  0.0000000000000000
  0.0000000000000000  0.0000000000000000  0.0000000000000000
  0.0000000000000000  0.0000000000000000  0.0000000000000000
  0.0000000000000000  0.0000000000000000  0.0000000000000000
  0.0000000000000000  0.0000000000000000  0.0000000000000000
  0.0000000000000000  0.0000000000000000  0.0000000000000000
  0.0000000000000000  0.0000000000000000  0.0000000000000000
  0.0000000000000000  0.0000000000000000  0.0000000000000000
  0.0000000000000000  0.0000000000000000  0.0000000000000000
  0.0000000000000000  0.0000000000000000  0.0000000000000000
  0.0000000000000000  0.0000000000000000  0.0000000000000000
  0.0000000000000000  0.0000000000000000  0.0000000000000000
  0.0000000000000000  0.0000000000000000  0.0000000000000000
  0.0000000000000000  0.0000000000000000  0.0000000000000000
  0.0000000000000000  0.0000000000000000  0.0000000000000000
  0.0000000000000000  0.0000000000000000  0.0000000000000000
  0.0000000000000000  0.0000000000000000  0.0000000000000000
  0.0000000000000000  0.0000000000000000  0.0000000000000000
  0.0000000000000000  0.0000000000000000  0.0000000000000000
  0.0000000000000000  0.0000000000000000  0.0000000000000000
  0.0000000000000000  0.0000000000000000  0.0000000000000000
  0.0000000000000000  0.0000000000000000  0.0000000000000000
  0.0000000000000000  0.0000000000000000  0.0000000000000000
  0.0000000000000000  0.0000000000000000  0.0000000000000000
  0.0000000000000000  0.0000000000000000  0.0000000000000000
  0.0000000000000000  0.0000000000000000  0.0000000000000000
  0.0000000000000000  0.0000000000000000  0.0000000000000000
  0.0000000000000000  0.0000000000000000  0.0000000000000000
  0.0000000000000000  0.0000000000000000  0.0000000000000000
  0.0000000000000000  0.0000000000000000  0.0000000000000000
  0.0000000000000000  0.0000000000000000  0.0000000000000000
  0.0000000000000000  0.0000000000000000  0.0000000000000000
  0.0000000000000000  0.0000000000000000  0.0000000000000000
  0.0000000000000000  0.0000000000000000  0.0000000000000000
  0.0000000000000000  0.0000000000000000  0.0000000000000000
  0.0000000000000000  0.0000000000000000  0.0000000000000000
  0.0000000000000000  0.0000000000000000  0.0000000000000000
  0.0000000000000000  0.0000000000000000  0.0000000000000000
  0.0000000000000000  0.0000000000000000  0.0000000000000000
  0.0000000000000000  0.0000000000000000  0.0000000000000000
  0.0000000000000000  0.0000000000000000  0.0000000000000000
  0.0000000000000000  0.0000000000000000  0.0000000000000000
  0.0000000000000000  0.0000000000000000  0.0000000000000000
  0.0000000000000000  0.0000000000000000  0.0000000000000000
  0.0000000000000000  0.0000000000000000  0.0000000000000000
