C  Li
 1.0000000000000000
    12.3000000000000007    0.0000000000000000    0.0000000000000000
    -6.1500000000000004   10.6521124665485960    0.0000000000000000
     0.0000000000000000    0.0000000000000000   30.0000000000000000
 C   Li 
  49   1
Direct
  0.0024167526589431  0.0048344793157609  0.4995596880785722
  0.0004780787191537  0.2035436868433027  0.4970848987478698
  0.1346360871304356  0.2692707416803199  0.4972190477541196
  0.9925199738261875  0.4019865840056889  0.4983580768667739
  0.1296013490853586  0.4671009746188968  0.4984624246074346
  0.9954065625979295  0.6014012334636103  0.5049458296184626
  0.1293183739549854  0.6653985774124707  0.5011658886684077
  0.0021970113265946  0.8053658626888224  0.5045039881514816
  0.1344548447182607  0.8690939096522263  0.5003433666689896
  0.2014247186480632  0.0022019920746622  0.4980988333586324
  0.9362916681565440  0.8725830464888779  0.5034919403127224
  0.3344201967814113  0.0667462109302971  0.4969970399985709
  0.3378022895419530  0.2689101202947087  0.4971561147055335
  0.2009423019619315  0.4018847945709695  0.4978482435712938
  0.3374995728609353  0.4671011643670628  0.4984627534534202
  0.1977770224886819  0.5996237030252015  0.4988843884735047
  0.3325080877972321  0.6650167065641158  0.4983736572628514
  0.1980817118524718  0.7991904309827000  0.5002098475521667
  0.3312469517588292  0.8639884658712504  0.4981578033907704
  0.3977156060153610  0.9966849290729699  0.4968587030099286
  0.5306414667473470  0.0612831171902188  0.4959915327373299
  0.4023734793664357  0.2003822652025649  0.4969135715785025
  0.1359444988805456  0.0704556224247748  0.4980164894983155
  0.5362554499247265  0.2642268242661509  0.4967304850245710
  0.4094657246391627  0.4019859596517668  0.4983585497095696
  0.5488390480580144  0.4679344868318147  0.5003463849830426
  0.5360794773024178  0.6653989289986981  0.5011664980198447
  0.3988849168039339  0.7977691370126518  0.4981613658326165
  0.5327407465404960  0.8639881514190890  0.4981584923854402
  0.5989697242842213  0.9966849173766059  0.4968589630449812
  0.7323258719854836  0.0667468779767076  0.4969977295269817
  0.5958592775223022  0.1917192135002376  0.4957179133309119
  0.7279705067347939  0.2642271883178594  0.4967313664455499
  0.6160598910372935  0.3951243647682529  0.4982619521204107
  0.6059939820877253  0.6014020713257823  0.5049464586465485
  0.7389847612682909  0.6734873142665879  0.5114161469408360
  0.2030655798491739  0.2035436362894620  0.4970847542559325
  0.6011086621779648  0.7991900236796635  0.5002103457564728
  0.8007777438828203  0.0022015288370962  0.4980985750133028
  0.9345120232451588  0.0704556411293576  0.4980159796933771
  0.7980090076438173  0.2003819904206385  0.4969138931623956
  0.9311080445250585  0.2689108790877747  0.4971550701417879
  0.7790660058772575  0.3951244497940726  0.4982616927048026
  0.9190950897728658  0.4679345456026913  0.5003455727278382
  0.8078333329720274  0.6156662694303219  0.5240962920695778
  0.9345027949711909  0.6734874144137343  0.5114155822598473
  0.8031686917987184  0.8053649288103714  0.5045043681384855
  0.4018455679324420  0.5996238102397218  0.4988847881418427
  0.7346392244385563  0.8690929056947884  0.5003427291801157
  0.7074220475876757  0.4148422455596570  0.5565908723263144
Cartesian
  0.0000000000000000  0.0000000000000000  0.0000000000000000
  0.0000000000000000  0.0000000000000000  0.0000000000000000
  0.0000000000000000  0.0000000000000000  0.0000000000000000
  0.0000000000000000  0.0000000000000000  0.0000000000000000
  0.0000000000000000  0.0000000000000000  0.0000000000000000
  0.0000000000000000  0.0000000000000000  0.0000000000000000
  0.0000000000000000  0.0000000000000000  0.0000000000000000
  0.0000000000000000  0.0000000000000000  0.0000000000000000
  0.0000000000000000  0.0000000000000000  0.0000000000000000
  0.0000000000000000  0.0000000000000000  0.0000000000000000
  0.0000000000000000  0.0000000000000000  0.0000000000000000
  0.0000000000000000  0.0000000000000000  0.0000000000000000
  0.0000000000000000  0.0000000000000000  0.0000000000000000
  0.0000000000000000  0.0000000000000000  0.0000000000000000
  0.0000000000000000  0.0000000000000000  0.0000000000000000
  0.0000000000000000  0.0000000000000000  0.0000000000000000
  0.0000000000000000  0.0000000000000000  0.0000000000000000
  0.0000000000000000  0.0000000000000000  0.0000000000000000
  0.0000000000000000  0.0000000000000000  0.0000000000000000
  0.0000000000000000  0.0000000000000000  0.0000000000000000
  0.0000000000000000  0.0000000000000000  0.0000000000000000
  0.0000000000000000  0.0000000000000000  0.0000000000000000
  0.0000000000000000  0.0000000000000000  0.0000000000000000
  0.0000000000000000  0.0000000000000000  0.0000000000000000
  0.0000000000000000  0.0000000000000000  0.0000000000000000
  0.0000000000000000  0.0000000000000000  0.0000000000000000
  0.0000000000000000  0.0000000000000000  0.0000000000000000
  0.0000000000000000  0.0000000000000000  0.0000000000000000
  0.0000000000000000  0.0000000000000000  0.0000000000000000
  0.0000000000000000  0.0000000000000000  0.0000000000000000
  0.0000000000000000  0.0000000000000000  0.0000000000000000
  0.0000000000000000  0.0000000000000000  0.0000000000000000
  0.0000000000000000  0.0000000000000000  0.0000000000000000
  0.0000000000000000  0.0000000000000000  0.0000000000000000
  0.0000000000000000  0.0000000000000000  0.0000000000000000
  0.0000000000000000  0.0000000000000000  0.0000000000000000
  0.0000000000000000  0.0000000000000000  0.0000000000000000
  0.0000000000000000  0.0000000000000000  0.0000000000000000
  0.0000000000000000  0.0000000000000000  0.0000000000000000
  0.0000000000000000  0.0000000000000000  0.0000000000000000
  0.0000000000000000  0.0000000000000000  0.0000000000000000
  0.0000000000000000  0.0000000000000000  0.0000000000000000
  0.0000000000000000  0.0000000000000000  0.0000000000000000
  0.0000000000000000  0.0000000000000000  0.0000000000000000
  0.0000000000000000  0.0000000000000000  0.0000000000000000
  0.0000000000000000  0.0000000000000000  0.0000000000000000
  0.0000000000000000  0.0000000000000000  0.0000000000000000
  0.0000000000000000  0.0000000000000000  0.0000000000000000
  0.0000000000000000  0.0000000000000000  0.0000000000000000
  0.0000000000000000  0.0000000000000000  0.0000000000000000
