C  Li Si
 1.0000000000000000
    12.3000000000000007    0.0000000000000000    0.0000000000000000
    -6.1500000000000004   10.6521124665485960    0.0000000000000000
     0.0000000000000000    0.0000000000000000   30.0000000000000000
 C   Li  Si 
  50   1   4
Direct
  0.0034507398083515  0.9998638304416778  0.4960966963621030
  0.0034846023732112  0.1997033362842991  0.4966417833952436
  0.1368295411878238  0.2664159263671585  0.4966247507759657
  0.0036960260216998  0.3995138454131055  0.4973234835268152
  0.1369470788841288  0.4664255184917112  0.4970858352177240
  0.0038378811552111  0.6000553179080332  0.4971117856005422
  0.1372887979074422  0.6667322521424195  0.4971424656207231
  0.0037389780466070  0.8003799250878487  0.4962385670402457
  0.1369336119638531  0.8666348644094073  0.4963763291511001
  0.4033259012155733  0.3997186007712217  0.4959063494586876
  0.3367905751896212  0.0664316811012202  0.4960149366688095
  0.5366162386664947  0.2662915177365901  0.4957040955473531
  0.2035035162162713  0.9998807845925383  0.4961542231486356
  0.2035313244428569  0.3997294444790072  0.4967226700591569
  0.3368005854030631  0.4664887564739263  0.4962949205974864
  0.2036264747014438  0.5998174512741311  0.4969918239901306
  0.3368652207858502  0.6665008675254107  0.4965684443850260
  0.2036173258980200  0.7999458952917324  0.4966832847453228
  0.3368638323044221  0.8665263488463155  0.4964412292659026
  0.4034645592460789  0.9998163438923218  0.4961474361166220
  0.5367371425678159  0.0663608268346021  0.4961402978625175
  0.4033523554806069  0.1996918403594171  0.4958262964322734
  0.2034684712940648  0.1997601500969307  0.4963081653592513
  0.3367759388457068  0.2664216039348747  0.4960063571968639
  0.5367138144506914  0.6665057321466381  0.4957772604799717
  0.1367677756231849  0.0664413990593544  0.4962032412826374
  0.7367522083343553  0.8665623942304109  0.4957908951795292
  0.4034531891421766  0.7998118893684470  0.4964114619232629
  0.5367703089914917  0.8664347912580417  0.4961392687084707
  0.6034376192769429  0.9997447410305805  0.4962175795881507
  0.7367453393317328  0.0663582650189018  0.4963486635007155
  0.6032996444599257  0.1996076994377891  0.4960717800644575
  0.7364771806113931  0.2658854691008318  0.4965874633636130
  0.6028572065199871  0.3994776357698187  0.4955438694255696
  0.7362987502729718  0.4662245282520344  0.4957169133493278
  0.6032484516599756  0.5997861676028373  0.4955255247025802
  0.5365784944991645  0.4663943245000350  0.4955334330922597
  0.4034428335164369  0.5997904485393175  0.4962048323889732
  0.7364447735607251  0.6667456906522283  0.4955530698740737
  0.8034694832138134  0.9998307335442118  0.4961159119765038
  0.9367530159303946  0.0664338726208587  0.4962633426374752
  0.8033893340692674  0.1995859190042838  0.4967021753383569
  0.9367870343006488  0.2662826641343935  0.4969383043705882
  0.8031571655704265  0.3993013539848694  0.4965781993124178
  0.9369523401496833  0.4662495006675808  0.4972590723416628
  0.8031567258712351  0.6000213839845432  0.4956984609125004
  0.9369837141104230  0.6669622827020636  0.4963520741511979
  0.8033882559548813  0.7999565702476678  0.4956550642683580
  0.9367899190640111  0.8666121092721535  0.4958935349276893
  0.6034519702421401  0.7998284985442062  0.4958619230047677
  0.8143182279780559  0.5888787244820451  0.5529365776204589
  0.5203352544398702  0.4049696550678999  0.6761313925235557
  0.7114125925071676  0.5897324513817992  0.6889839738062474
  0.6867295849662758  0.4615556738300505  0.6273180042896178
  0.8764609342384965  0.6479822892938794  0.6408227808378159
Cartesian
  0.0000000000000000  0.0000000000000000  0.0000000000000000
  0.0000000000000000  0.0000000000000000  0.0000000000000000
  0.0000000000000000  0.0000000000000000  0.0000000000000000
  0.0000000000000000  0.0000000000000000  0.0000000000000000
  0.0000000000000000  0.0000000000000000  0.0000000000000000
  0.0000000000000000  0.0000000000000000  0.0000000000000000
  0.0000000000000000  0.0000000000000000  0.0000000000000000
  0.0000000000000000  0.0000000000000000  0.0000000000000000
  0.0000000000000000  0.0000000000000000  0.0000000000000000
  0.0000000000000000  0.0000000000000000  0.0000000000000000
  0.0000000000000000  0.0000000000000000  0.0000000000000000
  0.0000000000000000  0.0000000000000000  0.0000000000000000
  0.0000000000000000  0.0000000000000000  0.0000000000000000
  0.0000000000000000  0.0000000000000000  0.0000000000000000
  0.0000000000000000  0.0000000000000000  0.0000000000000000
  0.0000000000000000  0.0000000000000000  0.0000000000000000
  0.0000000000000000  0.0000000000000000  0.0000000000000000
  0.0000000000000000  0.0000000000000000  0.0000000000000000
  0.0000000000000000  0.0000000000000000  0.0000000000000000
  0.0000000000000000  0.0000000000000000  0.0000000000000000
  0.0000000000000000  0.0000000000000000  0.0000000000000000
  0.0000000000000000  0.0000000000000000  0.0000000000000000
  0.0000000000000000  0.0000000000000000  0.0000000000000000
  0.0000000000000000  0.0000000000000000  0.0000000000000000
  0.0000000000000000  0.0000000000000000  0.0000000000000000
  0.0000000000000000  0.0000000000000000  0.0000000000000000
  0.0000000000000000  0.0000000000000000  0.0000000000000000
  0.0000000000000000  0.0000000000000000  0.0000000000000000
  0.0000000000000000  0.0000000000000000  0.0000000000000000
  0.0000000000000000  0.0000000000000000  0.0000000000000000
  0.0000000000000000  0.0000000000000000  0.0000000000000000
  0.0000000000000000  0.0000000000000000  0.0000000000000000
  0.0000000000000000  0.0000000000000000  0.0000000000000000
  0.0000000000000000  0.0000000000000000  0.0000000000000000
  0.0000000000000000  0.0000000000000000  0.0000000000000000
  0.0000000000000000  0.0000000000000000  0.0000000000000000
  0.0000000000000000  0.0000000000000000  0.0000000000000000
  0.0000000000000000  0.0000000000000000  0.0000000000000000
  0.0000000000000000  0.0000000000000000  0.0000000000000000
  0.0000000000000000  0.0000000000000000  0.0000000000000000
  0.0000000000000000  0.0000000000000000  0.0000000000000000
  0.0000000000000000  0.0000000000000000  0.0000000000000000
  0.0000000000000000  0.0000000000000000  0.0000000000000000
  0.0000000000000000  0.0000000000000000  0.0000000000000000
  0.0000000000000000  0.0000000000000000  0.0000000000000000
  0.0000000000000000  0.0000000000000000  0.0000000000000000
  0.0000000000000000  0.0000000000000000  0.0000000000000000
  0.0000000000000000  0.0000000000000000  0.0000000000000000
  0.0000000000000000  0.0000000000000000  0.0000000000000000
  0.0000000000000000  0.0000000000000000  0.0000000000000000
  0.0000000000000000  0.0000000000000000  0.0000000000000000
  0.0000000000000000  0.0000000000000000  0.0000000000000000
  0.0000000000000000  0.0000000000000000  0.0000000000000000
  0.0000000000000000  0.0000000000000000  0.0000000000000000
  0.0000000000000000  0.0000000000000000  0.0000000000000000
