  50  50   0   0
  0.7861259E+02  0.1230000E-08  0.1230000E-08  0.3000000E-08  0.5000000E-15
  1.000000000000000E-004
  CAR 
 Li defective graphene MACE training lab 
      4.64080211    -53.09863790  301     -2.89852428      1.00000000
    -53.099  0.0000E+00  0.0000E+00  0.0000E+00  0.0000E+00
    -52.906  0.0000E+00  0.0000E+00  0.0000E+00  0.0000E+00
    -52.714  0.0000E+00  0.0000E+00  0.0000E+00  0.0000E+00
    -52.521  0.0000E+00  0.0000E+00  0.0000E+00  0.0000E+00
    -52.329  0.0000E+00  0.0000E+00  0.0000E+00  0.0000E+00
    -52.136  0.0000E+00  0.0000E+00  0.0000E+00  0.0000E+00
    -51.944  0.0000E+00  0.0000E+00  0.0000E+00  0.0000E+00
    -51.751  0.0000E+00  0.0000E+00  0.0000E+00  0.0000E+00
    -51.559  0.0000E+00  0.0000E+00  0.0000E+00  0.0000E+00
    -51.366  0.0000E+00  0.0000E+00  0.0000E+00  0.0000E+00
    -51.174  0.0000E+00  0.0000E+00  0.0000E+00  0.0000E+00
    -50.982  0.0000E+00  0.0000E+00  0.0000E+00  0.0000E+00
    -50.789  0.0000E+00  0.0000E+00  0.0000E+00  0.0000E+00
    -50.597  0.1382E-02  0.8618E-03  0.2659E-03  0.1659E-03
    -50.404  0.5070E+01  0.5030E+01  0.9761E+00  0.9682E+00
    -50.212  0.1241E+00  0.1654E+00  0.1000E+01  0.1000E+01
    -50.019  0.0000E+00  0.0000E+00  0.1000E+01  0.1000E+01
    -49.827  0.0000E+00  0.0000E+00  0.1000E+01  0.1000E+01
    -49.634  0.0000E+00  0.0000E+00  0.1000E+01  0.1000E+01
    -49.442  0.0000E+00  0.0000E+00  0.1000E+01  0.1000E+01
    -49.249  0.0000E+00  0.0000E+00  0.1000E+01  0.1000E+01
    -49.057  0.0000E+00  0.0000E+00  0.1000E+01  0.1000E+01
    -48.864  0.0000E+00  0.0000E+00  0.1000E+01  0.1000E+01
    -48.672  0.0000E+00  0.0000E+00  0.1000E+01  0.1000E+01
    -48.479  0.0000E+00  0.0000E+00  0.1000E+01  0.1000E+01
    -48.287  0.0000E+00  0.0000E+00  0.1000E+01  0.1000E+01
    -48.095  0.0000E+00  0.0000E+00  0.1000E+01  0.1000E+01
    -47.902  0.0000E+00  0.0000E+00  0.1000E+01  0.1000E+01
    -47.710  0.0000E+00  0.0000E+00  0.1000E+01  0.1000E+01
    -47.517  0.0000E+00  0.0000E+00  0.1000E+01  0.1000E+01
    -47.325  0.0000E+00  0.0000E+00  0.1000E+01  0.1000E+01
    -47.132  0.0000E+00  0.0000E+00  0.1000E+01  0.1000E+01
    -46.940  0.0000E+00  0.0000E+00  0.1000E+01  0.1000E+01
    -46.747  0.0000E+00  0.0000E+00  0.1000E+01  0.1000E+01
    -46.555  0.0000E+00  0.0000E+00  0.1000E+01  0.1000E+01
    -46.362  0.0000E+00  0.0000E+00  0.1000E+01  0.1000E+01
    -46.170  0.0000E+00  0.0000E+00  0.1000E+01  0.1000E+01
    -45.977  0.0000E+00  0.0000E+00  0.1000E+01  0.1000E+01
    -45.785  0.0000E+00  0.0000E+00  0.1000E+01  0.1000E+01
    -45.593  0.0000E+00  0.0000E+00  0.1000E+01  0.1000E+01
    -45.400  0.0000E+00  0.0000E+00  0.1000E+01  0.1000E+01
    -45.208  0.0000E+00  0.0000E+00  0.1000E+01  0.1000E+01
    -45.015  0.0000E+00  0.0000E+00  0.1000E+01  0.1000E+01
    -44.823  0.0000E+00  0.0000E+00  0.1000E+01  0.1000E+01
    -44.630  0.0000E+00  0.0000E+00  0.1000E+01  0.1000E+01
    -44.438  0.0000E+00  0.0000E+00  0.1000E+01  0.1000E+01
    -44.245  0.0000E+00  0.0000E+00  0.1000E+01  0.1000E+01
    -44.053  0.0000E+00  0.0000E+00  0.1000E+01  0.1000E+01
    -43.860  0.0000E+00  0.0000E+00  0.1000E+01  0.1000E+01
    -43.668  0.0000E+00  0.0000E+00  0.1000E+01  0.1000E+01
    -43.475  0.0000E+00  0.0000E+00  0.1000E+01  0.1000E+01
    -43.283  0.0000E+00  0.0000E+00  0.1000E+01  0.1000E+01
    -43.090  0.0000E+00  0.0000E+00  0.1000E+01  0.1000E+01
    -42.898  0.0000E+00  0.0000E+00  0.1000E+01  0.1000E+01
    -42.706  0.0000E+00  0.0000E+00  0.1000E+01  0.1000E+01
    -42.513  0.0000E+00  0.0000E+00  0.1000E+01  0.1000E+01
    -42.321  0.0000E+00  0.0000E+00  0.1000E+01  0.1000E+01
    -42.128  0.0000E+00  0.0000E+00  0.1000E+01  0.1000E+01
    -41.936  0.0000E+00  0.0000E+00  0.1000E+01  0.1000E+01
    -41.743  0.0000E+00  0.0000E+00  0.1000E+01  0.1000E+01
    -41.551  0.0000E+00  0.0000E+00  0.1000E+01  0.1000E+01
    -41.358  0.0000E+00  0.0000E+00  0.1000E+01  0.1000E+01
    -41.166  0.0000E+00  0.0000E+00  0.1000E+01  0.1000E+01
    -40.973  0.0000E+00  0.0000E+00  0.1000E+01  0.1000E+01
    -40.781  0.0000E+00  0.0000E+00  0.1000E+01  0.1000E+01
    -40.588  0.0000E+00  0.0000E+00  0.1000E+01  0.1000E+01
    -40.396  0.0000E+00  0.0000E+00  0.1000E+01  0.1000E+01
    -40.203  0.0000E+00  0.0000E+00  0.1000E+01  0.1000E+01
    -40.011  0.0000E+00  0.0000E+00  0.1000E+01  0.1000E+01
    -39.819  0.0000E+00  0.0000E+00  0.1000E+01  0.1000E+01
    -39.626  0.0000E+00  0.0000E+00  0.1000E+01  0.1000E+01
    -39.434  0.0000E+00  0.0000E+00  0.1000E+01  0.1000E+01
    -39.241  0.0000E+00  0.0000E+00  0.1000E+01  0.1000E+01
    -39.049  0.0000E+00  0.0000E+00  0.1000E+01  0.1000E+01
    -38.856  0.0000E+00  0.0000E+00  0.1000E+01  0.1000E+01
    -38.664  0.0000E+00  0.0000E+00  0.1000E+01  0.1000E+01
    -38.471  0.0000E+00  0.0000E+00  0.1000E+01  0.1000E+01
    -38.279  0.0000E+00  0.0000E+00  0.1000E+01  0.1000E+01
    -38.086  0.0000E+00  0.0000E+00  0.1000E+01  0.1000E+01
    -37.894  0.0000E+00  0.0000E+00  0.1000E+01  0.1000E+01
    -37.701  0.0000E+00  0.0000E+00  0.1000E+01  0.1000E+01
    -37.509  0.0000E+00  0.0000E+00  0.1000E+01  0.1000E+01
    -37.317  0.0000E+00  0.0000E+00  0.1000E+01  0.1000E+01
    -37.124  0.0000E+00  0.0000E+00  0.1000E+01  0.1000E+01
    -36.932  0.0000E+00  0.0000E+00  0.1000E+01  0.1000E+01
    -36.739  0.0000E+00  0.0000E+00  0.1000E+01  0.1000E+01
    -36.547  0.0000E+00  0.0000E+00  0.1000E+01  0.1000E+01
    -36.354  0.0000E+00  0.0000E+00  0.1000E+01  0.1000E+01
    -36.162  0.0000E+00  0.0000E+00  0.1000E+01  0.1000E+01
    -35.969  0.0000E+00  0.0000E+00  0.1000E+01  0.1000E+01
    -35.777  0.0000E+00  0.0000E+00  0.1000E+01  0.1000E+01
    -35.584  0.0000E+00  0.0000E+00  0.1000E+01  0.1000E+01
    -35.392  0.0000E+00  0.0000E+00  0.1000E+01  0.1000E+01
    -35.199  0.0000E+00  0.0000E+00  0.1000E+01  0.1000E+01
    -35.007  0.0000E+00  0.0000E+00  0.1000E+01  0.1000E+01
    -34.814  0.0000E+00  0.0000E+00  0.1000E+01  0.1000E+01
    -34.622  0.0000E+00  0.0000E+00  0.1000E+01  0.1000E+01
    -34.430  0.0000E+00  0.0000E+00  0.1000E+01  0.1000E+01
    -34.237  0.0000E+00  0.0000E+00  0.1000E+01  0.1000E+01
    -34.045  0.0000E+00  0.0000E+00  0.1000E+01  0.1000E+01
    -33.852  0.0000E+00  0.0000E+00  0.1000E+01  0.1000E+01
    -33.660  0.0000E+00  0.0000E+00  0.1000E+01  0.1000E+01
    -33.467  0.0000E+00  0.0000E+00  0.1000E+01  0.1000E+01
    -33.275  0.0000E+00  0.0000E+00  0.1000E+01  0.1000E+01
    -33.082  0.0000E+00  0.0000E+00  0.1000E+01  0.1000E+01
    -32.890  0.0000E+00  0.0000E+00  0.1000E+01  0.1000E+01
    -32.697  0.0000E+00  0.0000E+00  0.1000E+01  0.1000E+01
    -32.505  0.0000E+00  0.0000E+00  0.1000E+01  0.1000E+01
    -32.312  0.0000E+00  0.0000E+00  0.1000E+01  0.1000E+01
    -32.120  0.0000E+00  0.0000E+00  0.1000E+01  0.1000E+01
    -31.928  0.0000E+00  0.0000E+00  0.1000E+01  0.1000E+01
    -31.735  0.0000E+00  0.0000E+00  0.1000E+01  0.1000E+01
    -31.543  0.0000E+00  0.0000E+00  0.1000E+01  0.1000E+01
    -31.350  0.0000E+00  0.0000E+00  0.1000E+01  0.1000E+01
    -31.158  0.0000E+00  0.0000E+00  0.1000E+01  0.1000E+01
    -30.965  0.0000E+00  0.0000E+00  0.1000E+01  0.1000E+01
    -30.773  0.0000E+00  0.0000E+00  0.1000E+01  0.1000E+01
    -30.580  0.0000E+00  0.0000E+00  0.1000E+01  0.1000E+01
    -30.388  0.0000E+00  0.0000E+00  0.1000E+01  0.1000E+01
    -30.195  0.0000E+00  0.0000E+00  0.1000E+01  0.1000E+01
    -30.003  0.0000E+00  0.0000E+00  0.1000E+01  0.1000E+01
    -29.810  0.0000E+00  0.0000E+00  0.1000E+01  0.1000E+01
    -29.618  0.0000E+00  0.0000E+00  0.1000E+01  0.1000E+01
    -29.425  0.0000E+00  0.0000E+00  0.1000E+01  0.1000E+01
    -29.233  0.0000E+00  0.0000E+00  0.1000E+01  0.1000E+01
    -29.041  0.0000E+00  0.0000E+00  0.1000E+01  0.1000E+01
    -28.848  0.0000E+00  0.0000E+00  0.1000E+01  0.1000E+01
    -28.656  0.0000E+00  0.0000E+00  0.1000E+01  0.1000E+01
    -28.463  0.0000E+00  0.0000E+00  0.1000E+01  0.1000E+01
    -28.271  0.0000E+00  0.0000E+00  0.1000E+01  0.1000E+01
    -28.078  0.0000E+00  0.0000E+00  0.1000E+01  0.1000E+01
    -27.886  0.0000E+00  0.0000E+00  0.1000E+01  0.1000E+01
    -27.693  0.0000E+00  0.0000E+00  0.1000E+01  0.1000E+01
    -27.501  0.0000E+00  0.0000E+00  0.1000E+01  0.1000E+01
    -27.308  0.0000E+00  0.0000E+00  0.1000E+01  0.1000E+01
    -27.116  0.0000E+00  0.0000E+00  0.1000E+01  0.1000E+01
    -26.923  0.0000E+00  0.0000E+00  0.1000E+01  0.1000E+01
    -26.731  0.0000E+00  0.0000E+00  0.1000E+01  0.1000E+01
    -26.538  0.0000E+00  0.0000E+00  0.1000E+01  0.1000E+01
    -26.346  0.0000E+00  0.0000E+00  0.1000E+01  0.1000E+01
    -26.154  0.0000E+00  0.0000E+00  0.1000E+01  0.1000E+01
    -25.961  0.0000E+00  0.0000E+00  0.1000E+01  0.1000E+01
    -25.769  0.0000E+00  0.0000E+00  0.1000E+01  0.1000E+01
    -25.576  0.0000E+00  0.0000E+00  0.1000E+01  0.1000E+01
    -25.384  0.0000E+00  0.0000E+00  0.1000E+01  0.1000E+01
    -25.191  0.0000E+00  0.0000E+00  0.1000E+01  0.1000E+01
    -24.999  0.0000E+00  0.0000E+00  0.1000E+01  0.1000E+01
    -24.806  0.0000E+00  0.0000E+00  0.1000E+01  0.1000E+01
    -24.614  0.0000E+00  0.0000E+00  0.1000E+01  0.1000E+01
    -24.421  0.0000E+00  0.0000E+00  0.1000E+01  0.1000E+01
    -24.229  0.0000E+00  0.0000E+00  0.1000E+01  0.1000E+01
    -24.036  0.0000E+00  0.0000E+00  0.1000E+01  0.1000E+01
    -23.844  0.0000E+00  0.0000E+00  0.1000E+01  0.1000E+01
    -23.652  0.0000E+00  0.0000E+00  0.1000E+01  0.1000E+01
    -23.459  0.0000E+00  0.0000E+00  0.1000E+01  0.1000E+01
    -23.267  0.0000E+00  0.0000E+00  0.1000E+01  0.1000E+01
    -23.074  0.0000E+00  0.0000E+00  0.1000E+01  0.1000E+01
    -22.882  0.0000E+00  0.0000E+00  0.1000E+01  0.1000E+01
    -22.689  0.1003E-10  0.5564E-12  0.1000E+01  0.1000E+01
    -22.497  0.6920E-01  0.3204E-01  0.1013E+01  0.1006E+01
    -22.304  0.3962E+01  0.3744E+01  0.1776E+01  0.1727E+01
    -22.112  0.2211E+01  0.2240E+01  0.2201E+01  0.2158E+01
    -21.919  0.4571E+01  0.4529E+01  0.3081E+01  0.3030E+01
    -21.727  0.3249E+01  0.2632E+01  0.3706E+01  0.3536E+01
    -21.534  0.4985E+01  0.5290E+01  0.4666E+01  0.4554E+01
    -21.342  0.1753E+01  0.2253E+01  0.5003E+01  0.4988E+01
    -21.149  0.3614E+01  0.3165E+01  0.5699E+01  0.5597E+01
    -20.957  0.6817E+01  0.6847E+01  0.7011E+01  0.6915E+01
    -20.765  0.9755E+00  0.1127E+01  0.7199E+01  0.7132E+01
    -20.572  0.3223E+01  0.3445E+01  0.7819E+01  0.7795E+01
    -20.380  0.4359E+01  0.3971E+01  0.8658E+01  0.8559E+01
    -20.187  0.6949E+01  0.7122E+01  0.9995E+01  0.9930E+01
    -19.995  0.1179E+01  0.1519E+01  0.1022E+02  0.1022E+02
    -19.802  0.2273E+01  0.1388E+01  0.1066E+02  0.1049E+02
    -19.610  0.4947E+01  0.5449E+01  0.1161E+02  0.1154E+02
    -19.417  0.6481E+01  0.6561E+01  0.1286E+02  0.1280E+02
    -19.225  0.3314E+01  0.2723E+01  0.1350E+02  0.1332E+02
    -19.032  0.2837E+01  0.3506E+01  0.1404E+02  0.1400E+02
    -18.840  0.2671E+01  0.2666E+01  0.1456E+02  0.1451E+02
    -18.647  0.4417E+01  0.4073E+01  0.1541E+02  0.1530E+02
    -18.455  0.7299E+01  0.6957E+01  0.1681E+02  0.1664E+02
    -18.263  0.3286E+01  0.4140E+01  0.1744E+02  0.1743E+02
    -18.070  0.2474E+01  0.1305E+01  0.1792E+02  0.1768E+02
    -17.878  0.5359E+01  0.5793E+01  0.1895E+02  0.1880E+02
    -17.685  0.1001E+01  0.1720E+01  0.1914E+02  0.1913E+02
    -17.493  0.7046E+01  0.6594E+01  0.2050E+02  0.2040E+02
    -17.300  0.7164E+01  0.7237E+01  0.2188E+02  0.2179E+02
    -17.108  0.4100E+01  0.4484E+01  0.2267E+02  0.2265E+02
    -16.915  0.1355E+01  0.1226E+01  0.2293E+02  0.2289E+02
    -16.723  0.3325E+01  0.3469E+01  0.2357E+02  0.2356E+02
    -16.530  0.3286E+01  0.2497E+01  0.2420E+02  0.2404E+02
    -16.338  0.4065E+01  0.4618E+01  0.2498E+02  0.2493E+02
    -16.145  0.1600E+01  0.7084E+00  0.2529E+02  0.2506E+02
    -15.953  0.3989E+01  0.5030E+01  0.2606E+02  0.2603E+02
    -15.760  0.2001E+01  0.2131E+01  0.2644E+02  0.2644E+02
    -15.568  0.4989E+01  0.4725E+01  0.2741E+02  0.2735E+02
    -15.376  0.7003E+01  0.5757E+01  0.2875E+02  0.2846E+02
    -15.183  0.2441E+01  0.3964E+01  0.2922E+02  0.2922E+02
    -14.991  0.4739E+01  0.3694E+01  0.3013E+02  0.2993E+02
    -14.798  0.5649E+01  0.5584E+01  0.3122E+02  0.3101E+02
    -14.606  0.4136E+01  0.4415E+01  0.3202E+02  0.3186E+02
    -14.413  0.4515E+01  0.5232E+01  0.3289E+02  0.3286E+02
    -14.221  0.1619E+01  0.1579E+01  0.3320E+02  0.3317E+02
    -14.028  0.4284E+01  0.3787E+01  0.3402E+02  0.3390E+02
    -13.836  0.7910E+01  0.7731E+01  0.3555E+02  0.3539E+02
    -13.643  0.1781E+01  0.2399E+01  0.3589E+02  0.3585E+02
    -13.451  0.4114E-02  0.2164E+00  0.3589E+02  0.3589E+02
    -13.258  0.4208E+01  0.3495E+01  0.3670E+02  0.3656E+02
    -13.066  0.7338E+01  0.6962E+01  0.3811E+02  0.3790E+02
    -12.873  0.4281E+01  0.4908E+01  0.3894E+02  0.3885E+02
    -12.681  0.4443E+01  0.3998E+01  0.3979E+02  0.3962E+02
    -12.489  0.3400E+01  0.4306E+01  0.4044E+02  0.4044E+02
    -12.296  0.6836E+01  0.5167E+01  0.4176E+02  0.4144E+02
    -12.104  0.2562E+01  0.4115E+01  0.4225E+02  0.4223E+02
    -11.911  0.2028E+01  0.1822E+01  0.4264E+02  0.4258E+02
    -11.719  0.8112E+01  0.7796E+01  0.4421E+02  0.4408E+02
    -11.526  0.4170E+01  0.4686E+01  0.4501E+02  0.4498E+02
    -11.334  0.8102E+01  0.7323E+01  0.4657E+02  0.4639E+02
    -11.141  0.3386E+01  0.3572E+01  0.4722E+02  0.4708E+02
    -10.949  0.4253E+01  0.4612E+01  0.4804E+02  0.4797E+02
    -10.756  0.3395E+01  0.2306E+01  0.4869E+02  0.4841E+02
    -10.564  0.6755E+01  0.7682E+01  0.4999E+02  0.4989E+02
    -10.371  0.1169E+02  0.1143E+02  0.5224E+02  0.5209E+02
    -10.179  0.9093E+01  0.8777E+01  0.5399E+02  0.5378E+02
     -9.987  0.9122E+01  0.8567E+01  0.5575E+02  0.5543E+02
     -9.794  0.9029E+01  0.9862E+01  0.5748E+02  0.5733E+02
     -9.602  0.9022E+01  0.9051E+01  0.5922E+02  0.5907E+02
     -9.409  0.1343E+02  0.1279E+02  0.6180E+02  0.6153E+02
     -9.217  0.1072E+02  0.1087E+02  0.6387E+02  0.6362E+02
     -9.024  0.1048E+02  0.1052E+02  0.6589E+02  0.6565E+02
     -8.832  0.1488E+02  0.1437E+02  0.6875E+02  0.6841E+02
     -8.639  0.4761E+01  0.6026E+01  0.6966E+02  0.6957E+02
     -8.447  0.1122E+02  0.1034E+02  0.7182E+02  0.7156E+02
     -8.254  0.6408E+01  0.6976E+01  0.7306E+02  0.7291E+02
     -8.062  0.1375E+02  0.1284E+02  0.7570E+02  0.7538E+02
     -7.869  0.6468E+01  0.7450E+01  0.7695E+02  0.7681E+02
     -7.677  0.4963E+01  0.4733E+01  0.7790E+02  0.7772E+02
     -7.484  0.6800E+01  0.5661E+01  0.7921E+02  0.7881E+02
     -7.292  0.9963E+01  0.1066E+02  0.8113E+02  0.8086E+02
     -7.100  0.9484E+01  0.9978E+01  0.8296E+02  0.8278E+02
     -6.907  0.7307E+01  0.6675E+01  0.8436E+02  0.8407E+02
     -6.715  0.5357E+01  0.5855E+01  0.8539E+02  0.8519E+02
     -6.522  0.6444E+01  0.6711E+01  0.8663E+02  0.8649E+02
     -6.330  0.5888E+01  0.5915E+01  0.8777E+02  0.8762E+02
     -6.137  0.7222E+01  0.6669E+01  0.8916E+02  0.8891E+02
     -5.945  0.6570E+01  0.7467E+01  0.9042E+02  0.9034E+02
     -5.752  0.4253E+01  0.3349E+01  0.9124E+02  0.9099E+02
     -5.560  0.4524E+01  0.5811E+01  0.9211E+02  0.9211E+02
     -5.367  0.3183E+01  0.2469E+01  0.9272E+02  0.9258E+02
     -5.175  0.5310E+01  0.4959E+01  0.9375E+02  0.9354E+02
     -4.982  0.1093E+02  0.1127E+02  0.9585E+02  0.9571E+02
     -4.790  0.2241E+00  0.9491E+00  0.9589E+02  0.9589E+02
     -4.598  0.3283E+01  0.9315E+00  0.9652E+02  0.9607E+02
     -4.405  0.3297E+01  0.4118E+01  0.9716E+02  0.9686E+02
     -4.213  0.9174E+00  0.2046E+01  0.9734E+02  0.9725E+02
     -4.020  0.5429E+01  0.2700E+01  0.9838E+02  0.9777E+02
     -3.828  0.2070E+01  0.1174E+01  0.9878E+02  0.9800E+02
     -3.635  0.1147E+01  0.2900E+01  0.9900E+02  0.9856E+02
     -3.443  0.6988E-01  0.1141E+01  0.9901E+02  0.9878E+02
     -3.250  0.3820E+01  0.2005E-04  0.9975E+02  0.9878E+02
     -3.058  0.1832E+00  0.1044E+01  0.9978E+02  0.9898E+02
     -2.865  0.1128E+01  0.1791E+00  0.1000E+03  0.9901E+02
     -2.673  0.2726E+00  0.4051E+01  0.1001E+03  0.9979E+02
     -2.480  0.8824E+00  0.1692E+01  0.1002E+03  0.1001E+03
     -2.288  0.1336E-05  0.5390E+00  0.1002E+03  0.1002E+03
     -2.095  0.7694E-01  0.5199E-03  0.1002E+03  0.1002E+03
     -1.903  0.2743E+01  0.2391E+01  0.1008E+03  0.1007E+03
     -1.711  0.5711E+01  0.4702E+01  0.1019E+03  0.1016E+03
     -1.518  0.2425E+01  0.2719E+01  0.1023E+03  0.1021E+03
     -1.326  0.6662E+01  0.5231E+01  0.1036E+03  0.1031E+03
     -1.133  0.5691E+01  0.7348E+01  0.1047E+03  0.1045E+03
     -0.941  0.8393E+01  0.8017E+01  0.1063E+03  0.1061E+03
     -0.748  0.6657E+01  0.6761E+01  0.1076E+03  0.1074E+03
     -0.556  0.6449E+01  0.5963E+01  0.1088E+03  0.1085E+03
     -0.363  0.3686E+01  0.5362E+01  0.1096E+03  0.1096E+03
     -0.171  0.3244E+00  0.5066E-01  0.1096E+03  0.1096E+03
      0.022  0.6941E+01  0.5166E+01  0.1110E+03  0.1106E+03
      0.214  0.4158E+01  0.5780E+01  0.1118E+03  0.1117E+03
      0.407  0.4947E+01  0.4461E+01  0.1127E+03  0.1125E+03
      0.599  0.6412E+01  0.6614E+01  0.1139E+03  0.1138E+03
      0.792  0.5436E+01  0.5280E+01  0.1150E+03  0.1148E+03
      0.984  0.8603E+01  0.8526E+01  0.1166E+03  0.1165E+03
      1.176  0.9699E+01  0.9935E+01  0.1185E+03  0.1184E+03
      1.369  0.1122E+02  0.1047E+02  0.1207E+03  0.1204E+03
      1.561  0.1632E+02  0.1582E+02  0.1238E+03  0.1234E+03
      1.754  0.1565E+02  0.1602E+02  0.1268E+03  0.1265E+03
      1.946  0.5561E+01  0.7548E+01  0.1279E+03  0.1280E+03
      2.139  0.5637E+00  0.1683E+00  0.1280E+03  0.1280E+03
      2.331  0.1535E-03  0.0000E+00  0.1280E+03  0.1280E+03
      2.524  0.0000E+00  0.0000E+00  0.1280E+03  0.1280E+03
      2.716  0.0000E+00  0.0000E+00  0.1280E+03  0.1280E+03
      2.909  0.0000E+00  0.0000E+00  0.1280E+03  0.1280E+03
      3.101  0.0000E+00  0.0000E+00  0.1280E+03  0.1280E+03
      3.294  0.0000E+00  0.0000E+00  0.1280E+03  0.1280E+03
      3.486  0.0000E+00  0.0000E+00  0.1280E+03  0.1280E+03
      3.678  0.0000E+00  0.0000E+00  0.1280E+03  0.1280E+03
      3.871  0.0000E+00  0.0000E+00  0.1280E+03  0.1280E+03
      4.063  0.0000E+00  0.0000E+00  0.1280E+03  0.1280E+03
      4.256  0.0000E+00  0.0000E+00  0.1280E+03  0.1280E+03
      4.448  0.0000E+00  0.0000E+00  0.1280E+03  0.1280E+03
      4.641  0.0000E+00  0.0000E+00  0.1280E+03  0.1280E+03
