       N       E                     dE             d eps       ncg     rms          rms(c)
DAV:   1     0.192281780569E+04    0.19228E+04   -0.65919E+04  3136   0.107E+03
DAV:   2     0.554566600784E+02   -0.18674E+04   -0.17351E+04  3928   0.236E+02
DAV:   3    -0.448185399361E+03   -0.50364E+03   -0.49923E+03  3368   0.130E+02
DAV:   4    -0.476632271331E+03   -0.28447E+02   -0.28033E+02  3280   0.403E+01
DAV:   5    -0.477733135539E+03   -0.11009E+01   -0.10901E+01  4096   0.662E+00    0.326E+01
DAV:   6    -0.454345649072E+03    0.23387E+02   -0.26794E+01  2840   0.125E+01    0.189E+01
DAV:   7    -0.443744672639E+03    0.10601E+02   -0.16315E+01  2912   0.102E+01    0.101E+01
DAV:   8    -0.443042982144E+03    0.70169E+00   -0.56371E+00  2952   0.562E+00    0.402E+00
DAV:   9    -0.443630142838E+03   -0.58716E+00   -0.94918E-01  3360   0.279E+00    0.205E+00
DAV:  10    -0.444006661766E+03   -0.37652E+00   -0.30012E-01  2832   0.134E+00    0.117E+00
DAV:  11    -0.444306957035E+03   -0.30030E+00   -0.10131E-01  2984   0.819E-01    0.799E-01
DAV:  12    -0.444611431642E+03   -0.30447E+00   -0.51300E-02  2784   0.509E-01    0.657E-01
DAV:  13    -0.445140475216E+03   -0.52904E+00   -0.81139E-02  2872   0.518E-01    0.492E-01
DAV:  14    -0.445253482225E+03   -0.11301E+00   -0.93761E-02  2792   0.564E-01    0.341E-01
DAV:  15    -0.445735086199E+03   -0.48160E+00   -0.37801E-02  2968   0.343E-01    0.240E-01
DAV:  16    -0.446195813844E+03   -0.46073E+00   -0.16166E-02  2880   0.210E-01    0.169E-01
DAV:  17    -0.446549299938E+03   -0.35349E+00   -0.73100E-03  2880   0.159E-01    0.120E-01
DAV:  18    -0.446791624193E+03   -0.24232E+00   -0.44928E-03  2832   0.124E-01    0.853E-02
DAV:  19    -0.446892835176E+03   -0.10121E+00   -0.18092E-03  2912   0.772E-02    0.618E-02
DAV:  20    -0.446930846086E+03   -0.38011E-01   -0.10268E-03  2816   0.534E-02    0.436E-02
DAV:  21    -0.446942338887E+03   -0.11493E-01   -0.43583E-04  3064   0.335E-02    0.312E-02
DAV:  22    -0.446960107748E+03   -0.17769E-01   -0.14869E-04  2896   0.230E-02    0.209E-02
DAV:  23    -0.446982764945E+03   -0.22657E-01   -0.44504E-05  2928   0.156E-02    0.127E-02
DAV:  24    -0.446992644930E+03   -0.98800E-02   -0.17306E-05  2624   0.123E-02    0.781E-03
DAV:  25    -0.446995809734E+03   -0.31648E-02   -0.12182E-05  2360   0.993E-03    0.511E-03
DAV:  26    -0.446997172059E+03   -0.13623E-02   -0.19135E-05  2272   0.108E-02    0.337E-03
DAV:  27    -0.446998001912E+03   -0.82985E-03   -0.10549E-05  2272   0.957E-03    0.195E-03
DAV:  28    -0.446998345898E+03   -0.34399E-03   -0.40932E-06  2296   0.558E-03    0.126E-03
DAV:  29    -0.446998487379E+03   -0.14148E-03   -0.90707E-07  1776   0.331E-03    0.882E-04
DAV:  30    -0.446998592787E+03   -0.10541E-03   -0.70702E-07  1912   0.198E-03    0.579E-04
DAV:  31    -0.446998646179E+03   -0.53392E-04   -0.38383E-07  1960   0.136E-03    0.391E-04
DAV:  32    -0.446998675265E+03   -0.29086E-04   -0.15918E-07  1968   0.890E-04    0.248E-04
DAV:  33    -0.446998692582E+03   -0.17317E-04   -0.81305E-08  1920   0.602E-04    0.182E-04
DAV:  34    -0.446998698731E+03   -0.61491E-05   -0.14900E-08  1928   0.374E-04    0.137E-04
DAV:  35    -0.446998702397E+03   -0.36655E-05   -0.35432E-09  1800   0.262E-04    0.116E-04
DAV:  36    -0.446998703649E+03   -0.12524E-05    0.88459E-09  1856   0.160E-04    0.110E-04
DAV:  37    -0.446998704174E+03   -0.52461E-06    0.13695E-08  1720   0.988E-05
   1 F= -.44699870E+03 E0= -.44699857E+03  d E =-.270335E-03  mag=     0.9973
