<?xml version="1.0" encoding="ISO-8859-1"?>
<modeling>
 <generator>
  <i name="program" type="string">vasp </i>
  <i name="version" type="string">5.4.1  </i>
  <i name="subversion" type="string">24Jun15 (build Jul 23 2024 06:15:33) complex                          parallel </i>
  <i name="platform" type="string">IFC91_ompi </i>
  <i name="date" type="string">2026 05 05 </i>
  <i name="time" type="string">16:56:20 </i>
 </generator>
 <incar>
  <i type="string" name="SYSTEM"> Li defective graphene MACE training lab</i>
  <i type="int" name="ISTART">     0</i>
  <i type="string" name="PREC">accurate</i>
  <i type="string" name="ALGO"> Normal</i>
  <i type="logical" name="ADDGRID"> T  </i>
  <i type="int" name="ISPIN">     2</i>
  <i type="int" name="ICHARG">     2</i>
  <i type="int" name="NELM">   120</i>
  <i type="int" name="IBRION">    -1</i>
  <i name="EDIFF">      0.00000100</i>
  <i type="int" name="NSW">     0</i>
  <i type="int" name="ISIF">     2</i>
  <i type="int" name="ISYM">     0</i>
  <i name="ENCUT">    520.00000000</i>
  <v name="MAGMOM">      0.10000000      0.10000000      0.10000000      0.10000000      0.10000000      0.10000000      0.10000000      0.10000000      0.10000000      0.10000000      0.10000000      0.10000000      0.10000000      0.10000000      0.10000000      0.10000000      0.10000000      0.10000000      0.10000000      0.10000000
      0.10000000      0.10000000      0.10000000      0.10000000      0.10000000      0.10000000      0.10000000      0.10000000      0.10000000      0.10000000      0.10000000      0.10000000      0.10000000      0.10000000      0.10000000      0.10000000      0.10000000      0.10000000      0.10000000      0.10000000
      0.10000000      0.10000000      0.10000000      0.10000000      0.10000000      0.10000000      0.10000000      0.10000000      0.10000000      0.10000000      1.00000000</v>
  <i type="string" name="LREAL"> Auto</i>
  <i type="int" name="ISMEAR">     0</i>
  <i name="SIGMA">      0.05000000</i>
  <i type="logical" name="LWAVE"> F  </i>
  <i type="logical" name="LCHARG"> F  </i>
  <i type="logical" name="LASPH"> T  </i>
  <v type="int" name="KPOINT_BSE">    -1     0     0     0</v>
  <i type="int" name="NELM">   120</i>
  <i type="logical" name="LASPH"> T  </i>
 </incar>
 <kpoints>
  <generation param="Gamma">
   <v type="int" name="divisions">       3        3        1 </v>
   <v name="usershift">      0.00000000       0.00000000       0.00000000 </v>
   <v name="genvec1">      0.33333333       0.00000000       0.00000000 </v>
   <v name="genvec2">      0.00000000       0.33333333       0.00000000 </v>
   <v name="genvec3">      0.00000000       0.00000000       1.00000000 </v>
   <v name="shift">      0.00000000       0.00000000       0.00000000 </v>
  </generation>
  <varray name="kpointlist" >
   <v>       0.00000000       0.00000000       0.00000000 </v>
   <v>       0.33333333      -0.00000000       0.00000000 </v>
   <v>       0.00000000       0.33333333       0.00000000 </v>
   <v>       0.33333333       0.33333333       0.00000000 </v>
   <v>      -0.33333333       0.33333333       0.00000000 </v>
  </varray>
  <varray name="weights" >
   <v>       0.11111111 </v>
   <v>       0.22222222 </v>
   <v>       0.22222222 </v>
   <v>       0.22222222 </v>
   <v>       0.22222222 </v>
  </varray>
 </kpoints>
 <parameters>
  <separator name="general" >
   <i type="string" name="SYSTEM">Li defective graphene MACE training lab</i>
   <i type="logical" name="LCOMPAT"> F  </i>
  </separator>
  <separator name="electronic" >
   <i type="string" name="PREC">accura</i>
   <i name="ENMAX">    520.00000000</i>
   <i name="ENAUG">    644.87300000</i>
   <i name="EDIFF">      0.00000100</i>
   <i type="int" name="IALGO">    38</i>
   <i type="int" name="IWAVPR">    10</i>
   <i type="int" name="NBANDS">   132</i>
   <i name="NELECT">    203.00000000</i>
   <i type="int" name="TURBO">     0</i>
   <i type="int" name="IRESTART">     0</i>
   <i type="int" name="NREBOOT">     0</i>
   <i type="int" name="NMIN">     0</i>
   <i name="EREF">      0.00000000</i>
   <separator name="electronic smearing" >
    <i type="int" name="ISMEAR">     0</i>
    <i name="SIGMA">      0.05000000</i>
    <i name="KSPACING">      0.50000000</i>
    <i type="logical" name="KGAMMA"> T  </i>
   </separator>
   <separator name="electronic projectors" >
    <i type="logical" name="LREAL"> T  </i>
    <v name="ROPT">     -0.00025000     -0.00025000</v>
    <i type="int" name="LMAXPAW">  -100</i>
    <i type="int" name="LMAXMIX">     2</i>
    <i type="logical" name="NLSPLINE"> F  </i>
   </separator>
   <separator name="electronic startup" >
    <i type="int" name="ISTART">     0</i>
    <i type="int" name="ICHARG">     2</i>
    <i type="int" name="INIWAV">     1</i>
   </separator>
   <separator name="electronic spin" >
    <i type="int" name="ISPIN">     2</i>
    <i type="logical" name="LNONCOLLINEAR"> F  </i>
    <v name="MAGMOM">      0.10000000      0.10000000      0.10000000      0.10000000      0.10000000      0.10000000      0.10000000      0.10000000      0.10000000      0.10000000      0.10000000      0.10000000      0.10000000      0.10000000      0.10000000      0.10000000      0.10000000      0.10000000      0.10000000      0.10000000
      0.10000000      0.10000000      0.10000000      0.10000000      0.10000000      0.10000000      0.10000000      0.10000000      0.10000000      0.10000000      0.10000000      0.10000000      0.10000000      0.10000000      0.10000000      0.10000000      0.10000000      0.10000000      0.10000000      0.10000000
      0.10000000      0.10000000      0.10000000      0.10000000      0.10000000      0.10000000      0.10000000      0.10000000      0.10000000      0.10000000      1.00000000</v>
    <i name="NUPDOWN">     -1.00000000</i>
    <i type="logical" name="LSORBIT"> F  </i>
    <v name="SAXIS">      0.00000000      0.00000000      1.00000000</v>
    <i type="logical" name="LSPIRAL"> F  </i>
    <v name="QSPIRAL">      0.00000000      0.00000000      0.00000000</v>
    <i type="logical" name="LZEROZ"> F  </i>
   </separator>
   <separator name="electronic exchange-correlation" >
    <i type="logical" name="LASPH"> T  </i>
    <i type="logical" name="LMETAGGA"> F  </i>
   </separator>
   <separator name="electronic convergence" >
    <i type="int" name="NELM">   120</i>
    <i type="int" name="NELMDL">    -5</i>
    <i type="int" name="NELMIN">     2</i>
    <i name="ENINI">    520.00000000</i>
    <separator name="electronic convergence detail" >
     <i type="logical" name="LDIAG"> T  </i>
     <i type="logical" name="LSUBROT"> F  </i>
     <i name="WEIMIN">      0.00000000</i>
     <i name="EBREAK">      0.00000000</i>
     <i name="DEPER">      0.30000000</i>
     <i type="int" name="NRMM">     4</i>
     <i name="TIME">      0.40000000</i>
    </separator>
   </separator>
   <separator name="electronic mixer" >
    <i name="AMIX">      0.40000000</i>
    <i name="BMIX">      1.00000000</i>
    <i name="AMIN">      0.10000000</i>
    <i name="AMIX_MAG">      1.60000000</i>
    <i name="BMIX_MAG">      1.00000000</i>
    <separator name="electronic mixer details" >
     <i type="int" name="IMIX">     4</i>
     <i type="logical" name="MIXFIRST"> F  </i>
     <i type="int" name="MAXMIX">   -45</i>
     <i name="WC">    100.00000000</i>
     <i type="int" name="INIMIX">     1</i>
     <i type="int" name="MIXPRE">     1</i>
     <i type="int" name="MREMOVE">     5</i>
    </separator>
   </separator>
   <separator name="electronic dipolcorrection" >
    <i type="logical" name="LDIPOL"> F  </i>
    <i type="logical" name="LMONO"> F  </i>
    <i type="int" name="IDIPOL">     0</i>
    <i name="EPSILON">      1.00000000</i>
    <v name="DIPOL">   -100.00000000   -100.00000000   -100.00000000</v>
    <i name="EFIELD">      0.00000000</i>
   </separator>
  </separator>
  <separator name="grids" >
   <i type="int" name="NGX">    96</i>
   <i type="int" name="NGY">    96</i>
   <i type="int" name="NGZ">   224</i>
   <i type="int" name="NGXF">   192</i>
   <i type="int" name="NGYF">   192</i>
   <i type="int" name="NGZF">   448</i>
   <i type="logical" name="ADDGRID"> T  </i>
  </separator>
  <separator name="ionic" >
   <i type="int" name="NSW">     0</i>
   <i type="int" name="IBRION">    -1</i>
   <i type="int" name="ISIF">     2</i>
   <i name="PSTRESS">      0.00000000</i>
   <i name="EDIFFG">      0.00001000</i>
   <i type="int" name="NFREE">     0</i>
   <i name="POTIM">      0.50000000</i>
   <i name="SMASS">     -3.00000000</i>
   <i name="SCALEE">      1.00000000</i>
  </separator>
  <separator name="ionic md" >
   <i name="TEBEG">      0.00010000</i>
   <i name="TEEND">      0.00010000</i>
   <i type="int" name="NBLOCK">     1</i>
   <i type="int" name="KBLOCK">     1</i>
   <i type="int" name="NPACO">   256</i>
   <i name="APACO">     16.00000000</i>
  </separator>
  <separator name="symmetry" >
   <i type="int" name="ISYM">     0</i>
   <i name="SYMPREC">      0.00001000</i>
  </separator>
  <separator name="dos" >
   <i type="logical" name="LORBIT"> F  </i>
   <v name="RWIGS">     -1.00000000     -1.00000000</v>
   <i type="int" name="NEDOS">   301</i>
   <i name="EMIN">     10.00000000</i>
   <i name="EMAX">    -10.00000000</i>
   <i name="EFERMI">      0.00000000</i>
  </separator>
  <separator name="writing" >
   <i type="int" name="NWRITE">     2</i>
   <i type="logical" name="LWAVE"> F  </i>
   <i type="logical" name="LCHARG"> F  </i>
   <i type="logical" name="LPARD"> F  </i>
   <i type="logical" name="LVTOT"> F  </i>
   <i type="logical" name="LVHAR"> F  </i>
   <i type="logical" name="LELF"> F  </i>
   <i type="logical" name="LOPTICS"> F  </i>
   <v name="STM">      0.00000000      0.00000000      0.00000000      0.00000000      0.00000000      0.00000000      0.00000000</v>
  </separator>
  <separator name="performance" >
   <i type="int" name="NPAR">     4</i>
   <i type="int" name="NSIM">     4</i>
   <i type="int" name="NBLK">    -1</i>
   <i type="logical" name="LPLANE"> T  </i>
   <i type="logical" name="LSCALAPACK"> T  </i>
   <i type="logical" name="LSCAAWARE"> F  </i>
   <i type="logical" name="LSCALU"> F  </i>
   <i type="logical" name="LASYNC"> F  </i>
   <i type="logical" name="LORBITALREAL"> F  </i>
  </separator>
  <separator name="miscellaneous" >
   <i type="int" name="IDIOT">     3</i>
   <i type="logical" name="LMUSIC"> F  </i>
   <v name="POMASS">     12.01100000      7.01000000</v>
   <v name="DARWINR">      0.00000000      0.00000000</v>
   <v name="DARWINV">      1.00000000      1.00000000</v>
   <i type="logical" name="LCORR"> T  </i>
  </separator>
  <i type="logical" name="GGA_COMPAT"> T  </i>
  <i type="logical" name="LBERRY"> F  </i>
  <i type="int" name="ICORELEVEL">     0</i>
  <i type="logical" name="LDAU"> F  </i>
  <i type="int" name="I_CONSTRAINED_M">     0</i>
  <separator name="electronic exchange-correlation" >
   <i type="string" name="GGA">--</i>
   <i type="int" name="VOSKOWN">     0</i>
   <i type="logical" name="LHFCALC"> F  </i>
   <i type="string" name="PRECFOCK"></i>
   <i type="logical" name="LSYMGRAD"> F  </i>
   <i type="logical" name="LHFONE"> F  </i>
   <i type="logical" name="LRHFCALC"> F  </i>
   <i type="logical" name="LTHOMAS"> F  </i>
   <i type="logical" name="LMODELHF"> F  </i>
   <i name="ENCUT4O">     -1.00000000</i>
   <i type="int" name="EXXOEP">     0</i>
   <i type="int" name="FOURORBIT">     0</i>
   <i name="AEXX">      0.00000000</i>
   <i name="HFALPHA">      0.00000000</i>
   <i name="MCALPHA">      0.00000000</i>
   <i name="ALDAX">      1.00000000</i>
   <i name="AGGAX">      1.00000000</i>
   <i name="ALDAC">      1.00000000</i>
   <i name="AGGAC">      1.00000000</i>
   <i type="int" name="NKREDX">     1</i>
   <i type="int" name="NKREDY">     1</i>
   <i type="int" name="NKREDZ">     1</i>
   <i type="logical" name="SHIFTRED"> F  </i>
   <i type="logical" name="ODDONLY"> F  </i>
   <i type="logical" name="EVENONLY"> F  </i>
   <i type="int" name="LMAXFOCK">     0</i>
   <i type="int" name="NMAXFOCKAE">     0</i>
   <i type="logical" name="LFOCKAEDFT"> F  </i>
   <i name="HFSCREEN">      0.00000000</i>
   <i name="HFSCREENC">      0.00000000</i>
   <i type="int" name="NBANDSGWLOW">     0</i>
  </separator>
  <separator name="vdW DFT" >
   <i type="logical" name="LUSE_VDW"> F  </i>
   <i name="Zab_VDW">     -0.84910000</i>
   <i name="PARAM1">      0.12340000</i>
   <i name="PARAM2">      1.00000000</i>
   <i name="PARAM3">      0.00000000</i>
  </separator>
  <separator name="model GW" >
   <i type="int" name="MODEL_GW">     0</i>
   <i name="MODEL_EPS0">     46.24270000</i>
   <i name="MODEL_ALPHA">      1.00000000</i>
  </separator>
  <separator name="linear response parameters" >
   <i type="logical" name="LEPSILON"> F  </i>
   <i type="logical" name="LRPA"> F  </i>
   <i type="logical" name="LNABLA"> F  </i>
   <i type="logical" name="LVEL"> F  </i>
   <i type="int" name="KINTER">     0</i>
   <i name="CSHIFT">      0.10000000</i>
   <i name="OMEGAMAX">     -1.00000000</i>
   <i name="DEG_THRESHOLD">      0.00200000</i>
  </separator>
  <separator name="orbital magnetization" >
   <i type="logical" name="NUCIND"> F  </i>
   <v name="MAGPOS">      0.00000000      0.00000000      0.00000000</v>
   <i type="logical" name="LNICSALL"> T  </i>
   <i type="logical" name="ORBITALMAG"> F  </i>
   <i type="logical" name="LMAGBLOCH"> F  </i>
   <i type="logical" name="LCHIMAG"> F  </i>
   <i type="logical" name="LGAUGE"> T  </i>
   <i type="int" name="MAGATOM">     0</i>
   <v name="MAGDIPOL">      0.00000000      0.00000000      0.00000000</v>
   <v name="AVECCONST">      0.00000000      0.00000000      0.00000000</v>
  </separator>
  <separator name="response functions" >
   <i type="logical" name="LADDER"> F  </i>
   <i type="logical" name="LFXC"> F  </i>
   <i type="logical" name="LHARTREE"> T  </i>
   <i type="int" name="IBSE">     0</i>
   <v type="int" name="KPOINT">    -1     0     0     0</v>
   <i type="logical" name="LTCTE"> F  </i>
   <i type="logical" name="LTETE"> F  </i>
   <i type="logical" name="LTRIPLET"> F  </i>
   <i type="logical" name="LFXCEPS"> F  </i>
   <i type="logical" name="LFXHEG"> F  </i>
   <i type="int" name="NATURALO">     0</i>
   <i type="logical" name="L2ORDER"> F  </i>
   <i type="logical" name="LUSEW"> F  </i>
   <i name="ENCUTGW">     -2.00000000</i>
   <i name="ENCUTGWSOFT">     -2.00000000</i>
   <i name="ENCUTLF">     -1.00000000</i>
   <i type="int" name="LMAXMP2">    -1</i>
   <i name="SCISSOR">      0.00000000</i>
   <i type="int" name="NOMEGA">     0</i>
   <i type="int" name="NOMEGAR">     0</i>
   <i type="int" name="NBANDSGW">    -1</i>
   <i type="int" name="NBANDSO">    -1</i>
   <i type="int" name="NBANDSV">    -1</i>
   <i type="int" name="NELM">   120</i>
   <i type="int" name="NELMHF">     1</i>
   <i type="int" name="DIM">     3</i>
   <i type="int" name="ANTIRES">     0</i>
   <i name="OMEGAMAX">    -30.00000000</i>
   <i name="OMEGAMIN">    -30.00000000</i>
   <i name="OMEGATL">   -200.00000000</i>
   <i type="int" name="OMEGAGRID">     0</i>
   <i name="CSHIFT">     -0.10000000</i>
   <i type="logical" name="SELFENERGY"> F  </i>
   <i type="logical" name="LSPECTRAL"> F  </i>
   <i type="logical" name="LSPECTRALGW"> F  </i>
   <i type="logical" name="LSINGLES"> F  </i>
   <i type="logical" name="LFERMIGW"> F  </i>
   <i type="logical" name="ODDONLYGW"> F  </i>
   <i type="logical" name="EVENONLYGW"> F  </i>
   <i type="int" name="NKREDLFX">     1</i>
   <i type="int" name="NKREDLFY">     1</i>
   <i type="int" name="NKREDLFZ">     1</i>
   <i type="int" name="MAXMEM">  1800</i>
   <i type="int" name="TELESCOPE">     0</i>
   <i type="int" name="TAUPAR">     1</i>
   <i type="int" name="OMEGAPAR">    -1</i>
   <i name="LAMBDA">      1.00000000</i>
  </separator>
  <separator name="External order field" >
   <i name="OFIELD_KAPPA">      0.00000000</i>
   <v name="OFIELD_K">      0.00000000      0.00000000      0.00000000</v>
   <i name="OFIELD_Q6_NEAR">      0.00000000</i>
   <i name="OFIELD_Q6_FAR">      0.00000000</i>
   <i name="OFIELD_A">      0.00000000</i>
  </separator>
 </parameters>
 <atominfo>
  <atoms>      51 </atoms>
  <types>       2 </types>
  <array name="atoms" >
   <dimension dim="1">ion</dimension>
   <field type="string">element</field>
   <field type="int">atomtype</field>
   <set>
    <rc><c>C </c><c>   1</c></rc>
    <rc><c>C </c><c>   1</c></rc>
    <rc><c>C </c><c>   1</c></rc>
    <rc><c>C </c><c>   1</c></rc>
    <rc><c>C </c><c>   1</c></rc>
    <rc><c>C </c><c>   1</c></rc>
    <rc><c>C </c><c>   1</c></rc>
    <rc><c>C </c><c>   1</c></rc>
    <rc><c>C </c><c>   1</c></rc>
    <rc><c>C </c><c>   1</c></rc>
    <rc><c>C </c><c>   1</c></rc>
    <rc><c>C </c><c>   1</c></rc>
    <rc><c>C </c><c>   1</c></rc>
    <rc><c>C </c><c>   1</c></rc>
    <rc><c>C </c><c>   1</c></rc>
    <rc><c>C </c><c>   1</c></rc>
    <rc><c>C </c><c>   1</c></rc>
    <rc><c>C </c><c>   1</c></rc>
    <rc><c>C </c><c>   1</c></rc>
    <rc><c>C </c><c>   1</c></rc>
    <rc><c>C </c><c>   1</c></rc>
    <rc><c>C </c><c>   1</c></rc>
    <rc><c>C </c><c>   1</c></rc>
    <rc><c>C </c><c>   1</c></rc>
    <rc><c>C </c><c>   1</c></rc>
    <rc><c>C </c><c>   1</c></rc>
    <rc><c>C </c><c>   1</c></rc>
    <rc><c>C </c><c>   1</c></rc>
    <rc><c>C </c><c>   1</c></rc>
    <rc><c>C </c><c>   1</c></rc>
    <rc><c>C </c><c>   1</c></rc>
    <rc><c>C </c><c>   1</c></rc>
    <rc><c>C </c><c>   1</c></rc>
    <rc><c>C </c><c>   1</c></rc>
    <rc><c>C </c><c>   1</c></rc>
    <rc><c>C </c><c>   1</c></rc>
    <rc><c>C </c><c>   1</c></rc>
    <rc><c>C </c><c>   1</c></rc>
    <rc><c>C </c><c>   1</c></rc>
    <rc><c>C </c><c>   1</c></rc>
    <rc><c>C </c><c>   1</c></rc>
    <rc><c>C </c><c>   1</c></rc>
    <rc><c>C </c><c>   1</c></rc>
    <rc><c>C </c><c>   1</c></rc>
    <rc><c>C </c><c>   1</c></rc>
    <rc><c>C </c><c>   1</c></rc>
    <rc><c>C </c><c>   1</c></rc>
    <rc><c>C </c><c>   1</c></rc>
    <rc><c>C </c><c>   1</c></rc>
    <rc><c>C </c><c>   1</c></rc>
    <rc><c>Li</c><c>   2</c></rc>
   </set>
  </array>
  <array name="atomtypes" >
   <dimension dim="1">type</dimension>
   <field type="int">atomspertype</field>
   <field type="string">element</field>
   <field>mass</field>
   <field>valence</field>
   <field type="string">pseudopotential</field>
   <set>
    <rc><c>  50</c><c>C </c><c>     12.01100000</c><c>      4.00000000</c><c>  PAW_PBE C 08Apr2002                   </c></rc>
    <rc><c>   1</c><c>Li</c><c>      7.01000000</c><c>      3.00000000</c><c>  PAW_PBE Li_sv 10Sep2004               </c></rc>
   </set>
  </array>
 </atominfo>
 <structure name="initialpos" >
  <crystal>
   <varray name="basis" >
    <v>      12.30000000       0.00000000       0.00000000 </v>
    <v>      -6.15000000      10.65211247       0.00000000 </v>
    <v>       0.00000000       0.00000000      30.00000000 </v>
   </varray>
   <i name="volume">   3930.62950016 </i>
   <varray name="rec_basis" >
    <v>       0.08130081       0.04693905       0.00000000 </v>
    <v>       0.00000000       0.09387809       0.00000000 </v>
    <v>       0.00000000       0.00000000       0.03333333 </v>
   </varray>
  </crystal>
  <varray name="positions" >
   <v>       0.99824632       0.00451485       0.50456974 </v>
   <v>       0.13064214       0.06937547       0.51014723 </v>
   <v>       0.99450334       0.20543693       0.49533941 </v>
   <v>       0.12874344       0.26897822       0.49821997 </v>
   <v>       0.99549924       0.40924387       0.48997498 </v>
   <v>       0.13111623       0.47011518       0.49608251 </v>
   <v>       0.01694627       0.61707021       0.50086202 </v>
   <v>       0.14368459       0.67346735       0.50906859 </v>
   <v>       0.00680056       0.81035110       0.50906906 </v>
   <v>       0.13634663       0.87093284       0.51710703 </v>
   <v>       0.19769422       0.00223603       0.51731135 </v>
   <v>       0.51663516       0.24987308       0.50229483 </v>
   <v>       0.40218667       0.39650253       0.49661258 </v>
   <v>       0.32847798       0.26460571       0.50429262 </v>
   <v>       0.19857260       0.40161433       0.49668863 </v>
   <v>       0.33464895       0.46494607       0.49678961 </v>
   <v>       0.20488481       0.60214560       0.50352156 </v>
   <v>       0.33784857       0.66491353       0.50456968 </v>
   <v>       0.20426646       0.80301336       0.51710687 </v>
   <v>       0.33556953       0.86436090       0.51731135 </v>
   <v>       0.39697042       0.99568090       0.51793013 </v>
   <v>       0.52677657       0.05640753       0.51029899 </v>
   <v>       0.38974075       0.19344334       0.51029902 </v>
   <v>       0.32901416       0.06363699       0.51793012 </v>
   <v>       0.19546749       0.20182835       0.50490773 </v>
   <v>       0.53776641       0.45732263       0.49044788 </v>
   <v>       0.60231162       0.79541019       0.49821990 </v>
   <v>       0.53877040       0.66117011       0.49533946 </v>
   <v>       0.40270914       0.79730880       0.51014714 </v>
   <v>       0.53516185       0.86213429       0.50490773 </v>
   <v>       0.59793910       0.99514473       0.50429256 </v>
   <v>       0.72983580       0.06885333       0.49661244 </v>
   <v>       0.58320626       0.18330190       0.50229480 </v>
   <v>       0.70782687       0.25920486       0.48900840 </v>
   <v>       0.59253813       0.37449369       0.48900842 </v>
   <v>       0.71088039       0.37754721       0.47886008 </v>
   <v>       0.60677497       0.59312172       0.48985965 </v>
   <v>       0.93547874       0.87155144       0.50352185 </v>
   <v>       0.40452511       0.59760148       0.49815080 </v>
   <v>       0.73494768       0.86523935       0.49668863 </v>
   <v>       0.79827934       0.00131561       0.49678948 </v>
   <v>       0.93093470       0.07119166       0.49815081 </v>
   <v>       0.79065586       0.20443305       0.49044784 </v>
   <v>       0.92645497       0.27344147       0.48985966 </v>
   <v>       0.82194826       0.48861487       0.47841955 </v>
   <v>       0.94070656       0.49201793       0.48816656 </v>
   <v>       0.82535155       0.60737341       0.48816659 </v>
   <v>       0.95040365       0.68361294       0.50086218 </v>
   <v>       0.80344850       0.79778282       0.49608286 </v>
   <v>       0.74257744       0.66216589       0.48997508 </v>
   <v>       0.74547822       0.45057448       0.55691839 </v>
  </varray>
 </structure>
 <calculation>
  <scstep>
   <time name="dav">   45.59   45.59</time>
   <time name="total">   48.38   48.39</time>
   <energy>
    <i name="alphaZ">     53.42782116 </i>
    <i name="ewald">  56420.80042679 </i>
    <i name="hartreedc"> -61689.02399734 </i>
    <i name="XCdc">    670.78689150 </i>
    <i name="pawpsdc">   5505.55773403 </i>
    <i name="pawaedc">  -5549.36347127 </i>
    <i name="eentropy">     -0.02918513 </i>
    <i name="bandstr">  -1045.43384335 </i>
    <i name="atom">   7560.21751256 </i>
    <i name="e_fr_energy">   1926.93988894 </i>
    <i name="e_wo_entrp">   1926.96907407 </i>
    <i name="e_0_energy">   1926.95448151 </i>
   </energy>
  </scstep>
  <scstep>
   <time name="dav">   54.84   54.86</time>
   <time name="total">   54.84   54.89</time>
   <energy>
    <i name="e_fr_energy">     39.80291988 </i>
    <i name="e_wo_entrp">     39.80393739 </i>
    <i name="e_0_energy">     39.80342863 </i>
   </energy>
  </scstep>
  <scstep>
   <time name="dav">   47.96   47.99</time>
   <time name="total">   47.96   48.00</time>
   <energy>
    <i name="e_fr_energy">   -462.81089709 </i>
    <i name="e_wo_entrp">   -462.80102555 </i>
    <i name="e_0_energy">   -462.80596132 </i>
   </energy>
  </scstep>
  <scstep>
   <time name="dav">   47.01   47.02</time>
   <time name="total">   47.01   47.02</time>
   <energy>
    <i name="e_fr_energy">   -489.62551265 </i>
    <i name="e_wo_entrp">   -489.62064421 </i>
    <i name="e_0_energy">   -489.62307843 </i>
   </energy>
  </scstep>
  <scstep>
   <time name="dav">   50.30   50.31</time>
   <time name="total">   54.76   54.77</time>
   <energy>
    <i name="e_fr_energy">   -490.53128606 </i>
    <i name="e_wo_entrp">   -490.52668842 </i>
    <i name="e_0_energy">   -490.52898724 </i>
   </energy>
  </scstep>
  <scstep>
   <time name="dav">   42.41   42.41</time>
   <time name="total">   49.65   49.68</time>
   <energy>
    <i name="e_fr_energy">   -465.42649745 </i>
    <i name="e_wo_entrp">   -465.42183874 </i>
    <i name="e_0_energy">   -465.42416810 </i>
   </energy>
  </scstep>
  <scstep>
   <time name="dav">   42.96   42.96</time>
   <time name="total">   50.15   50.15</time>
   <energy>
    <i name="e_fr_energy">   -453.37573079 </i>
    <i name="e_wo_entrp">   -453.36993693 </i>
    <i name="e_0_energy">   -453.37283386 </i>
   </energy>
  </scstep>
  <scstep>
   <time name="dav">   43.15   43.15</time>
   <time name="total">   50.41   50.42</time>
   <energy>
    <i name="e_fr_energy">   -452.74658180 </i>
    <i name="e_wo_entrp">   -452.74094832 </i>
    <i name="e_0_energy">   -452.74376506 </i>
   </energy>
  </scstep>
  <scstep>
   <time name="dav">   47.50   47.51</time>
   <time name="total">   54.76   54.77</time>
   <energy>
    <i name="e_fr_energy">   -453.79356789 </i>
    <i name="e_wo_entrp">   -453.78804108 </i>
    <i name="e_0_energy">   -453.79080448 </i>
   </energy>
  </scstep>
  <scstep>
   <time name="dav">   40.22   40.24</time>
   <time name="total">   47.49   47.53</time>
   <energy>
    <i name="e_fr_energy">   -454.13235778 </i>
    <i name="e_wo_entrp">   -454.12696757 </i>
    <i name="e_0_energy">   -454.12966268 </i>
   </energy>
  </scstep>
  <scstep>
   <time name="dav">   46.22   46.25</time>
   <time name="total">   53.50   53.53</time>
   <energy>
    <i name="e_fr_energy">   -454.44206345 </i>
    <i name="e_wo_entrp">   -454.43675048 </i>
    <i name="e_0_energy">   -454.43940696 </i>
   </energy>
  </scstep>
  <scstep>
   <time name="dav">   40.52   40.52</time>
   <time name="total">   47.87   47.94</time>
   <energy>
    <i name="e_fr_energy">   -455.16912770 </i>
    <i name="e_wo_entrp">   -455.16385435 </i>
    <i name="e_0_energy">   -455.16649102 </i>
   </energy>
  </scstep>
  <scstep>
   <time name="dav">   40.23   40.24</time>
   <time name="total">   47.54   47.55</time>
   <energy>
    <i name="e_fr_energy">   -455.14983283 </i>
    <i name="e_wo_entrp">   -455.14431704 </i>
    <i name="e_0_energy">   -455.14707494 </i>
   </energy>
  </scstep>
  <scstep>
   <time name="dav">   41.09   41.11</time>
   <time name="total">   48.43   48.46</time>
   <energy>
    <i name="e_fr_energy">   -455.78005608 </i>
    <i name="e_wo_entrp">   -455.77428595 </i>
    <i name="e_0_energy">   -455.77717102 </i>
   </energy>
  </scstep>
  <scstep>
   <time name="dav">   41.97   41.99</time>
   <time name="total">   49.27   49.30</time>
   <energy>
    <i name="e_fr_energy">   -456.48544140 </i>
    <i name="e_wo_entrp">   -456.47937202 </i>
    <i name="e_0_energy">   -456.48240671 </i>
   </energy>
  </scstep>
  <scstep>
   <time name="dav">   41.90   41.93</time>
   <time name="total">   49.32   49.36</time>
   <energy>
    <i name="e_fr_energy">   -456.88581727 </i>
    <i name="e_wo_entrp">   -456.87955304 </i>
    <i name="e_0_energy">   -456.88268515 </i>
   </energy>
  </scstep>
  <scstep>
   <time name="dav">   41.53   41.56</time>
   <time name="total">   48.85   48.88</time>
   <energy>
    <i name="e_fr_energy">   -457.22315178 </i>
    <i name="e_wo_entrp">   -457.21671138 </i>
    <i name="e_0_energy">   -457.21993158 </i>
   </energy>
  </scstep>
  <scstep>
   <time name="dav">   41.86   41.89</time>
   <time name="total">   49.23   49.26</time>
   <energy>
    <i name="e_fr_energy">   -457.33367137 </i>
    <i name="e_wo_entrp">   -457.32711584 </i>
    <i name="e_0_energy">   -457.33039361 </i>
   </energy>
  </scstep>
  <scstep>
   <time name="dav">   42.84   42.86</time>
   <time name="total">   50.16   50.22</time>
   <energy>
    <i name="e_fr_energy">   -457.37359185 </i>
    <i name="e_wo_entrp">   -457.36696530 </i>
    <i name="e_0_energy">   -457.37027858 </i>
   </energy>
  </scstep>
  <scstep>
   <time name="dav">   42.35   42.38</time>
   <time name="total">   49.76   49.80</time>
   <energy>
    <i name="e_fr_energy">   -457.38803830 </i>
    <i name="e_wo_entrp">   -457.38133060 </i>
    <i name="e_0_energy">   -457.38468445 </i>
   </energy>
  </scstep>
  <scstep>
   <time name="dav">   42.21   42.23</time>
   <time name="total">   49.53   49.57</time>
   <energy>
    <i name="e_fr_energy">   -457.40414981 </i>
    <i name="e_wo_entrp">   -457.39739188 </i>
    <i name="e_0_energy">   -457.40077084 </i>
   </energy>
  </scstep>
  <scstep>
   <time name="dav">   41.47   41.49</time>
   <time name="total">   48.87   48.90</time>
   <energy>
    <i name="e_fr_energy">   -457.43247174 </i>
    <i name="e_wo_entrp">   -457.42568125 </i>
    <i name="e_0_energy">   -457.42907650 </i>
   </energy>
  </scstep>
  <scstep>
   <time name="dav">   41.14   41.16</time>
   <time name="total">   48.49   48.52</time>
   <energy>
    <i name="e_fr_energy">   -457.44651513 </i>
    <i name="e_wo_entrp">   -457.43971173 </i>
    <i name="e_0_energy">   -457.44311343 </i>
   </energy>
  </scstep>
  <scstep>
   <time name="dav">   37.39   37.42</time>
   <time name="total">   44.78   44.81</time>
   <energy>
    <i name="e_fr_energy">   -457.45097518 </i>
    <i name="e_wo_entrp">   -457.44417196 </i>
    <i name="e_0_energy">   -457.44757357 </i>
   </energy>
  </scstep>
  <scstep>
   <time name="dav">   36.14   36.17</time>
   <time name="total">   43.47   43.51</time>
   <energy>
    <i name="e_fr_energy">   -457.45306695 </i>
    <i name="e_wo_entrp">   -457.44626664 </i>
    <i name="e_0_energy">   -457.44966680 </i>
   </energy>
  </scstep>
  <scstep>
   <time name="dav">   35.98   36.00</time>
   <time name="total">   43.36   43.39</time>
   <energy>
    <i name="e_fr_energy">   -457.45394494 </i>
    <i name="e_wo_entrp">   -457.44714838 </i>
    <i name="e_0_energy">   -457.45054666 </i>
   </energy>
  </scstep>
  <scstep>
   <time name="dav">   34.63   34.65</time>
   <time name="total">   42.01   42.04</time>
   <energy>
    <i name="e_fr_energy">   -457.45433532 </i>
    <i name="e_wo_entrp">   -457.44754267 </i>
    <i name="e_0_energy">   -457.45093899 </i>
   </energy>
  </scstep>
  <scstep>
   <time name="dav">   33.86   33.89</time>
   <time name="total">   41.30   41.33</time>
   <energy>
    <i name="e_fr_energy">   -457.45456367 </i>
    <i name="e_wo_entrp">   -457.44777358 </i>
    <i name="e_0_energy">   -457.45116863 </i>
   </energy>
  </scstep>
  <scstep>
   <time name="dav">   32.07   32.10</time>
   <time name="total">   39.45   39.47</time>
   <energy>
    <i name="e_fr_energy">   -457.45467385 </i>
    <i name="e_wo_entrp">   -457.44788485 </i>
    <i name="e_0_energy">   -457.45127935 </i>
   </energy>
  </scstep>
  <scstep>
   <time name="dav">   31.42   31.44</time>
   <time name="total">   38.85   38.88</time>
   <energy>
    <i name="e_fr_energy">   -457.45474641 </i>
    <i name="e_wo_entrp">   -457.44795832 </i>
    <i name="e_0_energy">   -457.45135236 </i>
   </energy>
  </scstep>
  <scstep>
   <time name="dav">   31.66   31.68</time>
   <time name="total">   39.04   39.07</time>
   <energy>
    <i name="e_fr_energy">   -457.45478572 </i>
    <i name="e_wo_entrp">   -457.44799822 </i>
    <i name="e_0_energy">   -457.45139197 </i>
   </energy>
  </scstep>
  <scstep>
   <time name="dav">   31.23   31.25</time>
   <time name="total">   38.70   38.74</time>
   <energy>
    <i name="e_fr_energy">   -457.45480256 </i>
    <i name="e_wo_entrp">   -457.44801532 </i>
    <i name="e_0_energy">   -457.45140894 </i>
   </energy>
  </scstep>
  <scstep>
   <time name="dav">   31.27   31.27</time>
   <time name="total">   38.69   38.70</time>
   <energy>
    <i name="e_fr_energy">   -457.45480934 </i>
    <i name="e_wo_entrp">   -457.44802210 </i>
    <i name="e_0_energy">   -457.45141572 </i>
   </energy>
  </scstep>
  <scstep>
   <time name="dav">   31.13   31.15</time>
   <time name="total">   38.59   38.61</time>
   <energy>
    <i name="e_fr_energy">   -457.45481165 </i>
    <i name="e_wo_entrp">   -457.44802440 </i>
    <i name="e_0_energy">   -457.45141802 </i>
   </energy>
  </scstep>
  <scstep>
   <time name="dav">   30.66   30.68</time>
   <time name="total">   38.08   38.10</time>
   <energy>
    <i name="e_fr_energy">   -457.45481267 </i>
    <i name="e_wo_entrp">   -457.44802546 </i>
    <i name="e_0_energy">   -457.45141907 </i>
   </energy>
  </scstep>
  <scstep>
   <time name="dav">   29.92   29.94</time>
   <time name="total">   32.83   32.85</time>
   <energy>
    <i name="alphaZ">     53.42782116 </i>
    <i name="ewald">  56420.80042679 </i>
    <i name="hartreedc"> -62659.86839214 </i>
    <i name="XCdc">    700.32467936 </i>
    <i name="pawpsdc">  20707.25293906 </i>
    <i name="pawaedc"> -20757.48465579 </i>
    <i name="eentropy">     -0.00678717 </i>
    <i name="bandstr">  -2482.11835699 </i>
    <i name="atom">   7560.21751256 </i>
    <i name="e_fr_energy">   -457.45481316 </i>
    <i name="e_wo_entrp">   -457.44802600 </i>
    <i name="e_0_energy">   -457.45141958 </i>
   </energy>
  </scstep>
  <structure>
   <crystal>
    <varray name="basis" >
     <v>      12.30000000       0.00000000       0.00000000 </v>
     <v>      -6.15000000      10.65211247       0.00000000 </v>
     <v>       0.00000000       0.00000000      30.00000000 </v>
    </varray>
    <i name="volume">   3930.62950016 </i>
    <varray name="rec_basis" >
     <v>       0.08130081       0.04693905       0.00000000 </v>
     <v>       0.00000000       0.09387809       0.00000000 </v>
     <v>       0.00000000       0.00000000       0.03333333 </v>
    </varray>
   </crystal>
   <varray name="positions" >
    <v>       0.99824632       0.00451485       0.50456974 </v>
    <v>       0.13064214       0.06937547       0.51014723 </v>
    <v>       0.99450334       0.20543693       0.49533941 </v>
    <v>       0.12874344       0.26897822       0.49821997 </v>
    <v>       0.99549924       0.40924387       0.48997498 </v>
    <v>       0.13111623       0.47011518       0.49608251 </v>
    <v>       0.01694627       0.61707021       0.50086202 </v>
    <v>       0.14368459       0.67346735       0.50906859 </v>
    <v>       0.00680056       0.81035110       0.50906906 </v>
    <v>       0.13634663       0.87093284       0.51710703 </v>
    <v>       0.19769422       0.00223603       0.51731135 </v>
    <v>       0.51663516       0.24987308       0.50229483 </v>
    <v>       0.40218667       0.39650253       0.49661258 </v>
    <v>       0.32847798       0.26460571       0.50429262 </v>
    <v>       0.19857260       0.40161433       0.49668863 </v>
    <v>       0.33464895       0.46494607       0.49678961 </v>
    <v>       0.20488481       0.60214560       0.50352156 </v>
    <v>       0.33784857       0.66491353       0.50456968 </v>
    <v>       0.20426646       0.80301336       0.51710687 </v>
    <v>       0.33556953       0.86436090       0.51731135 </v>
    <v>       0.39697042       0.99568090       0.51793013 </v>
    <v>       0.52677657       0.05640753       0.51029899 </v>
    <v>       0.38974075       0.19344334       0.51029902 </v>
    <v>       0.32901416       0.06363699       0.51793012 </v>
    <v>       0.19546749       0.20182835       0.50490773 </v>
    <v>       0.53776641       0.45732263       0.49044788 </v>
    <v>       0.60231162       0.79541019       0.49821990 </v>
    <v>       0.53877040       0.66117011       0.49533946 </v>
    <v>       0.40270914       0.79730880       0.51014714 </v>
    <v>       0.53516185       0.86213429       0.50490773 </v>
    <v>       0.59793910       0.99514473       0.50429256 </v>
    <v>       0.72983580       0.06885333       0.49661244 </v>
    <v>       0.58320626       0.18330190       0.50229480 </v>
    <v>       0.70782687       0.25920486       0.48900840 </v>
    <v>       0.59253813       0.37449369       0.48900842 </v>
    <v>       0.71088039       0.37754721       0.47886008 </v>
    <v>       0.60677497       0.59312172       0.48985965 </v>
    <v>       0.93547874       0.87155144       0.50352185 </v>
    <v>       0.40452511       0.59760148       0.49815080 </v>
    <v>       0.73494768       0.86523935       0.49668863 </v>
    <v>       0.79827934       0.00131561       0.49678948 </v>
    <v>       0.93093470       0.07119166       0.49815081 </v>
    <v>       0.79065586       0.20443305       0.49044784 </v>
    <v>       0.92645497       0.27344147       0.48985966 </v>
    <v>       0.82194826       0.48861487       0.47841955 </v>
    <v>       0.94070656       0.49201793       0.48816656 </v>
    <v>       0.82535155       0.60737341       0.48816659 </v>
    <v>       0.95040365       0.68361294       0.50086218 </v>
    <v>       0.80344850       0.79778282       0.49608286 </v>
    <v>       0.74257744       0.66216589       0.48997508 </v>
    <v>       0.74547822       0.45057448       0.55691839 </v>
   </varray>
  </structure>
  <varray name="forces" >
   <v>      -0.02452192       0.00628483       0.00453171 </v>
   <v>       0.00033085      -0.00875008       0.00754500 </v>
   <v>      -0.00050375      -0.00700676      -0.01110450 </v>
   <v>       0.01320514      -0.01055193       0.00780183 </v>
   <v>      -0.10016171       0.05756710       0.00712822 </v>
   <v>       0.02045613       0.01743640       0.00817870 </v>
   <v>      -0.00424631      -0.09280814      -0.04150596 </v>
   <v>       0.02022974       0.00408000       0.01329281 </v>
   <v>      -0.00079456       0.01208966       0.00736909 </v>
   <v>       0.02100918      -0.00201611       0.00528510 </v>
   <v>      -0.01495867      -0.00158570       0.00515193 </v>
   <v>       0.00532586      -0.02935925       0.06767231 </v>
   <v>      -0.02641329       0.00940800       0.00440785 </v>
   <v>      -0.00431104      -0.00717598      -0.00280974 </v>
   <v>      -0.00499349       0.02121017      -0.00690246 </v>
   <v>       0.00177403      -0.01391148      -0.00701515 </v>
   <v>      -0.00816749      -0.00343516       0.00859122 </v>
   <v>       0.02139360      -0.00830372       0.00494505 </v>
   <v>      -0.00314786       0.00632659       0.00184331 </v>
   <v>       0.00317985      -0.01150846       0.00736939 </v>
   <v>      -0.00300473      -0.00179515      -0.00028605 </v>
   <v>       0.00709897      -0.01809168       0.00988750 </v>
   <v>      -0.01054119      -0.00637689       0.00463614 </v>
   <v>       0.01008426      -0.01354787       0.00341294 </v>
   <v>      -0.00950521       0.00116784       0.00630922 </v>
   <v>      -0.02265100      -0.01041677       0.00205644 </v>
   <v>      -0.02371042       0.00994089       0.00868582 </v>
   <v>      -0.01129139      -0.00095667      -0.01062227 </v>
   <v>      -0.00034064      -0.00792276       0.00718994 </v>
   <v>      -0.00118152      -0.01675682       0.00654772 </v>
   <v>       0.00035328       0.01577283       0.00682123 </v>
   <v>       0.00620105      -0.01545922       0.00410712 </v>
   <v>       0.08313048       0.05053141      -0.03548969 </v>
   <v>      -0.01457559      -0.07555630      -0.10551639 </v>
   <v>       0.00304691       0.07195745       0.06065275 </v>
   <v>       0.19206546       0.12786365       0.55221429 </v>
   <v>      -0.03682798       0.01335468      -0.00785035 </v>
   <v>       0.00573480       0.01380235      -0.00038651 </v>
   <v>      -0.03124498       0.02077907       0.01081534 </v>
   <v>       0.01680450       0.01228706      -0.00565654 </v>
   <v>      -0.01724587      -0.00047333      -0.00830829 </v>
   <v>       0.02596354      -0.01305321       0.01010169 </v>
   <v>      -0.09406706       0.05335079       0.01015820 </v>
   <v>      -0.01929129       0.00518134      -0.00765853 </v>
   <v>      -0.01378157      -0.22141814       0.54471083 </v>
   <v>       0.06245588       0.06018818      -0.11550466 </v>
   <v>      -0.04919849      -0.02267790       0.04908373 </v>
   <v>       0.02736443       0.00909745       0.05557201 </v>
   <v>      -0.00951414       0.02740354       0.00831634 </v>
   <v>       0.01262185       0.01895796       0.00002613 </v>
   <v>       0.00036335      -0.02512378      -1.15580183 </v>
  </varray>
  <varray name="stress" >
   <v>      -7.58673436      15.04596390      -0.00830388 </v>
   <v>      15.04596389       9.78372949      -0.02795288 </v>
   <v>      -0.00830385      -0.02795282      -1.19078944 </v>
  </varray>
  <energy>
   <i name="e_fr_energy">   -457.45481316 </i>
   <i name="e_wo_entrp">   -457.45141958 </i>
   <i name="e_0_energy">     -0.00678717 </i>
  </energy>
  <time name="totalsc"> 1744.49 1745.60</time>
  <eigenvalues>
   <array>
    <dimension dim="1">band</dimension>
    <dimension dim="2">kpoint</dimension>
    <dimension dim="3">spin</dimension>
    <field>eigene</field>
    <field>occ</field>
    <set>
     <set comment="spin 1">
      <set comment="kpoint 1">
       <r>  -52.5887    1.0000 </r>
       <r>  -22.3558    1.0000 </r>
       <r>  -21.7366    1.0000 </r>
       <r>  -21.5430    1.0000 </r>
       <r>  -21.3291    1.0000 </r>
       <r>  -21.3069    1.0000 </r>
       <r>  -21.2373    1.0000 </r>
       <r>  -21.0165    1.0000 </r>
       <r>  -19.9479    1.0000 </r>
       <r>  -19.5760    1.0000 </r>
       <r>  -19.5294    1.0000 </r>
       <r>  -19.4266    1.0000 </r>
       <r>  -19.3517    1.0000 </r>
       <r>  -19.2785    1.0000 </r>
       <r>  -18.7874    1.0000 </r>
       <r>  -18.6494    1.0000 </r>
       <r>  -18.6183    1.0000 </r>
       <r>  -18.5322    1.0000 </r>
       <r>  -18.4844    1.0000 </r>
       <r>  -18.1266    1.0000 </r>
       <r>  -16.5968    1.0000 </r>
       <r>  -16.5506    1.0000 </r>
       <r>  -16.4718    1.0000 </r>
       <r>  -16.3187    1.0000 </r>
       <r>  -16.2469    1.0000 </r>
       <r>  -16.2197    1.0000 </r>
       <r>  -16.0843    1.0000 </r>
       <r>  -15.5505    1.0000 </r>
       <r>  -15.4024    1.0000 </r>
       <r>  -15.3331    1.0000 </r>
       <r>  -15.1619    1.0000 </r>
       <r>  -14.9905    1.0000 </r>
       <r>  -14.3092    1.0000 </r>
       <r>  -14.2681    1.0000 </r>
       <r>  -14.0667    1.0000 </r>
       <r>  -14.0037    1.0000 </r>
       <r>  -13.9236    1.0000 </r>
       <r>  -13.3668    1.0000 </r>
       <r>  -12.1497    1.0000 </r>
       <r>  -11.9764    1.0000 </r>
       <r>  -11.7969    1.0000 </r>
       <r>  -11.7782    1.0000 </r>
       <r>  -11.7026    1.0000 </r>
       <r>  -11.6292    1.0000 </r>
       <r>  -11.6220    1.0000 </r>
       <r>  -11.6095    1.0000 </r>
       <r>  -11.4574    1.0000 </r>
       <r>  -11.4418    1.0000 </r>
       <r>  -11.1250    1.0000 </r>
       <r>  -11.0664    1.0000 </r>
       <r>  -10.6533    1.0000 </r>
       <r>  -10.4782    1.0000 </r>
       <r>  -10.4094    1.0000 </r>
       <r>  -10.2127    1.0000 </r>
       <r>  -10.1599    1.0000 </r>
       <r>  -10.1183    1.0000 </r>
       <r>   -9.8842    1.0000 </r>
       <r>   -9.6116    1.0000 </r>
       <r>   -9.5491    1.0000 </r>
       <r>   -9.3007    1.0000 </r>
       <r>   -9.2811    1.0000 </r>
       <r>   -9.2118    1.0000 </r>
       <r>   -9.1115    1.0000 </r>
       <r>   -9.0722    1.0000 </r>
       <r>   -9.0319    1.0000 </r>
       <r>   -9.0226    1.0000 </r>
       <r>   -9.0081    1.0000 </r>
       <r>   -8.9338    1.0000 </r>
       <r>   -8.8549    1.0000 </r>
       <r>   -8.8508    1.0000 </r>
       <r>   -8.7259    1.0000 </r>
       <r>   -8.6227    1.0000 </r>
       <r>   -8.6173    1.0000 </r>
       <r>   -8.6108    1.0000 </r>
       <r>   -7.9862    1.0000 </r>
       <r>   -7.4657    1.0000 </r>
       <r>   -7.4534    1.0000 </r>
       <r>   -7.3695    1.0000 </r>
       <r>   -7.3100    1.0000 </r>
       <r>   -7.2936    1.0000 </r>
       <r>   -7.2737    1.0000 </r>
       <r>   -7.2382    1.0000 </r>
       <r>   -7.1799    1.0000 </r>
       <r>   -7.0668    1.0000 </r>
       <r>   -6.9853    1.0000 </r>
       <r>   -6.9683    1.0000 </r>
       <r>   -6.9579    1.0000 </r>
       <r>   -6.3619    1.0000 </r>
       <r>   -6.3511    1.0000 </r>
       <r>   -6.2662    1.0000 </r>
       <r>   -6.1946    1.0000 </r>
       <r>   -6.1783    1.0000 </r>
       <r>   -6.1023    1.0000 </r>
       <r>   -5.9618    1.0000 </r>
       <r>   -5.6807    1.0000 </r>
       <r>   -4.3755    1.0000 </r>
       <r>   -4.2689    1.0000 </r>
       <r>   -4.2577    1.0000 </r>
       <r>   -4.2557    1.0000 </r>
       <r>   -4.1397    1.0000 </r>
       <r>   -3.9022    1.0000 </r>
       <r>   -2.7530    1.0000 </r>
       <r>   -1.7270    0.0000 </r>
       <r>   -1.6459    0.0000 </r>
       <r>   -1.5172    0.0000 </r>
       <r>   -1.3530    0.0000 </r>
       <r>   -1.3148    0.0000 </r>
       <r>   -0.9888    0.0000 </r>
       <r>   -0.5710    0.0000 </r>
       <r>    0.1511    0.0000 </r>
       <r>    0.2537    0.0000 </r>
       <r>    0.3273    0.0000 </r>
       <r>    0.3743    0.0000 </r>
       <r>    0.3911    0.0000 </r>
       <r>    0.4564    0.0000 </r>
       <r>    0.5037    0.0000 </r>
       <r>    0.7724    0.0000 </r>
       <r>    0.9599    0.0000 </r>
       <r>    1.0208    0.0000 </r>
       <r>    1.3543    0.0000 </r>
       <r>    1.4250    0.0000 </r>
       <r>    1.4298    0.0000 </r>
       <r>    1.5095    0.0000 </r>
       <r>    1.5332    0.0000 </r>
       <r>    1.6582    0.0000 </r>
       <r>    1.7107    0.0000 </r>
       <r>    1.7376    0.0000 </r>
       <r>    1.8426    0.0000 </r>
       <r>    1.9334    0.0000 </r>
       <r>    2.0637    0.0000 </r>
       <r>    2.0766    0.0000 </r>
       <r>    2.1320    0.0000 </r>
      </set>
      <set comment="kpoint 2">
       <r>  -52.5887    1.0000 </r>
       <r>  -22.2630    1.0000 </r>
       <r>  -22.0026    1.0000 </r>
       <r>  -21.6070    1.0000 </r>
       <r>  -21.4698    1.0000 </r>
       <r>  -21.1053    1.0000 </r>
       <r>  -20.8839    1.0000 </r>
       <r>  -20.5682    1.0000 </r>
       <r>  -20.4352    1.0000 </r>
       <r>  -20.1929    1.0000 </r>
       <r>  -19.7150    1.0000 </r>
       <r>  -19.4464    1.0000 </r>
       <r>  -19.3142    1.0000 </r>
       <r>  -19.1252    1.0000 </r>
       <r>  -18.9862    1.0000 </r>
       <r>  -18.5391    1.0000 </r>
       <r>  -18.4154    1.0000 </r>
       <r>  -17.9586    1.0000 </r>
       <r>  -17.8238    1.0000 </r>
       <r>  -17.4788    1.0000 </r>
       <r>  -17.3672    1.0000 </r>
       <r>  -17.3075    1.0000 </r>
       <r>  -17.0819    1.0000 </r>
       <r>  -16.9471    1.0000 </r>
       <r>  -16.3159    1.0000 </r>
       <r>  -16.1900    1.0000 </r>
       <r>  -15.7704    1.0000 </r>
       <r>  -15.2694    1.0000 </r>
       <r>  -15.2251    1.0000 </r>
       <r>  -14.9870    1.0000 </r>
       <r>  -14.8419    1.0000 </r>
       <r>  -14.7065    1.0000 </r>
       <r>  -14.6116    1.0000 </r>
       <r>  -14.3799    1.0000 </r>
       <r>  -14.0955    1.0000 </r>
       <r>  -13.2953    1.0000 </r>
       <r>  -13.2097    1.0000 </r>
       <r>  -13.1248    1.0000 </r>
       <r>  -12.9962    1.0000 </r>
       <r>  -12.7644    1.0000 </r>
       <r>  -12.5040    1.0000 </r>
       <r>  -12.2813    1.0000 </r>
       <r>  -12.1175    1.0000 </r>
       <r>  -12.0369    1.0000 </r>
       <r>  -11.5170    1.0000 </r>
       <r>  -11.4020    1.0000 </r>
       <r>  -11.2005    1.0000 </r>
       <r>  -10.8907    1.0000 </r>
       <r>  -10.6892    1.0000 </r>
       <r>  -10.5989    1.0000 </r>
       <r>  -10.5627    1.0000 </r>
       <r>  -10.4355    1.0000 </r>
       <r>  -10.3480    1.0000 </r>
       <r>  -10.2453    1.0000 </r>
       <r>  -10.0102    1.0000 </r>
       <r>   -9.9113    1.0000 </r>
       <r>   -9.7557    1.0000 </r>
       <r>   -9.7012    1.0000 </r>
       <r>   -9.6622    1.0000 </r>
       <r>   -9.5893    1.0000 </r>
       <r>   -9.4409    1.0000 </r>
       <r>   -9.3254    1.0000 </r>
       <r>   -9.2554    1.0000 </r>
       <r>   -9.1962    1.0000 </r>
       <r>   -9.1159    1.0000 </r>
       <r>   -9.0421    1.0000 </r>
       <r>   -8.9674    1.0000 </r>
       <r>   -8.8996    1.0000 </r>
       <r>   -8.7685    1.0000 </r>
       <r>   -8.7069    1.0000 </r>
       <r>   -8.4440    1.0000 </r>
       <r>   -8.3834    1.0000 </r>
       <r>   -8.2504    1.0000 </r>
       <r>   -8.2060    1.0000 </r>
       <r>   -8.0828    1.0000 </r>
       <r>   -8.0054    1.0000 </r>
       <r>   -7.9817    1.0000 </r>
       <r>   -7.9121    1.0000 </r>
       <r>   -7.5215    1.0000 </r>
       <r>   -7.4267    1.0000 </r>
       <r>   -7.3068    1.0000 </r>
       <r>   -7.1824    1.0000 </r>
       <r>   -7.0803    1.0000 </r>
       <r>   -7.0051    1.0000 </r>
       <r>   -6.8266    1.0000 </r>
       <r>   -6.7739    1.0000 </r>
       <r>   -6.7616    1.0000 </r>
       <r>   -6.6284    1.0000 </r>
       <r>   -6.3273    1.0000 </r>
       <r>   -6.1241    1.0000 </r>
       <r>   -6.0627    1.0000 </r>
       <r>   -5.9904    1.0000 </r>
       <r>   -5.6682    1.0000 </r>
       <r>   -5.5299    1.0000 </r>
       <r>   -5.2127    1.0000 </r>
       <r>   -4.9950    1.0000 </r>
       <r>   -4.9443    1.0000 </r>
       <r>   -4.7881    1.0000 </r>
       <r>   -4.7038    1.0000 </r>
       <r>   -3.9197    1.0000 </r>
       <r>   -3.6040    1.0000 </r>
       <r>   -2.5836    0.7068 </r>
       <r>   -1.8425    0.0000 </r>
       <r>   -1.5438    0.0000 </r>
       <r>   -1.3541    0.0000 </r>
       <r>   -1.0278    0.0000 </r>
       <r>   -0.9597    0.0000 </r>
       <r>   -0.8069    0.0000 </r>
       <r>   -0.7981    0.0000 </r>
       <r>   -0.4603    0.0000 </r>
       <r>   -0.0653    0.0000 </r>
       <r>    0.1786    0.0000 </r>
       <r>    0.3272    0.0000 </r>
       <r>    0.4402    0.0000 </r>
       <r>    0.5676    0.0000 </r>
       <r>    0.7862    0.0000 </r>
       <r>    0.8505    0.0000 </r>
       <r>    0.9784    0.0000 </r>
       <r>    1.1055    0.0000 </r>
       <r>    1.1817    0.0000 </r>
       <r>    1.3102    0.0000 </r>
       <r>    1.3683    0.0000 </r>
       <r>    1.4784    0.0000 </r>
       <r>    1.5220    0.0000 </r>
       <r>    1.5794    0.0000 </r>
       <r>    1.6078    0.0000 </r>
       <r>    1.6600    0.0000 </r>
       <r>    1.7033    0.0000 </r>
       <r>    1.7925    0.0000 </r>
       <r>    1.8218    0.0000 </r>
       <r>    1.8414    0.0000 </r>
       <r>    2.0050    0.0000 </r>
      </set>
      <set comment="kpoint 3">
       <r>  -52.5887    1.0000 </r>
       <r>  -22.2629    1.0000 </r>
       <r>  -22.0027    1.0000 </r>
       <r>  -21.6070    1.0000 </r>
       <r>  -21.4698    1.0000 </r>
       <r>  -21.1051    1.0000 </r>
       <r>  -20.8842    1.0000 </r>
       <r>  -20.5680    1.0000 </r>
       <r>  -20.4350    1.0000 </r>
       <r>  -20.1933    1.0000 </r>
       <r>  -19.7150    1.0000 </r>
       <r>  -19.4463    1.0000 </r>
       <r>  -19.3138    1.0000 </r>
       <r>  -19.1253    1.0000 </r>
       <r>  -18.9863    1.0000 </r>
       <r>  -18.5386    1.0000 </r>
       <r>  -18.4158    1.0000 </r>
       <r>  -17.9586    1.0000 </r>
       <r>  -17.8239    1.0000 </r>
       <r>  -17.4786    1.0000 </r>
       <r>  -17.3672    1.0000 </r>
       <r>  -17.3078    1.0000 </r>
       <r>  -17.0819    1.0000 </r>
       <r>  -16.9471    1.0000 </r>
       <r>  -16.3159    1.0000 </r>
       <r>  -16.1899    1.0000 </r>
       <r>  -15.7703    1.0000 </r>
       <r>  -15.2696    1.0000 </r>
       <r>  -15.2249    1.0000 </r>
       <r>  -14.9868    1.0000 </r>
       <r>  -14.8418    1.0000 </r>
       <r>  -14.7065    1.0000 </r>
       <r>  -14.6119    1.0000 </r>
       <r>  -14.3801    1.0000 </r>
       <r>  -14.0954    1.0000 </r>
       <r>  -13.2955    1.0000 </r>
       <r>  -13.2093    1.0000 </r>
       <r>  -13.1248    1.0000 </r>
       <r>  -12.9965    1.0000 </r>
       <r>  -12.7643    1.0000 </r>
       <r>  -12.5041    1.0000 </r>
       <r>  -12.2813    1.0000 </r>
       <r>  -12.1176    1.0000 </r>
       <r>  -12.0369    1.0000 </r>
       <r>  -11.5172    1.0000 </r>
       <r>  -11.4016    1.0000 </r>
       <r>  -11.2005    1.0000 </r>
       <r>  -10.8907    1.0000 </r>
       <r>  -10.6895    1.0000 </r>
       <r>  -10.5989    1.0000 </r>
       <r>  -10.5628    1.0000 </r>
       <r>  -10.4353    1.0000 </r>
       <r>  -10.3475    1.0000 </r>
       <r>  -10.2455    1.0000 </r>
       <r>  -10.0103    1.0000 </r>
       <r>   -9.9114    1.0000 </r>
       <r>   -9.7558    1.0000 </r>
       <r>   -9.7015    1.0000 </r>
       <r>   -9.6623    1.0000 </r>
       <r>   -9.5889    1.0000 </r>
       <r>   -9.4410    1.0000 </r>
       <r>   -9.3256    1.0000 </r>
       <r>   -9.2558    1.0000 </r>
       <r>   -9.1957    1.0000 </r>
       <r>   -9.1158    1.0000 </r>
       <r>   -9.0418    1.0000 </r>
       <r>   -8.9673    1.0000 </r>
       <r>   -8.8995    1.0000 </r>
       <r>   -8.7692    1.0000 </r>
       <r>   -8.7068    1.0000 </r>
       <r>   -8.4438    1.0000 </r>
       <r>   -8.3833    1.0000 </r>
       <r>   -8.2504    1.0000 </r>
       <r>   -8.2055    1.0000 </r>
       <r>   -8.0830    1.0000 </r>
       <r>   -8.0057    1.0000 </r>
       <r>   -7.9814    1.0000 </r>
       <r>   -7.9124    1.0000 </r>
       <r>   -7.5215    1.0000 </r>
       <r>   -7.4274    1.0000 </r>
       <r>   -7.3067    1.0000 </r>
       <r>   -7.1820    1.0000 </r>
       <r>   -7.0797    1.0000 </r>
       <r>   -7.0055    1.0000 </r>
       <r>   -6.8262    1.0000 </r>
       <r>   -6.7740    1.0000 </r>
       <r>   -6.7618    1.0000 </r>
       <r>   -6.6288    1.0000 </r>
       <r>   -6.3274    1.0000 </r>
       <r>   -6.1233    1.0000 </r>
       <r>   -6.0629    1.0000 </r>
       <r>   -5.9905    1.0000 </r>
       <r>   -5.6681    1.0000 </r>
       <r>   -5.5302    1.0000 </r>
       <r>   -5.2123    1.0000 </r>
       <r>   -4.9953    1.0000 </r>
       <r>   -4.9441    1.0000 </r>
       <r>   -4.7884    1.0000 </r>
       <r>   -4.7035    1.0000 </r>
       <r>   -3.9207    1.0000 </r>
       <r>   -3.6033    1.0000 </r>
       <r>   -2.5840    0.7114 </r>
       <r>   -1.8416    0.0000 </r>
       <r>   -1.5436    0.0000 </r>
       <r>   -1.3537    0.0000 </r>
       <r>   -1.0287    0.0000 </r>
       <r>   -0.9600    0.0000 </r>
       <r>   -0.8065    0.0000 </r>
       <r>   -0.7991    0.0000 </r>
       <r>   -0.4605    0.0000 </r>
       <r>   -0.0642    0.0000 </r>
       <r>    0.1799    0.0000 </r>
       <r>    0.3267    0.0000 </r>
       <r>    0.4397    0.0000 </r>
       <r>    0.5678    0.0000 </r>
       <r>    0.7843    0.0000 </r>
       <r>    0.8512    0.0000 </r>
       <r>    0.9786    0.0000 </r>
       <r>    1.1065    0.0000 </r>
       <r>    1.1810    0.0000 </r>
       <r>    1.3118    0.0000 </r>
       <r>    1.3676    0.0000 </r>
       <r>    1.4785    0.0000 </r>
       <r>    1.5226    0.0000 </r>
       <r>    1.5798    0.0000 </r>
       <r>    1.6078    0.0000 </r>
       <r>    1.6592    0.0000 </r>
       <r>    1.7021    0.0000 </r>
       <r>    1.7930    0.0000 </r>
       <r>    1.8213    0.0000 </r>
       <r>    1.8415    0.0000 </r>
       <r>    2.0052    0.0000 </r>
      </set>
      <set comment="kpoint 4">
       <r>  -52.5887    1.0000 </r>
       <r>  -22.1833    1.0000 </r>
       <r>  -22.0638    1.0000 </r>
       <r>  -21.8305    1.0000 </r>
       <r>  -21.2268    1.0000 </r>
       <r>  -21.0805    1.0000 </r>
       <r>  -20.9103    1.0000 </r>
       <r>  -20.3905    1.0000 </r>
       <r>  -20.2017    1.0000 </r>
       <r>  -20.1373    1.0000 </r>
       <r>  -20.0620    1.0000 </r>
       <r>  -19.9597    1.0000 </r>
       <r>  -19.7406    1.0000 </r>
       <r>  -18.6106    1.0000 </r>
       <r>  -18.3837    1.0000 </r>
       <r>  -18.3547    1.0000 </r>
       <r>  -18.2973    1.0000 </r>
       <r>  -18.1403    1.0000 </r>
       <r>  -17.9978    1.0000 </r>
       <r>  -17.5029    1.0000 </r>
       <r>  -17.4372    1.0000 </r>
       <r>  -17.4125    1.0000 </r>
       <r>  -16.9287    1.0000 </r>
       <r>  -16.8945    1.0000 </r>
       <r>  -16.7825    1.0000 </r>
       <r>  -16.2707    1.0000 </r>
       <r>  -15.7776    1.0000 </r>
       <r>  -15.6495    1.0000 </r>
       <r>  -15.3043    1.0000 </r>
       <r>  -15.2431    1.0000 </r>
       <r>  -14.3192    1.0000 </r>
       <r>  -14.0896    1.0000 </r>
       <r>  -13.8941    1.0000 </r>
       <r>  -13.8633    1.0000 </r>
       <r>  -13.8237    1.0000 </r>
       <r>  -13.7859    1.0000 </r>
       <r>  -13.6961    1.0000 </r>
       <r>  -13.6344    1.0000 </r>
       <r>  -13.2619    1.0000 </r>
       <r>  -13.0271    1.0000 </r>
       <r>  -12.5341    1.0000 </r>
       <r>  -12.0815    1.0000 </r>
       <r>  -12.0700    1.0000 </r>
       <r>  -11.6862    1.0000 </r>
       <r>  -11.5470    1.0000 </r>
       <r>  -11.5033    1.0000 </r>
       <r>  -11.3420    1.0000 </r>
       <r>  -11.2596    1.0000 </r>
       <r>  -10.9993    1.0000 </r>
       <r>  -10.4333    1.0000 </r>
       <r>  -10.2689    1.0000 </r>
       <r>  -10.2597    1.0000 </r>
       <r>  -10.2438    1.0000 </r>
       <r>  -10.1030    1.0000 </r>
       <r>  -10.0767    1.0000 </r>
       <r>  -10.0703    1.0000 </r>
       <r>   -9.9613    1.0000 </r>
       <r>   -9.9307    1.0000 </r>
       <r>   -9.5247    1.0000 </r>
       <r>   -9.4003    1.0000 </r>
       <r>   -9.3707    1.0000 </r>
       <r>   -9.2308    1.0000 </r>
       <r>   -9.1703    1.0000 </r>
       <r>   -9.1640    1.0000 </r>
       <r>   -9.0639    1.0000 </r>
       <r>   -8.9908    1.0000 </r>
       <r>   -8.8624    1.0000 </r>
       <r>   -8.7393    1.0000 </r>
       <r>   -8.6407    1.0000 </r>
       <r>   -8.5883    1.0000 </r>
       <r>   -8.5723    1.0000 </r>
       <r>   -8.4453    1.0000 </r>
       <r>   -8.3200    1.0000 </r>
       <r>   -8.1903    1.0000 </r>
       <r>   -8.0676    1.0000 </r>
       <r>   -8.0251    1.0000 </r>
       <r>   -7.9800    1.0000 </r>
       <r>   -7.8784    1.0000 </r>
       <r>   -7.8298    1.0000 </r>
       <r>   -7.7824    1.0000 </r>
       <r>   -7.6043    1.0000 </r>
       <r>   -7.3644    1.0000 </r>
       <r>   -7.0954    1.0000 </r>
       <r>   -6.9484    1.0000 </r>
       <r>   -6.8796    1.0000 </r>
       <r>   -6.7130    1.0000 </r>
       <r>   -6.4025    1.0000 </r>
       <r>   -6.3245    1.0000 </r>
       <r>   -6.0960    1.0000 </r>
       <r>   -6.0234    1.0000 </r>
       <r>   -5.9573    1.0000 </r>
       <r>   -5.8710    1.0000 </r>
       <r>   -5.7606    1.0000 </r>
       <r>   -5.6975    1.0000 </r>
       <r>   -5.1281    1.0000 </r>
       <r>   -5.0691    1.0000 </r>
       <r>   -4.9561    1.0000 </r>
       <r>   -4.9101    1.0000 </r>
       <r>   -4.8468    1.0000 </r>
       <r>   -4.5064    1.0000 </r>
       <r>   -2.9023    1.0000 </r>
       <r>   -2.7481    1.0000 </r>
       <r>   -2.3586    0.0000 </r>
       <r>   -1.4004    0.0000 </r>
       <r>   -1.1368    0.0000 </r>
       <r>   -1.0368    0.0000 </r>
       <r>   -0.6690    0.0000 </r>
       <r>   -0.6544    0.0000 </r>
       <r>   -0.5418    0.0000 </r>
       <r>   -0.4662    0.0000 </r>
       <r>    0.0549    0.0000 </r>
       <r>    0.1436    0.0000 </r>
       <r>    0.1756    0.0000 </r>
       <r>    0.1877    0.0000 </r>
       <r>    0.2200    0.0000 </r>
       <r>    0.3161    0.0000 </r>
       <r>    1.0164    0.0000 </r>
       <r>    1.0456    0.0000 </r>
       <r>    1.1128    0.0000 </r>
       <r>    1.1832    0.0000 </r>
       <r>    1.2514    0.0000 </r>
       <r>    1.2816    0.0000 </r>
       <r>    1.2988    0.0000 </r>
       <r>    1.4722    0.0000 </r>
       <r>    1.4794    0.0000 </r>
       <r>    1.4879    0.0000 </r>
       <r>    1.7342    0.0000 </r>
       <r>    1.7920    0.0000 </r>
       <r>    1.8136    0.0000 </r>
       <r>    1.8228    0.0000 </r>
       <r>    1.8821    0.0000 </r>
       <r>    2.0217    0.0000 </r>
      </set>
      <set comment="kpoint 5">
       <r>  -52.5887    1.0000 </r>
       <r>  -22.2889    1.0000 </r>
       <r>  -21.8281    1.0000 </r>
       <r>  -21.7936    1.0000 </r>
       <r>  -21.5167    1.0000 </r>
       <r>  -20.9938    1.0000 </r>
       <r>  -20.8593    1.0000 </r>
       <r>  -20.6346    1.0000 </r>
       <r>  -20.4013    1.0000 </r>
       <r>  -20.1339    1.0000 </r>
       <r>  -19.7104    1.0000 </r>
       <r>  -19.6639    1.0000 </r>
       <r>  -19.2582    1.0000 </r>
       <r>  -19.0882    1.0000 </r>
       <r>  -18.9572    1.0000 </r>
       <r>  -18.5370    1.0000 </r>
       <r>  -18.3715    1.0000 </r>
       <r>  -17.9734    1.0000 </r>
       <r>  -17.8564    1.0000 </r>
       <r>  -17.5388    1.0000 </r>
       <r>  -17.4060    1.0000 </r>
       <r>  -17.1948    1.0000 </r>
       <r>  -17.1304    1.0000 </r>
       <r>  -16.7478    1.0000 </r>
       <r>  -16.3880    1.0000 </r>
       <r>  -16.2536    1.0000 </r>
       <r>  -15.5545    1.0000 </r>
       <r>  -15.4925    1.0000 </r>
       <r>  -15.3783    1.0000 </r>
       <r>  -15.0460    1.0000 </r>
       <r>  -14.8516    1.0000 </r>
       <r>  -14.7757    1.0000 </r>
       <r>  -14.4251    1.0000 </r>
       <r>  -14.3347    1.0000 </r>
       <r>  -14.0908    1.0000 </r>
       <r>  -13.3419    1.0000 </r>
       <r>  -13.1400    1.0000 </r>
       <r>  -12.9116    1.0000 </r>
       <r>  -12.8706    1.0000 </r>
       <r>  -12.8034    1.0000 </r>
       <r>  -12.4962    1.0000 </r>
       <r>  -12.3213    1.0000 </r>
       <r>  -12.2878    1.0000 </r>
       <r>  -12.0024    1.0000 </r>
       <r>  -11.5943    1.0000 </r>
       <r>  -11.5488    1.0000 </r>
       <r>  -11.1291    1.0000 </r>
       <r>  -10.9481    1.0000 </r>
       <r>  -10.7038    1.0000 </r>
       <r>  -10.5414    1.0000 </r>
       <r>  -10.5387    1.0000 </r>
       <r>  -10.4505    1.0000 </r>
       <r>  -10.4037    1.0000 </r>
       <r>  -10.2924    1.0000 </r>
       <r>   -9.9564    1.0000 </r>
       <r>   -9.8337    1.0000 </r>
       <r>   -9.8173    1.0000 </r>
       <r>   -9.7411    1.0000 </r>
       <r>   -9.6122    1.0000 </r>
       <r>   -9.5529    1.0000 </r>
       <r>   -9.5221    1.0000 </r>
       <r>   -9.4301    1.0000 </r>
       <r>   -9.3184    1.0000 </r>
       <r>   -9.2659    1.0000 </r>
       <r>   -9.1949    1.0000 </r>
       <r>   -8.9230    1.0000 </r>
       <r>   -8.8633    1.0000 </r>
       <r>   -8.8109    1.0000 </r>
       <r>   -8.7651    1.0000 </r>
       <r>   -8.4827    1.0000 </r>
       <r>   -8.3554    1.0000 </r>
       <r>   -8.3058    1.0000 </r>
       <r>   -8.2296    1.0000 </r>
       <r>   -8.1838    1.0000 </r>
       <r>   -8.0810    1.0000 </r>
       <r>   -7.9812    1.0000 </r>
       <r>   -7.8819    1.0000 </r>
       <r>   -7.7637    1.0000 </r>
       <r>   -7.7528    1.0000 </r>
       <r>   -7.4868    1.0000 </r>
       <r>   -7.4325    1.0000 </r>
       <r>   -7.2555    1.0000 </r>
       <r>   -7.2472    1.0000 </r>
       <r>   -7.1042    1.0000 </r>
       <r>   -6.9838    1.0000 </r>
       <r>   -6.7227    1.0000 </r>
       <r>   -6.6493    1.0000 </r>
       <r>   -6.4798    1.0000 </r>
       <r>   -6.4463    1.0000 </r>
       <r>   -6.1057    1.0000 </r>
       <r>   -6.0150    1.0000 </r>
       <r>   -5.9346    1.0000 </r>
       <r>   -5.5964    1.0000 </r>
       <r>   -5.5524    1.0000 </r>
       <r>   -5.3950    1.0000 </r>
       <r>   -4.9867    1.0000 </r>
       <r>   -4.8682    1.0000 </r>
       <r>   -4.8311    1.0000 </r>
       <r>   -4.4620    1.0000 </r>
       <r>   -3.9509    1.0000 </r>
       <r>   -3.7862    1.0000 </r>
       <r>   -2.4524    0.0008 </r>
       <r>   -1.8281    0.0000 </r>
       <r>   -1.6770    0.0000 </r>
       <r>   -1.4096    0.0000 </r>
       <r>   -0.9626    0.0000 </r>
       <r>   -0.8360    0.0000 </r>
       <r>   -0.8067    0.0000 </r>
       <r>   -0.7186    0.0000 </r>
       <r>   -0.6481    0.0000 </r>
       <r>   -0.0542    0.0000 </r>
       <r>    0.1951    0.0000 </r>
       <r>    0.3265    0.0000 </r>
       <r>    0.5080    0.0000 </r>
       <r>    0.5640    0.0000 </r>
       <r>    0.7864    0.0000 </r>
       <r>    0.8318    0.0000 </r>
       <r>    0.9038    0.0000 </r>
       <r>    1.0943    0.0000 </r>
       <r>    1.1886    0.0000 </r>
       <r>    1.2531    0.0000 </r>
       <r>    1.3571    0.0000 </r>
       <r>    1.4769    0.0000 </r>
       <r>    1.5061    0.0000 </r>
       <r>    1.5768    0.0000 </r>
       <r>    1.6307    0.0000 </r>
       <r>    1.6724    0.0000 </r>
       <r>    1.7733    0.0000 </r>
       <r>    1.8236    0.0000 </r>
       <r>    1.8249    0.0000 </r>
       <r>    1.9289    0.0000 </r>
       <r>    2.0025    0.0000 </r>
      </set>
     </set>
     <set comment="spin 2">
      <set comment="kpoint 1">
       <r>  -52.5887    1.0000 </r>
       <r>  -22.3447    1.0000 </r>
       <r>  -21.7241    1.0000 </r>
       <r>  -21.5270    1.0000 </r>
       <r>  -21.3247    1.0000 </r>
       <r>  -21.3021    1.0000 </r>
       <r>  -21.2335    1.0000 </r>
       <r>  -21.0115    1.0000 </r>
       <r>  -19.9353    1.0000 </r>
       <r>  -19.5642    1.0000 </r>
       <r>  -19.5261    1.0000 </r>
       <r>  -19.4210    1.0000 </r>
       <r>  -19.3428    1.0000 </r>
       <r>  -19.2753    1.0000 </r>
       <r>  -18.7832    1.0000 </r>
       <r>  -18.6422    1.0000 </r>
       <r>  -18.6141    1.0000 </r>
       <r>  -18.5229    1.0000 </r>
       <r>  -18.4768    1.0000 </r>
       <r>  -18.1208    1.0000 </r>
       <r>  -16.5841    1.0000 </r>
       <r>  -16.5451    1.0000 </r>
       <r>  -16.4684    1.0000 </r>
       <r>  -16.3091    1.0000 </r>
       <r>  -16.2444    1.0000 </r>
       <r>  -16.2157    1.0000 </r>
       <r>  -16.0680    1.0000 </r>
       <r>  -15.5472    1.0000 </r>
       <r>  -15.3957    1.0000 </r>
       <r>  -15.3288    1.0000 </r>
       <r>  -15.1590    1.0000 </r>
       <r>  -14.9852    1.0000 </r>
       <r>  -14.3030    1.0000 </r>
       <r>  -14.2591    1.0000 </r>
       <r>  -14.0615    1.0000 </r>
       <r>  -14.0002    1.0000 </r>
       <r>  -13.9203    1.0000 </r>
       <r>  -13.3597    1.0000 </r>
       <r>  -12.1422    1.0000 </r>
       <r>  -11.9626    1.0000 </r>
       <r>  -11.7922    1.0000 </r>
       <r>  -11.7744    1.0000 </r>
       <r>  -11.6976    1.0000 </r>
       <r>  -11.6258    1.0000 </r>
       <r>  -11.6190    1.0000 </r>
       <r>  -11.6015    1.0000 </r>
       <r>  -11.4534    1.0000 </r>
       <r>  -11.4379    1.0000 </r>
       <r>  -11.1220    1.0000 </r>
       <r>  -11.0570    1.0000 </r>
       <r>  -10.6481    1.0000 </r>
       <r>  -10.4558    1.0000 </r>
       <r>  -10.4037    1.0000 </r>
       <r>  -10.2094    1.0000 </r>
       <r>  -10.1569    1.0000 </r>
       <r>  -10.1127    1.0000 </r>
       <r>   -9.8813    1.0000 </r>
       <r>   -9.5881    1.0000 </r>
       <r>   -9.5158    1.0000 </r>
       <r>   -9.2852    1.0000 </r>
       <r>   -9.2709    1.0000 </r>
       <r>   -9.2032    1.0000 </r>
       <r>   -9.1059    1.0000 </r>
       <r>   -9.0607    1.0000 </r>
       <r>   -9.0294    1.0000 </r>
       <r>   -9.0200    1.0000 </r>
       <r>   -9.0050    1.0000 </r>
       <r>   -8.9309    1.0000 </r>
       <r>   -8.8499    1.0000 </r>
       <r>   -8.8464    1.0000 </r>
       <r>   -8.7228    1.0000 </r>
       <r>   -8.6157    1.0000 </r>
       <r>   -8.6122    1.0000 </r>
       <r>   -8.6061    1.0000 </r>
       <r>   -7.9821    1.0000 </r>
       <r>   -7.4418    1.0000 </r>
       <r>   -7.4280    1.0000 </r>
       <r>   -7.3677    1.0000 </r>
       <r>   -7.3023    1.0000 </r>
       <r>   -7.2827    1.0000 </r>
       <r>   -7.2511    1.0000 </r>
       <r>   -7.2354    1.0000 </r>
       <r>   -7.1730    1.0000 </r>
       <r>   -7.0444    1.0000 </r>
       <r>   -6.9804    1.0000 </r>
       <r>   -6.9601    1.0000 </r>
       <r>   -6.9485    1.0000 </r>
       <r>   -6.3438    1.0000 </r>
       <r>   -6.3433    1.0000 </r>
       <r>   -6.2548    1.0000 </r>
       <r>   -6.1749    1.0000 </r>
       <r>   -6.1598    1.0000 </r>
       <r>   -6.0981    1.0000 </r>
       <r>   -5.9487    1.0000 </r>
       <r>   -5.6752    1.0000 </r>
       <r>   -4.3598    1.0000 </r>
       <r>   -4.2525    1.0000 </r>
       <r>   -4.2411    1.0000 </r>
       <r>   -4.2190    1.0000 </r>
       <r>   -4.1350    1.0000 </r>
       <r>   -3.8900    1.0000 </r>
       <r>   -2.6787    0.9994 </r>
       <r>   -1.7123    0.0000 </r>
       <r>   -1.6214    0.0000 </r>
       <r>   -1.5123    0.0000 </r>
       <r>   -1.3409    0.0000 </r>
       <r>   -1.3098    0.0000 </r>
       <r>   -0.9716    0.0000 </r>
       <r>   -0.5470    0.0000 </r>
       <r>    0.1703    0.0000 </r>
       <r>    0.2678    0.0000 </r>
       <r>    0.3383    0.0000 </r>
       <r>    0.3836    0.0000 </r>
       <r>    0.3995    0.0000 </r>
       <r>    0.4652    0.0000 </r>
       <r>    0.5075    0.0000 </r>
       <r>    0.7853    0.0000 </r>
       <r>    0.9709    0.0000 </r>
       <r>    1.0363    0.0000 </r>
       <r>    1.3764    0.0000 </r>
       <r>    1.4280    0.0000 </r>
       <r>    1.4328    0.0000 </r>
       <r>    1.5233    0.0000 </r>
       <r>    1.5361    0.0000 </r>
       <r>    1.6741    0.0000 </r>
       <r>    1.7312    0.0000 </r>
       <r>    1.7623    0.0000 </r>
       <r>    1.8571    0.0000 </r>
       <r>    1.9471    0.0000 </r>
       <r>    2.0784    0.0000 </r>
       <r>    2.0902    0.0000 </r>
       <r>    2.1826    0.0000 </r>
      </set>
      <set comment="kpoint 2">
       <r>  -52.5887    1.0000 </r>
       <r>  -22.2518    1.0000 </r>
       <r>  -21.9895    1.0000 </r>
       <r>  -21.6010    1.0000 </r>
       <r>  -21.4646    1.0000 </r>
       <r>  -21.0933    1.0000 </r>
       <r>  -20.8787    1.0000 </r>
       <r>  -20.5637    1.0000 </r>
       <r>  -20.4224    1.0000 </r>
       <r>  -20.1874    1.0000 </r>
       <r>  -19.7093    1.0000 </r>
       <r>  -19.4400    1.0000 </r>
       <r>  -19.3090    1.0000 </r>
       <r>  -19.1189    1.0000 </r>
       <r>  -18.9781    1.0000 </r>
       <r>  -18.5275    1.0000 </r>
       <r>  -18.4109    1.0000 </r>
       <r>  -17.9533    1.0000 </r>
       <r>  -17.8183    1.0000 </r>
       <r>  -17.4651    1.0000 </r>
       <r>  -17.3625    1.0000 </r>
       <r>  -17.3012    1.0000 </r>
       <r>  -17.0762    1.0000 </r>
       <r>  -16.9413    1.0000 </r>
       <r>  -16.3103    1.0000 </r>
       <r>  -16.1851    1.0000 </r>
       <r>  -15.7584    1.0000 </r>
       <r>  -15.2651    1.0000 </r>
       <r>  -15.2211    1.0000 </r>
       <r>  -14.9807    1.0000 </r>
       <r>  -14.8366    1.0000 </r>
       <r>  -14.7020    1.0000 </r>
       <r>  -14.6055    1.0000 </r>
       <r>  -14.3748    1.0000 </r>
       <r>  -14.0890    1.0000 </r>
       <r>  -13.2894    1.0000 </r>
       <r>  -13.1958    1.0000 </r>
       <r>  -13.1200    1.0000 </r>
       <r>  -12.9915    1.0000 </r>
       <r>  -12.7605    1.0000 </r>
       <r>  -12.5001    1.0000 </r>
       <r>  -12.2752    1.0000 </r>
       <r>  -12.1128    1.0000 </r>
       <r>  -12.0307    1.0000 </r>
       <r>  -11.5119    1.0000 </r>
       <r>  -11.3991    1.0000 </r>
       <r>  -11.1973    1.0000 </r>
       <r>  -10.8862    1.0000 </r>
       <r>  -10.6826    1.0000 </r>
       <r>  -10.5924    1.0000 </r>
       <r>  -10.5585    1.0000 </r>
       <r>  -10.4227    1.0000 </r>
       <r>  -10.3273    1.0000 </r>
       <r>  -10.2406    1.0000 </r>
       <r>   -9.9868    1.0000 </r>
       <r>   -9.9076    1.0000 </r>
       <r>   -9.7509    1.0000 </r>
       <r>   -9.6938    1.0000 </r>
       <r>   -9.6562    1.0000 </r>
       <r>   -9.5759    1.0000 </r>
       <r>   -9.4323    1.0000 </r>
       <r>   -9.3219    1.0000 </r>
       <r>   -9.2499    1.0000 </r>
       <r>   -9.1919    1.0000 </r>
       <r>   -9.1115    1.0000 </r>
       <r>   -9.0366    1.0000 </r>
       <r>   -8.9569    1.0000 </r>
       <r>   -8.8812    1.0000 </r>
       <r>   -8.7568    1.0000 </r>
       <r>   -8.7035    1.0000 </r>
       <r>   -8.4333    1.0000 </r>
       <r>   -8.3776    1.0000 </r>
       <r>   -8.2465    1.0000 </r>
       <r>   -8.1783    1.0000 </r>
       <r>   -8.0746    1.0000 </r>
       <r>   -7.9958    1.0000 </r>
       <r>   -7.9773    1.0000 </r>
       <r>   -7.9071    1.0000 </r>
       <r>   -7.5101    1.0000 </r>
       <r>   -7.4166    1.0000 </r>
       <r>   -7.2962    1.0000 </r>
       <r>   -7.1753    1.0000 </r>
       <r>   -7.0685    1.0000 </r>
       <r>   -6.9940    1.0000 </r>
       <r>   -6.8172    1.0000 </r>
       <r>   -6.7607    1.0000 </r>
       <r>   -6.7553    1.0000 </r>
       <r>   -6.6125    1.0000 </r>
       <r>   -6.3245    1.0000 </r>
       <r>   -6.0959    1.0000 </r>
       <r>   -6.0568    1.0000 </r>
       <r>   -5.9802    1.0000 </r>
       <r>   -5.6535    1.0000 </r>
       <r>   -5.5175    1.0000 </r>
       <r>   -5.1958    1.0000 </r>
       <r>   -4.9683    1.0000 </r>
       <r>   -4.9247    1.0000 </r>
       <r>   -4.7816    1.0000 </r>
       <r>   -4.6843    1.0000 </r>
       <r>   -3.9026    1.0000 </r>
       <r>   -3.5925    1.0000 </r>
       <r>   -2.5025    0.0400 </r>
       <r>   -1.8231    0.0000 </r>
       <r>   -1.5277    0.0000 </r>
       <r>   -1.3493    0.0000 </r>
       <r>   -1.0131    0.0000 </r>
       <r>   -0.9546    0.0000 </r>
       <r>   -0.7949    0.0000 </r>
       <r>   -0.7859    0.0000 </r>
       <r>   -0.4439    0.0000 </r>
       <r>   -0.0527    0.0000 </r>
       <r>    0.1846    0.0000 </r>
       <r>    0.3345    0.0000 </r>
       <r>    0.4542    0.0000 </r>
       <r>    0.5937    0.0000 </r>
       <r>    0.7910    0.0000 </r>
       <r>    0.8673    0.0000 </r>
       <r>    0.9969    0.0000 </r>
       <r>    1.1128    0.0000 </r>
       <r>    1.1955    0.0000 </r>
       <r>    1.3245    0.0000 </r>
       <r>    1.3833    0.0000 </r>
       <r>    1.4986    0.0000 </r>
       <r>    1.5434    0.0000 </r>
       <r>    1.5935    0.0000 </r>
       <r>    1.6172    0.0000 </r>
       <r>    1.6725    0.0000 </r>
       <r>    1.7164    0.0000 </r>
       <r>    1.8048    0.0000 </r>
       <r>    1.8370    0.0000 </r>
       <r>    1.8532    0.0000 </r>
       <r>    2.0259    0.0000 </r>
      </set>
      <set comment="kpoint 3">
       <r>  -52.5887    1.0000 </r>
       <r>  -22.2518    1.0000 </r>
       <r>  -21.9896    1.0000 </r>
       <r>  -21.6010    1.0000 </r>
       <r>  -21.4646    1.0000 </r>
       <r>  -21.0931    1.0000 </r>
       <r>  -20.8790    1.0000 </r>
       <r>  -20.5635    1.0000 </r>
       <r>  -20.4222    1.0000 </r>
       <r>  -20.1878    1.0000 </r>
       <r>  -19.7093    1.0000 </r>
       <r>  -19.4399    1.0000 </r>
       <r>  -19.3087    1.0000 </r>
       <r>  -19.1189    1.0000 </r>
       <r>  -18.9782    1.0000 </r>
       <r>  -18.5270    1.0000 </r>
       <r>  -18.4113    1.0000 </r>
       <r>  -17.9533    1.0000 </r>
       <r>  -17.8184    1.0000 </r>
       <r>  -17.4648    1.0000 </r>
       <r>  -17.3625    1.0000 </r>
       <r>  -17.3015    1.0000 </r>
       <r>  -17.0762    1.0000 </r>
       <r>  -16.9413    1.0000 </r>
       <r>  -16.3102    1.0000 </r>
       <r>  -16.1850    1.0000 </r>
       <r>  -15.7583    1.0000 </r>
       <r>  -15.2653    1.0000 </r>
       <r>  -15.2210    1.0000 </r>
       <r>  -14.9805    1.0000 </r>
       <r>  -14.8365    1.0000 </r>
       <r>  -14.7019    1.0000 </r>
       <r>  -14.6058    1.0000 </r>
       <r>  -14.3750    1.0000 </r>
       <r>  -14.0890    1.0000 </r>
       <r>  -13.2895    1.0000 </r>
       <r>  -13.1954    1.0000 </r>
       <r>  -13.1200    1.0000 </r>
       <r>  -12.9918    1.0000 </r>
       <r>  -12.7605    1.0000 </r>
       <r>  -12.5002    1.0000 </r>
       <r>  -12.2752    1.0000 </r>
       <r>  -12.1129    1.0000 </r>
       <r>  -12.0307    1.0000 </r>
       <r>  -11.5121    1.0000 </r>
       <r>  -11.3987    1.0000 </r>
       <r>  -11.1973    1.0000 </r>
       <r>  -10.8862    1.0000 </r>
       <r>  -10.6830    1.0000 </r>
       <r>  -10.5925    1.0000 </r>
       <r>  -10.5586    1.0000 </r>
       <r>  -10.4224    1.0000 </r>
       <r>  -10.3269    1.0000 </r>
       <r>  -10.2408    1.0000 </r>
       <r>   -9.9869    1.0000 </r>
       <r>   -9.9077    1.0000 </r>
       <r>   -9.7510    1.0000 </r>
       <r>   -9.6940    1.0000 </r>
       <r>   -9.6563    1.0000 </r>
       <r>   -9.5755    1.0000 </r>
       <r>   -9.4324    1.0000 </r>
       <r>   -9.3221    1.0000 </r>
       <r>   -9.2503    1.0000 </r>
       <r>   -9.1914    1.0000 </r>
       <r>   -9.1115    1.0000 </r>
       <r>   -9.0363    1.0000 </r>
       <r>   -8.9569    1.0000 </r>
       <r>   -8.8811    1.0000 </r>
       <r>   -8.7575    1.0000 </r>
       <r>   -8.7035    1.0000 </r>
       <r>   -8.4330    1.0000 </r>
       <r>   -8.3776    1.0000 </r>
       <r>   -8.2464    1.0000 </r>
       <r>   -8.1779    1.0000 </r>
       <r>   -8.0747    1.0000 </r>
       <r>   -7.9961    1.0000 </r>
       <r>   -7.9769    1.0000 </r>
       <r>   -7.9075    1.0000 </r>
       <r>   -7.5101    1.0000 </r>
       <r>   -7.4172    1.0000 </r>
       <r>   -7.2961    1.0000 </r>
       <r>   -7.1750    1.0000 </r>
       <r>   -7.0679    1.0000 </r>
       <r>   -6.9944    1.0000 </r>
       <r>   -6.8168    1.0000 </r>
       <r>   -6.7601    1.0000 </r>
       <r>   -6.7562    1.0000 </r>
       <r>   -6.6129    1.0000 </r>
       <r>   -6.3246    1.0000 </r>
       <r>   -6.0953    1.0000 </r>
       <r>   -6.0570    1.0000 </r>
       <r>   -5.9802    1.0000 </r>
       <r>   -5.6533    1.0000 </r>
       <r>   -5.5178    1.0000 </r>
       <r>   -5.1954    1.0000 </r>
       <r>   -4.9687    1.0000 </r>
       <r>   -4.9242    1.0000 </r>
       <r>   -4.7819    1.0000 </r>
       <r>   -4.6840    1.0000 </r>
       <r>   -3.9036    1.0000 </r>
       <r>   -3.5918    1.0000 </r>
       <r>   -2.5029    0.0412 </r>
       <r>   -1.8222    0.0000 </r>
       <r>   -1.5275    0.0000 </r>
       <r>   -1.3490    0.0000 </r>
       <r>   -1.0140    0.0000 </r>
       <r>   -0.9548    0.0000 </r>
       <r>   -0.7942    0.0000 </r>
       <r>   -0.7871    0.0000 </r>
       <r>   -0.4441    0.0000 </r>
       <r>   -0.0517    0.0000 </r>
       <r>    0.1859    0.0000 </r>
       <r>    0.3340    0.0000 </r>
       <r>    0.4537    0.0000 </r>
       <r>    0.5940    0.0000 </r>
       <r>    0.7893    0.0000 </r>
       <r>    0.8676    0.0000 </r>
       <r>    0.9971    0.0000 </r>
       <r>    1.1139    0.0000 </r>
       <r>    1.1949    0.0000 </r>
       <r>    1.3259    0.0000 </r>
       <r>    1.3827    0.0000 </r>
       <r>    1.4988    0.0000 </r>
       <r>    1.5441    0.0000 </r>
       <r>    1.5939    0.0000 </r>
       <r>    1.6171    0.0000 </r>
       <r>    1.6715    0.0000 </r>
       <r>    1.7154    0.0000 </r>
       <r>    1.8054    0.0000 </r>
       <r>    1.8364    0.0000 </r>
       <r>    1.8533    0.0000 </r>
       <r>    2.0230    0.0000 </r>
      </set>
      <set comment="kpoint 4">
       <r>  -52.5887    1.0000 </r>
       <r>  -22.1701    1.0000 </r>
       <r>  -22.0519    1.0000 </r>
       <r>  -21.8270    1.0000 </r>
       <r>  -21.2179    1.0000 </r>
       <r>  -21.0704    1.0000 </r>
       <r>  -20.9044    1.0000 </r>
       <r>  -20.3821    1.0000 </r>
       <r>  -20.1910    1.0000 </r>
       <r>  -20.1338    1.0000 </r>
       <r>  -20.0554    1.0000 </r>
       <r>  -19.9554    1.0000 </r>
       <r>  -19.7346    1.0000 </r>
       <r>  -18.5999    1.0000 </r>
       <r>  -18.3811    1.0000 </r>
       <r>  -18.3417    1.0000 </r>
       <r>  -18.2892    1.0000 </r>
       <r>  -18.1369    1.0000 </r>
       <r>  -17.9926    1.0000 </r>
       <r>  -17.4970    1.0000 </r>
       <r>  -17.4250    1.0000 </r>
       <r>  -17.4102    1.0000 </r>
       <r>  -16.9242    1.0000 </r>
       <r>  -16.8885    1.0000 </r>
       <r>  -16.7748    1.0000 </r>
       <r>  -16.2582    1.0000 </r>
       <r>  -15.7743    1.0000 </r>
       <r>  -15.6457    1.0000 </r>
       <r>  -15.2975    1.0000 </r>
       <r>  -15.2383    1.0000 </r>
       <r>  -14.3121    1.0000 </r>
       <r>  -14.0803    1.0000 </r>
       <r>  -13.8891    1.0000 </r>
       <r>  -13.8578    1.0000 </r>
       <r>  -13.8176    1.0000 </r>
       <r>  -13.7827    1.0000 </r>
       <r>  -13.6907    1.0000 </r>
       <r>  -13.6268    1.0000 </r>
       <r>  -13.2583    1.0000 </r>
       <r>  -13.0183    1.0000 </r>
       <r>  -12.5276    1.0000 </r>
       <r>  -12.0787    1.0000 </r>
       <r>  -12.0654    1.0000 </r>
       <r>  -11.6810    1.0000 </r>
       <r>  -11.5401    1.0000 </r>
       <r>  -11.4993    1.0000 </r>
       <r>  -11.3373    1.0000 </r>
       <r>  -11.2541    1.0000 </r>
       <r>  -10.9940    1.0000 </r>
       <r>  -10.4175    1.0000 </r>
       <r>  -10.2648    1.0000 </r>
       <r>  -10.2570    1.0000 </r>
       <r>  -10.2138    1.0000 </r>
       <r>  -10.0986    1.0000 </r>
       <r>  -10.0688    1.0000 </r>
       <r>  -10.0569    1.0000 </r>
       <r>   -9.9573    1.0000 </r>
       <r>   -9.9243    1.0000 </r>
       <r>   -9.5214    1.0000 </r>
       <r>   -9.3940    1.0000 </r>
       <r>   -9.3643    1.0000 </r>
       <r>   -9.2269    1.0000 </r>
       <r>   -9.1649    1.0000 </r>
       <r>   -9.1586    1.0000 </r>
       <r>   -9.0503    1.0000 </r>
       <r>   -8.9669    1.0000 </r>
       <r>   -8.8506    1.0000 </r>
       <r>   -8.7347    1.0000 </r>
       <r>   -8.6369    1.0000 </r>
       <r>   -8.5821    1.0000 </r>
       <r>   -8.5694    1.0000 </r>
       <r>   -8.4396    1.0000 </r>
       <r>   -8.3155    1.0000 </r>
       <r>   -8.1849    1.0000 </r>
       <r>   -8.0483    1.0000 </r>
       <r>   -8.0202    1.0000 </r>
       <r>   -7.9483    1.0000 </r>
       <r>   -7.8697    1.0000 </r>
       <r>   -7.8170    1.0000 </r>
       <r>   -7.7713    1.0000 </r>
       <r>   -7.5916    1.0000 </r>
       <r>   -7.3569    1.0000 </r>
       <r>   -7.0884    1.0000 </r>
       <r>   -6.9467    1.0000 </r>
       <r>   -6.8735    1.0000 </r>
       <r>   -6.7090    1.0000 </r>
       <r>   -6.3967    1.0000 </r>
       <r>   -6.3218    1.0000 </r>
       <r>   -6.0737    1.0000 </r>
       <r>   -5.9881    1.0000 </r>
       <r>   -5.9504    1.0000 </r>
       <r>   -5.8527    1.0000 </r>
       <r>   -5.7542    1.0000 </r>
       <r>   -5.6827    1.0000 </r>
       <r>   -5.1187    1.0000 </r>
       <r>   -5.0391    1.0000 </r>
       <r>   -4.9355    1.0000 </r>
       <r>   -4.8925    1.0000 </r>
       <r>   -4.8408    1.0000 </r>
       <r>   -4.4907    1.0000 </r>
       <r>   -2.8583    1.0000 </r>
       <r>   -2.7343    1.0000 </r>
       <r>   -2.3030    0.0000 </r>
       <r>   -1.3945    0.0000 </r>
       <r>   -1.1234    0.0000 </r>
       <r>   -1.0342    0.0000 </r>
       <r>   -0.6518    0.0000 </r>
       <r>   -0.6427    0.0000 </r>
       <r>   -0.5188    0.0000 </r>
       <r>   -0.4475    0.0000 </r>
       <r>    0.0673    0.0000 </r>
       <r>    0.1603    0.0000 </r>
       <r>    0.1847    0.0000 </r>
       <r>    0.1996    0.0000 </r>
       <r>    0.2269    0.0000 </r>
       <r>    0.3228    0.0000 </r>
       <r>    1.0266    0.0000 </r>
       <r>    1.0567    0.0000 </r>
       <r>    1.1203    0.0000 </r>
       <r>    1.1941    0.0000 </r>
       <r>    1.2684    0.0000 </r>
       <r>    1.2932    0.0000 </r>
       <r>    1.3104    0.0000 </r>
       <r>    1.4872    0.0000 </r>
       <r>    1.4934    0.0000 </r>
       <r>    1.5020    0.0000 </r>
       <r>    1.7688    0.0000 </r>
       <r>    1.8187    0.0000 </r>
       <r>    1.8346    0.0000 </r>
       <r>    1.8468    0.0000 </r>
       <r>    1.8985    0.0000 </r>
       <r>    2.0371    0.0000 </r>
      </set>
      <set comment="kpoint 5">
       <r>  -52.5887    1.0000 </r>
       <r>  -22.2765    1.0000 </r>
       <r>  -21.8230    1.0000 </r>
       <r>  -21.7824    1.0000 </r>
       <r>  -21.5045    1.0000 </r>
       <r>  -20.9883    1.0000 </r>
       <r>  -20.8537    1.0000 </r>
       <r>  -20.6280    1.0000 </r>
       <r>  -20.3941    1.0000 </r>
       <r>  -20.1282    1.0000 </r>
       <r>  -19.7010    1.0000 </r>
       <r>  -19.6572    1.0000 </r>
       <r>  -19.2456    1.0000 </r>
       <r>  -19.0837    1.0000 </r>
       <r>  -18.9507    1.0000 </r>
       <r>  -18.5317    1.0000 </r>
       <r>  -18.3668    1.0000 </r>
       <r>  -17.9665    1.0000 </r>
       <r>  -17.8475    1.0000 </r>
       <r>  -17.5338    1.0000 </r>
       <r>  -17.4006    1.0000 </r>
       <r>  -17.1890    1.0000 </r>
       <r>  -17.1240    1.0000 </r>
       <r>  -16.7397    1.0000 </r>
       <r>  -16.3821    1.0000 </r>
       <r>  -16.2416    1.0000 </r>
       <r>  -15.5445    1.0000 </r>
       <r>  -15.4885    1.0000 </r>
       <r>  -15.3743    1.0000 </r>
       <r>  -15.0370    1.0000 </r>
       <r>  -14.8498    1.0000 </r>
       <r>  -14.7723    1.0000 </r>
       <r>  -14.4190    1.0000 </r>
       <r>  -14.3295    1.0000 </r>
       <r>  -14.0836    1.0000 </r>
       <r>  -13.3347    1.0000 </r>
       <r>  -13.1340    1.0000 </r>
       <r>  -12.9073    1.0000 </r>
       <r>  -12.8659    1.0000 </r>
       <r>  -12.7981    1.0000 </r>
       <r>  -12.4931    1.0000 </r>
       <r>  -12.3155    1.0000 </r>
       <r>  -12.2837    1.0000 </r>
       <r>  -11.9963    1.0000 </r>
       <r>  -11.5871    1.0000 </r>
       <r>  -11.5332    1.0000 </r>
       <r>  -11.1265    1.0000 </r>
       <r>  -10.9438    1.0000 </r>
       <r>  -10.6988    1.0000 </r>
       <r>  -10.5356    1.0000 </r>
       <r>  -10.5340    1.0000 </r>
       <r>  -10.4476    1.0000 </r>
       <r>  -10.3774    1.0000 </r>
       <r>  -10.2884    1.0000 </r>
       <r>   -9.9444    1.0000 </r>
       <r>   -9.8259    1.0000 </r>
       <r>   -9.8105    1.0000 </r>
       <r>   -9.7295    1.0000 </r>
       <r>   -9.6030    1.0000 </r>
       <r>   -9.5481    1.0000 </r>
       <r>   -9.4985    1.0000 </r>
       <r>   -9.4269    1.0000 </r>
       <r>   -9.3163    1.0000 </r>
       <r>   -9.2631    1.0000 </r>
       <r>   -9.1922    1.0000 </r>
       <r>   -8.9178    1.0000 </r>
       <r>   -8.8519    1.0000 </r>
       <r>   -8.8058    1.0000 </r>
       <r>   -8.7481    1.0000 </r>
       <r>   -8.4667    1.0000 </r>
       <r>   -8.3494    1.0000 </r>
       <r>   -8.3017    1.0000 </r>
       <r>   -8.2240    1.0000 </r>
       <r>   -8.1737    1.0000 </r>
       <r>   -8.0721    1.0000 </r>
       <r>   -7.9654    1.0000 </r>
       <r>   -7.8749    1.0000 </r>
       <r>   -7.7600    1.0000 </r>
       <r>   -7.7455    1.0000 </r>
       <r>   -7.4834    1.0000 </r>
       <r>   -7.4155    1.0000 </r>
       <r>   -7.2391    1.0000 </r>
       <r>   -7.2349    1.0000 </r>
       <r>   -7.0987    1.0000 </r>
       <r>   -6.9540    1.0000 </r>
       <r>   -6.7124    1.0000 </r>
       <r>   -6.6342    1.0000 </r>
       <r>   -6.4775    1.0000 </r>
       <r>   -6.4424    1.0000 </r>
       <r>   -6.0924    1.0000 </r>
       <r>   -5.9994    1.0000 </r>
       <r>   -5.9304    1.0000 </r>
       <r>   -5.5752    1.0000 </r>
       <r>   -5.5373    1.0000 </r>
       <r>   -5.3817    1.0000 </r>
       <r>   -4.9711    1.0000 </r>
       <r>   -4.8543    1.0000 </r>
       <r>   -4.8173    1.0000 </r>
       <r>   -4.4430    1.0000 </r>
       <r>   -3.9220    1.0000 </r>
       <r>   -3.7667    1.0000 </r>
       <r>   -2.3855    0.0000 </r>
       <r>   -1.8019    0.0000 </r>
       <r>   -1.6718    0.0000 </r>
       <r>   -1.4038    0.0000 </r>
       <r>   -0.9434    0.0000 </r>
       <r>   -0.8227    0.0000 </r>
       <r>   -0.7956    0.0000 </r>
       <r>   -0.7077    0.0000 </r>
       <r>   -0.6334    0.0000 </r>
       <r>   -0.0383    0.0000 </r>
       <r>    0.1996    0.0000 </r>
       <r>    0.3361    0.0000 </r>
       <r>    0.5269    0.0000 </r>
       <r>    0.5792    0.0000 </r>
       <r>    0.7910    0.0000 </r>
       <r>    0.8466    0.0000 </r>
       <r>    0.9164    0.0000 </r>
       <r>    1.1016    0.0000 </r>
       <r>    1.2014    0.0000 </r>
       <r>    1.2641    0.0000 </r>
       <r>    1.3686    0.0000 </r>
       <r>    1.4966    0.0000 </r>
       <r>    1.5291    0.0000 </r>
       <r>    1.5915    0.0000 </r>
       <r>    1.6370    0.0000 </r>
       <r>    1.6875    0.0000 </r>
       <r>    1.7845    0.0000 </r>
       <r>    1.8362    0.0000 </r>
       <r>    1.8400    0.0000 </r>
       <r>    1.9462    0.0000 </r>
       <r>    2.0300    0.0000 </r>
      </set>
     </set>
    </set>
   </array>
  </eigenvalues>
  <separator name="orbital magnetization" >
   <v name="MAGDIPOLOUT">      0.00000000      0.00000000      0.00000000</v>
  </separator>
  <dos>
   <i name="efermi">     -2.56433414 </i>
   <total>
    <array>
     <dimension dim="1">gridpoints</dimension>
     <dimension dim="2">spin</dimension>
     <field>energy</field>
     <field>total</field>
     <field>integrated</field>
     <set>
      <set comment="spin 1">
       <r>   -55.3273     0.0000     0.0000 </r>
       <r>   -55.1265     0.0000     0.0000 </r>
       <r>   -54.9256     0.0000     0.0000 </r>
       <r>   -54.7248     0.0000     0.0000 </r>
       <r>   -54.5240     0.0000     0.0000 </r>
       <r>   -54.3232     0.0000     0.0000 </r>
       <r>   -54.1223     0.0000     0.0000 </r>
       <r>   -53.9215     0.0000     0.0000 </r>
       <r>   -53.7207     0.0000     0.0000 </r>
       <r>   -53.5198     0.0000     0.0000 </r>
       <r>   -53.3190     0.0000     0.0000 </r>
       <r>   -53.1182     0.0000     0.0000 </r>
       <r>   -52.9174     0.0000     0.0000 </r>
       <r>   -52.7165     0.0007     0.0002 </r>
       <r>   -52.5157     4.8819     0.9806 </r>
       <r>   -52.3149     0.0968     1.0000 </r>
       <r>   -52.1140     0.0000     1.0000 </r>
       <r>   -51.9132     0.0000     1.0000 </r>
       <r>   -51.7124     0.0000     1.0000 </r>
       <r>   -51.5116     0.0000     1.0000 </r>
       <r>   -51.3107     0.0000     1.0000 </r>
       <r>   -51.1099     0.0000     1.0000 </r>
       <r>   -50.9091     0.0000     1.0000 </r>
       <r>   -50.7082     0.0000     1.0000 </r>
       <r>   -50.5074     0.0000     1.0000 </r>
       <r>   -50.3066     0.0000     1.0000 </r>
       <r>   -50.1058     0.0000     1.0000 </r>
       <r>   -49.9049     0.0000     1.0000 </r>
       <r>   -49.7041     0.0000     1.0000 </r>
       <r>   -49.5033     0.0000     1.0000 </r>
       <r>   -49.3025     0.0000     1.0000 </r>
       <r>   -49.1016     0.0000     1.0000 </r>
       <r>   -48.9008     0.0000     1.0000 </r>
       <r>   -48.7000     0.0000     1.0000 </r>
       <r>   -48.4991     0.0000     1.0000 </r>
       <r>   -48.2983     0.0000     1.0000 </r>
       <r>   -48.0975     0.0000     1.0000 </r>
       <r>   -47.8967     0.0000     1.0000 </r>
       <r>   -47.6958     0.0000     1.0000 </r>
       <r>   -47.4950     0.0000     1.0000 </r>
       <r>   -47.2942     0.0000     1.0000 </r>
       <r>   -47.0933     0.0000     1.0000 </r>
       <r>   -46.8925     0.0000     1.0000 </r>
       <r>   -46.6917     0.0000     1.0000 </r>
       <r>   -46.4909     0.0000     1.0000 </r>
       <r>   -46.2900     0.0000     1.0000 </r>
       <r>   -46.0892     0.0000     1.0000 </r>
       <r>   -45.8884     0.0000     1.0000 </r>
       <r>   -45.6875     0.0000     1.0000 </r>
       <r>   -45.4867     0.0000     1.0000 </r>
       <r>   -45.2859     0.0000     1.0000 </r>
       <r>   -45.0851     0.0000     1.0000 </r>
       <r>   -44.8842     0.0000     1.0000 </r>
       <r>   -44.6834     0.0000     1.0000 </r>
       <r>   -44.4826     0.0000     1.0000 </r>
       <r>   -44.2817     0.0000     1.0000 </r>
       <r>   -44.0809     0.0000     1.0000 </r>
       <r>   -43.8801     0.0000     1.0000 </r>
       <r>   -43.6793     0.0000     1.0000 </r>
       <r>   -43.4784     0.0000     1.0000 </r>
       <r>   -43.2776     0.0000     1.0000 </r>
       <r>   -43.0768     0.0000     1.0000 </r>
       <r>   -42.8759     0.0000     1.0000 </r>
       <r>   -42.6751     0.0000     1.0000 </r>
       <r>   -42.4743     0.0000     1.0000 </r>
       <r>   -42.2735     0.0000     1.0000 </r>
       <r>   -42.0726     0.0000     1.0000 </r>
       <r>   -41.8718     0.0000     1.0000 </r>
       <r>   -41.6710     0.0000     1.0000 </r>
       <r>   -41.4702     0.0000     1.0000 </r>
       <r>   -41.2693     0.0000     1.0000 </r>
       <r>   -41.0685     0.0000     1.0000 </r>
       <r>   -40.8677     0.0000     1.0000 </r>
       <r>   -40.6668     0.0000     1.0000 </r>
       <r>   -40.4660     0.0000     1.0000 </r>
       <r>   -40.2652     0.0000     1.0000 </r>
       <r>   -40.0644     0.0000     1.0000 </r>
       <r>   -39.8635     0.0000     1.0000 </r>
       <r>   -39.6627     0.0000     1.0000 </r>
       <r>   -39.4619     0.0000     1.0000 </r>
       <r>   -39.2610     0.0000     1.0000 </r>
       <r>   -39.0602     0.0000     1.0000 </r>
       <r>   -38.8594     0.0000     1.0000 </r>
       <r>   -38.6586     0.0000     1.0000 </r>
       <r>   -38.4577     0.0000     1.0000 </r>
       <r>   -38.2569     0.0000     1.0000 </r>
       <r>   -38.0561     0.0000     1.0000 </r>
       <r>   -37.8552     0.0000     1.0000 </r>
       <r>   -37.6544     0.0000     1.0000 </r>
       <r>   -37.4536     0.0000     1.0000 </r>
       <r>   -37.2528     0.0000     1.0000 </r>
       <r>   -37.0519     0.0000     1.0000 </r>
       <r>   -36.8511     0.0000     1.0000 </r>
       <r>   -36.6503     0.0000     1.0000 </r>
       <r>   -36.4494     0.0000     1.0000 </r>
       <r>   -36.2486     0.0000     1.0000 </r>
       <r>   -36.0478     0.0000     1.0000 </r>
       <r>   -35.8470     0.0000     1.0000 </r>
       <r>   -35.6461     0.0000     1.0000 </r>
       <r>   -35.4453     0.0000     1.0000 </r>
       <r>   -35.2445     0.0000     1.0000 </r>
       <r>   -35.0437     0.0000     1.0000 </r>
       <r>   -34.8428     0.0000     1.0000 </r>
       <r>   -34.6420     0.0000     1.0000 </r>
       <r>   -34.4412     0.0000     1.0000 </r>
       <r>   -34.2403     0.0000     1.0000 </r>
       <r>   -34.0395     0.0000     1.0000 </r>
       <r>   -33.8387     0.0000     1.0000 </r>
       <r>   -33.6379     0.0000     1.0000 </r>
       <r>   -33.4370     0.0000     1.0000 </r>
       <r>   -33.2362     0.0000     1.0000 </r>
       <r>   -33.0354     0.0000     1.0000 </r>
       <r>   -32.8345     0.0000     1.0000 </r>
       <r>   -32.6337     0.0000     1.0000 </r>
       <r>   -32.4329     0.0000     1.0000 </r>
       <r>   -32.2321     0.0000     1.0000 </r>
       <r>   -32.0312     0.0000     1.0000 </r>
       <r>   -31.8304     0.0000     1.0000 </r>
       <r>   -31.6296     0.0000     1.0000 </r>
       <r>   -31.4287     0.0000     1.0000 </r>
       <r>   -31.2279     0.0000     1.0000 </r>
       <r>   -31.0271     0.0000     1.0000 </r>
       <r>   -30.8263     0.0000     1.0000 </r>
       <r>   -30.6254     0.0000     1.0000 </r>
       <r>   -30.4246     0.0000     1.0000 </r>
       <r>   -30.2238     0.0000     1.0000 </r>
       <r>   -30.0229     0.0000     1.0000 </r>
       <r>   -29.8221     0.0000     1.0000 </r>
       <r>   -29.6213     0.0000     1.0000 </r>
       <r>   -29.4205     0.0000     1.0000 </r>
       <r>   -29.2196     0.0000     1.0000 </r>
       <r>   -29.0188     0.0000     1.0000 </r>
       <r>   -28.8180     0.0000     1.0000 </r>
       <r>   -28.6171     0.0000     1.0000 </r>
       <r>   -28.4163     0.0000     1.0000 </r>
       <r>   -28.2155     0.0000     1.0000 </r>
       <r>   -28.0147     0.0000     1.0000 </r>
       <r>   -27.8138     0.0000     1.0000 </r>
       <r>   -27.6130     0.0000     1.0000 </r>
       <r>   -27.4122     0.0000     1.0000 </r>
       <r>   -27.2114     0.0000     1.0000 </r>
       <r>   -27.0105     0.0000     1.0000 </r>
       <r>   -26.8097     0.0000     1.0000 </r>
       <r>   -26.6089     0.0000     1.0000 </r>
       <r>   -26.4080     0.0000     1.0000 </r>
       <r>   -26.2072     0.0000     1.0000 </r>
       <r>   -26.0064     0.0000     1.0000 </r>
       <r>   -25.8056     0.0000     1.0000 </r>
       <r>   -25.6047     0.0000     1.0000 </r>
       <r>   -25.4039     0.0000     1.0000 </r>
       <r>   -25.2031     0.0000     1.0000 </r>
       <r>   -25.0022     0.0000     1.0000 </r>
       <r>   -24.8014     0.0000     1.0000 </r>
       <r>   -24.6006     0.0000     1.0000 </r>
       <r>   -24.3998     0.0000     1.0000 </r>
       <r>   -24.1989     0.0000     1.0000 </r>
       <r>   -23.9981     0.0000     1.0000 </r>
       <r>   -23.7973     0.0000     1.0000 </r>
       <r>   -23.5964     0.0000     1.0000 </r>
       <r>   -23.3956     0.0000     1.0000 </r>
       <r>   -23.1948     0.0000     1.0000 </r>
       <r>   -22.9940     0.0000     1.0000 </r>
       <r>   -22.7931     0.0000     1.0000 </r>
       <r>   -22.5923     0.0000     1.0000 </r>
       <r>   -22.3915     0.0888     1.0178 </r>
       <r>   -22.1906     4.1983     1.8610 </r>
       <r>   -21.9898     3.1985     2.5033 </r>
       <r>   -21.7890     3.3938     3.1849 </r>
       <r>   -21.5882     2.9279     3.7729 </r>
       <r>   -21.3873     4.4624     4.6691 </r>
       <r>   -21.1865     2.5971     5.1906 </r>
       <r>   -20.9857     4.5959     6.1136 </r>
       <r>   -20.7848     4.9417     7.1060 </r>
       <r>   -20.5840     1.7697     7.4614 </r>
       <r>   -20.3832     5.0439     8.4744 </r>
       <r>   -20.1824     3.3184     9.1408 </r>
       <r>   -19.9815     4.6569    10.0761 </r>
       <r>   -19.7807     1.5189    10.3811 </r>
       <r>   -19.5799     5.5802    11.5018 </r>
       <r>   -19.3791     3.6709    12.2390 </r>
       <r>   -19.1782     4.4822    13.1391 </r>
       <r>   -18.9774     4.8176    14.1066 </r>
       <r>   -18.7766     2.0255    14.5134 </r>
       <r>   -18.5757     2.7127    15.0582 </r>
       <r>   -18.3749     7.5738    16.5793 </r>
       <r>   -18.1741     3.4389    17.2699 </r>
       <r>   -17.9733     3.5653    17.9859 </r>
       <r>   -17.7724     5.4320    19.0768 </r>
       <r>   -17.5716     0.4046    19.1581 </r>
       <r>   -17.3708     8.2672    20.8183 </r>
       <r>   -17.1699     4.6703    21.7563 </r>
       <r>   -16.9691     4.1749    22.5947 </r>
       <r>   -16.7683     4.7149    23.5416 </r>
       <r>   -16.5675     1.7939    23.9018 </r>
       <r>   -16.3666     2.0667    24.3169 </r>
       <r>   -16.1658     7.7890    25.8811 </r>
       <r>   -15.9650     1.1449    26.1111 </r>
       <r>   -15.7641     1.9788    26.5085 </r>
       <r>   -15.5633     3.1066    27.1324 </r>
       <r>   -15.3625     3.5101    27.8373 </r>
       <r>   -15.1617     7.6329    29.3702 </r>
       <r>   -14.9608     3.6147    30.0961 </r>
       <r>   -14.7600     4.8061    31.0613 </r>
       <r>   -14.5592     4.5225    31.9696 </r>
       <r>   -14.3583     3.3160    32.6355 </r>
       <r>   -14.1575     3.6275    33.3640 </r>
       <r>   -13.9567     5.4720    34.4630 </r>
       <r>   -13.7559     4.6875    35.4043 </r>
       <r>   -13.5550     2.3990    35.8861 </r>
       <r>   -13.3542     0.8816    36.0632 </r>
       <r>   -13.1534     7.0531    37.4796 </r>
       <r>   -12.9526     5.8006    38.6446 </r>
       <r>   -12.7517     4.7649    39.6015 </r>
       <r>   -12.5509     1.5012    39.9030 </r>
       <r>   -12.3501     4.1332    40.7330 </r>
       <r>   -12.1492     4.8304    41.7031 </r>
       <r>   -11.9484     7.9147    43.2926 </r>
       <r>   -11.7476     1.2595    43.5456 </r>
       <r>   -11.5468     6.0456    44.7597 </r>
       <r>   -11.3459     7.6662    46.2993 </r>
       <r>   -11.1451     4.4373    47.1904 </r>
       <r>   -10.9443     3.6032    47.9140 </r>
       <r>   -10.7434     2.9286    48.5022 </r>
       <r>   -10.5426     8.3291    50.1749 </r>
       <r>   -10.3418     9.8471    52.1525 </r>
       <r>   -10.1410     8.8293    53.9256 </r>
       <r>    -9.9401     8.3339    55.5993 </r>
       <r>    -9.7393     8.2726    57.2607 </r>
       <r>    -9.5385    10.8330    59.4363 </r>
       <r>    -9.3376     8.8349    61.2106 </r>
       <r>    -9.1368    14.0724    64.0367 </r>
       <r>    -8.9360    11.9802    66.4427 </r>
       <r>    -8.7352    11.7572    68.8038 </r>
       <r>    -8.5343     8.0221    70.4149 </r>
       <r>    -8.3335     8.0696    72.0355 </r>
       <r>    -8.1327     9.8891    74.0215 </r>
       <r>    -7.9318    12.9768    76.6276 </r>
       <r>    -7.7310     7.9160    78.2174 </r>
       <r>    -7.5302     2.7112    78.7619 </r>
       <r>    -7.3294     9.0125    80.5719 </r>
       <r>    -7.1285     9.2624    82.4320 </r>
       <r>    -6.9277    10.0660    84.4535 </r>
       <r>    -6.7269     8.5930    86.1793 </r>
       <r>    -6.5260     5.3080    87.2453 </r>
       <r>    -6.3252     5.8149    88.4131 </r>
       <r>    -6.1244     5.3220    89.4819 </r>
       <r>    -5.9236    11.8597    91.8636 </r>
       <r>    -5.7227     3.1990    92.5061 </r>
       <r>    -5.5219     6.8525    93.8822 </r>
       <r>    -5.3211     2.2284    94.3298 </r>
       <r>    -5.1203     2.9533    94.9229 </r>
       <r>    -4.9194     7.9103    96.5115 </r>
       <r>    -4.7186     7.5471    98.0271 </r>
       <r>    -4.5178     2.0018    98.4292 </r>
       <r>    -4.3169     2.3594    98.9030 </r>
       <r>    -4.1161     2.0032    99.3053 </r>
       <r>    -3.9153     2.4975    99.8069 </r>
       <r>    -3.7145     2.5999   100.3290 </r>
       <r>    -3.5136     2.2226   100.7754 </r>
       <r>    -3.3128     0.0121   100.7778 </r>
       <r>    -3.1120     0.0000   100.7778 </r>
       <r>    -2.9111     0.4446   100.8671 </r>
       <r>    -2.7103     2.1014   101.2891 </r>
       <r>    -2.5095     2.4528   101.7817 </r>
       <r>    -2.3087     2.1065   102.2047 </r>
       <r>    -2.1078     0.0872   102.2222 </r>
       <r>    -1.9070     0.0874   102.2398 </r>
       <r>    -1.7062     3.8818   103.0193 </r>
       <r>    -1.5053     3.8242   103.7874 </r>
       <r>    -1.3045     5.5924   104.9105 </r>
       <r>    -1.1037     1.4281   105.1973 </r>
       <r>    -0.9029     7.1899   106.6412 </r>
       <r>    -0.7020     7.8687   108.2215 </r>
       <r>    -0.5012     5.2839   109.2826 </r>
       <r>    -0.3004     3.0188   109.8889 </r>
       <r>    -0.0995     0.4700   109.9833 </r>
       <r>     0.1013     4.0858   110.8038 </r>
       <r>     0.3021     9.9949   112.8111 </r>
       <r>     0.5029     8.3283   114.4836 </r>
       <r>     0.7038     4.2798   115.3431 </r>
       <r>     0.9046     7.6156   116.8726 </r>
       <r>     1.1054     8.4105   118.5616 </r>
       <r>     1.3063    11.3731   120.8457 </r>
       <r>     1.5071    13.8228   123.6217 </r>
       <r>     1.7079    16.1060   126.8562 </r>
       <r>     1.9087    17.9508   130.4612 </r>
       <r>     2.1096     7.0917   131.8854 </r>
       <r>     2.3104     0.5705   132.0000 </r>
       <r>     2.5112     0.0000   132.0000 </r>
       <r>     2.7120     0.0000   132.0000 </r>
       <r>     2.9129     0.0000   132.0000 </r>
       <r>     3.1137     0.0000   132.0000 </r>
       <r>     3.3145     0.0000   132.0000 </r>
       <r>     3.5154     0.0000   132.0000 </r>
       <r>     3.7162     0.0000   132.0000 </r>
       <r>     3.9170     0.0000   132.0000 </r>
       <r>     4.1178     0.0000   132.0000 </r>
       <r>     4.3187     0.0000   132.0000 </r>
       <r>     4.5195     0.0000   132.0000 </r>
       <r>     4.7203     0.0000   132.0000 </r>
       <r>     4.9212     0.0000   132.0000 </r>
      </set>
      <set comment="spin 2">
       <r>   -55.3273     0.0000     0.0000 </r>
       <r>   -55.1265     0.0000     0.0000 </r>
       <r>   -54.9256     0.0000     0.0000 </r>
       <r>   -54.7248     0.0000     0.0000 </r>
       <r>   -54.5240     0.0000     0.0000 </r>
       <r>   -54.3232     0.0000     0.0000 </r>
       <r>   -54.1223     0.0000     0.0000 </r>
       <r>   -53.9215     0.0000     0.0000 </r>
       <r>   -53.7207     0.0000     0.0000 </r>
       <r>   -53.5198     0.0000     0.0000 </r>
       <r>   -53.3190     0.0000     0.0000 </r>
       <r>   -53.1182     0.0000     0.0000 </r>
       <r>   -52.9174     0.0000     0.0000 </r>
       <r>   -52.7165     0.0007     0.0001 </r>
       <r>   -52.5157     4.8816     0.9805 </r>
       <r>   -52.3149     0.0971     1.0000 </r>
       <r>   -52.1140     0.0000     1.0000 </r>
       <r>   -51.9132     0.0000     1.0000 </r>
       <r>   -51.7124     0.0000     1.0000 </r>
       <r>   -51.5116     0.0000     1.0000 </r>
       <r>   -51.3107     0.0000     1.0000 </r>
       <r>   -51.1099     0.0000     1.0000 </r>
       <r>   -50.9091     0.0000     1.0000 </r>
       <r>   -50.7082     0.0000     1.0000 </r>
       <r>   -50.5074     0.0000     1.0000 </r>
       <r>   -50.3066     0.0000     1.0000 </r>
       <r>   -50.1058     0.0000     1.0000 </r>
       <r>   -49.9049     0.0000     1.0000 </r>
       <r>   -49.7041     0.0000     1.0000 </r>
       <r>   -49.5033     0.0000     1.0000 </r>
       <r>   -49.3025     0.0000     1.0000 </r>
       <r>   -49.1016     0.0000     1.0000 </r>
       <r>   -48.9008     0.0000     1.0000 </r>
       <r>   -48.7000     0.0000     1.0000 </r>
       <r>   -48.4991     0.0000     1.0000 </r>
       <r>   -48.2983     0.0000     1.0000 </r>
       <r>   -48.0975     0.0000     1.0000 </r>
       <r>   -47.8967     0.0000     1.0000 </r>
       <r>   -47.6958     0.0000     1.0000 </r>
       <r>   -47.4950     0.0000     1.0000 </r>
       <r>   -47.2942     0.0000     1.0000 </r>
       <r>   -47.0933     0.0000     1.0000 </r>
       <r>   -46.8925     0.0000     1.0000 </r>
       <r>   -46.6917     0.0000     1.0000 </r>
       <r>   -46.4909     0.0000     1.0000 </r>
       <r>   -46.2900     0.0000     1.0000 </r>
       <r>   -46.0892     0.0000     1.0000 </r>
       <r>   -45.8884     0.0000     1.0000 </r>
       <r>   -45.6875     0.0000     1.0000 </r>
       <r>   -45.4867     0.0000     1.0000 </r>
       <r>   -45.2859     0.0000     1.0000 </r>
       <r>   -45.0851     0.0000     1.0000 </r>
       <r>   -44.8842     0.0000     1.0000 </r>
       <r>   -44.6834     0.0000     1.0000 </r>
       <r>   -44.4826     0.0000     1.0000 </r>
       <r>   -44.2817     0.0000     1.0000 </r>
       <r>   -44.0809     0.0000     1.0000 </r>
       <r>   -43.8801     0.0000     1.0000 </r>
       <r>   -43.6793     0.0000     1.0000 </r>
       <r>   -43.4784     0.0000     1.0000 </r>
       <r>   -43.2776     0.0000     1.0000 </r>
       <r>   -43.0768     0.0000     1.0000 </r>
       <r>   -42.8759     0.0000     1.0000 </r>
       <r>   -42.6751     0.0000     1.0000 </r>
       <r>   -42.4743     0.0000     1.0000 </r>
       <r>   -42.2735     0.0000     1.0000 </r>
       <r>   -42.0726     0.0000     1.0000 </r>
       <r>   -41.8718     0.0000     1.0000 </r>
       <r>   -41.6710     0.0000     1.0000 </r>
       <r>   -41.4702     0.0000     1.0000 </r>
       <r>   -41.2693     0.0000     1.0000 </r>
       <r>   -41.0685     0.0000     1.0000 </r>
       <r>   -40.8677     0.0000     1.0000 </r>
       <r>   -40.6668     0.0000     1.0000 </r>
       <r>   -40.4660     0.0000     1.0000 </r>
       <r>   -40.2652     0.0000     1.0000 </r>
       <r>   -40.0644     0.0000     1.0000 </r>
       <r>   -39.8635     0.0000     1.0000 </r>
       <r>   -39.6627     0.0000     1.0000 </r>
       <r>   -39.4619     0.0000     1.0000 </r>
       <r>   -39.2610     0.0000     1.0000 </r>
       <r>   -39.0602     0.0000     1.0000 </r>
       <r>   -38.8594     0.0000     1.0000 </r>
       <r>   -38.6586     0.0000     1.0000 </r>
       <r>   -38.4577     0.0000     1.0000 </r>
       <r>   -38.2569     0.0000     1.0000 </r>
       <r>   -38.0561     0.0000     1.0000 </r>
       <r>   -37.8552     0.0000     1.0000 </r>
       <r>   -37.6544     0.0000     1.0000 </r>
       <r>   -37.4536     0.0000     1.0000 </r>
       <r>   -37.2528     0.0000     1.0000 </r>
       <r>   -37.0519     0.0000     1.0000 </r>
       <r>   -36.8511     0.0000     1.0000 </r>
       <r>   -36.6503     0.0000     1.0000 </r>
       <r>   -36.4494     0.0000     1.0000 </r>
       <r>   -36.2486     0.0000     1.0000 </r>
       <r>   -36.0478     0.0000     1.0000 </r>
       <r>   -35.8470     0.0000     1.0000 </r>
       <r>   -35.6461     0.0000     1.0000 </r>
       <r>   -35.4453     0.0000     1.0000 </r>
       <r>   -35.2445     0.0000     1.0000 </r>
       <r>   -35.0437     0.0000     1.0000 </r>
       <r>   -34.8428     0.0000     1.0000 </r>
       <r>   -34.6420     0.0000     1.0000 </r>
       <r>   -34.4412     0.0000     1.0000 </r>
       <r>   -34.2403     0.0000     1.0000 </r>
       <r>   -34.0395     0.0000     1.0000 </r>
       <r>   -33.8387     0.0000     1.0000 </r>
       <r>   -33.6379     0.0000     1.0000 </r>
       <r>   -33.4370     0.0000     1.0000 </r>
       <r>   -33.2362     0.0000     1.0000 </r>
       <r>   -33.0354     0.0000     1.0000 </r>
       <r>   -32.8345     0.0000     1.0000 </r>
       <r>   -32.6337     0.0000     1.0000 </r>
       <r>   -32.4329     0.0000     1.0000 </r>
       <r>   -32.2321     0.0000     1.0000 </r>
       <r>   -32.0312     0.0000     1.0000 </r>
       <r>   -31.8304     0.0000     1.0000 </r>
       <r>   -31.6296     0.0000     1.0000 </r>
       <r>   -31.4287     0.0000     1.0000 </r>
       <r>   -31.2279     0.0000     1.0000 </r>
       <r>   -31.0271     0.0000     1.0000 </r>
       <r>   -30.8263     0.0000     1.0000 </r>
       <r>   -30.6254     0.0000     1.0000 </r>
       <r>   -30.4246     0.0000     1.0000 </r>
       <r>   -30.2238     0.0000     1.0000 </r>
       <r>   -30.0229     0.0000     1.0000 </r>
       <r>   -29.8221     0.0000     1.0000 </r>
       <r>   -29.6213     0.0000     1.0000 </r>
       <r>   -29.4205     0.0000     1.0000 </r>
       <r>   -29.2196     0.0000     1.0000 </r>
       <r>   -29.0188     0.0000     1.0000 </r>
       <r>   -28.8180     0.0000     1.0000 </r>
       <r>   -28.6171     0.0000     1.0000 </r>
       <r>   -28.4163     0.0000     1.0000 </r>
       <r>   -28.2155     0.0000     1.0000 </r>
       <r>   -28.0147     0.0000     1.0000 </r>
       <r>   -27.8138     0.0000     1.0000 </r>
       <r>   -27.6130     0.0000     1.0000 </r>
       <r>   -27.4122     0.0000     1.0000 </r>
       <r>   -27.2114     0.0000     1.0000 </r>
       <r>   -27.0105     0.0000     1.0000 </r>
       <r>   -26.8097     0.0000     1.0000 </r>
       <r>   -26.6089     0.0000     1.0000 </r>
       <r>   -26.4080     0.0000     1.0000 </r>
       <r>   -26.2072     0.0000     1.0000 </r>
       <r>   -26.0064     0.0000     1.0000 </r>
       <r>   -25.8056     0.0000     1.0000 </r>
       <r>   -25.6047     0.0000     1.0000 </r>
       <r>   -25.4039     0.0000     1.0000 </r>
       <r>   -25.2031     0.0000     1.0000 </r>
       <r>   -25.0022     0.0000     1.0000 </r>
       <r>   -24.8014     0.0000     1.0000 </r>
       <r>   -24.6006     0.0000     1.0000 </r>
       <r>   -24.3998     0.0000     1.0000 </r>
       <r>   -24.1989     0.0000     1.0000 </r>
       <r>   -23.9981     0.0000     1.0000 </r>
       <r>   -23.7973     0.0000     1.0000 </r>
       <r>   -23.5964     0.0000     1.0000 </r>
       <r>   -23.3956     0.0000     1.0000 </r>
       <r>   -23.1948     0.0000     1.0000 </r>
       <r>   -22.9940     0.0000     1.0000 </r>
       <r>   -22.7931     0.0000     1.0000 </r>
       <r>   -22.5923     0.0000     1.0000 </r>
       <r>   -22.3915     0.0523     1.0105 </r>
       <r>   -22.1906     4.0298     1.8198 </r>
       <r>   -21.9898     3.0594     2.4342 </r>
       <r>   -21.7890     3.5179     3.1407 </r>
       <r>   -21.5882     2.9663     3.7364 </r>
       <r>   -21.3873     4.6251     4.6653 </r>
       <r>   -21.1865     2.5250     5.1724 </r>
       <r>   -20.9857     4.5817     6.0925 </r>
       <r>   -20.7848     5.0343     7.1036 </r>
       <r>   -20.5840     1.6491     7.4347 </r>
       <r>   -20.3832     4.8505     8.4089 </r>
       <r>   -20.1824     3.3440     9.0804 </r>
       <r>   -19.9815     4.8654    10.0575 </r>
       <r>   -19.7807     1.5413    10.3671 </r>
       <r>   -19.5799     5.5657    11.4848 </r>
       <r>   -19.3791     3.6502    12.2179 </r>
       <r>   -19.1782     4.5218    13.1260 </r>
       <r>   -18.9774     4.6191    14.0536 </r>
       <r>   -18.7766     2.2640    14.5083 </r>
       <r>   -18.5757     2.4265    14.9956 </r>
       <r>   -18.3749     7.6054    16.5230 </r>
       <r>   -18.1741     3.6793    17.2619 </r>
       <r>   -17.9733     3.3492    17.9345 </r>
       <r>   -17.7724     5.6254    19.0642 </r>
       <r>   -17.5716     0.4129    19.1472 </r>
       <r>   -17.3708     8.0772    20.7693 </r>
       <r>   -17.1699     4.8105    21.7354 </r>
       <r>   -16.9691     4.1311    22.5650 </r>
       <r>   -16.7683     4.6914    23.5072 </r>
       <r>   -16.5675     1.8711    23.8830 </r>
       <r>   -16.3666     2.0284    24.2903 </r>
       <r>   -16.1658     7.7919    25.8552 </r>
       <r>   -15.9650     1.2735    26.1109 </r>
       <r>   -15.7641     1.6431    26.4409 </r>
       <r>   -15.5633     3.3006    27.1038 </r>
       <r>   -15.3625     3.5425    27.8152 </r>
       <r>   -15.1617     7.6958    29.3607 </r>
       <r>   -14.9608     3.5003    30.0637 </r>
       <r>   -14.7600     4.8837    31.0445 </r>
       <r>   -14.5592     4.5491    31.9581 </r>
       <r>   -14.3583     3.1411    32.5889 </r>
       <r>   -14.1575     3.8018    33.3524 </r>
       <r>   -13.9567     5.4932    34.4556 </r>
       <r>   -13.7559     4.6657    35.3926 </r>
       <r>   -13.5550     2.4476    35.8842 </r>
       <r>   -13.3542     0.7340    36.0316 </r>
       <r>   -13.1534     6.9274    37.4228 </r>
       <r>   -12.9526     5.9801    38.6238 </r>
       <r>   -12.7517     4.7510    39.5779 </r>
       <r>   -12.5509     1.5015    39.8794 </r>
       <r>   -12.3501     4.1731    40.7175 </r>
       <r>   -12.1492     4.7778    41.6770 </r>
       <r>   -11.9484     7.9368    43.2710 </r>
       <r>   -11.7476     1.3127    43.5346 </r>
       <r>   -11.5468     5.6591    44.6711 </r>
       <r>   -11.3459     8.0244    46.2826 </r>
       <r>   -11.1451     4.4470    47.1757 </r>
       <r>   -10.9443     3.5684    47.8923 </r>
       <r>   -10.7434     2.9607    48.4869 </r>
       <r>   -10.5426     8.1119    50.1160 </r>
       <r>   -10.3418     9.4394    52.0117 </r>
       <r>   -10.1410     9.4019    53.8999 </r>
       <r>    -9.9401     7.9761    55.5017 </r>
       <r>    -9.7393     8.3867    57.1860 </r>
       <r>    -9.5385    10.4908    59.2928 </r>
       <r>    -9.3376     9.2950    61.1595 </r>
       <r>    -9.1368    14.0392    63.9790 </r>
       <r>    -8.9360    11.6122    66.3111 </r>
       <r>    -8.7352    11.8767    68.6963 </r>
       <r>    -8.5343     8.4415    70.3916 </r>
       <r>    -8.3335     7.9634    71.9908 </r>
       <r>    -8.1327     9.7343    73.9457 </r>
       <r>    -7.9318    12.7444    76.5052 </r>
       <r>    -7.7310     8.3486    78.1818 </r>
       <r>    -7.5302     2.5550    78.6949 </r>
       <r>    -7.3294     8.9478    80.4919 </r>
       <r>    -7.1285     9.3654    82.3727 </r>
       <r>    -6.9277    10.0024    84.3815 </r>
       <r>    -6.7269     8.4846    86.0854 </r>
       <r>    -6.5260     5.7473    87.2397 </r>
       <r>    -6.3252     5.5935    88.3630 </r>
       <r>    -6.1244     4.5307    89.2729 </r>
       <r>    -5.9236    12.5795    91.7992 </r>
       <r>    -5.7227     3.2535    92.4526 </r>
       <r>    -5.5219     6.6059    93.7792 </r>
       <r>    -5.3211     2.7115    94.3238 </r>
       <r>    -5.1203     2.7705    94.8802 </r>
       <r>    -4.9194     7.0388    96.2938 </r>
       <r>    -4.7186     8.2223    97.9451 </r>
       <r>    -4.5178     2.1979    98.3865 </r>
       <r>    -4.3169     2.4685    98.8822 </r>
       <r>    -4.1161     2.0811    99.3001 </r>
       <r>    -3.9153     1.7415    99.6499 </r>
       <r>    -3.7145     3.3266   100.3180 </r>
       <r>    -3.5136     2.2604   100.7719 </r>
       <r>    -3.3128     0.0292   100.7778 </r>
       <r>    -3.1120     0.0000   100.7778 </r>
       <r>    -2.9111     0.0749   100.7928 </r>
       <r>    -2.7103     1.9655   101.1875 </r>
       <r>    -2.5095     1.6643   101.5218 </r>
       <r>    -2.3087     2.8479   102.0937 </r>
       <r>    -2.1078     0.6399   102.2222 </r>
       <r>    -1.9070     0.0205   102.2263 </r>
       <r>    -1.7062     3.7965   102.9888 </r>
       <r>    -1.5053     3.6657   103.7250 </r>
       <r>    -1.3045     5.7837   104.8865 </r>
       <r>    -1.1037     1.3914   105.1659 </r>
       <r>    -0.9029     7.1775   106.6074 </r>
       <r>    -0.7020     7.6910   108.1519 </r>
       <r>    -0.5012     5.1217   109.1805 </r>
       <r>    -0.3004     3.5272   109.8889 </r>
       <r>    -0.0995     0.2456   109.9382 </r>
       <r>     0.1013     4.0968   110.7609 </r>
       <r>     0.3021     9.8097   112.7310 </r>
       <r>     0.5029     8.2677   114.3914 </r>
       <r>     0.7038     4.7175   115.3388 </r>
       <r>     0.9046     7.2182   116.7884 </r>
       <r>     1.1054     8.3696   118.4693 </r>
       <r>     1.3063    10.9504   120.6684 </r>
       <r>     1.5071    12.7882   123.2366 </r>
       <r>     1.7079    16.8945   126.6295 </r>
       <r>     1.9087    18.4671   130.3382 </r>
       <r>     2.1096     7.4119   131.8268 </r>
       <r>     2.3104     0.8626   132.0000 </r>
       <r>     2.5112     0.0001   132.0000 </r>
       <r>     2.7120     0.0000   132.0000 </r>
       <r>     2.9129     0.0000   132.0000 </r>
       <r>     3.1137     0.0000   132.0000 </r>
       <r>     3.3145     0.0000   132.0000 </r>
       <r>     3.5154     0.0000   132.0000 </r>
       <r>     3.7162     0.0000   132.0000 </r>
       <r>     3.9170     0.0000   132.0000 </r>
       <r>     4.1178     0.0000   132.0000 </r>
       <r>     4.3187     0.0000   132.0000 </r>
       <r>     4.5195     0.0000   132.0000 </r>
       <r>     4.7203     0.0000   132.0000 </r>
       <r>     4.9212     0.0000   132.0000 </r>
      </set>
     </set>
    </array>
   </total>
  </dos>
 </calculation>
 <structure name="finalpos" >
  <crystal>
   <varray name="basis" >
    <v>      12.30000000       0.00000000       0.00000000 </v>
    <v>      -6.15000000      10.65211247       0.00000000 </v>
    <v>       0.00000000       0.00000000      30.00000000 </v>
   </varray>
   <i name="volume">   3930.62950016 </i>
   <varray name="rec_basis" >
    <v>       0.08130081       0.04693905       0.00000000 </v>
    <v>       0.00000000       0.09387809       0.00000000 </v>
    <v>       0.00000000       0.00000000       0.03333333 </v>
   </varray>
  </crystal>
  <varray name="positions" >
   <v>       0.99824632       0.00451485       0.50456974 </v>
   <v>       0.13064214       0.06937547       0.51014723 </v>
   <v>       0.99450334       0.20543693       0.49533941 </v>
   <v>       0.12874344       0.26897822       0.49821997 </v>
   <v>       0.99549924       0.40924387       0.48997498 </v>
   <v>       0.13111623       0.47011518       0.49608251 </v>
   <v>       0.01694627       0.61707021       0.50086202 </v>
   <v>       0.14368459       0.67346735       0.50906859 </v>
   <v>       0.00680056       0.81035110       0.50906906 </v>
   <v>       0.13634663       0.87093284       0.51710703 </v>
   <v>       0.19769422       0.00223603       0.51731135 </v>
   <v>       0.51663516       0.24987308       0.50229483 </v>
   <v>       0.40218667       0.39650253       0.49661258 </v>
   <v>       0.32847798       0.26460571       0.50429262 </v>
   <v>       0.19857260       0.40161433       0.49668863 </v>
   <v>       0.33464895       0.46494607       0.49678961 </v>
   <v>       0.20488481       0.60214560       0.50352156 </v>
   <v>       0.33784857       0.66491353       0.50456968 </v>
   <v>       0.20426646       0.80301336       0.51710687 </v>
   <v>       0.33556953       0.86436090       0.51731135 </v>
   <v>       0.39697042       0.99568090       0.51793013 </v>
   <v>       0.52677657       0.05640753       0.51029899 </v>
   <v>       0.38974075       0.19344334       0.51029902 </v>
   <v>       0.32901416       0.06363699       0.51793012 </v>
   <v>       0.19546749       0.20182835       0.50490773 </v>
   <v>       0.53776641       0.45732263       0.49044788 </v>
   <v>       0.60231162       0.79541019       0.49821990 </v>
   <v>       0.53877040       0.66117011       0.49533946 </v>
   <v>       0.40270914       0.79730880       0.51014714 </v>
   <v>       0.53516185       0.86213429       0.50490773 </v>
   <v>       0.59793910       0.99514473       0.50429256 </v>
   <v>       0.72983580       0.06885333       0.49661244 </v>
   <v>       0.58320626       0.18330190       0.50229480 </v>
   <v>       0.70782687       0.25920486       0.48900840 </v>
   <v>       0.59253813       0.37449369       0.48900842 </v>
   <v>       0.71088039       0.37754721       0.47886008 </v>
   <v>       0.60677497       0.59312172       0.48985965 </v>
   <v>       0.93547874       0.87155144       0.50352185 </v>
   <v>       0.40452511       0.59760148       0.49815080 </v>
   <v>       0.73494768       0.86523935       0.49668863 </v>
   <v>       0.79827934       0.00131561       0.49678948 </v>
   <v>       0.93093470       0.07119166       0.49815081 </v>
   <v>       0.79065586       0.20443305       0.49044784 </v>
   <v>       0.92645497       0.27344147       0.48985966 </v>
   <v>       0.82194826       0.48861487       0.47841955 </v>
   <v>       0.94070656       0.49201793       0.48816656 </v>
   <v>       0.82535155       0.60737341       0.48816659 </v>
   <v>       0.95040365       0.68361294       0.50086218 </v>
   <v>       0.80344850       0.79778282       0.49608286 </v>
   <v>       0.74257744       0.66216589       0.48997508 </v>
   <v>       0.74547822       0.45057448       0.55691839 </v>
  </varray>
 </structure>
</modeling>
