  55  55   0   0
  0.7146599E+02  0.1230000E-08  0.1230000E-08  0.3000000E-08  0.5000000E-15
  1.000000000000000E-004
  CAR 
 Li defective graphene MACE training lab 
      4.44678254    -53.83940923  301     -2.77569859      1.00000000
    -53.839  0.0000E+00  0.0000E+00  0.0000E+00  0.0000E+00
    -53.645  0.0000E+00  0.0000E+00  0.0000E+00  0.0000E+00
    -53.451  0.0000E+00  0.0000E+00  0.0000E+00  0.0000E+00
    -53.257  0.0000E+00  0.0000E+00  0.0000E+00  0.0000E+00
    -53.062  0.0000E+00  0.0000E+00  0.0000E+00  0.0000E+00
    -52.868  0.0000E+00  0.0000E+00  0.0000E+00  0.0000E+00
    -52.674  0.0000E+00  0.0000E+00  0.0000E+00  0.0000E+00
    -52.479  0.0000E+00  0.0000E+00  0.0000E+00  0.0000E+00
    -52.285  0.0000E+00  0.0000E+00  0.0000E+00  0.0000E+00
    -52.091  0.0000E+00  0.0000E+00  0.0000E+00  0.0000E+00
    -51.897  0.0000E+00  0.0000E+00  0.0000E+00  0.0000E+00
    -51.702  0.0000E+00  0.0000E+00  0.0000E+00  0.0000E+00
    -51.508  0.0000E+00  0.0000E+00  0.0000E+00  0.0000E+00
    -51.314  0.1211E-02  0.7968E-03  0.2352E-03  0.1548E-03
    -51.119  0.5028E+01  0.4994E+01  0.9772E+00  0.9705E+00
    -50.925  0.1176E+00  0.1519E+00  0.1000E+01  0.1000E+01
    -50.731  0.0000E+00  0.0000E+00  0.1000E+01  0.1000E+01
    -50.537  0.0000E+00  0.0000E+00  0.1000E+01  0.1000E+01
    -50.342  0.0000E+00  0.0000E+00  0.1000E+01  0.1000E+01
    -50.148  0.0000E+00  0.0000E+00  0.1000E+01  0.1000E+01
    -49.954  0.0000E+00  0.0000E+00  0.1000E+01  0.1000E+01
    -49.759  0.0000E+00  0.0000E+00  0.1000E+01  0.1000E+01
    -49.565  0.0000E+00  0.0000E+00  0.1000E+01  0.1000E+01
    -49.371  0.0000E+00  0.0000E+00  0.1000E+01  0.1000E+01
    -49.177  0.0000E+00  0.0000E+00  0.1000E+01  0.1000E+01
    -48.982  0.0000E+00  0.0000E+00  0.1000E+01  0.1000E+01
    -48.788  0.0000E+00  0.0000E+00  0.1000E+01  0.1000E+01
    -48.594  0.0000E+00  0.0000E+00  0.1000E+01  0.1000E+01
    -48.399  0.0000E+00  0.0000E+00  0.1000E+01  0.1000E+01
    -48.205  0.0000E+00  0.0000E+00  0.1000E+01  0.1000E+01
    -48.011  0.0000E+00  0.0000E+00  0.1000E+01  0.1000E+01
    -47.817  0.0000E+00  0.0000E+00  0.1000E+01  0.1000E+01
    -47.622  0.0000E+00  0.0000E+00  0.1000E+01  0.1000E+01
    -47.428  0.0000E+00  0.0000E+00  0.1000E+01  0.1000E+01
    -47.234  0.0000E+00  0.0000E+00  0.1000E+01  0.1000E+01
    -47.039  0.0000E+00  0.0000E+00  0.1000E+01  0.1000E+01
    -46.845  0.0000E+00  0.0000E+00  0.1000E+01  0.1000E+01
    -46.651  0.0000E+00  0.0000E+00  0.1000E+01  0.1000E+01
    -46.456  0.0000E+00  0.0000E+00  0.1000E+01  0.1000E+01
    -46.262  0.0000E+00  0.0000E+00  0.1000E+01  0.1000E+01
    -46.068  0.0000E+00  0.0000E+00  0.1000E+01  0.1000E+01
    -45.874  0.0000E+00  0.0000E+00  0.1000E+01  0.1000E+01
    -45.679  0.0000E+00  0.0000E+00  0.1000E+01  0.1000E+01
    -45.485  0.0000E+00  0.0000E+00  0.1000E+01  0.1000E+01
    -45.291  0.0000E+00  0.0000E+00  0.1000E+01  0.1000E+01
    -45.096  0.0000E+00  0.0000E+00  0.1000E+01  0.1000E+01
    -44.902  0.0000E+00  0.0000E+00  0.1000E+01  0.1000E+01
    -44.708  0.0000E+00  0.0000E+00  0.1000E+01  0.1000E+01
    -44.514  0.0000E+00  0.0000E+00  0.1000E+01  0.1000E+01
    -44.319  0.0000E+00  0.0000E+00  0.1000E+01  0.1000E+01
    -44.125  0.0000E+00  0.0000E+00  0.1000E+01  0.1000E+01
    -43.931  0.0000E+00  0.0000E+00  0.1000E+01  0.1000E+01
    -43.736  0.0000E+00  0.0000E+00  0.1000E+01  0.1000E+01
    -43.542  0.0000E+00  0.0000E+00  0.1000E+01  0.1000E+01
    -43.348  0.0000E+00  0.0000E+00  0.1000E+01  0.1000E+01
    -43.154  0.0000E+00  0.0000E+00  0.1000E+01  0.1000E+01
    -42.959  0.0000E+00  0.0000E+00  0.1000E+01  0.1000E+01
    -42.765  0.0000E+00  0.0000E+00  0.1000E+01  0.1000E+01
    -42.571  0.0000E+00  0.0000E+00  0.1000E+01  0.1000E+01
    -42.376  0.0000E+00  0.0000E+00  0.1000E+01  0.1000E+01
    -42.182  0.0000E+00  0.0000E+00  0.1000E+01  0.1000E+01
    -41.988  0.0000E+00  0.0000E+00  0.1000E+01  0.1000E+01
    -41.794  0.0000E+00  0.0000E+00  0.1000E+01  0.1000E+01
    -41.599  0.0000E+00  0.0000E+00  0.1000E+01  0.1000E+01
    -41.405  0.0000E+00  0.0000E+00  0.1000E+01  0.1000E+01
    -41.211  0.0000E+00  0.0000E+00  0.1000E+01  0.1000E+01
    -41.016  0.0000E+00  0.0000E+00  0.1000E+01  0.1000E+01
    -40.822  0.0000E+00  0.0000E+00  0.1000E+01  0.1000E+01
    -40.628  0.0000E+00  0.0000E+00  0.1000E+01  0.1000E+01
    -40.434  0.0000E+00  0.0000E+00  0.1000E+01  0.1000E+01
    -40.239  0.0000E+00  0.0000E+00  0.1000E+01  0.1000E+01
    -40.045  0.0000E+00  0.0000E+00  0.1000E+01  0.1000E+01
    -39.851  0.0000E+00  0.0000E+00  0.1000E+01  0.1000E+01
    -39.656  0.0000E+00  0.0000E+00  0.1000E+01  0.1000E+01
    -39.462  0.0000E+00  0.0000E+00  0.1000E+01  0.1000E+01
    -39.268  0.0000E+00  0.0000E+00  0.1000E+01  0.1000E+01
    -39.074  0.0000E+00  0.0000E+00  0.1000E+01  0.1000E+01
    -38.879  0.0000E+00  0.0000E+00  0.1000E+01  0.1000E+01
    -38.685  0.0000E+00  0.0000E+00  0.1000E+01  0.1000E+01
    -38.491  0.0000E+00  0.0000E+00  0.1000E+01  0.1000E+01
    -38.296  0.0000E+00  0.0000E+00  0.1000E+01  0.1000E+01
    -38.102  0.0000E+00  0.0000E+00  0.1000E+01  0.1000E+01
    -37.908  0.0000E+00  0.0000E+00  0.1000E+01  0.1000E+01
    -37.714  0.0000E+00  0.0000E+00  0.1000E+01  0.1000E+01
    -37.519  0.0000E+00  0.0000E+00  0.1000E+01  0.1000E+01
    -37.325  0.0000E+00  0.0000E+00  0.1000E+01  0.1000E+01
    -37.131  0.0000E+00  0.0000E+00  0.1000E+01  0.1000E+01
    -36.936  0.0000E+00  0.0000E+00  0.1000E+01  0.1000E+01
    -36.742  0.0000E+00  0.0000E+00  0.1000E+01  0.1000E+01
    -36.548  0.0000E+00  0.0000E+00  0.1000E+01  0.1000E+01
    -36.354  0.0000E+00  0.0000E+00  0.1000E+01  0.1000E+01
    -36.159  0.0000E+00  0.0000E+00  0.1000E+01  0.1000E+01
    -35.965  0.0000E+00  0.0000E+00  0.1000E+01  0.1000E+01
    -35.771  0.0000E+00  0.0000E+00  0.1000E+01  0.1000E+01
    -35.576  0.0000E+00  0.0000E+00  0.1000E+01  0.1000E+01
    -35.382  0.0000E+00  0.0000E+00  0.1000E+01  0.1000E+01
    -35.188  0.0000E+00  0.0000E+00  0.1000E+01  0.1000E+01
    -34.994  0.0000E+00  0.0000E+00  0.1000E+01  0.1000E+01
    -34.799  0.0000E+00  0.0000E+00  0.1000E+01  0.1000E+01
    -34.605  0.0000E+00  0.0000E+00  0.1000E+01  0.1000E+01
    -34.411  0.0000E+00  0.0000E+00  0.1000E+01  0.1000E+01
    -34.216  0.0000E+00  0.0000E+00  0.1000E+01  0.1000E+01
    -34.022  0.0000E+00  0.0000E+00  0.1000E+01  0.1000E+01
    -33.828  0.0000E+00  0.0000E+00  0.1000E+01  0.1000E+01
    -33.634  0.0000E+00  0.0000E+00  0.1000E+01  0.1000E+01
    -33.439  0.0000E+00  0.0000E+00  0.1000E+01  0.1000E+01
    -33.245  0.0000E+00  0.0000E+00  0.1000E+01  0.1000E+01
    -33.051  0.0000E+00  0.0000E+00  0.1000E+01  0.1000E+01
    -32.856  0.0000E+00  0.0000E+00  0.1000E+01  0.1000E+01
    -32.662  0.0000E+00  0.0000E+00  0.1000E+01  0.1000E+01
    -32.468  0.0000E+00  0.0000E+00  0.1000E+01  0.1000E+01
    -32.274  0.0000E+00  0.0000E+00  0.1000E+01  0.1000E+01
    -32.079  0.0000E+00  0.0000E+00  0.1000E+01  0.1000E+01
    -31.885  0.0000E+00  0.0000E+00  0.1000E+01  0.1000E+01
    -31.691  0.0000E+00  0.0000E+00  0.1000E+01  0.1000E+01
    -31.496  0.0000E+00  0.0000E+00  0.1000E+01  0.1000E+01
    -31.302  0.0000E+00  0.0000E+00  0.1000E+01  0.1000E+01
    -31.108  0.0000E+00  0.0000E+00  0.1000E+01  0.1000E+01
    -30.914  0.0000E+00  0.0000E+00  0.1000E+01  0.1000E+01
    -30.719  0.0000E+00  0.0000E+00  0.1000E+01  0.1000E+01
    -30.525  0.0000E+00  0.0000E+00  0.1000E+01  0.1000E+01
    -30.331  0.0000E+00  0.0000E+00  0.1000E+01  0.1000E+01
    -30.136  0.0000E+00  0.0000E+00  0.1000E+01  0.1000E+01
    -29.942  0.0000E+00  0.0000E+00  0.1000E+01  0.1000E+01
    -29.748  0.0000E+00  0.0000E+00  0.1000E+01  0.1000E+01
    -29.553  0.0000E+00  0.0000E+00  0.1000E+01  0.1000E+01
    -29.359  0.0000E+00  0.0000E+00  0.1000E+01  0.1000E+01
    -29.165  0.0000E+00  0.0000E+00  0.1000E+01  0.1000E+01
    -28.971  0.0000E+00  0.0000E+00  0.1000E+01  0.1000E+01
    -28.776  0.0000E+00  0.0000E+00  0.1000E+01  0.1000E+01
    -28.582  0.0000E+00  0.0000E+00  0.1000E+01  0.1000E+01
    -28.388  0.0000E+00  0.0000E+00  0.1000E+01  0.1000E+01
    -28.193  0.0000E+00  0.0000E+00  0.1000E+01  0.1000E+01
    -27.999  0.0000E+00  0.0000E+00  0.1000E+01  0.1000E+01
    -27.805  0.0000E+00  0.0000E+00  0.1000E+01  0.1000E+01
    -27.611  0.0000E+00  0.0000E+00  0.1000E+01  0.1000E+01
    -27.416  0.0000E+00  0.0000E+00  0.1000E+01  0.1000E+01
    -27.222  0.0000E+00  0.0000E+00  0.1000E+01  0.1000E+01
    -27.028  0.0000E+00  0.0000E+00  0.1000E+01  0.1000E+01
    -26.833  0.0000E+00  0.0000E+00  0.1000E+01  0.1000E+01
    -26.639  0.0000E+00  0.0000E+00  0.1000E+01  0.1000E+01
    -26.445  0.0000E+00  0.0000E+00  0.1000E+01  0.1000E+01
    -26.251  0.0000E+00  0.0000E+00  0.1000E+01  0.1000E+01
    -26.056  0.0000E+00  0.0000E+00  0.1000E+01  0.1000E+01
    -25.862  0.0000E+00  0.0000E+00  0.1000E+01  0.1000E+01
    -25.668  0.0000E+00  0.0000E+00  0.1000E+01  0.1000E+01
    -25.473  0.0000E+00  0.0000E+00  0.1000E+01  0.1000E+01
    -25.279  0.0000E+00  0.0000E+00  0.1000E+01  0.1000E+01
    -25.085  0.0000E+00  0.0000E+00  0.1000E+01  0.1000E+01
    -24.891  0.0000E+00  0.0000E+00  0.1000E+01  0.1000E+01
    -24.696  0.0000E+00  0.0000E+00  0.1000E+01  0.1000E+01
    -24.502  0.0000E+00  0.0000E+00  0.1000E+01  0.1000E+01
    -24.308  0.0000E+00  0.0000E+00  0.1000E+01  0.1000E+01
    -24.113  0.0000E+00  0.0000E+00  0.1000E+01  0.1000E+01
    -23.919  0.0000E+00  0.0000E+00  0.1000E+01  0.1000E+01
    -23.725  0.0000E+00  0.0000E+00  0.1000E+01  0.1000E+01
    -23.531  0.0000E+00  0.0000E+00  0.1000E+01  0.1000E+01
    -23.336  0.2857E-15  0.2857E-15  0.1000E+01  0.1000E+01
    -23.142  0.3310E-02  0.3290E-02  0.1001E+01  0.1001E+01
    -22.948  0.3214E+01  0.3211E+01  0.1625E+01  0.1625E+01
    -22.753  0.1929E+01  0.1933E+01  0.2000E+01  0.2000E+01
    -22.559  0.4793E+01  0.4791E+01  0.2931E+01  0.2931E+01
    -22.365  0.9399E+00  0.9416E+00  0.3114E+01  0.3114E+01
    -22.171  0.7263E+01  0.7263E+01  0.4525E+01  0.4525E+01
    -21.976  0.1741E+01  0.1741E+01  0.4863E+01  0.4863E+01
    -21.782  0.1938E+01  0.1938E+01  0.5240E+01  0.5240E+01
    -21.588  0.8274E+01  0.8273E+01  0.6847E+01  0.6847E+01
    -21.393  0.1364E+01  0.1365E+01  0.7112E+01  0.7112E+01
    -21.199  0.3408E+01  0.3408E+01  0.7774E+01  0.7774E+01
    -21.005  0.4119E+01  0.4117E+01  0.8575E+01  0.8574E+01
    -20.811  0.6030E+01  0.6032E+01  0.9746E+01  0.9746E+01
    -20.616  0.3589E+01  0.3589E+01  0.1044E+02  0.1044E+02
    -20.422  0.4591E+00  0.4582E+00  0.1053E+02  0.1053E+02
    -20.228  0.4284E+01  0.4284E+01  0.1137E+02  0.1136E+02
    -20.033  0.8879E+01  0.8879E+01  0.1309E+02  0.1309E+02
    -19.839  0.2980E+00  0.2978E+00  0.1315E+02  0.1315E+02
    -19.645  0.6671E+01  0.6672E+01  0.1444E+02  0.1444E+02
    -19.451  0.1497E-02  0.1502E-02  0.1444E+02  0.1444E+02
    -19.256  0.3773E+01  0.3770E+01  0.1518E+02  0.1518E+02
    -19.062  0.8756E+01  0.8757E+01  0.1688E+02  0.1688E+02
    -18.868  0.4385E+01  0.4386E+01  0.1773E+02  0.1773E+02
    -18.673  0.4451E+00  0.4450E+00  0.1782E+02  0.1782E+02
    -18.479  0.6659E+01  0.6659E+01  0.1911E+02  0.1911E+02
    -18.285  0.2574E-02  0.2572E-02  0.1911E+02  0.1911E+02
    -18.091  0.6540E+01  0.6538E+01  0.2038E+02  0.2038E+02
    -17.896  0.7190E+01  0.7192E+01  0.2178E+02  0.2178E+02
    -17.702  0.6871E+01  0.6871E+01  0.2311E+02  0.2311E+02
    -17.508  0.3415E+01  0.3416E+01  0.2378E+02  0.2378E+02
    -17.313  0.1571E-02  0.1574E-02  0.2378E+02  0.2378E+02
    -17.119  0.1614E+01  0.1613E+01  0.2409E+02  0.2409E+02
    -16.925  0.8489E+01  0.8489E+01  0.2574E+02  0.2574E+02
    -16.731  0.2017E+00  0.2023E+00  0.2578E+02  0.2578E+02
    -16.536  0.3404E+01  0.3404E+01  0.2644E+02  0.2644E+02
    -16.342  0.2597E+00  0.2593E+00  0.2649E+02  0.2649E+02
    -16.148  0.4522E+01  0.4522E+01  0.2737E+02  0.2737E+02
    -15.953  0.1117E+02  0.1117E+02  0.2954E+02  0.2954E+02
    -15.759  0.7415E-01  0.7440E-01  0.2956E+02  0.2956E+02
    -15.565  0.1307E+01  0.1305E+01  0.2981E+02  0.2981E+02
    -15.371  0.1238E+02  0.1238E+02  0.3221E+02  0.3221E+02
    -15.176  0.1329E+00  0.1327E+00  0.3224E+02  0.3224E+02
    -14.982  0.6675E+01  0.6675E+01  0.3354E+02  0.3354E+02
    -14.788  0.1162E+01  0.1161E+01  0.3376E+02  0.3376E+02
    -14.593  0.4774E+01  0.4773E+01  0.3469E+02  0.3469E+02
    -14.399  0.6742E+01  0.6743E+01  0.3600E+02  0.3600E+02
    -14.205  0.1140E+01  0.1141E+01  0.3622E+02  0.3622E+02
    -14.011  0.5594E+00  0.5591E+00  0.3633E+02  0.3633E+02
    -13.816  0.7276E+01  0.7275E+01  0.3774E+02  0.3774E+02
    -13.622  0.5789E+01  0.5788E+01  0.3887E+02  0.3887E+02
    -13.428  0.2602E+01  0.2602E+01  0.3937E+02  0.3937E+02
    -13.233  0.5798E+01  0.5508E+01  0.4050E+02  0.4044E+02
    -13.039  0.7559E+01  0.7723E+01  0.4197E+02  0.4195E+02
    -12.845  0.9039E+01  0.9166E+01  0.4373E+02  0.4373E+02
    -12.651  0.1983E+01  0.1983E+01  0.4411E+02  0.4411E+02
    -12.456  0.3773E+00  0.3765E+00  0.4418E+02  0.4418E+02
    -12.262  0.4651E+01  0.4651E+01  0.4509E+02  0.4509E+02
    -12.068  0.1535E+02  0.1535E+02  0.4807E+02  0.4807E+02
    -11.873  0.2064E+00  0.2068E+00  0.4811E+02  0.4811E+02
    -11.679  0.5874E+01  0.5873E+01  0.4925E+02  0.4925E+02
    -11.485  0.9893E+00  0.9905E+00  0.4944E+02  0.4944E+02
    -11.290  0.8426E+01  0.8423E+01  0.5108E+02  0.5108E+02
    -11.096  0.5758E+01  0.5752E+01  0.5220E+02  0.5220E+02
    -10.902  0.1232E+02  0.1233E+02  0.5459E+02  0.5459E+02
    -10.708  0.6007E+01  0.6008E+01  0.5576E+02  0.5576E+02
    -10.513  0.6059E+01  0.6059E+01  0.5694E+02  0.5694E+02
    -10.319  0.1340E+02  0.1340E+02  0.5954E+02  0.5954E+02
    -10.125  0.1550E+02  0.1167E+02  0.6255E+02  0.6181E+02
     -9.930  0.1108E+02  0.1350E+02  0.6470E+02  0.6443E+02
     -9.736  0.1311E+02  0.1452E+02  0.6725E+02  0.6725E+02
     -9.542  0.1657E+02  0.1655E+02  0.7047E+02  0.7047E+02
     -9.348  0.7487E+01  0.7502E+01  0.7192E+02  0.7192E+02
     -9.153  0.9783E+01  0.9782E+01  0.7382E+02  0.7382E+02
     -8.959  0.3790E+01  0.3792E+01  0.7456E+02  0.7456E+02
     -8.765  0.1374E+02  0.1374E+02  0.7723E+02  0.7723E+02
     -8.570  0.1417E+02  0.1417E+02  0.7998E+02  0.7998E+02
     -8.376  0.6192E+01  0.6194E+01  0.8119E+02  0.8119E+02
     -8.182  0.3749E+01  0.3443E+01  0.8192E+02  0.8186E+02
     -7.988  0.9042E+01  0.9345E+01  0.8367E+02  0.8367E+02
     -7.793  0.1275E+02  0.1275E+02  0.8615E+02  0.8615E+02
     -7.599  0.9083E+01  0.9094E+01  0.8792E+02  0.8792E+02
     -7.405  0.4362E+01  0.4352E+01  0.8876E+02  0.8876E+02
     -7.210  0.6597E+01  0.6607E+01  0.9004E+02  0.9004E+02
     -7.016  0.4578E+01  0.4577E+01  0.9093E+02  0.9093E+02
     -6.822  0.8088E+01  0.8065E+01  0.9251E+02  0.9250E+02
     -6.628  0.1049E+02  0.1046E+02  0.9454E+02  0.9453E+02
     -6.433  0.1041E+02  0.5680E+01  0.9657E+02  0.9564E+02
     -6.239  0.7211E+01  0.1197E+02  0.9797E+02  0.9796E+02
     -6.045  0.8983E+00  0.9234E+00  0.9814E+02  0.9814E+02
     -5.850  0.3658E+01  0.3656E+01  0.9885E+02  0.9885E+02
     -5.656  0.6370E+01  0.6358E+01  0.1001E+03  0.1001E+03
     -5.462  0.1245E+02  0.1246E+02  0.1025E+03  0.1025E+03
     -5.268  0.1384E+01  0.1392E+01  0.1028E+03  0.1028E+03
     -5.073  0.2251E+01  0.2795E+00  0.1032E+03  0.1028E+03
     -4.879  0.5232E+01  0.4559E+01  0.1042E+03  0.1037E+03
     -4.685  0.1096E+01  0.3740E+01  0.1044E+03  0.1044E+03
     -4.490  0.5425E+01  0.5216E+01  0.1055E+03  0.1055E+03
     -4.296  0.6584E+01  0.6582E+01  0.1068E+03  0.1067E+03
     -4.102  0.2248E-02  0.2136E+00  0.1068E+03  0.1068E+03
     -3.908  0.5044E+01  0.5062E+01  0.1078E+03  0.1078E+03
     -3.713  0.1246E+01  0.8952E-01  0.1080E+03  0.1078E+03
     -3.519  0.4028E+01  0.5132E+01  0.1088E+03  0.1088E+03
     -3.325  0.2261E+01  0.2294E+01  0.1092E+03  0.1092E+03
     -3.130  0.1747E-02  0.1800E-02  0.1092E+03  0.1092E+03
     -2.936  0.2825E-04  0.0000E+00  0.1092E+03  0.1092E+03
     -2.742  0.4445E+01  0.0000E+00  0.1101E+03  0.1092E+03
     -2.548  0.7029E+00  0.1320E-02  0.1102E+03  0.1092E+03
     -2.353  0.6078E+01  0.6261E+01  0.1114E+03  0.1104E+03
     -2.159  0.2155E+01  0.7094E+01  0.1118E+03  0.1118E+03
     -1.965  0.2041E+01  0.2065E+01  0.1122E+03  0.1122E+03
     -1.770  0.4326E+01  0.4265E+01  0.1131E+03  0.1130E+03
     -1.576  0.9565E+01  0.9367E+01  0.1149E+03  0.1149E+03
     -1.382  0.5878E+01  0.6117E+01  0.1161E+03  0.1161E+03
     -1.188  0.8358E+01  0.8374E+01  0.1177E+03  0.1177E+03
     -0.993  0.1097E+02  0.8472E+01  0.1198E+03  0.1193E+03
     -0.799  0.2098E+01  0.4602E+01  0.1202E+03  0.1202E+03
     -0.605  0.6601E+00  0.5438E+00  0.1204E+03  0.1203E+03
     -0.410  0.5054E+01  0.3058E+01  0.1213E+03  0.1209E+03
     -0.216  0.1194E+02  0.1039E+02  0.1237E+03  0.1229E+03
     -0.022  0.4357E+01  0.3265E+01  0.1245E+03  0.1236E+03
      0.172  0.5545E+01  0.1024E+02  0.1256E+03  0.1256E+03
      0.367  0.5045E+01  0.5015E+01  0.1266E+03  0.1265E+03
      0.561  0.7734E+01  0.7375E+01  0.1281E+03  0.1280E+03
      0.755  0.8841E+01  0.8232E+01  0.1298E+03  0.1296E+03
      0.950  0.5437E+01  0.5669E+01  0.1308E+03  0.1307E+03
      1.144  0.7674E+01  0.7588E+01  0.1323E+03  0.1321E+03
      1.338  0.1484E+02  0.1479E+02  0.1352E+03  0.1350E+03
      1.532  0.1520E+02  0.1429E+02  0.1382E+03  0.1378E+03
      1.727  0.7085E+01  0.8668E+01  0.1395E+03  0.1395E+03
      1.921  0.2395E+01  0.2670E+01  0.1400E+03  0.1400E+03
      2.115  0.1315E-03  0.2771E-03  0.1400E+03  0.1400E+03
      2.310  0.0000E+00  0.0000E+00  0.1400E+03  0.1400E+03
      2.504  0.0000E+00  0.0000E+00  0.1400E+03  0.1400E+03
      2.698  0.0000E+00  0.0000E+00  0.1400E+03  0.1400E+03
      2.892  0.0000E+00  0.0000E+00  0.1400E+03  0.1400E+03
      3.087  0.0000E+00  0.0000E+00  0.1400E+03  0.1400E+03
      3.281  0.0000E+00  0.0000E+00  0.1400E+03  0.1400E+03
      3.475  0.0000E+00  0.0000E+00  0.1400E+03  0.1400E+03
      3.670  0.0000E+00  0.0000E+00  0.1400E+03  0.1400E+03
      3.864  0.0000E+00  0.0000E+00  0.1400E+03  0.1400E+03
      4.058  0.0000E+00  0.0000E+00  0.1400E+03  0.1400E+03
      4.252  0.0000E+00  0.0000E+00  0.1400E+03  0.1400E+03
      4.447  0.0000E+00  0.0000E+00  0.1400E+03  0.1400E+03
