  55  55   0   0
  0.7146599E+02  0.1230000E-08  0.1230000E-08  0.3000000E-08  0.5000000E-15
  1.000000000000000E-004
  CAR 
 Li defective graphene MACE training lab 
      4.45957107    -53.94219514  301     -2.62613044      1.00000000
    -53.942  0.0000E+00  0.0000E+00  0.0000E+00  0.0000E+00
    -53.748  0.0000E+00  0.0000E+00  0.0000E+00  0.0000E+00
    -53.553  0.0000E+00  0.0000E+00  0.0000E+00  0.0000E+00
    -53.358  0.0000E+00  0.0000E+00  0.0000E+00  0.0000E+00
    -53.164  0.0000E+00  0.0000E+00  0.0000E+00  0.0000E+00
    -52.969  0.0000E+00  0.0000E+00  0.0000E+00  0.0000E+00
    -52.774  0.0000E+00  0.0000E+00  0.0000E+00  0.0000E+00
    -52.579  0.0000E+00  0.0000E+00  0.0000E+00  0.0000E+00
    -52.385  0.0000E+00  0.0000E+00  0.0000E+00  0.0000E+00
    -52.190  0.0000E+00  0.0000E+00  0.0000E+00  0.0000E+00
    -51.995  0.0000E+00  0.0000E+00  0.0000E+00  0.0000E+00
    -51.801  0.0000E+00  0.0000E+00  0.0000E+00  0.0000E+00
    -51.606  0.0000E+00  0.0000E+00  0.0000E+00  0.0000E+00
    -51.411  0.1177E-02  0.1059E-02  0.2292E-03  0.2062E-03
    -51.217  0.5019E+01  0.5012E+01  0.9774E+00  0.9758E+00
    -51.022  0.1163E+00  0.1242E+00  0.1000E+01  0.1000E+01
    -50.827  0.0000E+00  0.0000E+00  0.1000E+01  0.1000E+01
    -50.633  0.0000E+00  0.0000E+00  0.1000E+01  0.1000E+01
    -50.438  0.0000E+00  0.0000E+00  0.1000E+01  0.1000E+01
    -50.243  0.0000E+00  0.0000E+00  0.1000E+01  0.1000E+01
    -50.049  0.0000E+00  0.0000E+00  0.1000E+01  0.1000E+01
    -49.854  0.0000E+00  0.0000E+00  0.1000E+01  0.1000E+01
    -49.659  0.0000E+00  0.0000E+00  0.1000E+01  0.1000E+01
    -49.465  0.0000E+00  0.0000E+00  0.1000E+01  0.1000E+01
    -49.270  0.0000E+00  0.0000E+00  0.1000E+01  0.1000E+01
    -49.075  0.0000E+00  0.0000E+00  0.1000E+01  0.1000E+01
    -48.881  0.0000E+00  0.0000E+00  0.1000E+01  0.1000E+01
    -48.686  0.0000E+00  0.0000E+00  0.1000E+01  0.1000E+01
    -48.491  0.0000E+00  0.0000E+00  0.1000E+01  0.1000E+01
    -48.297  0.0000E+00  0.0000E+00  0.1000E+01  0.1000E+01
    -48.102  0.0000E+00  0.0000E+00  0.1000E+01  0.1000E+01
    -47.907  0.0000E+00  0.0000E+00  0.1000E+01  0.1000E+01
    -47.713  0.0000E+00  0.0000E+00  0.1000E+01  0.1000E+01
    -47.518  0.0000E+00  0.0000E+00  0.1000E+01  0.1000E+01
    -47.323  0.0000E+00  0.0000E+00  0.1000E+01  0.1000E+01
    -47.129  0.0000E+00  0.0000E+00  0.1000E+01  0.1000E+01
    -46.934  0.0000E+00  0.0000E+00  0.1000E+01  0.1000E+01
    -46.739  0.0000E+00  0.0000E+00  0.1000E+01  0.1000E+01
    -46.545  0.0000E+00  0.0000E+00  0.1000E+01  0.1000E+01
    -46.350  0.0000E+00  0.0000E+00  0.1000E+01  0.1000E+01
    -46.155  0.0000E+00  0.0000E+00  0.1000E+01  0.1000E+01
    -45.961  0.0000E+00  0.0000E+00  0.1000E+01  0.1000E+01
    -45.766  0.0000E+00  0.0000E+00  0.1000E+01  0.1000E+01
    -45.571  0.0000E+00  0.0000E+00  0.1000E+01  0.1000E+01
    -45.377  0.0000E+00  0.0000E+00  0.1000E+01  0.1000E+01
    -45.182  0.0000E+00  0.0000E+00  0.1000E+01  0.1000E+01
    -44.987  0.0000E+00  0.0000E+00  0.1000E+01  0.1000E+01
    -44.793  0.0000E+00  0.0000E+00  0.1000E+01  0.1000E+01
    -44.598  0.0000E+00  0.0000E+00  0.1000E+01  0.1000E+01
    -44.403  0.0000E+00  0.0000E+00  0.1000E+01  0.1000E+01
    -44.209  0.0000E+00  0.0000E+00  0.1000E+01  0.1000E+01
    -44.014  0.0000E+00  0.0000E+00  0.1000E+01  0.1000E+01
    -43.819  0.0000E+00  0.0000E+00  0.1000E+01  0.1000E+01
    -43.625  0.0000E+00  0.0000E+00  0.1000E+01  0.1000E+01
    -43.430  0.0000E+00  0.0000E+00  0.1000E+01  0.1000E+01
    -43.235  0.0000E+00  0.0000E+00  0.1000E+01  0.1000E+01
    -43.041  0.0000E+00  0.0000E+00  0.1000E+01  0.1000E+01
    -42.846  0.0000E+00  0.0000E+00  0.1000E+01  0.1000E+01
    -42.651  0.0000E+00  0.0000E+00  0.1000E+01  0.1000E+01
    -42.457  0.0000E+00  0.0000E+00  0.1000E+01  0.1000E+01
    -42.262  0.0000E+00  0.0000E+00  0.1000E+01  0.1000E+01
    -42.067  0.0000E+00  0.0000E+00  0.1000E+01  0.1000E+01
    -41.872  0.0000E+00  0.0000E+00  0.1000E+01  0.1000E+01
    -41.678  0.0000E+00  0.0000E+00  0.1000E+01  0.1000E+01
    -41.483  0.0000E+00  0.0000E+00  0.1000E+01  0.1000E+01
    -41.288  0.0000E+00  0.0000E+00  0.1000E+01  0.1000E+01
    -41.094  0.0000E+00  0.0000E+00  0.1000E+01  0.1000E+01
    -40.899  0.0000E+00  0.0000E+00  0.1000E+01  0.1000E+01
    -40.704  0.0000E+00  0.0000E+00  0.1000E+01  0.1000E+01
    -40.510  0.0000E+00  0.0000E+00  0.1000E+01  0.1000E+01
    -40.315  0.0000E+00  0.0000E+00  0.1000E+01  0.1000E+01
    -40.120  0.0000E+00  0.0000E+00  0.1000E+01  0.1000E+01
    -39.926  0.0000E+00  0.0000E+00  0.1000E+01  0.1000E+01
    -39.731  0.0000E+00  0.0000E+00  0.1000E+01  0.1000E+01
    -39.536  0.0000E+00  0.0000E+00  0.1000E+01  0.1000E+01
    -39.342  0.0000E+00  0.0000E+00  0.1000E+01  0.1000E+01
    -39.147  0.0000E+00  0.0000E+00  0.1000E+01  0.1000E+01
    -38.952  0.0000E+00  0.0000E+00  0.1000E+01  0.1000E+01
    -38.758  0.0000E+00  0.0000E+00  0.1000E+01  0.1000E+01
    -38.563  0.0000E+00  0.0000E+00  0.1000E+01  0.1000E+01
    -38.368  0.0000E+00  0.0000E+00  0.1000E+01  0.1000E+01
    -38.174  0.0000E+00  0.0000E+00  0.1000E+01  0.1000E+01
    -37.979  0.0000E+00  0.0000E+00  0.1000E+01  0.1000E+01
    -37.784  0.0000E+00  0.0000E+00  0.1000E+01  0.1000E+01
    -37.590  0.0000E+00  0.0000E+00  0.1000E+01  0.1000E+01
    -37.395  0.0000E+00  0.0000E+00  0.1000E+01  0.1000E+01
    -37.200  0.0000E+00  0.0000E+00  0.1000E+01  0.1000E+01
    -37.006  0.0000E+00  0.0000E+00  0.1000E+01  0.1000E+01
    -36.811  0.0000E+00  0.0000E+00  0.1000E+01  0.1000E+01
    -36.616  0.0000E+00  0.0000E+00  0.1000E+01  0.1000E+01
    -36.422  0.0000E+00  0.0000E+00  0.1000E+01  0.1000E+01
    -36.227  0.0000E+00  0.0000E+00  0.1000E+01  0.1000E+01
    -36.032  0.0000E+00  0.0000E+00  0.1000E+01  0.1000E+01
    -35.838  0.0000E+00  0.0000E+00  0.1000E+01  0.1000E+01
    -35.643  0.0000E+00  0.0000E+00  0.1000E+01  0.1000E+01
    -35.448  0.0000E+00  0.0000E+00  0.1000E+01  0.1000E+01
    -35.254  0.0000E+00  0.0000E+00  0.1000E+01  0.1000E+01
    -35.059  0.0000E+00  0.0000E+00  0.1000E+01  0.1000E+01
    -34.864  0.0000E+00  0.0000E+00  0.1000E+01  0.1000E+01
    -34.670  0.0000E+00  0.0000E+00  0.1000E+01  0.1000E+01
    -34.475  0.0000E+00  0.0000E+00  0.1000E+01  0.1000E+01
    -34.280  0.0000E+00  0.0000E+00  0.1000E+01  0.1000E+01
    -34.086  0.0000E+00  0.0000E+00  0.1000E+01  0.1000E+01
    -33.891  0.0000E+00  0.0000E+00  0.1000E+01  0.1000E+01
    -33.696  0.0000E+00  0.0000E+00  0.1000E+01  0.1000E+01
    -33.502  0.0000E+00  0.0000E+00  0.1000E+01  0.1000E+01
    -33.307  0.0000E+00  0.0000E+00  0.1000E+01  0.1000E+01
    -33.112  0.0000E+00  0.0000E+00  0.1000E+01  0.1000E+01
    -32.918  0.0000E+00  0.0000E+00  0.1000E+01  0.1000E+01
    -32.723  0.0000E+00  0.0000E+00  0.1000E+01  0.1000E+01
    -32.528  0.0000E+00  0.0000E+00  0.1000E+01  0.1000E+01
    -32.334  0.0000E+00  0.0000E+00  0.1000E+01  0.1000E+01
    -32.139  0.0000E+00  0.0000E+00  0.1000E+01  0.1000E+01
    -31.944  0.0000E+00  0.0000E+00  0.1000E+01  0.1000E+01
    -31.750  0.0000E+00  0.0000E+00  0.1000E+01  0.1000E+01
    -31.555  0.0000E+00  0.0000E+00  0.1000E+01  0.1000E+01
    -31.360  0.0000E+00  0.0000E+00  0.1000E+01  0.1000E+01
    -31.166  0.0000E+00  0.0000E+00  0.1000E+01  0.1000E+01
    -30.971  0.0000E+00  0.0000E+00  0.1000E+01  0.1000E+01
    -30.776  0.0000E+00  0.0000E+00  0.1000E+01  0.1000E+01
    -30.581  0.0000E+00  0.0000E+00  0.1000E+01  0.1000E+01
    -30.387  0.0000E+00  0.0000E+00  0.1000E+01  0.1000E+01
    -30.192  0.0000E+00  0.0000E+00  0.1000E+01  0.1000E+01
    -29.997  0.0000E+00  0.0000E+00  0.1000E+01  0.1000E+01
    -29.803  0.0000E+00  0.0000E+00  0.1000E+01  0.1000E+01
    -29.608  0.0000E+00  0.0000E+00  0.1000E+01  0.1000E+01
    -29.413  0.0000E+00  0.0000E+00  0.1000E+01  0.1000E+01
    -29.219  0.0000E+00  0.0000E+00  0.1000E+01  0.1000E+01
    -29.024  0.0000E+00  0.0000E+00  0.1000E+01  0.1000E+01
    -28.829  0.0000E+00  0.0000E+00  0.1000E+01  0.1000E+01
    -28.635  0.0000E+00  0.0000E+00  0.1000E+01  0.1000E+01
    -28.440  0.0000E+00  0.0000E+00  0.1000E+01  0.1000E+01
    -28.245  0.0000E+00  0.0000E+00  0.1000E+01  0.1000E+01
    -28.051  0.0000E+00  0.0000E+00  0.1000E+01  0.1000E+01
    -27.856  0.0000E+00  0.0000E+00  0.1000E+01  0.1000E+01
    -27.661  0.0000E+00  0.0000E+00  0.1000E+01  0.1000E+01
    -27.467  0.0000E+00  0.0000E+00  0.1000E+01  0.1000E+01
    -27.272  0.0000E+00  0.0000E+00  0.1000E+01  0.1000E+01
    -27.077  0.0000E+00  0.0000E+00  0.1000E+01  0.1000E+01
    -26.883  0.0000E+00  0.0000E+00  0.1000E+01  0.1000E+01
    -26.688  0.0000E+00  0.0000E+00  0.1000E+01  0.1000E+01
    -26.493  0.0000E+00  0.0000E+00  0.1000E+01  0.1000E+01
    -26.299  0.0000E+00  0.0000E+00  0.1000E+01  0.1000E+01
    -26.104  0.0000E+00  0.0000E+00  0.1000E+01  0.1000E+01
    -25.909  0.0000E+00  0.0000E+00  0.1000E+01  0.1000E+01
    -25.715  0.0000E+00  0.0000E+00  0.1000E+01  0.1000E+01
    -25.520  0.0000E+00  0.0000E+00  0.1000E+01  0.1000E+01
    -25.325  0.0000E+00  0.0000E+00  0.1000E+01  0.1000E+01
    -25.131  0.0000E+00  0.0000E+00  0.1000E+01  0.1000E+01
    -24.936  0.0000E+00  0.0000E+00  0.1000E+01  0.1000E+01
    -24.741  0.0000E+00  0.0000E+00  0.1000E+01  0.1000E+01
    -24.547  0.0000E+00  0.0000E+00  0.1000E+01  0.1000E+01
    -24.352  0.0000E+00  0.0000E+00  0.1000E+01  0.1000E+01
    -24.157  0.0000E+00  0.0000E+00  0.1000E+01  0.1000E+01
    -23.963  0.0000E+00  0.0000E+00  0.1000E+01  0.1000E+01
    -23.768  0.0000E+00  0.0000E+00  0.1000E+01  0.1000E+01
    -23.573  0.0000E+00  0.0000E+00  0.1000E+01  0.1000E+01
    -23.379  0.0000E+00  0.0000E+00  0.1000E+01  0.1000E+01
    -23.184  0.3251E-04  0.3193E-04  0.1000E+01  0.1000E+01
    -22.989  0.1250E+01  0.1245E+01  0.1243E+01  0.1242E+01
    -22.795  0.3874E+01  0.3879E+01  0.1998E+01  0.1998E+01
    -22.600  0.3292E+01  0.3285E+01  0.2638E+01  0.2637E+01
    -22.405  0.2428E+01  0.2435E+01  0.3111E+01  0.3111E+01
    -22.211  0.6726E+01  0.6723E+01  0.4421E+01  0.4420E+01
    -22.016  0.2015E+01  0.2018E+01  0.4813E+01  0.4813E+01
    -21.821  0.1756E+01  0.1756E+01  0.5155E+01  0.5154E+01
    -21.627  0.7636E+01  0.7633E+01  0.6641E+01  0.6640E+01
    -21.432  0.2414E+01  0.2419E+01  0.7111E+01  0.7111E+01
    -21.237  0.3340E+01  0.3339E+01  0.7761E+01  0.7761E+01
    -21.043  0.2813E+01  0.2807E+01  0.8309E+01  0.8308E+01
    -20.848  0.6656E+01  0.6659E+01  0.9605E+01  0.9604E+01
    -20.653  0.4297E+01  0.4300E+01  0.1044E+02  0.1044E+02
    -20.459  0.1494E+00  0.1486E+00  0.1047E+02  0.1047E+02
    -20.264  0.4002E+01  0.4001E+01  0.1125E+02  0.1125E+02
    -20.069  0.8947E+01  0.8945E+01  0.1299E+02  0.1299E+02
    -19.874  0.6569E+00  0.6602E+00  0.1312E+02  0.1312E+02
    -19.680  0.6798E+01  0.6799E+01  0.1444E+02  0.1444E+02
    -19.485  0.1034E-01  0.1044E-01  0.1444E+02  0.1444E+02
    -19.290  0.2171E+01  0.2166E+01  0.1487E+02  0.1487E+02
    -19.096  0.9414E+01  0.9416E+01  0.1670E+02  0.1670E+02
    -18.901  0.5058E+01  0.5060E+01  0.1768E+02  0.1768E+02
    -18.706  0.5251E+00  0.5268E+00  0.1779E+02  0.1779E+02
    -18.512  0.6793E+01  0.6794E+01  0.1911E+02  0.1911E+02
    -18.317  0.9912E-02  0.1001E-01  0.1911E+02  0.1911E+02
    -18.122  0.4963E+01  0.4954E+01  0.2008E+02  0.2008E+02
    -17.928  0.8733E+01  0.8742E+01  0.2178E+02  0.2178E+02
    -17.733  0.6653E+01  0.6652E+01  0.2307E+02  0.2307E+02
    -17.538  0.3618E+01  0.3620E+01  0.2378E+02  0.2378E+02
    -17.344  0.4730E-02  0.4780E-02  0.2378E+02  0.2378E+02
    -17.149  0.1273E+01  0.1270E+01  0.2403E+02  0.2403E+02
    -16.954  0.8421E+01  0.8420E+01  0.2566E+02  0.2566E+02
    -16.760  0.5816E+00  0.5851E+00  0.2578E+02  0.2578E+02
    -16.565  0.3368E+01  0.3367E+01  0.2643E+02  0.2643E+02
    -16.370  0.1392E+00  0.1391E+00  0.2646E+02  0.2646E+02
    -16.176  0.4264E+01  0.4262E+01  0.2729E+02  0.2729E+02
    -15.981  0.1138E+02  0.1138E+02  0.2951E+02  0.2951E+02
    -15.786  0.2503E+00  0.2520E+00  0.2956E+02  0.2956E+02
    -15.592  0.5875E+00  0.5840E+00  0.2967E+02  0.2967E+02
    -15.397  0.1303E+02  0.1303E+02  0.3221E+02  0.3221E+02
    -15.202  0.1138E+00  0.1141E+00  0.3223E+02  0.3223E+02
    -15.008  0.6643E+01  0.6643E+01  0.3352E+02  0.3352E+02
    -14.813  0.8733E+00  0.8719E+00  0.3369E+02  0.3369E+02
    -14.618  0.4509E+01  0.4506E+01  0.3457E+02  0.3457E+02
    -14.424  0.7221E+01  0.7224E+01  0.3597E+02  0.3597E+02
    -14.229  0.1272E+01  0.1274E+01  0.3622E+02  0.3622E+02
    -14.034  0.4315E+00  0.4309E+00  0.3631E+02  0.3631E+02
    -13.840  0.7195E+01  0.7193E+01  0.3771E+02  0.3771E+02
    -13.645  0.5328E+01  0.5325E+01  0.3874E+02  0.3874E+02
    -13.450  0.2693E+01  0.2695E+01  0.3927E+02  0.3927E+02
    -13.256  0.6042E+01  0.6044E+01  0.4044E+02  0.4044E+02
    -13.061  0.6566E+01  0.3193E+01  0.4172E+02  0.4107E+02
    -12.866  0.1017E+02  0.1354E+02  0.4370E+02  0.4370E+02
    -12.672  0.2098E+01  0.2099E+01  0.4411E+02  0.4411E+02
    -12.477  0.2342E+00  0.2331E+00  0.4416E+02  0.4416E+02
    -12.282  0.4663E+01  0.4662E+01  0.4506E+02  0.4506E+02
    -12.088  0.1524E+02  0.1524E+02  0.4803E+02  0.4803E+02
    -11.893  0.4060E+00  0.4078E+00  0.4811E+02  0.4811E+02
    -11.698  0.5504E+01  0.5501E+01  0.4918E+02  0.4918E+02
    -11.504  0.1345E+01  0.1348E+01  0.4944E+02  0.4944E+02
    -11.309  0.8075E+01  0.8069E+01  0.5102E+02  0.5102E+02
    -11.114  0.4665E+01  0.4658E+01  0.5192E+02  0.5192E+02
    -10.920  0.1294E+02  0.1295E+02  0.5444E+02  0.5444E+02
    -10.725  0.6783E+01  0.6787E+01  0.5576E+02  0.5576E+02
    -10.530  0.5910E+01  0.5910E+01  0.5691E+02  0.5691E+02
    -10.336  0.1344E+02  0.1344E+02  0.5953E+02  0.5953E+02
    -10.141  0.1160E+02  0.1118E+02  0.6179E+02  0.6171E+02
     -9.946  0.1485E+02  0.1039E+02  0.6468E+02  0.6373E+02
     -9.752  0.1302E+02  0.1788E+02  0.6721E+02  0.6721E+02
     -9.557  0.1624E+02  0.1621E+02  0.7037E+02  0.7037E+02
     -9.362  0.7958E+01  0.7993E+01  0.7192E+02  0.7192E+02
     -9.168  0.9714E+01  0.9712E+01  0.7381E+02  0.7381E+02
     -8.973  0.3833E+01  0.3836E+01  0.7456E+02  0.7456E+02
     -8.778  0.1343E+02  0.1342E+02  0.7717E+02  0.7717E+02
     -8.583  0.1403E+02  0.1403E+02  0.7990E+02  0.7990E+02
     -8.389  0.6627E+01  0.6635E+01  0.8120E+02  0.8119E+02
     -8.194  0.5033E+00  0.4513E+00  0.8129E+02  0.8128E+02
     -7.999  0.1209E+02  0.1213E+02  0.8365E+02  0.8364E+02
     -7.805  0.1190E+02  0.1189E+02  0.8596E+02  0.8596E+02
     -7.610  0.1007E+02  0.1009E+02  0.8792E+02  0.8792E+02
     -7.415  0.4383E+01  0.4362E+01  0.8878E+02  0.8877E+02
     -7.221  0.6493E+01  0.6514E+01  0.9004E+02  0.9004E+02
     -7.026  0.4524E+01  0.4521E+01  0.9092E+02  0.9092E+02
     -6.831  0.7554E+01  0.7532E+01  0.9239E+02  0.9239E+02
     -6.637  0.1108E+02  0.1110E+02  0.9455E+02  0.9455E+02
     -6.442  0.1034E+02  0.5443E+01  0.9656E+02  0.9561E+02
     -6.247  0.7274E+01  0.1207E+02  0.9798E+02  0.9796E+02
     -6.053  0.8019E+00  0.9071E+00  0.9813E+02  0.9813E+02
     -5.858  0.3518E+01  0.3516E+01  0.9882E+02  0.9882E+02
     -5.663  0.6464E+01  0.6445E+01  0.1001E+03  0.1001E+03
     -5.469  0.1302E+02  0.1303E+02  0.1026E+03  0.1026E+03
     -5.274  0.8580E+00  0.8689E+00  0.1028E+03  0.1028E+03
     -5.079  0.1459E+00  0.1409E+00  0.1028E+03  0.1028E+03
     -4.885  0.2866E+01  0.2250E+01  0.1034E+03  0.1032E+03
     -4.690  0.5549E+01  0.1858E+01  0.1044E+03  0.1036E+03
     -4.495  0.5744E+01  0.9928E+01  0.1056E+03  0.1055E+03
     -4.301  0.6239E+01  0.6001E+01  0.1068E+03  0.1067E+03
     -4.106  0.2485E-02  0.3696E+00  0.1068E+03  0.1068E+03
     -3.911  0.4682E+01  0.4806E+01  0.1077E+03  0.1077E+03
     -3.717  0.8686E+00  0.3313E+00  0.1079E+03  0.1078E+03
     -3.522  0.4767E+01  0.4988E+01  0.1088E+03  0.1087E+03
     -3.327  0.2239E+01  0.2431E+01  0.1092E+03  0.1092E+03
     -3.133  0.8456E-03  0.9127E-03  0.1092E+03  0.1092E+03
     -2.938  0.0000E+00  0.0000E+00  0.1092E+03  0.1092E+03
     -2.743  0.3902E-02  0.6337E-16  0.1092E+03  0.1092E+03
     -2.549  0.5086E+01  0.5064E-02  0.1102E+03  0.1092E+03
     -2.354  0.6583E+01  0.6540E+01  0.1115E+03  0.1105E+03
     -2.159  0.2074E+01  0.2757E+01  0.1119E+03  0.1110E+03
     -1.965  0.1698E+01  0.6140E+01  0.1122E+03  0.1122E+03
     -1.770  0.5920E+01  0.5815E+01  0.1134E+03  0.1134E+03
     -1.575  0.7722E+01  0.7828E+01  0.1149E+03  0.1149E+03
     -1.381  0.1755E+01  0.1695E+01  0.1152E+03  0.1152E+03
     -1.186  0.1267E+02  0.1260E+02  0.1177E+03  0.1177E+03
     -0.991  0.1249E+02  0.1195E+02  0.1201E+03  0.1200E+03
     -0.797  0.5024E+00  0.1178E+01  0.1202E+03  0.1202E+03
     -0.602  0.2174E+01  0.2063E+01  0.1206E+03  0.1206E+03
     -0.407  0.5973E+01  0.5862E+01  0.1218E+03  0.1218E+03
     -0.213  0.6986E+01  0.6233E+01  0.1232E+03  0.1230E+03
     -0.018  0.7424E+01  0.3312E+01  0.1246E+03  0.1236E+03
      0.177  0.4923E+01  0.9744E+01  0.1256E+03  0.1255E+03
      0.371  0.4972E+01  0.5000E+01  0.1265E+03  0.1265E+03
      0.566  0.8348E+01  0.8151E+01  0.1282E+03  0.1281E+03
      0.761  0.7868E+01  0.7703E+01  0.1297E+03  0.1296E+03
      0.955  0.6569E+01  0.6615E+01  0.1310E+03  0.1309E+03
      1.150  0.8785E+01  0.8020E+01  0.1327E+03  0.1324E+03
      1.345  0.1373E+02  0.1405E+02  0.1354E+03  0.1352E+03
      1.539  0.1563E+02  0.1477E+02  0.1384E+03  0.1380E+03
      1.734  0.6308E+01  0.7934E+01  0.1396E+03  0.1396E+03
      1.929  0.1906E+01  0.2146E+01  0.1400E+03  0.1400E+03
      2.124  0.1170E-03  0.2630E-03  0.1400E+03  0.1400E+03
      2.318  0.0000E+00  0.0000E+00  0.1400E+03  0.1400E+03
      2.513  0.0000E+00  0.0000E+00  0.1400E+03  0.1400E+03
      2.708  0.0000E+00  0.0000E+00  0.1400E+03  0.1400E+03
      2.902  0.0000E+00  0.0000E+00  0.1400E+03  0.1400E+03
      3.097  0.0000E+00  0.0000E+00  0.1400E+03  0.1400E+03
      3.292  0.0000E+00  0.0000E+00  0.1400E+03  0.1400E+03
      3.486  0.0000E+00  0.0000E+00  0.1400E+03  0.1400E+03
      3.681  0.0000E+00  0.0000E+00  0.1400E+03  0.1400E+03
      3.876  0.0000E+00  0.0000E+00  0.1400E+03  0.1400E+03
      4.070  0.0000E+00  0.0000E+00  0.1400E+03  0.1400E+03
      4.265  0.0000E+00  0.0000E+00  0.1400E+03  0.1400E+03
      4.460  0.0000E+00  0.0000E+00  0.1400E+03  0.1400E+03
