       N       E                     dE             d eps       ncg     rms          rms(c)
DAV:   1     0.203990783903E+04    0.20399E+04   -0.73442E+04  3360   0.109E+03
DAV:   2     0.293639849567E+02   -0.20105E+04   -0.18733E+04  4224   0.243E+02
DAV:   3    -0.482167992693E+03   -0.51153E+03   -0.50031E+03  3632   0.127E+02
DAV:   4    -0.512917328296E+03   -0.30749E+02   -0.30001E+02  3600   0.388E+01
DAV:   5    -0.514171633983E+03   -0.12543E+01   -0.12395E+01  4568   0.663E+00    0.344E+01
DAV:   6    -0.486281355170E+03    0.27890E+02   -0.88221E+01  3220   0.127E+01    0.199E+01
DAV:   7    -0.476297926117E+03    0.99834E+01   -0.14809E+01  3072   0.820E+00    0.108E+01
DAV:   8    -0.474257520039E+03    0.20404E+01   -0.60719E+00  3220   0.528E+00    0.409E+00
DAV:   9    -0.474493776373E+03   -0.23626E+00   -0.63434E-01  3848   0.171E+00    0.201E+00
DAV:  10    -0.475003616009E+03   -0.50984E+00   -0.22802E-01  3140   0.983E-01    0.109E+00
DAV:  11    -0.475524587497E+03   -0.52097E+00   -0.74020E-02  3120   0.516E-01    0.866E-01
DAV:  12    -0.476082511448E+03   -0.55792E+00   -0.83741E-02  3144   0.454E-01    0.711E-01
DAV:  13    -0.476789659960E+03   -0.70715E+00   -0.23978E-01  3088   0.710E-01    0.488E-01
DAV:  14    -0.476986192771E+03   -0.19653E+00   -0.12213E-01  2968   0.534E-01    0.345E-01
DAV:  15    -0.477525773619E+03   -0.53958E+00   -0.61228E-02  3084   0.342E-01    0.233E-01
DAV:  16    -0.477997543734E+03   -0.47177E+00   -0.26710E-02  3052   0.208E-01    0.163E-01
DAV:  17    -0.478276240380E+03   -0.27870E+00   -0.12441E-02  3164   0.155E-01    0.114E-01
DAV:  18    -0.478427229474E+03   -0.15099E+00   -0.64000E-03  3088   0.107E-01    0.804E-02
DAV:  19    -0.478484077875E+03   -0.56848E-01   -0.20854E-03  3192   0.682E-02    0.597E-02
DAV:  20    -0.478510104719E+03   -0.26027E-01   -0.14371E-03  3072   0.579E-02    0.422E-02
DAV:  21    -0.478519775994E+03   -0.96713E-02   -0.58261E-04  3156   0.450E-02    0.301E-02
DAV:  22    -0.478529903146E+03   -0.10127E-01   -0.30983E-04  3080   0.391E-02    0.195E-02
DAV:  23    -0.478545031613E+03   -0.15128E-01   -0.19038E-04  3020   0.366E-02    0.121E-02
DAV:  24    -0.478553732630E+03   -0.87010E-02   -0.11516E-04  2880   0.308E-02    0.807E-03
DAV:  25    -0.478557701011E+03   -0.39684E-02   -0.10440E-04  2800   0.293E-02    0.499E-03
DAV:  26    -0.478559197392E+03   -0.14964E-02   -0.78900E-05  2644   0.254E-02    0.299E-03
DAV:  27    -0.478559862425E+03   -0.66503E-03   -0.36347E-05  2624   0.168E-02    0.181E-03
DAV:  28    -0.478560089201E+03   -0.22678E-03   -0.12345E-05  2544   0.955E-03    0.115E-03
DAV:  29    -0.478560202679E+03   -0.11348E-03   -0.39750E-06  2448   0.480E-03    0.731E-04
DAV:  30    -0.478560270295E+03   -0.67616E-04   -0.16826E-06  2160   0.251E-03    0.457E-04
DAV:  31    -0.478560302703E+03   -0.32409E-04   -0.59578E-07  2168   0.145E-03    0.307E-04
DAV:  32    -0.478560321861E+03   -0.19158E-04   -0.25927E-07  2096   0.952E-04    0.207E-04
DAV:  33    -0.478560333657E+03   -0.11796E-04   -0.16015E-07  2056   0.766E-04    0.147E-04
DAV:  34    -0.478560338046E+03   -0.43892E-05   -0.54238E-08  2076   0.541E-04    0.114E-04
DAV:  35    -0.478560339980E+03   -0.19335E-05   -0.13033E-08  2024   0.328E-04    0.980E-05
DAV:  36    -0.478560340757E+03   -0.77746E-06    0.49712E-09  1984   0.179E-04
   1 F= -.47856034E+03 E0= -.47855336E+03  d E =-.139525E-01  mag=     0.5556
