  55  55   0   0
  0.7146599E+02  0.1230000E-08  0.1230000E-08  0.3000000E-08  0.5000000E-15
  1.000000000000000E-004
  CAR 
 Li defective graphene MACE training lab 
      4.38370594    -52.98447454  301     -3.09985365      1.00000000
    -52.984  0.0000E+00  0.0000E+00  0.0000E+00  0.0000E+00
    -52.793  0.0000E+00  0.0000E+00  0.0000E+00  0.0000E+00
    -52.602  0.0000E+00  0.0000E+00  0.0000E+00  0.0000E+00
    -52.411  0.0000E+00  0.0000E+00  0.0000E+00  0.0000E+00
    -52.220  0.0000E+00  0.0000E+00  0.0000E+00  0.0000E+00
    -52.028  0.0000E+00  0.0000E+00  0.0000E+00  0.0000E+00
    -51.837  0.0000E+00  0.0000E+00  0.0000E+00  0.0000E+00
    -51.646  0.0000E+00  0.0000E+00  0.0000E+00  0.0000E+00
    -51.455  0.0000E+00  0.0000E+00  0.0000E+00  0.0000E+00
    -51.263  0.0000E+00  0.0000E+00  0.0000E+00  0.0000E+00
    -51.072  0.0000E+00  0.0000E+00  0.0000E+00  0.0000E+00
    -50.881  0.0000E+00  0.0000E+00  0.0000E+00  0.0000E+00
    -50.690  0.0000E+00  0.0000E+00  0.0000E+00  0.0000E+00
    -50.499  0.1510E-04  0.1435E-04  0.2888E-05  0.2745E-05
    -50.307  0.5099E-01  0.5095E-01  0.9754E-02  0.9746E-02
    -50.116  0.1287E-02  0.1329E-02  0.1000E-01  0.1000E-01
    -49.925  0.0000E+00  0.0000E+00  0.1000E-01  0.1000E-01
    -49.734  0.0000E+00  0.0000E+00  0.1000E-01  0.1000E-01
    -49.542  0.0000E+00  0.0000E+00  0.1000E-01  0.1000E-01
    -49.351  0.0000E+00  0.0000E+00  0.1000E-01  0.1000E-01
    -49.160  0.0000E+00  0.0000E+00  0.1000E-01  0.1000E-01
    -48.969  0.0000E+00  0.0000E+00  0.1000E-01  0.1000E-01
    -48.777  0.0000E+00  0.0000E+00  0.1000E-01  0.1000E-01
    -48.586  0.0000E+00  0.0000E+00  0.1000E-01  0.1000E-01
    -48.395  0.0000E+00  0.0000E+00  0.1000E-01  0.1000E-01
    -48.204  0.0000E+00  0.0000E+00  0.1000E-01  0.1000E-01
    -48.013  0.0000E+00  0.0000E+00  0.1000E-01  0.1000E-01
    -47.821  0.0000E+00  0.0000E+00  0.1000E-01  0.1000E-01
    -47.630  0.0000E+00  0.0000E+00  0.1000E-01  0.1000E-01
    -47.439  0.0000E+00  0.0000E+00  0.1000E-01  0.1000E-01
    -47.248  0.0000E+00  0.0000E+00  0.1000E-01  0.1000E-01
    -47.056  0.0000E+00  0.0000E+00  0.1000E-01  0.1000E-01
    -46.865  0.0000E+00  0.0000E+00  0.1000E-01  0.1000E-01
    -46.674  0.0000E+00  0.0000E+00  0.1000E-01  0.1000E-01
    -46.483  0.0000E+00  0.0000E+00  0.1000E-01  0.1000E-01
    -46.292  0.0000E+00  0.0000E+00  0.1000E-01  0.1000E-01
    -46.100  0.0000E+00  0.0000E+00  0.1000E-01  0.1000E-01
    -45.909  0.0000E+00  0.0000E+00  0.1000E-01  0.1000E-01
    -45.718  0.0000E+00  0.0000E+00  0.1000E-01  0.1000E-01
    -45.527  0.0000E+00  0.0000E+00  0.1000E-01  0.1000E-01
    -45.335  0.0000E+00  0.0000E+00  0.1000E-01  0.1000E-01
    -45.144  0.0000E+00  0.0000E+00  0.1000E-01  0.1000E-01
    -44.953  0.0000E+00  0.0000E+00  0.1000E-01  0.1000E-01
    -44.762  0.0000E+00  0.0000E+00  0.1000E-01  0.1000E-01
    -44.570  0.0000E+00  0.0000E+00  0.1000E-01  0.1000E-01
    -44.379  0.0000E+00  0.0000E+00  0.1000E-01  0.1000E-01
    -44.188  0.0000E+00  0.0000E+00  0.1000E-01  0.1000E-01
    -43.997  0.0000E+00  0.0000E+00  0.1000E-01  0.1000E-01
    -43.806  0.0000E+00  0.0000E+00  0.1000E-01  0.1000E-01
    -43.614  0.0000E+00  0.0000E+00  0.1000E-01  0.1000E-01
    -43.423  0.0000E+00  0.0000E+00  0.1000E-01  0.1000E-01
    -43.232  0.0000E+00  0.0000E+00  0.1000E-01  0.1000E-01
    -43.041  0.0000E+00  0.0000E+00  0.1000E-01  0.1000E-01
    -42.849  0.0000E+00  0.0000E+00  0.1000E-01  0.1000E-01
    -42.658  0.0000E+00  0.0000E+00  0.1000E-01  0.1000E-01
    -42.467  0.0000E+00  0.0000E+00  0.1000E-01  0.1000E-01
    -42.276  0.0000E+00  0.0000E+00  0.1000E-01  0.1000E-01
    -42.085  0.0000E+00  0.0000E+00  0.1000E-01  0.1000E-01
    -41.893  0.0000E+00  0.0000E+00  0.1000E-01  0.1000E-01
    -41.702  0.0000E+00  0.0000E+00  0.1000E-01  0.1000E-01
    -41.511  0.0000E+00  0.0000E+00  0.1000E-01  0.1000E-01
    -41.320  0.0000E+00  0.0000E+00  0.1000E-01  0.1000E-01
    -41.128  0.0000E+00  0.0000E+00  0.1000E-01  0.1000E-01
    -40.937  0.0000E+00  0.0000E+00  0.1000E-01  0.1000E-01
    -40.746  0.0000E+00  0.0000E+00  0.1000E-01  0.1000E-01
    -40.555  0.0000E+00  0.0000E+00  0.1000E-01  0.1000E-01
    -40.363  0.0000E+00  0.0000E+00  0.1000E-01  0.1000E-01
    -40.172  0.0000E+00  0.0000E+00  0.1000E-01  0.1000E-01
    -39.981  0.0000E+00  0.0000E+00  0.1000E-01  0.1000E-01
    -39.790  0.0000E+00  0.0000E+00  0.1000E-01  0.1000E-01
    -39.599  0.0000E+00  0.0000E+00  0.1000E-01  0.1000E-01
    -39.407  0.0000E+00  0.0000E+00  0.1000E-01  0.1000E-01
    -39.216  0.0000E+00  0.0000E+00  0.1000E-01  0.1000E-01
    -39.025  0.0000E+00  0.0000E+00  0.1000E-01  0.1000E-01
    -38.834  0.0000E+00  0.0000E+00  0.1000E-01  0.1000E-01
    -38.642  0.0000E+00  0.0000E+00  0.1000E-01  0.1000E-01
    -38.451  0.0000E+00  0.0000E+00  0.1000E-01  0.1000E-01
    -38.260  0.0000E+00  0.0000E+00  0.1000E-01  0.1000E-01
    -38.069  0.0000E+00  0.0000E+00  0.1000E-01  0.1000E-01
    -37.878  0.0000E+00  0.0000E+00  0.1000E-01  0.1000E-01
    -37.686  0.0000E+00  0.0000E+00  0.1000E-01  0.1000E-01
    -37.495  0.0000E+00  0.0000E+00  0.1000E-01  0.1000E-01
    -37.304  0.0000E+00  0.0000E+00  0.1000E-01  0.1000E-01
    -37.113  0.0000E+00  0.0000E+00  0.1000E-01  0.1000E-01
    -36.921  0.0000E+00  0.0000E+00  0.1000E-01  0.1000E-01
    -36.730  0.0000E+00  0.0000E+00  0.1000E-01  0.1000E-01
    -36.539  0.0000E+00  0.0000E+00  0.1000E-01  0.1000E-01
    -36.348  0.0000E+00  0.0000E+00  0.1000E-01  0.1000E-01
    -36.156  0.0000E+00  0.0000E+00  0.1000E-01  0.1000E-01
    -35.965  0.0000E+00  0.0000E+00  0.1000E-01  0.1000E-01
    -35.774  0.0000E+00  0.0000E+00  0.1000E-01  0.1000E-01
    -35.583  0.0000E+00  0.0000E+00  0.1000E-01  0.1000E-01
    -35.392  0.0000E+00  0.0000E+00  0.1000E-01  0.1000E-01
    -35.200  0.0000E+00  0.0000E+00  0.1000E-01  0.1000E-01
    -35.009  0.0000E+00  0.0000E+00  0.1000E-01  0.1000E-01
    -34.818  0.0000E+00  0.0000E+00  0.1000E-01  0.1000E-01
    -34.627  0.0000E+00  0.0000E+00  0.1000E-01  0.1000E-01
    -34.435  0.0000E+00  0.0000E+00  0.1000E-01  0.1000E-01
    -34.244  0.0000E+00  0.0000E+00  0.1000E-01  0.1000E-01
    -34.053  0.0000E+00  0.0000E+00  0.1000E-01  0.1000E-01
    -33.862  0.0000E+00  0.0000E+00  0.1000E-01  0.1000E-01
    -33.671  0.0000E+00  0.0000E+00  0.1000E-01  0.1000E-01
    -33.479  0.0000E+00  0.0000E+00  0.1000E-01  0.1000E-01
    -33.288  0.0000E+00  0.0000E+00  0.1000E-01  0.1000E-01
    -33.097  0.0000E+00  0.0000E+00  0.1000E-01  0.1000E-01
    -32.906  0.0000E+00  0.0000E+00  0.1000E-01  0.1000E-01
    -32.714  0.0000E+00  0.0000E+00  0.1000E-01  0.1000E-01
    -32.523  0.0000E+00  0.0000E+00  0.1000E-01  0.1000E-01
    -32.332  0.0000E+00  0.0000E+00  0.1000E-01  0.1000E-01
    -32.141  0.0000E+00  0.0000E+00  0.1000E-01  0.1000E-01
    -31.949  0.0000E+00  0.0000E+00  0.1000E-01  0.1000E-01
    -31.758  0.0000E+00  0.0000E+00  0.1000E-01  0.1000E-01
    -31.567  0.0000E+00  0.0000E+00  0.1000E-01  0.1000E-01
    -31.376  0.0000E+00  0.0000E+00  0.1000E-01  0.1000E-01
    -31.185  0.0000E+00  0.0000E+00  0.1000E-01  0.1000E-01
    -30.993  0.0000E+00  0.0000E+00  0.1000E-01  0.1000E-01
    -30.802  0.0000E+00  0.0000E+00  0.1000E-01  0.1000E-01
    -30.611  0.0000E+00  0.0000E+00  0.1000E-01  0.1000E-01
    -30.420  0.0000E+00  0.0000E+00  0.1000E-01  0.1000E-01
    -30.228  0.0000E+00  0.0000E+00  0.1000E-01  0.1000E-01
    -30.037  0.0000E+00  0.0000E+00  0.1000E-01  0.1000E-01
    -29.846  0.0000E+00  0.0000E+00  0.1000E-01  0.1000E-01
    -29.655  0.0000E+00  0.0000E+00  0.1000E-01  0.1000E-01
    -29.464  0.0000E+00  0.0000E+00  0.1000E-01  0.1000E-01
    -29.272  0.0000E+00  0.0000E+00  0.1000E-01  0.1000E-01
    -29.081  0.0000E+00  0.0000E+00  0.1000E-01  0.1000E-01
    -28.890  0.0000E+00  0.0000E+00  0.1000E-01  0.1000E-01
    -28.699  0.0000E+00  0.0000E+00  0.1000E-01  0.1000E-01
    -28.507  0.0000E+00  0.0000E+00  0.1000E-01  0.1000E-01
    -28.316  0.0000E+00  0.0000E+00  0.1000E-01  0.1000E-01
    -28.125  0.0000E+00  0.0000E+00  0.1000E-01  0.1000E-01
    -27.934  0.0000E+00  0.0000E+00  0.1000E-01  0.1000E-01
    -27.742  0.0000E+00  0.0000E+00  0.1000E-01  0.1000E-01
    -27.551  0.0000E+00  0.0000E+00  0.1000E-01  0.1000E-01
    -27.360  0.0000E+00  0.0000E+00  0.1000E-01  0.1000E-01
    -27.169  0.0000E+00  0.0000E+00  0.1000E-01  0.1000E-01
    -26.978  0.0000E+00  0.0000E+00  0.1000E-01  0.1000E-01
    -26.786  0.0000E+00  0.0000E+00  0.1000E-01  0.1000E-01
    -26.595  0.0000E+00  0.0000E+00  0.1000E-01  0.1000E-01
    -26.404  0.0000E+00  0.0000E+00  0.1000E-01  0.1000E-01
    -26.213  0.0000E+00  0.0000E+00  0.1000E-01  0.1000E-01
    -26.021  0.0000E+00  0.0000E+00  0.1000E-01  0.1000E-01
    -25.830  0.0000E+00  0.0000E+00  0.1000E-01  0.1000E-01
    -25.639  0.0000E+00  0.0000E+00  0.1000E-01  0.1000E-01
    -25.448  0.0000E+00  0.0000E+00  0.1000E-01  0.1000E-01
    -25.257  0.0000E+00  0.0000E+00  0.1000E-01  0.1000E-01
    -25.065  0.0000E+00  0.0000E+00  0.1000E-01  0.1000E-01
    -24.874  0.0000E+00  0.0000E+00  0.1000E-01  0.1000E-01
    -24.683  0.0000E+00  0.0000E+00  0.1000E-01  0.1000E-01
    -24.492  0.0000E+00  0.0000E+00  0.1000E-01  0.1000E-01
    -24.300  0.0000E+00  0.0000E+00  0.1000E-01  0.1000E-01
    -24.109  0.0000E+00  0.0000E+00  0.1000E-01  0.1000E-01
    -23.918  0.0000E+00  0.0000E+00  0.1000E-01  0.1000E-01
    -23.727  0.0000E+00  0.0000E+00  0.1000E-01  0.1000E-01
    -23.535  0.0000E+00  0.0000E+00  0.1000E-01  0.1000E-01
    -23.344  0.0000E+00  0.0000E+00  0.1000E-01  0.1000E-01
    -23.153  0.0000E+00  0.0000E+00  0.1000E-01  0.1000E-01
    -22.962  0.1297E-09  0.1305E-09  0.1000E-01  0.1000E-01
    -22.771  0.2851E-02  0.2853E-02  0.1055E-01  0.1055E-01
    -22.579  0.4090E-01  0.4090E-01  0.1837E-01  0.1837E-01
    -22.388  0.2067E-01  0.2069E-01  0.2232E-01  0.2232E-01
    -22.197  0.4598E-01  0.4596E-01  0.3111E-01  0.3111E-01
    -22.006  0.3583E-01  0.3587E-01  0.3796E-01  0.3797E-01
    -21.814  0.4722E-01  0.4718E-01  0.4699E-01  0.4699E-01
    -21.623  0.2154E-01  0.2153E-01  0.5111E-01  0.5111E-01
    -21.432  0.4372E-01  0.4375E-01  0.5947E-01  0.5948E-01
    -21.241  0.6086E-01  0.6084E-01  0.7111E-01  0.7111E-01
    -21.050  0.2135E-01  0.2137E-01  0.7519E-01  0.7520E-01
    -20.858  0.1441E-01  0.1439E-01  0.7795E-01  0.7795E-01
    -20.667  0.7044E-01  0.7045E-01  0.9142E-01  0.9142E-01
    -20.476  0.6155E-01  0.6156E-01  0.1032E+00  0.1032E+00
    -20.285  0.6577E-02  0.6560E-02  0.1044E+00  0.1044E+00
    -20.093  0.3212E-01  0.3212E-01  0.1106E+00  0.1106E+00
    -19.902  0.3892E-01  0.3894E-01  0.1180E+00  0.1180E+00
    -19.711  0.6841E-01  0.6839E-01  0.1311E+00  0.1311E+00
    -19.520  0.4630E-01  0.4634E-01  0.1400E+00  0.1400E+00
    -19.328  0.2343E-01  0.2339E-01  0.1444E+00  0.1444E+00
    -19.137  0.2744E-03  0.2753E-03  0.1445E+00  0.1445E+00
    -18.946  0.7387E-01  0.7390E-01  0.1586E+00  0.1586E+00
    -18.755  0.6405E-01  0.6403E-01  0.1709E+00  0.1709E+00
    -18.564  0.3612E-01  0.3610E-01  0.1778E+00  0.1778E+00
    -18.372  0.2836E-01  0.2840E-01  0.1832E+00  0.1832E+00
    -18.181  0.4137E-01  0.4133E-01  0.1911E+00  0.1911E+00
    -17.990  0.2602E-03  0.2608E-03  0.1912E+00  0.1912E+00
    -17.799  0.9815E-01  0.9820E-01  0.2099E+00  0.2099E+00
    -17.607  0.4450E-01  0.4447E-01  0.2184E+00  0.2184E+00
    -17.416  0.7560E-01  0.7561E-01  0.2329E+00  0.2329E+00
    -17.225  0.2552E-01  0.2550E-01  0.2378E+00  0.2378E+00
    -17.034  0.2214E-05  0.2223E-05  0.2378E+00  0.2378E+00
    -16.843  0.2233E-01  0.2234E-01  0.2420E+00  0.2421E+00
    -16.651  0.8193E-01  0.8192E-01  0.2577E+00  0.2577E+00
    -16.460  0.8722E-03  0.8722E-03  0.2579E+00  0.2579E+00
    -16.269  0.3428E-01  0.3428E-01  0.2644E+00  0.2644E+00
    -16.078  0.5622E-02  0.5631E-02  0.2655E+00  0.2655E+00
    -15.886  0.4669E-01  0.4669E-01  0.2744E+00  0.2744E+00
    -15.695  0.1100E+00  0.1100E+00  0.2955E+00  0.2955E+00
    -15.504  0.3679E-03  0.3667E-03  0.2956E+00  0.2956E+00
    -15.313  0.1033E-01  0.1034E-01  0.2975E+00  0.2975E+00
    -15.121  0.1290E+00  0.1290E+00  0.3222E+00  0.3222E+00
    -14.930  0.5242E-03  0.5249E-03  0.3223E+00  0.3223E+00
    -14.739  0.6898E-01  0.6898E-01  0.3355E+00  0.3355E+00
    -14.548  0.8677E-02  0.8687E-02  0.3371E+00  0.3372E+00
    -14.357  0.3966E-01  0.3966E-01  0.3447E+00  0.3447E+00
    -14.165  0.8016E-01  0.8015E-01  0.3601E+00  0.3601E+00
    -13.974  0.1130E-01  0.1128E-01  0.3622E+00  0.3622E+00
    -13.783  0.4263E-02  0.4263E-02  0.3630E+00  0.3630E+00
    -13.592  0.1144E+00  0.7904E-01  0.3849E+00  0.3782E+00
    -13.400  0.5684E-01  0.9225E-01  0.3958E+00  0.3958E+00
    -13.209  0.3155E-01  0.3152E-01  0.4018E+00  0.4018E+00
    -13.018  0.6601E-01  0.6601E-01  0.4144E+00  0.4144E+00
    -12.827  0.1417E-01  0.1418E-01  0.4172E+00  0.4172E+00
    -12.636  0.9909E-01  0.9909E-01  0.4361E+00  0.4361E+00
    -12.444  0.2619E-01  0.2619E-01  0.4411E+00  0.4411E+00
    -12.253  0.2421E-04  0.2425E-04  0.4411E+00  0.4411E+00
    -12.062  0.4245E-01  0.4245E-01  0.4492E+00  0.4492E+00
    -11.871  0.1460E+00  0.1460E+00  0.4771E+00  0.4771E+00
    -11.679  0.2075E-01  0.2073E-01  0.4811E+00  0.4811E+00
    -11.488  0.2567E-01  0.2568E-01  0.4860E+00  0.4860E+00
    -11.297  0.4406E-01  0.4404E-01  0.4944E+00  0.4944E+00
    -11.106  0.3483E-01  0.3486E-01  0.5011E+00  0.5011E+00
    -10.914  0.7225E-01  0.7217E-01  0.5149E+00  0.5149E+00
    -10.723  0.1122E+00  0.1104E+00  0.5364E+00  0.5360E+00
    -10.532  0.1547E+00  0.1046E+00  0.5660E+00  0.5560E+00
    -10.341  0.5984E-01  0.1106E+00  0.5774E+00  0.5772E+00
    -10.150  0.1071E+00  0.1083E+00  0.5979E+00  0.5979E+00
     -9.958  0.1001E+00  0.1000E+00  0.6170E+00  0.6170E+00
     -9.767  0.1258E+00  0.1258E+00  0.6411E+00  0.6411E+00
     -9.576  0.8672E-01  0.8674E-01  0.6577E+00  0.6577E+00
     -9.385  0.1726E+00  0.1726E+00  0.6907E+00  0.6907E+00
     -9.193  0.1386E+00  0.1386E+00  0.7172E+00  0.7172E+00
     -9.002  0.5908E-01  0.5906E-01  0.7285E+00  0.7285E+00
     -8.811  0.8909E-01  0.8872E-01  0.7455E+00  0.7454E+00
     -8.620  0.8343E-01  0.8377E-01  0.7615E+00  0.7615E+00
     -8.429  0.1519E+00  0.1519E+00  0.7905E+00  0.7905E+00
     -8.237  0.1410E+00  0.1411E+00  0.8175E+00  0.8175E+00
     -8.046  0.2485E-01  0.2481E-01  0.8222E+00  0.8222E+00
     -7.855  0.1025E-01  0.1025E-01  0.8242E+00  0.8242E+00
     -7.664  0.9537E-01  0.9531E-01  0.8424E+00  0.8424E+00
     -7.472  0.1610E+00  0.1610E+00  0.8732E+00  0.8732E+00
     -7.281  0.4328E-01  0.4334E-01  0.8815E+00  0.8815E+00
     -7.090  0.7663E-01  0.7267E-01  0.8961E+00  0.8954E+00
     -6.899  0.9098E-01  0.5402E-01  0.9135E+00  0.9057E+00
     -6.707  0.4072E-01  0.8141E-01  0.9213E+00  0.9213E+00
     -6.516  0.9282E-01  0.9270E-01  0.9391E+00  0.9390E+00
     -6.325  0.1013E+00  0.1017E+00  0.9584E+00  0.9584E+00
     -6.134  0.4897E-01  0.4894E-01  0.9678E+00  0.9678E+00
     -5.943  0.6947E-01  0.6947E-01  0.9811E+00  0.9811E+00
     -5.751  0.1137E-01  0.1134E-01  0.9833E+00  0.9833E+00
     -5.560  0.3119E-01  0.3105E-01  0.9892E+00  0.9892E+00
     -5.369  0.9426E-01  0.8882E-01  0.1007E+01  0.1006E+01
     -5.178  0.1598E+00  0.1172E+00  0.1038E+01  0.1029E+01
     -4.986  0.5203E-01  0.9259E-01  0.1048E+01  0.1046E+01
     -4.795  0.4016E-02  0.1160E-01  0.1049E+01  0.1049E+01
     -4.604  0.2701E-01  0.2715E-01  0.1054E+01  0.1054E+01
     -4.413  0.5599E-01  0.5598E-01  0.1064E+01  0.1064E+01
     -4.222  0.6677E-01  0.6343E-01  0.1077E+01  0.1077E+01
     -4.030  0.5547E-01  0.5532E-01  0.1088E+01  0.1087E+01
     -3.839  0.3189E-05  0.3452E-02  0.1088E+01  0.1088E+01
     -3.648  0.0000E+00  0.0000E+00  0.1088E+01  0.1088E+01
     -3.457  0.4154E-15  0.3006E-15  0.1088E+01  0.1088E+01
     -3.265  0.3471E-03  0.3154E-03  0.1088E+01  0.1088E+01
     -3.074  0.6527E-01  0.2291E-01  0.1100E+01  0.1092E+01
     -2.883  0.9916E-02  0.1606E-04  0.1102E+01  0.1092E+01
     -2.692  0.0000E+00  0.3997E-04  0.1102E+01  0.1092E+01
     -2.500  0.0000E+00  0.5159E-01  0.1102E+01  0.1102E+01
     -2.309  0.1350E-06  0.6603E-03  0.1102E+01  0.1102E+01
     -2.118  0.5386E-01  0.5363E-01  0.1113E+01  0.1112E+01
     -1.927  0.2746E-01  0.2742E-01  0.1118E+01  0.1118E+01
     -1.736  0.6355E-01  0.4309E-01  0.1130E+01  0.1126E+01
     -1.544  0.8106E-01  0.1009E+00  0.1145E+01  0.1145E+01
     -1.353  0.9835E-01  0.9898E-01  0.1164E+01  0.1164E+01
     -1.162  0.2947E-01  0.2973E-01  0.1170E+01  0.1170E+01
     -0.971  0.8579E-01  0.8580E-01  0.1186E+01  0.1186E+01
     -0.779  0.4910E-01  0.4756E-01  0.1196E+01  0.1195E+01
     -0.588  0.7801E-01  0.3583E-01  0.1211E+01  0.1202E+01
     -0.397  0.8591E-02  0.3508E-03  0.1212E+01  0.1202E+01
     -0.206  0.2361E-01  0.7455E-01  0.1217E+01  0.1217E+01
     -0.015  0.8126E-01  0.7652E-01  0.1232E+01  0.1231E+01
      0.177  0.5298E-01  0.5867E-01  0.1242E+01  0.1242E+01
      0.368  0.1138E+00  0.1043E+00  0.1264E+01  0.1262E+01
      0.559  0.3986E-01  0.3771E-01  0.1272E+01  0.1270E+01
      0.750  0.6338E-01  0.6786E-01  0.1284E+01  0.1283E+01
      0.942  0.1319E+00  0.1207E+00  0.1309E+01  0.1306E+01
      1.133  0.7858E-01  0.7793E-01  0.1324E+01  0.1321E+01
      1.324  0.8935E-01  0.9897E-01  0.1341E+01  0.1339E+01
      1.515  0.1654E+00  0.1616E+00  0.1373E+01  0.1370E+01
      1.707  0.1042E+00  0.1097E+00  0.1393E+01  0.1391E+01
      1.898  0.3760E-01  0.4535E-01  0.1400E+01  0.1400E+01
      2.089  0.3409E-05  0.1933E-05  0.1400E+01  0.1400E+01
      2.280  0.0000E+00  0.0000E+00  0.1400E+01  0.1400E+01
      2.471  0.0000E+00  0.0000E+00  0.1400E+01  0.1400E+01
      2.663  0.0000E+00  0.0000E+00  0.1400E+01  0.1400E+01
      2.854  0.0000E+00  0.0000E+00  0.1400E+01  0.1400E+01
      3.045  0.0000E+00  0.0000E+00  0.1400E+01  0.1400E+01
      3.236  0.0000E+00  0.0000E+00  0.1400E+01  0.1400E+01
      3.428  0.0000E+00  0.0000E+00  0.1400E+01  0.1400E+01
      3.619  0.0000E+00  0.0000E+00  0.1400E+01  0.1400E+01
      3.810  0.0000E+00  0.0000E+00  0.1400E+01  0.1400E+01
      4.001  0.0000E+00  0.0000E+00  0.1400E+01  0.1400E+01
      4.192  0.0000E+00  0.0000E+00  0.1400E+01  0.1400E+01
      4.384  0.0000E+00  0.0000E+00  0.1400E+01  0.1400E+01
