 running on   16 total cores
 distrk:  each k-point on   16 cores,    1 groups
 distr:  one band on    4 cores,    4 groups
 using from now: INCAR     
 vasp.5.4.1 24Jun15 (build Jul 23 2024 06:15:33) complex                        
  
 POSCAR found type information on POSCAR  C  Li Si
 POSCAR found :  3 types and      55 ions
 scaLAPACK will be used
 LDA part: xc-table for Pade appr. of Perdew
 POSCAR, INCAR and KPOINTS ok, starting setup
 FFT: planning ...
 WAVECAR not read
 entering main loop
       N       E                     dE             d eps       ncg     rms          rms(c)
DAV:   1     0.206392943060E+04    0.20639E+04   -0.73112E+04  3344   0.109E+03
DAV:   2     0.325838403594E+02   -0.20313E+04   -0.18925E+04  4208   0.243E+02
DAV:   3    -0.482895659012E+03   -0.51548E+03   -0.50543E+03  3632   0.128E+02
DAV:   4    -0.513444475185E+03   -0.30549E+02   -0.29901E+02  3552   0.388E+01
DAV:   5    -0.514583701995E+03   -0.11392E+01   -0.11279E+01  4312   0.638E+00    0.343E+01
DAV:   6    -0.487669706756E+03    0.26914E+02   -0.73901E+01  3244   0.119E+01    0.198E+01
DAV:   7    -0.477687335269E+03    0.99824E+01   -0.13488E+01  3096   0.793E+00    0.106E+01
DAV:   8    -0.475982432869E+03    0.17049E+01   -0.58060E+00  3068   0.511E+00    0.393E+00
DAV:   9    -0.475869220711E+03    0.11321E+00   -0.65773E-01  3652   0.162E+00    0.196E+00
DAV:  10    -0.476393707883E+03   -0.52449E+00   -0.24854E-01  3220   0.919E-01    0.107E+00
DAV:  11    -0.476978695654E+03   -0.58499E+00   -0.75117E-02  3184   0.473E-01    0.858E-01
DAV:  12    -0.477622996515E+03   -0.64430E+00   -0.83136E-02  3160   0.429E-01    0.702E-01
DAV:  13    -0.478240896780E+03   -0.61790E+00   -0.25017E-01  2968   0.717E-01    0.472E-01
DAV:  14    -0.478408431407E+03   -0.16753E+00   -0.10134E-01  3056   0.488E-01    0.334E-01
DAV:  15    -0.479061500799E+03   -0.65307E+00   -0.60210E-02  3016   0.322E-01    0.216E-01
DAV:  16    -0.479472436546E+03   -0.41094E+00   -0.18394E-02  3028   0.186E-01    0.153E-01
DAV:  17    -0.479726258552E+03   -0.25382E+00   -0.10559E-02  3092   0.143E-01    0.109E-01
DAV:  18    -0.479845932081E+03   -0.11967E+00   -0.39061E-03  3112   0.870E-02    0.809E-02
DAV:  19    -0.479900878205E+03   -0.54946E-01   -0.20580E-03  3136   0.615E-02    0.584E-02
DAV:  20    -0.479922537368E+03   -0.21659E-01   -0.12432E-03  2832   0.442E-02    0.424E-02
DAV:  21    -0.479932773325E+03   -0.10236E-01   -0.50402E-04  2796   0.321E-02    0.293E-02
DAV:  22    -0.479947816369E+03   -0.15043E-01   -0.26554E-04  2732   0.283E-02    0.171E-02
DAV:  23    -0.479961504308E+03   -0.13688E-01   -0.87325E-05  2600   0.241E-02    0.110E-02
DAV:  24    -0.479968448007E+03   -0.69437E-02   -0.50865E-05  2504   0.196E-02    0.707E-03
DAV:  25    -0.479971493991E+03   -0.30460E-02   -0.53242E-05  2456   0.186E-02    0.426E-03
DAV:  26    -0.479972555864E+03   -0.10619E-02   -0.36223E-05  2436   0.162E-02    0.274E-03
DAV:  27    -0.479973115327E+03   -0.55946E-03   -0.23176E-05  2288   0.122E-02    0.167E-03
DAV:  28    -0.479973363091E+03   -0.24776E-03   -0.10623E-05  2064   0.845E-03    0.101E-03
DAV:  29    -0.479973454597E+03   -0.91506E-04   -0.33741E-06  2072   0.459E-03    0.668E-04
DAV:  30    -0.479973512804E+03   -0.58207E-04   -0.14328E-06  2048   0.260E-03    0.407E-04
DAV:  31    -0.479973542475E+03   -0.29671E-04   -0.52407E-07  2056   0.141E-03    0.266E-04
DAV:  32    -0.479973557977E+03   -0.15502E-04   -0.17676E-07  1984   0.760E-04    0.180E-04
DAV:  33    -0.479973568164E+03   -0.10188E-04   -0.11284E-07  1896   0.478E-04    0.120E-04
DAV:  34    -0.479973572351E+03   -0.41867E-05   -0.39384E-08  1944   0.352E-04
   1 F= -.47997357E+03 E0= -.47996636E+03  d E =-.479974E+03  mag=     0.5606
 curvature:   0.00 expect dE= 0.000E+00 dE for cont linesearch  0.000E+00
 trial: gam= 0.00000 g(F)=  0.669E-03 g(S)=  0.000E+00 ort = 0.000E+00 (trialstep = 0.100E+01)
 search vector abs. value=  0.669E-03
 bond charge predicted
       N       E                     dE             d eps       ncg     rms          rms(c)
DAV:   1    -0.479973436448E+03    0.13172E-03   -0.73993E-02  2992   0.800E-01    0.587E-02
DAV:   2    -0.479973528166E+03   -0.91718E-04   -0.16026E-03  3324   0.113E-01    0.394E-02
DAV:   3    -0.479973502998E+03    0.25168E-04   -0.13042E-04  3580   0.360E-02    0.183E-02
DAV:   4    -0.479973502960E+03    0.38244E-07   -0.36771E-05  2592   0.170E-02
   2 F= -.47997350E+03 E0= -.47996629E+03  d E =0.693913E-04  mag=     0.5606
 trial-energy change:    0.000069  1 .order    0.000075   -0.000669    0.000819
 step:   0.4497(harm=  0.4497)  dis= 0.00067  next Energy=  -479.973723 (dE=-0.151E-03)
 bond charge predicted
       N       E                     dE             d eps       ncg     rms          rms(c)
DAV:   1    -0.479973709257E+03   -0.20626E-03   -0.22423E-02  2872   0.440E-01    0.319E-02
DAV:   2    -0.479973732610E+03   -0.23353E-04   -0.48696E-04  3276   0.628E-02    0.222E-02
DAV:   3    -0.479973724968E+03    0.76425E-05   -0.43591E-05  2992   0.207E-02
   3 F= -.47997372E+03 E0= -.47996652E+03  d E =-.152617E-03  mag=     0.5606
 curvature:  -0.22 expect dE=-0.101E-03 dE for cont linesearch -0.215E-07
 trial: gam= 0.65862 g(F)=  0.449E-03 g(S)=  0.000E+00 ort = 0.800E-05 (trialstep = 0.795E+00)
 search vector abs. value=  0.750E-03
 bond charge predicted
       N       E                     dE             d eps       ncg     rms          rms(c)
DAV:   1    -0.479973850237E+03   -0.11763E-03   -0.43256E-02  2872   0.572E-01    0.346E-02
DAV:   2    -0.479973903132E+03   -0.52895E-04   -0.77029E-04  3152   0.725E-02    0.238E-02
DAV:   3    -0.479973898141E+03    0.49910E-05   -0.51371E-05  3116   0.223E-02
   4 F= -.47997390E+03 E0= -.47996668E+03  d E =-.173173E-03  mag=     0.5606
 trial-energy change:   -0.000173  1 .order   -0.000180   -0.000361    0.000002
 step:   0.7910(harm=  0.7910)  dis= 0.00192  next Energy=  -479.973905 (dE=-0.180E-03)
 bond charge predicted
       N       E                     dE             d eps       ncg     rms          rms(c)
DAV:   1    -0.479973900110E+03    0.30215E-05   -0.13828E-05  1952   0.113E-02    0.397E-03
DAV:   2    -0.479973900787E+03   -0.67658E-06   -0.23538E-06  1880   0.474E-03
   5 F= -.47997390E+03 E0= -.47996669E+03  d E =-.175819E-03  mag=     0.5606
 curvature:  -0.65 expect dE=-0.376E-03 dE for cont linesearch -0.114E-08
 trial: gam= 1.28604 g(F)=  0.576E-03 g(S)=  0.000E+00 ort = 0.115E-05 (trialstep = 0.327E+00)
 search vector abs. value=  0.182E-02
 bond charge predicted
       N       E                     dE             d eps       ncg     rms          rms(c)
DAV:   1    -0.479974040733E+03   -0.14062E-03   -0.16822E-02  2848   0.319E-01    0.189E-02
DAV:   2    -0.479974058520E+03   -0.17788E-04   -0.26834E-04  3200   0.378E-02    0.123E-02
DAV:   3    -0.479974058808E+03   -0.28817E-06   -0.13397E-05  2416   0.106E-02
   6 F= -.47997406E+03 E0= -.47996684E+03  d E =-.158022E-03  mag=     0.5606
 trial-energy change:   -0.000158  1 .order   -0.000161   -0.000189   -0.000133
 step:   1.0963(harm=  1.0963)  dis= 0.00496  next Energy=  -479.974217 (dE=-0.317E-03)
 bond charge predicted
       N       E                     dE             d eps       ncg     rms          rms(c)
DAV:   1    -0.479974096553E+03   -0.38033E-04   -0.92814E-02  2832   0.749E-01    0.445E-02
DAV:   2    -0.479974203924E+03   -0.10737E-03   -0.14755E-03  3256   0.883E-02    0.289E-02
DAV:   3    -0.479974202974E+03    0.94962E-06   -0.84113E-05  3408   0.243E-02
   7 F= -.47997420E+03 E0= -.47996698E+03  d E =-.302188E-03  mag=     0.5607
 curvature:  -1.73 expect dE=-0.223E-02 dE for cont linesearch -0.159E-07
 trial: gam= 2.19907 g(F)=  0.129E-02 g(S)=  0.000E+00 ort =-0.409E-05 (trialstep = 0.869E-01)
 search vector abs. value=  0.101E-01
 bond charge predicted
       N       E                     dE             d eps       ncg     rms          rms(c)
DAV:   1    -0.479974304093E+03   -0.10017E-03   -0.64068E-03  2944   0.189E-01    0.132E-02
DAV:   2    -0.479974310923E+03   -0.68301E-05   -0.10060E-04  3060   0.223E-02    0.844E-03
DAV:   3    -0.479974312383E+03   -0.14603E-05   -0.52598E-06  2100   0.693E-03
   8 F= -.47997431E+03 E0= -.47996709E+03  d E =-.109409E-03  mag=     0.5607
 ZBRENT: can't locate minimum, use default step
 trial-energy change:   -0.000109  1 .order   -0.000105   -0.000111   -0.000099
 step:   0.3476(harm=  0.7744)  dis= 0.00386  next Energy=  -479.974699 (dE=-0.496E-03)
 bond charge predicted
       N       E                     dE             d eps       ncg     rms          rms(c)
DAV:   1    -0.479974471361E+03   -0.16044E-03   -0.57820E-02  2824   0.566E-01    0.336E-02
DAV:   2    -0.479974537744E+03   -0.66383E-04   -0.89439E-04  3168   0.674E-02    0.215E-02
DAV:   3    -0.479974538195E+03   -0.45103E-06   -0.50916E-05  3252   0.188E-02
   9 F= -.47997454E+03 E0= -.47996731E+03  d E =-.335220E-03  mag=     0.5608
 curvature:  -1.87 expect dE=-0.113E-02 dE for cont linesearch -0.789E-04
 ZBRENT: increasing intervall
 opt :   0.8690  next Energy=  -479.974625 (dE=-0.422E-03)
 bond charge predicted
       N       E                     dE             d eps       ncg     rms          rms(c)
DAV:   1    -0.479974341258E+03    0.19649E-03   -0.23136E-01  2808   0.113E+00    0.685E-02
DAV:   2    -0.479974610914E+03   -0.26966E-03   -0.35544E-03  3128   0.135E-01    0.437E-02
DAV:   3    -0.479974609664E+03    0.12501E-05   -0.21624E-04  3868   0.382E-02    0.220E-02
DAV:   4    -0.479974618730E+03   -0.90659E-05   -0.28558E-05  2576   0.151E-02
  10 F= -.47997462E+03 E0= -.47996739E+03  d E =-.415755E-03  mag=     0.5609
 curvature:  -2.05 expect dE=-0.366E-02 dE for cont linesearch -0.220E-04
 ZBRENT: bracketing found
 ZBRENT: interpolating
 opt :   0.6945  next Energy=  -479.974647 (dE=-0.444E-03)
 bond charge predicted
       N       E                     dE             d eps       ncg     rms          rms(c)
DAV:   1    -0.479974620697E+03   -0.11033E-04   -0.25990E-02  2848   0.380E-01    0.221E-02
DAV:   2    -0.479974651091E+03   -0.30394E-04   -0.40219E-04  3084   0.460E-02    0.143E-02
DAV:   3    -0.479974651156E+03   -0.65207E-07   -0.21500E-05  2720   0.128E-02
  11 F= -.47997465E+03 E0= -.47996743E+03  d E =-.448182E-03  mag=     0.5609
 curvature:  -2.68 expect dE=-0.292E-02 dE for cont linesearch -0.921E-09
 trial: gam= 0.84169 g(F)=  0.109E-02 g(S)=  0.000E+00 ort =-0.186E-05 (trialstep = 0.208E+00)
 search vector abs. value=  0.822E-02
 bond charge predicted
       N       E                     dE             d eps       ncg     rms          rms(c)
DAV:   1    -0.479974810423E+03   -0.15933E-03   -0.29052E-02  2844   0.395E-01    0.232E-02
DAV:   2    -0.479974845603E+03   -0.35180E-04   -0.45151E-04  3052   0.481E-02    0.141E-02
DAV:   3    -0.479974845566E+03    0.36818E-07   -0.22894E-05  2820   0.126E-02
  12 F= -.47997485E+03 E0= -.47996762E+03  d E =-.194410E-03  mag=     0.5609
 trial-energy change:   -0.000194  1 .order   -0.000195   -0.000227   -0.000163
 step:   0.7342(harm=  0.7342)  dis= 0.00740  next Energy=  -479.975051 (dE=-0.400E-03)
 bond charge predicted
       N       E                     dE             d eps       ncg     rms          rms(c)
DAV:   1    -0.479974810981E+03    0.34622E-04   -0.18437E-01  2808   0.994E-01    0.618E-02
DAV:   2    -0.479975030256E+03   -0.21927E-03   -0.28564E-03  3136   0.119E-01    0.377E-02
DAV:   3    -0.479975030548E+03   -0.29177E-06   -0.17124E-04  3776   0.327E-02    0.203E-02
DAV:   4    -0.479975037320E+03   -0.67726E-05   -0.19869E-05  2456   0.128E-02
  13 F= -.47997504E+03 E0= -.47996781E+03  d E =-.386164E-03  mag=     0.5610
 curvature:  -2.77 expect dE=-0.357E-02 dE for cont linesearch -0.209E-06
 trial: gam= 1.22014 g(F)=  0.129E-02 g(S)=  0.000E+00 ort =-0.249E-04 (trialstep = 0.191E+00)
 search vector abs. value=  0.135E-01
 bond charge predicted
       N       E                     dE             d eps       ncg     rms          rms(c)
DAV:   1    -0.479975189034E+03   -0.15849E-03   -0.38085E-02  2844   0.444E-01    0.284E-02
DAV:   2    -0.479975235616E+03   -0.46583E-04   -0.60219E-04  3100   0.537E-02    0.169E-02
DAV:   3    -0.479975236924E+03   -0.13075E-05   -0.32335E-05  3040   0.144E-02
  14 F= -.47997524E+03 E0= -.47996800E+03  d E =-.199604E-03  mag=     0.5611
 trial-energy change:   -0.000200  1 .order   -0.000202   -0.000241   -0.000163
 step:   0.5899(harm=  0.5899)  dis= 0.00754  next Energy=  -479.975409 (dE=-0.372E-03)
 bond charge predicted
       N       E                     dE             d eps       ncg     rms          rms(c)
DAV:   1    -0.479975201298E+03    0.34319E-04   -0.16502E-01  2808   0.925E-01    0.600E-02
DAV:   2    -0.479975399806E+03   -0.19851E-03   -0.25881E-03  3064   0.111E-01    0.356E-02
DAV:   3    -0.479975400841E+03   -0.10344E-05   -0.15008E-04  3756   0.301E-02    0.199E-02
DAV:   4    -0.479975407492E+03   -0.66513E-05   -0.19193E-05  2448   0.128E-02
  15 F= -.47997541E+03 E0= -.47996817E+03  d E =-.370172E-03  mag=     0.5612
 curvature:  -3.15 expect dE=-0.251E-02 dE for cont linesearch -0.414E-08
 trial: gam= 0.51422 g(F)=  0.797E-03 g(S)=  0.000E+00 ort = 0.421E-05 (trialstep = 0.271E+00)
 search vector abs. value=  0.436E-02
 bond charge predicted
       N       E                     dE             d eps       ncg     rms          rms(c)
DAV:   1    -0.479975545637E+03   -0.14480E-03   -0.23480E-02  2856   0.374E-01    0.246E-02
DAV:   2    -0.479975578718E+03   -0.33082E-04   -0.41950E-04  3088   0.480E-02    0.152E-02
DAV:   3    -0.479975579068E+03   -0.35006E-06   -0.25335E-05  2856   0.139E-02
  16 F= -.47997558E+03 E0= -.47996834E+03  d E =-.171577E-03  mag=     0.5613
 trial-energy change:   -0.000172  1 .order   -0.000170   -0.000217   -0.000122
 step:   0.6224(harm=  0.6224)  dis= 0.00415  next Energy=  -479.975656 (dE=-0.249E-03)
 bond charge predicted
       N       E                     dE             d eps       ncg     rms          rms(c)
DAV:   1    -0.479975602177E+03   -0.23459E-04   -0.39319E-02  2824   0.484E-01    0.332E-02
DAV:   2    -0.479975653809E+03   -0.51632E-04   -0.69275E-04  3160   0.612E-02    0.204E-02
DAV:   3    -0.479975653486E+03    0.32270E-06   -0.45223E-05  3144   0.182E-02
  17 F= -.47997565E+03 E0= -.47996841E+03  d E =-.245994E-03  mag=     0.5613
 curvature:  -1.70 expect dE=-0.978E-03 dE for cont linesearch -0.212E-06
 trial: gam= 0.80569 g(F)=  0.576E-03 g(S)=  0.000E+00 ort =-0.233E-04 (trialstep = 0.341E+00)
 search vector abs. value=  0.337E-02
 bond charge predicted
       N       E                     dE             d eps       ncg     rms          rms(c)
DAV:   1    -0.479975765026E+03   -0.11122E-03   -0.26753E-02  2824   0.406E-01    0.267E-02
DAV:   2    -0.479975800293E+03   -0.35267E-04   -0.47875E-04  3212   0.488E-02    0.169E-02
DAV:   3    -0.479975801153E+03   -0.86031E-06   -0.26359E-05  2864   0.129E-02
  18 F= -.47997580E+03 E0= -.47996856E+03  d E =-.147668E-03  mag=     0.5614
 trial-energy change:   -0.000148  1 .order   -0.000148   -0.000190   -0.000105
 step:   0.7662(harm=  0.7662)  dis= 0.00410  next Energy=  -479.975867 (dE=-0.213E-03)
 bond charge predicted
       N       E                     dE             d eps       ncg     rms          rms(c)
DAV:   1    -0.479975807928E+03   -0.76346E-05   -0.41371E-02  2824   0.505E-01    0.330E-02
DAV:   2    -0.479975862715E+03   -0.54788E-04   -0.73963E-04  3256   0.604E-02    0.207E-02
DAV:   3    -0.479975863244E+03   -0.52911E-06   -0.41285E-05  3056   0.158E-02
  19 F= -.47997586E+03 E0= -.47996862E+03  d E =-.209759E-03  mag=     0.5614
 curvature:  -2.32 expect dE=-0.168E-02 dE for cont linesearch -0.900E-08
 trial: gam= 1.14232 g(F)=  0.724E-03 g(S)=  0.000E+00 ort = 0.362E-05 (trialstep = 0.280E+00)
 search vector abs. value=  0.513E-02
 bond charge predicted
       N       E                     dE             d eps       ncg     rms          rms(c)
DAV:   1    -0.479975976643E+03   -0.11393E-03   -0.27526E-02  2840   0.432E-01    0.284E-02
DAV:   2    -0.479976014653E+03   -0.38010E-04   -0.52811E-04  3240   0.534E-02    0.185E-02
DAV:   3    -0.479976014744E+03   -0.91137E-07   -0.31005E-05  2876   0.150E-02
  20 F= -.47997601E+03 E0= -.47996877E+03  d E =-.151500E-03  mag=     0.5615
 trial-energy change:   -0.000151  1 .order   -0.000151   -0.000204   -0.000098
 step:   0.5383(harm=  0.5383)  dis= 0.00317  next Energy=  -479.976059 (dE=-0.196E-03)
 reached required accuracy - stopping structural energy minimisation
