Li defective graphene MACE training lab 
           1
    12.300000    0.000000    0.000000
    -6.150000   10.652112    0.000000
     0.000000    0.000000   30.000000
   C    Li   Si
  50   1   4
Direct configuration=     1
   0.00359428  0.99991328  0.49589453
   0.40361308  0.79986442  0.49625434
   0.53691999  0.86648747  0.49604731
   0.60354008  0.99980791  0.49620965
   0.73684521  0.06635973  0.49642579
   0.60337622  0.19960177  0.49629319
   0.73656632  0.26587533  0.49675633
   0.60296938  0.39950639  0.49562289
   0.73643013  0.46627400  0.49569314
   0.60346063  0.59987922  0.49543611
   0.73662343  0.66678415  0.49547046
   0.40359621  0.59983795  0.49618204
   0.60359809  0.79987864  0.49577796
   0.80360057  0.99983580  0.49609764
   0.93689409  0.06650442  0.49617525
   0.80352720  0.19961557  0.49687160
   0.93694726  0.26633926  0.49713645
   0.80328487  0.39936076  0.49659764
   0.93709447  0.46627076  0.49726499
   0.80330966  0.60004951  0.49561422
   0.93707670  0.66692377  0.49621108
   0.80350013  0.79996849  0.49556919
   0.93687097  0.86660935  0.49574803
   0.73687899  0.86655803  0.49572445
   0.53672845  0.46645153  0.49549627
   0.53687750  0.66655663  0.49570074
   0.53669255  0.26630357  0.49592246
   0.13690908  0.06648262  0.49594308
   0.00362647  0.19978058  0.49670907
   0.13694493  0.26646398  0.49656911
   0.00384836  0.39953134  0.49749134
   0.13707756  0.46643947  0.49724049
   0.00397489  0.60007299  0.49702316
   0.13741065  0.66678431  0.49701658
   0.00381864  0.80036326  0.49608602
   0.13705010  0.86667470  0.49617774
   0.40346547  0.39976211  0.49582168
   0.33692862  0.06648297  0.49601738
   0.20367841  0.99993843  0.49597364
   0.33685803  0.26645771  0.49592556
   0.20367802  0.39978392  0.49680563
   0.33692631  0.46652518  0.49627049
   0.20373064  0.59984505  0.49702771
   0.33698074  0.66653680  0.49652872
   0.20377547  0.80001746  0.49649464
   0.33701320  0.86658723  0.49626790
   0.40353857  0.99982825  0.49608686
   0.53681022  0.06635963  0.49621900
   0.40344986  0.19974576  0.49591822
   0.20354047  0.19977313  0.49610391
   0.85728338  0.53008965  0.56214951
   0.70997634  0.58848263  0.68984163
   0.68632055  0.46295169  0.62754772
   0.87518701  0.64981431  0.64136924
   0.51844497  0.40504504  0.67572355
Direct configuration=     2
   0.00356384  0.99986430  0.49590088
   0.40362305  0.79987617  0.49627200
   0.53689256  0.86651989  0.49604504
   0.60355992  0.99973574  0.49620998
   0.73685954  0.06638353  0.49642007
   0.60333288  0.19958813  0.49628211
   0.73660123  0.26593333  0.49675407
   0.60296350  0.39948342  0.49561604
   0.73634770  0.46621588  0.49569700
   0.60332319  0.59978799  0.49543741
   0.73661046  0.66677846  0.49547158
   0.40355358  0.59982613  0.49617565
   0.60354922  0.79985326  0.49578173
   0.80359410  0.99984696  0.49609743
   0.93691011  0.06647171  0.49619430
   0.80352038  0.19960189  0.49686928
   0.93685810  0.26628680  0.49712327
   0.80325985  0.39925496  0.49660327
   0.93712849  0.46628358  0.49726501
   0.80330960  0.60005033  0.49562122
   0.93716736  0.66699511  0.49622825
   0.80354610  0.80001978  0.49557321
   0.93698688  0.86672258  0.49574692
   0.73687410  0.86659964  0.49572135
   0.53670684  0.46645146  0.49548952
   0.53687295  0.66656198  0.49570926
   0.53671481  0.26633259  0.49590967
   0.13688581  0.06645518  0.49596127
   0.00361834  0.19973621  0.49669080
   0.13692463  0.26645635  0.49657929
   0.00384512  0.39954786  0.49748932
   0.13710098  0.46651757  0.49723847
   0.00397424  0.60009371  0.49701906
   0.13744118  0.66678831  0.49703627
   0.00384094  0.80038068  0.49608338
   0.13704699  0.86666929  0.49618068
   0.40345256  0.39979628  0.49584544
   0.33689772  0.06645163  0.49600620
   0.20356404  0.99988609  0.49597926
   0.33684899  0.26644572  0.49592435
   0.20364974  0.39973839  0.49679161
   0.33700313  0.46654717  0.49627435
   0.20372919  0.59985037  0.49702344
   0.33702252  0.66655490  0.49651952
   0.20370104  0.79997326  0.49649097
   0.33696277  0.86649380  0.49627511
   0.40362839  0.99987111  0.49610683
   0.53681298  0.06640410  0.49621359
   0.40348072  0.19976945  0.49590669
   0.20359814  0.19983387  0.49611450
   0.85732741  0.53022921  0.56213654
   0.71003249  0.58853201  0.68980847
   0.68627468  0.46287016  0.62754338
   0.87528981  0.64980429  0.64135280
   0.51847857  0.40501536  0.67573626
Direct configuration=     3
   0.00358060  0.99989125  0.49589738
   0.40361756  0.79986970  0.49626228
   0.53690765  0.86650205  0.49604629
   0.60354900  0.99977545  0.49620980
   0.73685166  0.06637043  0.49642322
   0.60335673  0.19959564  0.49628821
   0.73658202  0.26590142  0.49675531
   0.60296674  0.39949606  0.49561981
   0.73639306  0.46624786  0.49569488
   0.60339882  0.59983819  0.49543669
   0.73661760  0.66678159  0.49547096
   0.40357704  0.59983264  0.49617917
   0.60357611  0.79986723  0.49577965
   0.80359766  0.99984082  0.49609755
   0.93690129  0.06648971  0.49618382
   0.80352413  0.19960942  0.49687055
   0.93690716  0.26631567  0.49713052
   0.80327362  0.39931318  0.49660017
   0.93710977  0.46627653  0.49726500
   0.80330963  0.60004988  0.49561737
   0.93711747  0.66695585  0.49621880
   0.80352080  0.79999156  0.49557100
   0.93692309  0.86666027  0.49574753
   0.73687679  0.86657674  0.49572306
   0.53671873  0.46645150  0.49549323
   0.53687545  0.66655904  0.49570457
   0.53670256  0.26631662  0.49591671
   0.13689861  0.06647028  0.49595126
   0.00362282  0.19976062  0.49670085
   0.13693580  0.26646055  0.49657369
   0.00384690  0.39953877  0.49749043
   0.13708809  0.46647459  0.49723958
   0.00397460  0.60008231  0.49702131
   0.13742438  0.66678611  0.49702544
   0.00382867  0.80037109  0.49608483
   0.13704870  0.86667227  0.49617906
   0.40345966  0.39977748  0.49583237
   0.33691472  0.06646888  0.49601235
   0.20362697  0.99991490  0.49597617
   0.33685397  0.26645232  0.49592502
   0.20366531  0.39976345  0.49679933
   0.33696086  0.46653507  0.49627222
   0.20372999  0.59984745  0.49702579
   0.33699953  0.66654494  0.49652458
   0.20374200  0.79999758  0.49649299
   0.33699052  0.86654521  0.49627114
   0.40357896  0.99984752  0.49609584
   0.53681146  0.06637963  0.49621657
   0.40346374  0.19975642  0.49591304
   0.20356641  0.19980045  0.49610867
   0.85730318  0.53015241  0.56214368
   0.71000159  0.58850484  0.68982672
   0.68629992  0.46291503  0.62754577
   0.87523324  0.64980980  0.64136184
   0.51846008  0.40503169  0.67572927
Direct configuration=     4
   0.00360899  0.99991332  0.49590853
   0.40359886  0.79985365  0.49627951
   0.53689702  0.86649158  0.49604602
   0.60356252  0.99979023  0.49620944
   0.73685378  0.06636177  0.49641657
   0.60336781  0.19962996  0.49627369
   0.73655695  0.26586629  0.49675204
   0.60294405  0.39949869  0.49561134
   0.73637971  0.46621124  0.49570016
   0.60335271  0.59981727  0.49543888
   0.73658033  0.66677768  0.49547321
   0.40358106  0.59984265  0.49617160
   0.60355299  0.79987207  0.49578411
   0.80361285  0.99987079  0.49609802
   0.93688318  0.06645118  0.49620269
   0.80348889  0.19960588  0.49686590
   0.93688756  0.26628906  0.49711357
   0.80327517  0.39930464  0.49660602
   0.93710690  0.46627776  0.49726494
   0.80331739  0.60004523  0.49562714
   0.93713508  0.66698335  0.49623805
   0.80356430  0.80004082  0.49557492
   0.93694538  0.86666960  0.49574576
   0.73685533  0.86658775  0.49572088
   0.53667400  0.46640796  0.49548853
   0.53682010  0.66654099  0.49571442
   0.53670144  0.26631676  0.49590017
   0.13688207  0.06648868  0.49597202
   0.00358761  0.19971909  0.49668288
   0.13692532  0.26645438  0.49658210
   0.00384519  0.39954063  0.49748659
   0.13709702  0.46648303  0.49723358
   0.00400658  0.60010318  0.49702076
   0.13740754  0.66676665  0.49704535
   0.00387624  0.80041929  0.49608380
   0.13701569  0.86664680  0.49618177
   0.40346608  0.39977585  0.49585844
   0.33689594  0.06645558  0.49600267
   0.20358341  0.99988938  0.49598362
   0.33687647  0.26647943  0.49592598
   0.20367505  0.39978064  0.49678415
   0.33693914  0.46653212  0.49627735
   0.20377601  0.59989479  0.49702175
   0.33700879  0.66655418  0.49651487
   0.20371583  0.79997336  0.49649156
   0.33696651  0.86652156  0.49628382
   0.40357003  0.99982104  0.49611555
   0.53685917  0.06638554  0.49621166
   0.40346000  0.19974345  0.49589677
   0.20357254  0.19979201  0.49612399
   0.85736050  0.53033357  0.56212703
   0.71007608  0.58856703  0.68978254
   0.68625603  0.46281991  0.62753914
   0.87535037  0.64978198  0.64134035
   0.51850785  0.40499667  0.67574717
Direct configuration=     5
   0.00360886  0.99991322  0.49590849
   0.40359895  0.79985372  0.49627944
   0.53689707  0.86649163  0.49604603
   0.60356246  0.99979016  0.49620945
   0.73685377  0.06636181  0.49641660
   0.60336776  0.19962981  0.49627375
   0.73655706  0.26586645  0.49675205
   0.60294415  0.39949868  0.49561138
   0.73637977  0.46621140  0.49570014
   0.60335291  0.59981736  0.49543888
   0.73658049  0.66677770  0.49547320
   0.40358104  0.59984261  0.49617163
   0.60355310  0.79987205  0.49578409
   0.80361278  0.99987065  0.49609801
   0.93688326  0.06645135  0.49620260
   0.80348904  0.19960589  0.49686592
   0.93688765  0.26628917  0.49711365
   0.80327516  0.39930467  0.49660599
   0.93710691  0.46627775  0.49726494
   0.80331736  0.60004525  0.49562709
   0.93713500  0.66698323  0.49623796
   0.80356411  0.80004060  0.49557491
   0.93694528  0.86666955  0.49574577
   0.73685543  0.86658770  0.49572089
   0.53667420  0.46640815  0.49548855
   0.53682035  0.66654107  0.49571437
   0.53670145  0.26631676  0.49590024
   0.13688214  0.06648860  0.49597193
   0.00358777  0.19971927  0.49668296
   0.13692537  0.26645440  0.49658206
   0.00384519  0.39954063  0.49748661
   0.13709699  0.46648299  0.49723361
   0.00400644  0.60010309  0.49702076
   0.13740761  0.66676674  0.49704526
   0.00387603  0.80041907  0.49608381
   0.13701584  0.86664691  0.49618175
   0.40346605  0.39977586  0.49585833
   0.33689602  0.06645564  0.49600271
   0.20358360  0.99988950  0.49598358
   0.33687637  0.26647931  0.49592598
   0.20367500  0.39978056  0.49678422
   0.33693923  0.46653214  0.49627732
   0.20377580  0.59989458  0.49702176
   0.33700875  0.66655413  0.49651492
   0.20371595  0.79997346  0.49649156
   0.33696662  0.86652167  0.49628377
   0.40357007  0.99982116  0.49611546
   0.53685896  0.06638551  0.49621168
   0.40346002  0.19974351  0.49589684
   0.20357251  0.19979204  0.49612392
   0.85736024  0.53033277  0.56212710
   0.71007575  0.58856675  0.68978274
   0.68625623  0.46282033  0.62753917
   0.87534985  0.64978210  0.64134045
   0.51850764  0.40499683  0.67574709
Direct configuration=     6
   0.00361080  0.99992232  0.49591896
   0.40359321  0.79985221  0.49628791
   0.53688960  0.86649231  0.49604954
   0.60356795  0.99979594  0.49620803
   0.73685442  0.06636630  0.49641238
   0.60337196  0.19962597  0.49626362
   0.73654526  0.26586161  0.49674921
   0.60293402  0.39949233  0.49560522
   0.73639349  0.46621808  0.49570318
   0.60334848  0.59982321  0.49544099
   0.73657802  0.66678625  0.49547539
   0.40356381  0.59983148  0.49616764
   0.60354608  0.79986948  0.49578672
   0.80360299  0.99985982  0.49609898
   0.93688046  0.06644644  0.49621147
   0.80347988  0.19959383  0.49686139
   0.93688859  0.26629087  0.49710164
   0.80327369  0.39930788  0.49660889
   0.93710253  0.46628090  0.49726536
   0.80330827  0.60004328  0.49563452
   0.93713391  0.66698762  0.49624852
   0.80354554  0.80003453  0.49557610
   0.93694666  0.86666988  0.49574550
   0.73685799  0.86659367  0.49572118
   0.53667004  0.46640907  0.49548867
   0.53680910  0.66654024  0.49571985
   0.53668770  0.26631221  0.49588726
   0.13689332  0.06649708  0.49598531
   0.00357513  0.19970963  0.49667528
   0.13692004  0.26644716  0.49658433
   0.00384536  0.39952915  0.49748220
   0.13710341  0.46649021  0.49722719
   0.00399720  0.60009491  0.49702497
   0.13741632  0.66677196  0.49705453
   0.00386047  0.80041253  0.49608586
   0.13702823  0.86665348  0.49618302
   0.40344535  0.39976478  0.49587131
   0.33688028  0.06643736  0.49599888
   0.20358996  0.99989462  0.49598876
   0.33687967  0.26647415  0.49592938
   0.20366903  0.39978392  0.49677631
   0.33693058  0.46653220  0.49628086
   0.20377903  0.59989058  0.49702072
   0.33700991  0.66655930  0.49650977
   0.20371327  0.79997018  0.49649472
   0.33695874  0.86652571  0.49629457
   0.40355980  0.99980768  0.49612487
   0.53685789  0.06638493  0.49621001
   0.40344926  0.19973447  0.49588495
   0.20356838  0.19980073  0.49613596
   0.85740404  0.53047167  0.56211418
   0.71013135  0.58861220  0.68974856
   0.68624046  0.46275831  0.62753273
   0.87542211  0.64974572  0.64132408
   0.51855040  0.40497563  0.67576193
Direct configuration=     7
   0.00361535  0.99994371  0.49594358
   0.40357973  0.79984865  0.49630782
   0.53687204  0.86649391  0.49605781
   0.60358085  0.99980950  0.49620471
   0.73685596  0.06637685  0.49640249
   0.60338181  0.19961695  0.49623981
   0.73651752  0.26585025  0.49674253
   0.60291022  0.39947740  0.49559075
   0.73642573  0.46623376  0.49571034
   0.60333806  0.59983696  0.49544596
   0.73657220  0.66680634  0.49548056
   0.40352331  0.59980534  0.49615825
   0.60352959  0.79986343  0.49579289
   0.80357999  0.99983437  0.49610126
   0.93687386  0.06643489  0.49623229
   0.80345835  0.19956547  0.49685076
   0.93689082  0.26629485  0.49707340
   0.80327024  0.39931540  0.49661570
   0.93709223  0.46628831  0.49726635
   0.80328692  0.60003863  0.49565199
   0.93713132  0.66699794  0.49627332
   0.80350190  0.80002027  0.49557891
   0.93694992  0.86667064  0.49574489
   0.73686401  0.86660769  0.49572187
   0.53666026  0.46641123  0.49548894
   0.53678267  0.66653829  0.49573273
   0.53665540  0.26630152  0.49585676
   0.13691960  0.06651699  0.49601676
   0.00354543  0.19968695  0.49665722
   0.13690752  0.26643014  0.49658964
   0.00384574  0.39950216  0.49747183
   0.13711851  0.46650718  0.49721211
   0.00397547  0.60007568  0.49703486
   0.13743677  0.66678425  0.49707633
   0.00382389  0.80039716  0.49609069
   0.13705737  0.86666893  0.49618598
   0.40339669  0.39973874  0.49590184
   0.33684327  0.06639442  0.49598988
   0.20360490  0.99990666  0.49600092
   0.33688741  0.26646202  0.49593737
   0.20365498  0.39979181  0.49675771
   0.33691023  0.46653235  0.49628918
   0.20378660  0.59988118  0.49701828
   0.33701265  0.66657145  0.49649767
   0.20370697  0.79996246  0.49650213
   0.33694021  0.86653520  0.49631997
   0.40353567  0.99977599  0.49614696
   0.53685538  0.06638357  0.49620609
   0.40342396  0.19971322  0.49585699
   0.20355866  0.19982115  0.49616426
   0.85750699  0.53079815  0.56208380
   0.71026204  0.58871901  0.68966823
   0.68620339  0.46261252  0.62751759
   0.87559195  0.64966022  0.64128560
   0.51865089  0.40492580  0.67579682
Direct configuration=     8
   0.00361725  0.99994196  0.49595048
   0.40357844  0.79985455  0.49631175
   0.53687139  0.86649595  0.49606075
   0.60357600  0.99980812  0.49620398
   0.73685433  0.06637398  0.49640012
   0.60337237  0.19961028  0.49623386
   0.73652139  0.26585386  0.49674036
   0.60291236  0.39947718  0.49558713
   0.73642135  0.46623717  0.49571187
   0.60333872  0.59984107  0.49544773
   0.73656898  0.66680558  0.49548225
   0.40351816  0.59980430  0.49615677
   0.60352697  0.79986355  0.49579467
   0.80357717  0.99983057  0.49610214
   0.93686871  0.06643592  0.49623582
   0.80346246  0.19956991  0.49684724
   0.93688795  0.26629302  0.49706641
   0.80326925  0.39931558  0.49661690
   0.93709131  0.46628187  0.49726707
   0.80328498  0.60004382  0.49565644
   0.93712123  0.66699005  0.49627815
   0.80349743  0.80001828  0.49557921
   0.93693909  0.86667008  0.49574587
   0.73685702  0.86660207  0.49572276
   0.53665782  0.46641597  0.49549042
   0.53678195  0.66653893  0.49573513
   0.53665009  0.26629592  0.49584832
   0.13692304  0.06652026  0.49602457
   0.00354675  0.19968888  0.49665467
   0.13690130  0.26643195  0.49658972
   0.00384588  0.39950469  0.49746802
   0.13711443  0.46650368  0.49720760
   0.00397411  0.60007640  0.49703912
   0.13743518  0.66678045  0.49707988
   0.00382326  0.80039614  0.49609287
   0.13705472  0.86666936  0.49618715
   0.40339356  0.39973716  0.49590715
   0.33684582  0.06639264  0.49598877
   0.20360862  0.99990841  0.49600387
   0.33687722  0.26645549  0.49594042
   0.20364848  0.39978697  0.49675423
   0.33690221  0.46652665  0.49629117
   0.20378236  0.59987952  0.49701803
   0.33700915  0.66656887  0.49649566
   0.20370857  0.79996637  0.49650587
   0.33693973  0.86653334  0.49632696
   0.40353318  0.99977751  0.49615060
   0.53684633  0.06637932  0.49620556
   0.40341799  0.19970508  0.49585034
   0.20355936  0.19982157  0.49617174
   0.85753556  0.53088872  0.56207539
   0.71029741  0.58874824  0.68964608
   0.68620197  0.46257737  0.62751269
   0.87563007  0.64962780  0.64127468
   0.51868298  0.40491555  0.67580693
Direct configuration=     9
   0.00362295  0.99993672  0.49597120
   0.40357458  0.79987222  0.49632353
   0.53686946  0.86650208  0.49606958
   0.60356144  0.99980398  0.49620176
   0.73684945  0.06636537  0.49639301
   0.60334402  0.19959027  0.49621602
   0.73653303  0.26586467  0.49673385
   0.60291881  0.39947652  0.49557628
   0.73640823  0.46624742  0.49571648
   0.60334068  0.59985338  0.49545305
   0.73655931  0.66680329  0.49548733
   0.40350273  0.59980117  0.49615234
   0.60351911  0.79986390  0.49580000
   0.80356871  0.99981919  0.49610480
   0.93685325  0.06643902  0.49624639
   0.80347479  0.19958323  0.49683667
   0.93687936  0.26628752  0.49704541
   0.80326629  0.39931611  0.49662049
   0.93708854  0.46626253  0.49726921
   0.80327917  0.60005938  0.49566980
   0.93709093  0.66696638  0.49629266
   0.80348403  0.80001228  0.49558012
   0.93690661  0.86666839  0.49574881
   0.73683606  0.86658521  0.49572544
   0.53665051  0.46643021  0.49549485
   0.53677977  0.66654084  0.49574235
   0.53663415  0.26627913  0.49582301
   0.13693336  0.06653007  0.49604799
   0.00355072  0.19969467  0.49664703
   0.13688262  0.26643738  0.49658995
   0.00384630  0.39951227  0.49745659
   0.13710218  0.46649319  0.49719409
   0.00397002  0.60007856  0.49705191
   0.13743039  0.66676904  0.49709055
   0.00382136  0.80039310  0.49609941
   0.13704677  0.86667067  0.49619067
   0.40338418  0.39973243  0.49592309
   0.33685347  0.06638732  0.49598544
   0.20361975  0.99991367  0.49601273
   0.33684664  0.26643588  0.49594956
   0.20362899  0.39977244  0.49674377
   0.33687818  0.46650954  0.49629712
   0.20376962  0.59987454  0.49701730
   0.33699864  0.66656112  0.49648962
   0.20371337  0.79997811  0.49651710
   0.33693829  0.86652777  0.49634794
   0.40352572  0.99978206  0.49616152
   0.53681916  0.06636656  0.49620396
   0.40340010  0.19968067  0.49583038
   0.20356144  0.19982284  0.49619418
   0.85762129  0.53116045  0.56205018
   0.71040353  0.58883593  0.68957963
   0.68619772  0.46247192  0.62749798
   0.87574441  0.64953054  0.64124194
   0.51877925  0.40488478  0.67583727
Direct configuration=    10
   0.00363433  0.99992623  0.49601264
   0.40356684  0.79990757  0.49634710
   0.53686560  0.86651432  0.49608723
   0.60353233  0.99979569  0.49619734
   0.73683969  0.06634814  0.49637880
   0.60328734  0.19955026  0.49618035
   0.73655629  0.26588629  0.49672083
   0.60293170  0.39947519  0.49555458
   0.73638199  0.46626790  0.49572571
   0.60334460  0.59987801  0.49546368
   0.73653998  0.66679872  0.49549749
   0.40347186  0.59979492  0.49614348
   0.60350340  0.79986461  0.49581066
   0.80355178  0.99979643  0.49611010
   0.93682232  0.06644523  0.49626753
   0.80349945  0.19960988  0.49681554
   0.93686216  0.26627654  0.49700342
   0.80326036  0.39931717  0.49662768
   0.93708301  0.46622385  0.49727351
   0.80326755  0.60009051  0.49569652
   0.93703034  0.66691903  0.49632167
   0.80345722  0.80000029  0.49558192
   0.93684166  0.86666501  0.49575469
   0.73679412  0.86655148  0.49573078
   0.53663588  0.46645869  0.49550372
   0.53677540  0.66654467  0.49575678
   0.53660227  0.26624556  0.49577239
   0.13695398  0.06654969  0.49609484
   0.00355867  0.19970625  0.49663173
   0.13684525  0.26644824  0.49659040
   0.00384714  0.39952743  0.49743374
   0.13707767  0.46647220  0.49716707
   0.00396184  0.60008288  0.49707749
   0.13742083  0.66674622  0.49711187
   0.00381757  0.80038701  0.49611249
   0.13703087  0.86667329  0.49619769
   0.40336541  0.39972297  0.49595497
   0.33686877  0.06637667  0.49597877
   0.20364203  0.99992419  0.49603046
   0.33678547  0.26639666  0.49596785
   0.20358999  0.39974340  0.49672286
   0.33683010  0.46647532  0.49630903
   0.20374415  0.59986460  0.49701584
   0.33697762  0.66654564  0.49647756
   0.20372297  0.80000159  0.49653957
   0.33693541  0.86651661  0.49638988
   0.40351080  0.99979117  0.49618336
   0.53676483  0.06634103  0.49620076
   0.40336433  0.19963184  0.49579048
   0.20356562  0.19982537  0.49623906
   0.85779276  0.53170391  0.56199975
   0.71061577  0.58901132  0.68944673
   0.68618923  0.46226100  0.62746858
   0.87597310  0.64933601  0.64117646
   0.51897178  0.40482325  0.67589793
Direct configuration=    11
   0.00363052  0.99992974  0.49599876
   0.40356943  0.79989574  0.49633921
   0.53686690  0.86651022  0.49608132
   0.60354207  0.99979847  0.49619882
   0.73684296  0.06635391  0.49638356
   0.60330631  0.19956365  0.49619230
   0.73654850  0.26587905  0.49672518
   0.60292738  0.39947563  0.49556184
   0.73639077  0.46626104  0.49572262
   0.60334329  0.59986976  0.49546012
   0.73654645  0.66680025  0.49549409
   0.40348219  0.59979701  0.49614645
   0.60350866  0.79986438  0.49580709
   0.80355744  0.99980405  0.49610833
   0.93683268  0.06644315  0.49626045
   0.80349119  0.19960096  0.49682261
   0.93686792  0.26628021  0.49701748
   0.80326235  0.39931681  0.49662528
   0.93708486  0.46623680  0.49727207
   0.80327144  0.60008009  0.49568757
   0.93705063  0.66693488  0.49631196
   0.80346619  0.80000430  0.49558132
   0.93686340  0.86666614  0.49575272
   0.73680816  0.86656277  0.49572899
   0.53664078  0.46644916  0.49550075
   0.53677686  0.66654339  0.49575195
   0.53661295  0.26625680  0.49578934
   0.13694708  0.06654312  0.49607916
   0.00355601  0.19970237  0.49663685
   0.13685776  0.26644461  0.49659025
   0.00384686  0.39952235  0.49744139
   0.13708588  0.46647923  0.49717612
   0.00396458  0.60008143  0.49706893
   0.13742403  0.66675386  0.49710473
   0.00381884  0.80038905  0.49610811
   0.13703619  0.86667242  0.49619534
   0.40337169  0.39972614  0.49594430
   0.33686365  0.06638023  0.49598100
   0.20363457  0.99992067  0.49602453
   0.33680594  0.26640979  0.49596173
   0.20360305  0.39975312  0.49672986
   0.33684620  0.46648678  0.49630504
   0.20375268  0.59986793  0.49701633
   0.33698466  0.66655082  0.49648160
   0.20371975  0.79999373  0.49653205
   0.33693637  0.86652035  0.49637584
   0.40351580  0.99978812  0.49617605
   0.53678302  0.06634958  0.49620183
   0.40337630  0.19964819  0.49580384
   0.20356422  0.19982452  0.49622403
   0.85773535  0.53152197  0.56201663
   0.71054472  0.58895260  0.68949122
   0.68619207  0.46233161  0.62747842
   0.87589653  0.64940114  0.64119839
   0.51890732  0.40484385  0.67587762
Direct configuration=    12
   0.00361543  0.99992595  0.49601210
   0.40357128  0.79988636  0.49634458
   0.53686441  0.86651382  0.49608819
   0.60352930  0.99979339  0.49619850
   0.73683068  0.06634924  0.49637940
   0.60330267  0.19956523  0.49618193
   0.73654116  0.26587879  0.49671783
   0.60291663  0.39948256  0.49555570
   0.73637135  0.46625689  0.49572483
   0.60333692  0.59986485  0.49546524
   0.73654285  0.66679799  0.49549867
   0.40348978  0.59979828  0.49614747
   0.60349896  0.79986247  0.49581157
   0.80355163  0.99980546  0.49611040
   0.93683973  0.06644170  0.49626216
   0.80349520  0.19960640  0.49681256
   0.93687650  0.26628929  0.49700582
   0.80325692  0.39931969  0.49662535
   0.93708618  0.46623984  0.49727485
   0.80325403  0.60007492  0.49569466
   0.93705363  0.66693830  0.49631779
   0.80345977  0.80000334  0.49558182
   0.93686620  0.86666300  0.49576026
   0.73679019  0.86654619  0.49573288
   0.53664090  0.46644394  0.49550681
   0.53677347  0.66654504  0.49575338
   0.53661776  0.26625538  0.49577183
   0.13693814  0.06652663  0.49609440
   0.00355008  0.19971046  0.49663702
   0.13685862  0.26644382  0.49658822
   0.00383499  0.39952109  0.49742957
   0.13706663  0.46646910  0.49716594
   0.00395809  0.60006834  0.49708093
   0.13740493  0.66675994  0.49710664
   0.00380708  0.80038791  0.49611501
   0.13701553  0.86666767  0.49620115
   0.40338156  0.39973155  0.49594650
   0.33687659  0.06639622  0.49598236
   0.20362543  0.99991536  0.49603026
   0.33680200  0.26640754  0.49596978
   0.20358706  0.39974115  0.49672678
   0.33684059  0.46647726  0.49630764
   0.20373721  0.59985730  0.49701548
   0.33697216  0.66655478  0.49648212
   0.20371356  0.79998560  0.49654524
   0.33693883  0.86652699  0.49639024
   0.40351732  0.99978860  0.49617695
   0.53676598  0.06634021  0.49620049
   0.40337426  0.19965356  0.49579450
   0.20354099  0.19981641  0.49623806
   0.85779893  0.53171922  0.56199879
   0.71061669  0.58901444  0.68944446
   0.68621958  0.46227112  0.62746497
   0.87595151  0.64930118  0.64117250
   0.51899558  0.40483617  0.67590076
Direct configuration=    13
   0.00357735  0.99991640  0.49604576
   0.40357594  0.79986269  0.49635812
   0.53685815  0.86652288  0.49610554
   0.60349709  0.99978059  0.49619769
   0.73679971  0.06633748  0.49636890
   0.60329348  0.19956922  0.49615578
   0.73652262  0.26587811  0.49669927
   0.60288952  0.39950006  0.49554021
   0.73632235  0.46624642  0.49573041
   0.60332086  0.59985245  0.49547816
   0.73653375  0.66679230  0.49551023
   0.40350892  0.59980149  0.49615006
   0.60347448  0.79985765  0.49582289
   0.80353697  0.99980904  0.49611562
   0.93685753  0.06643806  0.49626648
   0.80350533  0.19962012  0.49678720
   0.93689816  0.26631218  0.49697642
   0.80324323  0.39932695  0.49662554
   0.93708949  0.46624752  0.49728187
   0.80321009  0.60006187  0.49571254
   0.93706120  0.66694693  0.49633250
   0.80344358  0.80000092  0.49558307
   0.93687326  0.86665507  0.49577930
   0.73674487  0.86650436  0.49574267
   0.53664121  0.46643077  0.49552209
   0.53676491  0.66654921  0.49575700
   0.53662992  0.26625178  0.49572766
   0.13691559  0.06648501  0.49613287
   0.00353511  0.19973087  0.49663743
   0.13686078  0.26644185  0.49658310
   0.00380504  0.39951791  0.49739974
   0.13701806  0.46644354  0.49714027
   0.00394173  0.60003530  0.49711122
   0.13735674  0.66677529  0.49711146
   0.00377740  0.80038505  0.49613241
   0.13696340  0.86665569  0.49621581
   0.40340645  0.39974522  0.49595206
   0.33690924  0.06643655  0.49598576
   0.20360236  0.99990198  0.49604472
   0.33679205  0.26640186  0.49599010
   0.20354673  0.39971095  0.49671900
   0.33682643  0.46645324  0.49631418
   0.20369816  0.59983050  0.49701335
   0.33694061  0.66656476  0.49648344
   0.20369793  0.79996509  0.49657850
   0.33694503  0.86654374  0.49642660
   0.40352115  0.99978979  0.49617920
   0.53672297  0.06631656  0.49619711
   0.40336911  0.19966713  0.49577093
   0.20348237  0.19979594  0.49627343
   0.85795932  0.53221686  0.56195380
   0.71079826  0.58917047  0.68932649
   0.68628899  0.46211849  0.62743104
   0.87609023  0.64904900  0.64110720
   0.51921826  0.40481679  0.67595915
Direct configuration=    14
   0.00356664  0.99990339  0.49605872
   0.40356773  0.79985717  0.49636357
   0.53685097  0.86651222  0.49611242
   0.60348601  0.99978100  0.49619916
   0.73679492  0.06634690  0.49636497
   0.60329985  0.19957154  0.49614525
   0.73651747  0.26587728  0.49668811
   0.60287295  0.39948787  0.49553570
   0.73631117  0.46623954  0.49573184
   0.60331365  0.59984255  0.49548508
   0.73652140  0.66679153  0.49551622
   0.40349863  0.59979659  0.49615476
   0.60346234  0.79985363  0.49582867
   0.80352846  0.99980390  0.49611738
   0.93684993  0.06644337  0.49626563
   0.80349200  0.19961377  0.49677424
   0.93689259  0.26631765  0.49696691
   0.80322904  0.39933046  0.49662334
   0.93706825  0.46624755  0.49728483
   0.80320691  0.60004936  0.49571754
   0.93705452  0.66694363  0.49633687
   0.80344505  0.79999812  0.49558544
   0.93686429  0.86665068  0.49579206
   0.73674571  0.86651412  0.49574826
   0.53664063  0.46643036  0.49552933
   0.53676012  0.66654351  0.49575650
   0.53663733  0.26627265  0.49571066
   0.13688394  0.06646637  0.49614827
   0.00353441  0.19972870  0.49663959
   0.13684695  0.26642936  0.49658226
   0.00379028  0.39951522  0.49738443
   0.13700384  0.46643731  0.49712938
   0.00392701  0.60003679  0.49712318
   0.13734577  0.66676912  0.49711181
   0.00376464  0.80037902  0.49614202
   0.13695777  0.86664906  0.49622737
   0.40340134  0.39973516  0.49594880
   0.33689624  0.06644022  0.49598866
   0.20359750  0.99989578  0.49605270
   0.33678971  0.26641252  0.49599864
   0.20354813  0.39971499  0.49671822
   0.33683420  0.46646000  0.49631481
   0.20367552  0.59983160  0.49701106
   0.33692910  0.66654864  0.49648876
   0.20368053  0.79996825  0.49659566
   0.33693907  0.86653427  0.49643952
   0.40351358  0.99979051  0.49617637
   0.53673396  0.06632624  0.49619391
   0.40338474  0.19969182  0.49576680
   0.20347263  0.19977923  0.49628642
   0.85803642  0.53244657  0.56193304
   0.71087809  0.58924214  0.68927459
   0.68634153  0.46205522  0.62741368
   0.87613701  0.64891145  0.64107414
   0.51934098  0.40482205  0.67598582
Direct configuration=    15
   0.00354436  0.99987629  0.49608570
   0.40355062  0.79984569  0.49637491
   0.53683600  0.86649002  0.49612674
   0.60346293  0.99978186  0.49620222
   0.73678495  0.06636653  0.49635679
   0.60331311  0.19957636  0.49612333
   0.73650676  0.26587556  0.49666488
   0.60283847  0.39946249  0.49552630
   0.73628790  0.46622523  0.49573482
   0.60329865  0.59982191  0.49549948
   0.73649568  0.66678993  0.49552869
   0.40347720  0.59978638  0.49616455
   0.60343707  0.79984526  0.49584070
   0.80351075  0.99979321  0.49612106
   0.93683410  0.06645443  0.49626386
   0.80346425  0.19960054  0.49674726
   0.93688098  0.26632905  0.49694709
   0.80319950  0.39933778  0.49661877
   0.93702402  0.46624762  0.49729098
   0.80320030  0.60002330  0.49572796
   0.93704061  0.66693676  0.49634598
   0.80344812  0.79999231  0.49559039
   0.93684562  0.86664156  0.49581861
   0.73674747  0.86653445  0.49575991
   0.53663942  0.46642950  0.49554439
   0.53675014  0.66653162  0.49575546
   0.53665277  0.26631609  0.49567525
   0.13681805  0.06642758  0.49618034
   0.00353295  0.19972416  0.49664408
   0.13681814  0.26640335  0.49658051
   0.00375954  0.39950962  0.49735256
   0.13697423  0.46642433  0.49710671
   0.00389635  0.60003989  0.49714808
   0.13732295  0.66675629  0.49711253
   0.00373808  0.80036647  0.49616203
   0.13694603  0.86663526  0.49625144
   0.40339070  0.39971420  0.49594203
   0.33686918  0.06644787  0.49599469
   0.20358739  0.99988285  0.49606930
   0.33678483  0.26643471  0.49601642
   0.20355105  0.39972342  0.49671658
   0.33685037  0.46647406  0.49631611
   0.20362836  0.59983388  0.49700629
   0.33690513  0.66651507  0.49649985
   0.20364430  0.79997484  0.49663139
   0.33692665  0.86651455  0.49646644
   0.40349779  0.99979202  0.49617048
   0.53675685  0.06634640  0.49618722
   0.40341727  0.19974324  0.49575821
   0.20345234  0.19974443  0.49631347
   0.85819696  0.53292486  0.56188982
   0.71104430  0.58939138  0.68916653
   0.68645093  0.46192347  0.62737752
   0.87623442  0.64862505  0.64100530
   0.51959650  0.40483299  0.67604136
Direct configuration=    16
   0.00352111  0.99987301  0.49609020
   0.40352733  0.79983034  0.49638088
   0.53681772  0.86648125  0.49612952
   0.60347835  0.99978299  0.49620598
   0.73677789  0.06635918  0.49635478
   0.60332006  0.19959225  0.49611503
   0.73651024  0.26588240  0.49665303
   0.60285847  0.39947417  0.49552712
   0.73628885  0.46621887  0.49573403
   0.60329380  0.59982562  0.49550520
   0.73649831  0.66677853  0.49553316
   0.40346241  0.59978075  0.49617075
   0.60345079  0.79983955  0.49584486
   0.80350933  0.99980883  0.49612080
   0.93680781  0.06644221  0.49626369
   0.80345801  0.19960757  0.49673821
   0.93684807  0.26630575  0.49694408
   0.80318122  0.39932439  0.49661398
   0.93699320  0.46624529  0.49729013
   0.80319707  0.60002590  0.49572615
   0.93701592  0.66692964  0.49634850
   0.80343355  0.79999139  0.49559739
   0.93682727  0.86662631  0.49583120
   0.73675967  0.86654705  0.49576483
   0.53661969  0.46641602  0.49554561
   0.53673952  0.66652033  0.49575618
   0.53664398  0.26630409  0.49567170
   0.13682023  0.06642932  0.49618778
   0.00351924  0.19971386  0.49664428
   0.13682362  0.26640281  0.49658592
   0.00374508  0.39951228  0.49734301
   0.13698124  0.46643689  0.49710106
   0.00388841  0.60004996  0.49714810
   0.13731718  0.66675383  0.49711594
   0.00374197  0.80036463  0.49617185
   0.13695100  0.86663836  0.49626843
   0.40337767  0.39972667  0.49593667
   0.33685358  0.06644660  0.49599672
   0.20357038  0.99988245  0.49608027
   0.33677467  0.26642268  0.49601793
   0.20356610  0.39973547  0.49671721
   0.33684738  0.46647508  0.49631375
   0.20363418  0.59983321  0.49700269
   0.33689090  0.66650174  0.49650983
   0.20364439  0.79997210  0.49664291
   0.33690359  0.86650975  0.49646735
   0.40348876  0.99979490  0.49616695
   0.53676020  0.06636075  0.49618061
   0.40341554  0.19974924  0.49576531
   0.20346336  0.19973955  0.49631684
   0.85826222  0.53309475  0.56187363
   0.71110208  0.58944693  0.68913176
   0.68650102  0.46186908  0.62736446
   0.87626564  0.64850934  0.64097582
   0.51971416  0.40485205  0.67605928
Direct configuration=    17
   0.00349099  0.99986875  0.49609604
   0.40349715  0.79981045  0.49638861
   0.53679402  0.86646989  0.49613311
   0.60349832  0.99978445  0.49621085
   0.73676873  0.06634965  0.49635216
   0.60332905  0.19961284  0.49610428
   0.73651474  0.26589127  0.49663768
   0.60288438  0.39948930  0.49552819
   0.73629009  0.46621063  0.49573299
   0.60328751  0.59983043  0.49551261
   0.73650172  0.66676375  0.49553896
   0.40344324  0.59977345  0.49617877
   0.60346857  0.79983216  0.49585025
   0.80350748  0.99982907  0.49612046
   0.93677373  0.06642636  0.49626346
   0.80344992  0.19961667  0.49672648
   0.93680541  0.26627555  0.49694018
   0.80315753  0.39930704  0.49660777
   0.93695327  0.46624226  0.49728903
   0.80319288  0.60002926  0.49572379
   0.93698392  0.66692042  0.49635177
   0.80341467  0.79999019  0.49560645
   0.93680350  0.86660655  0.49584751
   0.73677548  0.86656338  0.49577121
   0.53659411  0.46639855  0.49554719
   0.53672576  0.66650571  0.49575712
   0.53663259  0.26628854  0.49566710
   0.13682305  0.06643159  0.49619742
   0.00350148  0.19970051  0.49664455
   0.13683073  0.26640212  0.49659294
   0.00372634  0.39951572  0.49733064
   0.13699032  0.46645315  0.49709375
   0.00387813  0.60006301  0.49714813
   0.13730970  0.66675065  0.49712036
   0.00374701  0.80036226  0.49618457
   0.13695743  0.86664238  0.49629045
   0.40336079  0.39974281  0.49592974
   0.33683338  0.06644497  0.49599935
   0.20354834  0.99988194  0.49609449
   0.33676150  0.26640709  0.49601988
   0.20358560  0.39975110  0.49671803
   0.33684351  0.46647641  0.49631070
   0.20364172  0.59983234  0.49699803
   0.33687247  0.66648448  0.49652278
   0.20364451  0.79996856  0.49665784
   0.33687371  0.86650353  0.49646853
   0.40347705  0.99979863  0.49616238
   0.53676454  0.06637934  0.49617204
   0.40341329  0.19975702  0.49577452
   0.20347763  0.19973323  0.49632121
   0.85834679  0.53331489  0.56185265
   0.71117696  0.58951890  0.68908671
   0.68656594  0.46179860  0.62734753
   0.87630611  0.64835941  0.64093761
   0.51986663  0.40487674  0.67608251
Direct configuration=    18
   0.00347479  0.99986629  0.49609651
   0.40347184  0.79980452  0.49639622
   0.53678845  0.86645601  0.49613481
   0.60348190  0.99977316  0.49621423
   0.73677218  0.06635647  0.49635107
   0.60331997  0.19961452  0.49609406
   0.73650991  0.26589571  0.49662229
   0.60287978  0.39948545  0.49553257
   0.73629887  0.46621952  0.49572903
   0.60327679  0.59981214  0.49551754
   0.73648870  0.66676137  0.49554329
   0.40343893  0.59977371  0.49618677
   0.60346908  0.79983199  0.49585383
   0.80349286  0.99983452  0.49611891
   0.93676541  0.06642633  0.49626371
   0.80342210  0.19960091  0.49671837
   0.93679972  0.26627583  0.49693953
   0.80314972  0.39929702  0.49659959
   0.93695139  0.46624633  0.49728177
   0.80317638  0.60002049  0.49571663
   0.93698436  0.66693813  0.49635273
   0.80340163  0.79997391  0.49562045
   0.93679882  0.86660740  0.49586188
   0.73677181  0.86656737  0.49577717
   0.53659064  0.46640237  0.49554355
   0.53671923  0.66650661  0.49576227
   0.53663625  0.26629323  0.49567620
   0.13680738  0.06643524  0.49620005
   0.00348912  0.19969479  0.49664329
   0.13683980  0.26641325  0.49660331
   0.00371064  0.39951502  0.49732705
   0.13698362  0.46644942  0.49709056
   0.00386117  0.60005921  0.49713783
   0.13730549  0.66674744  0.49712761
   0.00374685  0.80036405  0.49619997
   0.13695067  0.86663973  0.49631635
   0.40334196  0.39972787  0.49592261
   0.33682426  0.06644807  0.49600288
   0.20353379  0.99988271  0.49611207
   0.33677240  0.26641840  0.49601620
   0.20357059  0.39974123  0.49671923
   0.33683232  0.46648687  0.49630586
   0.20364069  0.59982856  0.49699471
   0.33687161  0.66648889  0.49653713
   0.20363715  0.79995841  0.49666633
   0.33686822  0.86650913  0.49646063
   0.40347201  0.99980583  0.49615816
   0.53676082  0.06637858  0.49616208
   0.40338311  0.19972498  0.49579020
   0.20347649  0.19973775  0.49631815
   0.85842641  0.53348638  0.56183420
   0.71124488  0.58958301  0.68905440
   0.68661820  0.46172645  0.62733691
   0.87634950  0.64823843  0.64090229
   0.52001275  0.40490692  0.67609830
Direct configuration=    19
   0.00345462  0.99986323  0.49609710
   0.40344033  0.79979714  0.49640569
   0.53678152  0.86643874  0.49613693
   0.60346146  0.99975911  0.49621845
   0.73677648  0.06636497  0.49634970
   0.60330867  0.19961662  0.49608135
   0.73650391  0.26590124  0.49660314
   0.60287405  0.39948065  0.49553803
   0.73630981  0.46623057  0.49572409
   0.60326345  0.59978937  0.49552368
   0.73647250  0.66675842  0.49554867
   0.40343358  0.59977404  0.49619673
   0.60346973  0.79983179  0.49585829
   0.80347467  0.99984129  0.49611697
   0.93675505  0.06642629  0.49626402
   0.80338747  0.19958130  0.49670829
   0.93679265  0.26627617  0.49693871
   0.80314000  0.39928456  0.49658940
   0.93694905  0.46625141  0.49727273
   0.80315584  0.60000958  0.49570771
   0.93698491  0.66696018  0.49635392
   0.80338540  0.79995364  0.49563787
   0.93679298  0.86660846  0.49587976
   0.73676724  0.86657233  0.49578460
   0.53658633  0.46640712  0.49553903
   0.53671110  0.66650774  0.49576867
   0.53664079  0.26629908  0.49568752
   0.13678787  0.06643979  0.49620331
   0.00347374  0.19968766  0.49664172
   0.13685109  0.26642710  0.49661622
   0.00369110  0.39951415  0.49732257
   0.13697527  0.46644476  0.49708660
   0.00384005  0.60005448  0.49712502
   0.13730025  0.66674345  0.49713663
   0.00374665  0.80036629  0.49621914
   0.13694226  0.86663643  0.49634859
   0.40331852  0.39970926  0.49591375
   0.33681291  0.06645192  0.49600726
   0.20351570  0.99988366  0.49613395
   0.33678597  0.26643248  0.49601162
   0.20355191  0.39972895  0.49672073
   0.33681840  0.46649989  0.49629984
   0.20363941  0.59982386  0.49699059
   0.33687054  0.66649438  0.49655500
   0.20362799  0.79994577  0.49667689
   0.33686140  0.86651610  0.49645081
   0.40346575  0.99981479  0.49615291
   0.53675619  0.06637762  0.49614968
   0.40334554  0.19968510  0.49580972
   0.20347507  0.19974338  0.49631434
   0.85852550  0.53369981  0.56181125
   0.71132943  0.58966280  0.68901420
   0.68668324  0.46163666  0.62732368
   0.87640350  0.64808787  0.64085833
   0.52019461  0.40494447  0.67611795
Direct configuration=    20
   0.00345074  0.99986383  0.49609670
   0.40345319  0.79981189  0.49641146
   0.53677031  0.86643479  0.49613927
   0.60343762  0.99974474  0.49621758
   0.73674534  0.06635827  0.49634866
   0.60329964  0.19960770  0.49607178
   0.73647718  0.26588547  0.49658746
   0.60285721  0.39947764  0.49554387
   0.73629875  0.46622453  0.49571691
   0.60324845  0.59978617  0.49552552
   0.73644477  0.66674569  0.49555307
   0.40344283  0.59979045  0.49620483
   0.60345197  0.79982850  0.49586192
   0.80346948  0.99983073  0.49611591
   0.93675302  0.06643387  0.49626334
   0.80338933  0.19958592  0.49670218
   0.93678703  0.26628266  0.49693830
   0.80315717  0.39930135  0.49657820
   0.93695234  0.46624950  0.49725907
   0.80315673  0.60002138  0.49569846
   0.93698371  0.66696228  0.49635207
   0.80338826  0.79995657  0.49565506
   0.93678992  0.86661211  0.49589353
   0.73675221  0.86656239  0.49579090
   0.53657849  0.46639432  0.49553343
   0.53671381  0.66650573  0.49577726
   0.53661624  0.26629152  0.49570410
   0.13676778  0.06644140  0.49620324
   0.00348460  0.19970334  0.49664178
   0.13682954  0.26641593  0.49662475
   0.00369603  0.39951385  0.49732348
   0.13694708  0.46642552  0.49708584
   0.00383788  0.60005532  0.49711179
   0.13728880  0.66673225  0.49714247
   0.00373898  0.80037993  0.49623857
   0.13693361  0.86663486  0.49637633
   0.40332590  0.39971860  0.49590635
   0.33679058  0.06643168  0.49601494
   0.20350352  0.99988078  0.49615422
   0.33677594  0.26642160  0.49600636
   0.20353132  0.39972944  0.49672267
   0.33680059  0.46648876  0.49629492
   0.20362647  0.59981745  0.49699182
   0.33686522  0.66650087  0.49656844
   0.20361733  0.79994590  0.49668328
   0.33686383  0.86652635  0.49644123
   0.40346456  0.99981634  0.49614744
   0.53673714  0.06636083  0.49614030
   0.40335236  0.19969184  0.49582630
   0.20346847  0.19976015  0.49630817
   0.85861180  0.53385488  0.56179166
   0.71141259  0.58973245  0.68898397
   0.68672958  0.46155567  0.62731800
   0.87646093  0.64798229  0.64082278
   0.52033525  0.40496966  0.67613139
