  49  49   0   0
  0.8021693E+02  0.1230000E-08  0.1230000E-08  0.3000000E-08  0.5000000E-15
  1.000000000000000E-004
  CAR 
 Li defective graphene MACE training lab 
      4.83103740    -54.26452987  301     -3.11272376      1.00000000
    -54.265  0.0000E+00  0.0000E+00  0.0000E+00  0.0000E+00
    -54.068  0.0000E+00  0.0000E+00  0.0000E+00  0.0000E+00
    -53.871  0.0000E+00  0.0000E+00  0.0000E+00  0.0000E+00
    -53.674  0.0000E+00  0.0000E+00  0.0000E+00  0.0000E+00
    -53.477  0.0000E+00  0.0000E+00  0.0000E+00  0.0000E+00
    -53.280  0.0000E+00  0.0000E+00  0.0000E+00  0.0000E+00
    -53.083  0.0000E+00  0.0000E+00  0.0000E+00  0.0000E+00
    -52.886  0.0000E+00  0.0000E+00  0.0000E+00  0.0000E+00
    -52.689  0.0000E+00  0.0000E+00  0.0000E+00  0.0000E+00
    -52.492  0.0000E+00  0.0000E+00  0.0000E+00  0.0000E+00
    -52.295  0.0000E+00  0.0000E+00  0.0000E+00  0.0000E+00
    -52.098  0.0000E+00  0.0000E+00  0.0000E+00  0.0000E+00
    -51.901  0.0000E+00  0.0000E+00  0.0000E+00  0.0000E+00
    -51.704  0.9944E-03  0.9943E-03  0.1959E-03  0.1959E-03
    -51.507  0.4967E+01  0.4967E+01  0.9786E+00  0.9786E+00
    -51.310  0.1085E+00  0.1086E+00  0.1000E+01  0.1000E+01
    -51.113  0.0000E+00  0.0000E+00  0.1000E+01  0.1000E+01
    -50.916  0.0000E+00  0.0000E+00  0.1000E+01  0.1000E+01
    -50.719  0.0000E+00  0.0000E+00  0.1000E+01  0.1000E+01
    -50.522  0.0000E+00  0.0000E+00  0.1000E+01  0.1000E+01
    -50.325  0.0000E+00  0.0000E+00  0.1000E+01  0.1000E+01
    -50.128  0.0000E+00  0.0000E+00  0.1000E+01  0.1000E+01
    -49.931  0.0000E+00  0.0000E+00  0.1000E+01  0.1000E+01
    -49.734  0.0000E+00  0.0000E+00  0.1000E+01  0.1000E+01
    -49.537  0.0000E+00  0.0000E+00  0.1000E+01  0.1000E+01
    -49.340  0.0000E+00  0.0000E+00  0.1000E+01  0.1000E+01
    -49.143  0.0000E+00  0.0000E+00  0.1000E+01  0.1000E+01
    -48.946  0.0000E+00  0.0000E+00  0.1000E+01  0.1000E+01
    -48.749  0.0000E+00  0.0000E+00  0.1000E+01  0.1000E+01
    -48.552  0.0000E+00  0.0000E+00  0.1000E+01  0.1000E+01
    -48.355  0.0000E+00  0.0000E+00  0.1000E+01  0.1000E+01
    -48.158  0.0000E+00  0.0000E+00  0.1000E+01  0.1000E+01
    -47.961  0.0000E+00  0.0000E+00  0.1000E+01  0.1000E+01
    -47.764  0.0000E+00  0.0000E+00  0.1000E+01  0.1000E+01
    -47.567  0.0000E+00  0.0000E+00  0.1000E+01  0.1000E+01
    -47.370  0.0000E+00  0.0000E+00  0.1000E+01  0.1000E+01
    -47.173  0.0000E+00  0.0000E+00  0.1000E+01  0.1000E+01
    -46.976  0.0000E+00  0.0000E+00  0.1000E+01  0.1000E+01
    -46.779  0.0000E+00  0.0000E+00  0.1000E+01  0.1000E+01
    -46.582  0.0000E+00  0.0000E+00  0.1000E+01  0.1000E+01
    -46.385  0.0000E+00  0.0000E+00  0.1000E+01  0.1000E+01
    -46.188  0.0000E+00  0.0000E+00  0.1000E+01  0.1000E+01
    -45.991  0.0000E+00  0.0000E+00  0.1000E+01  0.1000E+01
    -45.794  0.0000E+00  0.0000E+00  0.1000E+01  0.1000E+01
    -45.597  0.0000E+00  0.0000E+00  0.1000E+01  0.1000E+01
    -45.400  0.0000E+00  0.0000E+00  0.1000E+01  0.1000E+01
    -45.203  0.0000E+00  0.0000E+00  0.1000E+01  0.1000E+01
    -45.006  0.0000E+00  0.0000E+00  0.1000E+01  0.1000E+01
    -44.809  0.0000E+00  0.0000E+00  0.1000E+01  0.1000E+01
    -44.612  0.0000E+00  0.0000E+00  0.1000E+01  0.1000E+01
    -44.415  0.0000E+00  0.0000E+00  0.1000E+01  0.1000E+01
    -44.218  0.0000E+00  0.0000E+00  0.1000E+01  0.1000E+01
    -44.021  0.0000E+00  0.0000E+00  0.1000E+01  0.1000E+01
    -43.824  0.0000E+00  0.0000E+00  0.1000E+01  0.1000E+01
    -43.627  0.0000E+00  0.0000E+00  0.1000E+01  0.1000E+01
    -43.430  0.0000E+00  0.0000E+00  0.1000E+01  0.1000E+01
    -43.233  0.0000E+00  0.0000E+00  0.1000E+01  0.1000E+01
    -43.036  0.0000E+00  0.0000E+00  0.1000E+01  0.1000E+01
    -42.839  0.0000E+00  0.0000E+00  0.1000E+01  0.1000E+01
    -42.642  0.0000E+00  0.0000E+00  0.1000E+01  0.1000E+01
    -42.445  0.0000E+00  0.0000E+00  0.1000E+01  0.1000E+01
    -42.248  0.0000E+00  0.0000E+00  0.1000E+01  0.1000E+01
    -42.051  0.0000E+00  0.0000E+00  0.1000E+01  0.1000E+01
    -41.854  0.0000E+00  0.0000E+00  0.1000E+01  0.1000E+01
    -41.657  0.0000E+00  0.0000E+00  0.1000E+01  0.1000E+01
    -41.460  0.0000E+00  0.0000E+00  0.1000E+01  0.1000E+01
    -41.264  0.0000E+00  0.0000E+00  0.1000E+01  0.1000E+01
    -41.067  0.0000E+00  0.0000E+00  0.1000E+01  0.1000E+01
    -40.870  0.0000E+00  0.0000E+00  0.1000E+01  0.1000E+01
    -40.673  0.0000E+00  0.0000E+00  0.1000E+01  0.1000E+01
    -40.476  0.0000E+00  0.0000E+00  0.1000E+01  0.1000E+01
    -40.279  0.0000E+00  0.0000E+00  0.1000E+01  0.1000E+01
    -40.082  0.0000E+00  0.0000E+00  0.1000E+01  0.1000E+01
    -39.885  0.0000E+00  0.0000E+00  0.1000E+01  0.1000E+01
    -39.688  0.0000E+00  0.0000E+00  0.1000E+01  0.1000E+01
    -39.491  0.0000E+00  0.0000E+00  0.1000E+01  0.1000E+01
    -39.294  0.0000E+00  0.0000E+00  0.1000E+01  0.1000E+01
    -39.097  0.0000E+00  0.0000E+00  0.1000E+01  0.1000E+01
    -38.900  0.0000E+00  0.0000E+00  0.1000E+01  0.1000E+01
    -38.703  0.0000E+00  0.0000E+00  0.1000E+01  0.1000E+01
    -38.506  0.0000E+00  0.0000E+00  0.1000E+01  0.1000E+01
    -38.309  0.0000E+00  0.0000E+00  0.1000E+01  0.1000E+01
    -38.112  0.0000E+00  0.0000E+00  0.1000E+01  0.1000E+01
    -37.915  0.0000E+00  0.0000E+00  0.1000E+01  0.1000E+01
    -37.718  0.0000E+00  0.0000E+00  0.1000E+01  0.1000E+01
    -37.521  0.0000E+00  0.0000E+00  0.1000E+01  0.1000E+01
    -37.324  0.0000E+00  0.0000E+00  0.1000E+01  0.1000E+01
    -37.127  0.0000E+00  0.0000E+00  0.1000E+01  0.1000E+01
    -36.930  0.0000E+00  0.0000E+00  0.1000E+01  0.1000E+01
    -36.733  0.0000E+00  0.0000E+00  0.1000E+01  0.1000E+01
    -36.536  0.0000E+00  0.0000E+00  0.1000E+01  0.1000E+01
    -36.339  0.0000E+00  0.0000E+00  0.1000E+01  0.1000E+01
    -36.142  0.0000E+00  0.0000E+00  0.1000E+01  0.1000E+01
    -35.945  0.0000E+00  0.0000E+00  0.1000E+01  0.1000E+01
    -35.748  0.0000E+00  0.0000E+00  0.1000E+01  0.1000E+01
    -35.551  0.0000E+00  0.0000E+00  0.1000E+01  0.1000E+01
    -35.354  0.0000E+00  0.0000E+00  0.1000E+01  0.1000E+01
    -35.157  0.0000E+00  0.0000E+00  0.1000E+01  0.1000E+01
    -34.960  0.0000E+00  0.0000E+00  0.1000E+01  0.1000E+01
    -34.763  0.0000E+00  0.0000E+00  0.1000E+01  0.1000E+01
    -34.566  0.0000E+00  0.0000E+00  0.1000E+01  0.1000E+01
    -34.369  0.0000E+00  0.0000E+00  0.1000E+01  0.1000E+01
    -34.172  0.0000E+00  0.0000E+00  0.1000E+01  0.1000E+01
    -33.975  0.0000E+00  0.0000E+00  0.1000E+01  0.1000E+01
    -33.778  0.0000E+00  0.0000E+00  0.1000E+01  0.1000E+01
    -33.581  0.0000E+00  0.0000E+00  0.1000E+01  0.1000E+01
    -33.384  0.0000E+00  0.0000E+00  0.1000E+01  0.1000E+01
    -33.187  0.0000E+00  0.0000E+00  0.1000E+01  0.1000E+01
    -32.990  0.0000E+00  0.0000E+00  0.1000E+01  0.1000E+01
    -32.793  0.0000E+00  0.0000E+00  0.1000E+01  0.1000E+01
    -32.596  0.0000E+00  0.0000E+00  0.1000E+01  0.1000E+01
    -32.399  0.0000E+00  0.0000E+00  0.1000E+01  0.1000E+01
    -32.202  0.0000E+00  0.0000E+00  0.1000E+01  0.1000E+01
    -32.005  0.0000E+00  0.0000E+00  0.1000E+01  0.1000E+01
    -31.808  0.0000E+00  0.0000E+00  0.1000E+01  0.1000E+01
    -31.611  0.0000E+00  0.0000E+00  0.1000E+01  0.1000E+01
    -31.414  0.0000E+00  0.0000E+00  0.1000E+01  0.1000E+01
    -31.217  0.0000E+00  0.0000E+00  0.1000E+01  0.1000E+01
    -31.020  0.0000E+00  0.0000E+00  0.1000E+01  0.1000E+01
    -30.823  0.0000E+00  0.0000E+00  0.1000E+01  0.1000E+01
    -30.626  0.0000E+00  0.0000E+00  0.1000E+01  0.1000E+01
    -30.429  0.0000E+00  0.0000E+00  0.1000E+01  0.1000E+01
    -30.232  0.0000E+00  0.0000E+00  0.1000E+01  0.1000E+01
    -30.035  0.0000E+00  0.0000E+00  0.1000E+01  0.1000E+01
    -29.838  0.0000E+00  0.0000E+00  0.1000E+01  0.1000E+01
    -29.641  0.0000E+00  0.0000E+00  0.1000E+01  0.1000E+01
    -29.444  0.0000E+00  0.0000E+00  0.1000E+01  0.1000E+01
    -29.247  0.0000E+00  0.0000E+00  0.1000E+01  0.1000E+01
    -29.050  0.0000E+00  0.0000E+00  0.1000E+01  0.1000E+01
    -28.853  0.0000E+00  0.0000E+00  0.1000E+01  0.1000E+01
    -28.656  0.0000E+00  0.0000E+00  0.1000E+01  0.1000E+01
    -28.459  0.0000E+00  0.0000E+00  0.1000E+01  0.1000E+01
    -28.262  0.0000E+00  0.0000E+00  0.1000E+01  0.1000E+01
    -28.065  0.0000E+00  0.0000E+00  0.1000E+01  0.1000E+01
    -27.869  0.0000E+00  0.0000E+00  0.1000E+01  0.1000E+01
    -27.672  0.0000E+00  0.0000E+00  0.1000E+01  0.1000E+01
    -27.475  0.0000E+00  0.0000E+00  0.1000E+01  0.1000E+01
    -27.278  0.0000E+00  0.0000E+00  0.1000E+01  0.1000E+01
    -27.081  0.0000E+00  0.0000E+00  0.1000E+01  0.1000E+01
    -26.884  0.0000E+00  0.0000E+00  0.1000E+01  0.1000E+01
    -26.687  0.0000E+00  0.0000E+00  0.1000E+01  0.1000E+01
    -26.490  0.0000E+00  0.0000E+00  0.1000E+01  0.1000E+01
    -26.293  0.0000E+00  0.0000E+00  0.1000E+01  0.1000E+01
    -26.096  0.0000E+00  0.0000E+00  0.1000E+01  0.1000E+01
    -25.899  0.0000E+00  0.0000E+00  0.1000E+01  0.1000E+01
    -25.702  0.0000E+00  0.0000E+00  0.1000E+01  0.1000E+01
    -25.505  0.0000E+00  0.0000E+00  0.1000E+01  0.1000E+01
    -25.308  0.0000E+00  0.0000E+00  0.1000E+01  0.1000E+01
    -25.111  0.0000E+00  0.0000E+00  0.1000E+01  0.1000E+01
    -24.914  0.0000E+00  0.0000E+00  0.1000E+01  0.1000E+01
    -24.717  0.0000E+00  0.0000E+00  0.1000E+01  0.1000E+01
    -24.520  0.0000E+00  0.0000E+00  0.1000E+01  0.1000E+01
    -24.323  0.0000E+00  0.0000E+00  0.1000E+01  0.1000E+01
    -24.126  0.0000E+00  0.0000E+00  0.1000E+01  0.1000E+01
    -23.929  0.0000E+00  0.0000E+00  0.1000E+01  0.1000E+01
    -23.732  0.0000E+00  0.0000E+00  0.1000E+01  0.1000E+01
    -23.535  0.0000E+00  0.0000E+00  0.1000E+01  0.1000E+01
    -23.338  0.0000E+00  0.0000E+00  0.1000E+01  0.1000E+01
    -23.141  0.0000E+00  0.0000E+00  0.1000E+01  0.1000E+01
    -22.944  0.0000E+00  0.0000E+00  0.1000E+01  0.1000E+01
    -22.747  0.0000E+00  0.0000E+00  0.1000E+01  0.1000E+01
    -22.550  0.1069E-10  0.1069E-10  0.1000E+01  0.1000E+01
    -22.353  0.8801E-01  0.8801E-01  0.1017E+01  0.1017E+01
    -22.156  0.4289E+01  0.4289E+01  0.1862E+01  0.1862E+01
    -21.959  0.2498E+01  0.2498E+01  0.2354E+01  0.2354E+01
    -21.762  0.2630E+01  0.2630E+01  0.2872E+01  0.2872E+01
    -21.565  0.4373E+01  0.4373E+01  0.3734E+01  0.3734E+01
    -21.368  0.4158E+01  0.4158E+01  0.4553E+01  0.4553E+01
    -21.171  0.1890E+01  0.1890E+01  0.4925E+01  0.4925E+01
    -20.974  0.4688E+01  0.4688E+01  0.5849E+01  0.5849E+01
    -20.777  0.4881E+01  0.4881E+01  0.6810E+01  0.6810E+01
    -20.580  0.1843E+01  0.1843E+01  0.7173E+01  0.7173E+01
    -20.383  0.3612E+01  0.3612E+01  0.7885E+01  0.7885E+01
    -20.186  0.3976E+01  0.3976E+01  0.8668E+01  0.8668E+01
    -19.989  0.6643E+01  0.6643E+01  0.9976E+01  0.9976E+01
    -19.792  0.1248E+01  0.1248E+01  0.1022E+02  0.1022E+02
    -19.595  0.3294E+01  0.3294E+01  0.1087E+02  0.1087E+02
    -19.398  0.5364E+01  0.5364E+01  0.1193E+02  0.1193E+02
    -19.201  0.5109E+01  0.5109E+01  0.1293E+02  0.1293E+02
    -19.004  0.3727E+01  0.3727E+01  0.1367E+02  0.1367E+02
    -18.807  0.2044E+01  0.2044E+01  0.1407E+02  0.1407E+02
    -18.610  0.3122E+01  0.3122E+01  0.1469E+02  0.1469E+02
    -18.413  0.5280E+01  0.5280E+01  0.1573E+02  0.1573E+02
    -18.216  0.7324E+01  0.7324E+01  0.1717E+02  0.1717E+02
    -18.019  0.4578E+00  0.4578E+00  0.1726E+02  0.1726E+02
    -17.822  0.4295E+01  0.4295E+01  0.1811E+02  0.1811E+02
    -17.625  0.5284E+01  0.5284E+01  0.1915E+02  0.1915E+02
    -17.428  0.3653E+01  0.3653E+01  0.1987E+02  0.1987E+02
    -17.231  0.5013E+01  0.5013E+01  0.2085E+02  0.2085E+02
    -17.034  0.4826E+01  0.4826E+01  0.2180E+02  0.2180E+02
    -16.837  0.4375E+01  0.4375E+01  0.2267E+02  0.2267E+02
    -16.640  0.1074E+01  0.1074E+01  0.2288E+02  0.2288E+02
    -16.443  0.4623E+01  0.4623E+01  0.2379E+02  0.2379E+02
    -16.246  0.2680E+01  0.2680E+01  0.2432E+02  0.2432E+02
    -16.049  0.3063E+01  0.3063E+01  0.2492E+02  0.2492E+02
    -15.852  0.2278E+01  0.2278E+01  0.2537E+02  0.2537E+02
    -15.655  0.4355E+01  0.4355E+01  0.2623E+02  0.2623E+02
    -15.458  0.2706E+01  0.2706E+01  0.2676E+02  0.2676E+02
    -15.261  0.4371E+01  0.4371E+01  0.2762E+02  0.2762E+02
    -15.064  0.6569E+01  0.6569E+01  0.2891E+02  0.2891E+02
    -14.867  0.3382E+01  0.3382E+01  0.2958E+02  0.2958E+02
    -14.670  0.5103E+01  0.5103E+01  0.3059E+02  0.3059E+02
    -14.474  0.3511E+01  0.3511E+01  0.3128E+02  0.3128E+02
    -14.277  0.4709E+01  0.4709E+01  0.3220E+02  0.3220E+02
    -14.080  0.2783E+01  0.2783E+01  0.3275E+02  0.3275E+02
    -13.883  0.5555E+01  0.5555E+01  0.3385E+02  0.3385E+02
    -13.686  0.2281E+01  0.2281E+01  0.3430E+02  0.3430E+02
    -13.489  0.6747E+01  0.6747E+01  0.3563E+02  0.3563E+02
    -13.292  0.2112E+00  0.2112E+00  0.3567E+02  0.3567E+02
    -13.095  0.7985E+00  0.7985E+00  0.3582E+02  0.3582E+02
    -12.898  0.8086E+01  0.8086E+01  0.3742E+02  0.3742E+02
    -12.701  0.4996E+01  0.4996E+01  0.3840E+02  0.3840E+02
    -12.504  0.4808E+01  0.4808E+01  0.3935E+02  0.3935E+02
    -12.307  0.4534E+01  0.4534E+01  0.4024E+02  0.4024E+02
    -12.110  0.2228E+01  0.2228E+01  0.4068E+02  0.4068E+02
    -11.913  0.4624E+01  0.4624E+01  0.4159E+02  0.4159E+02
    -11.716  0.5082E+01  0.5082E+01  0.4259E+02  0.4259E+02
    -11.519  0.5333E+01  0.5333E+01  0.4364E+02  0.4364E+02
    -11.322  0.5396E+01  0.5396E+01  0.4471E+02  0.4471E+02
    -11.125  0.7071E+01  0.7071E+01  0.4610E+02  0.4610E+02
    -10.928  0.2913E+01  0.2913E+01  0.4667E+02  0.4667E+02
    -10.731  0.5082E+01  0.5082E+01  0.4767E+02  0.4767E+02
    -10.534  0.5925E+01  0.5925E+01  0.4884E+02  0.4884E+02
    -10.337  0.7008E+01  0.7008E+01  0.5022E+02  0.5022E+02
    -10.140  0.1023E+02  0.1023E+02  0.5224E+02  0.5224E+02
     -9.943  0.1088E+02  0.1088E+02  0.5438E+02  0.5438E+02
     -9.746  0.8197E+01  0.8197E+01  0.5599E+02  0.5599E+02
     -9.549  0.8124E+01  0.8124E+01  0.5759E+02  0.5759E+02
     -9.352  0.8580E+01  0.8580E+01  0.5928E+02  0.5928E+02
     -9.155  0.1069E+02  0.1069E+02  0.6139E+02  0.6139E+02
     -8.958  0.1097E+02  0.1097E+02  0.6355E+02  0.6355E+02
     -8.761  0.1310E+02  0.1310E+02  0.6613E+02  0.6613E+02
     -8.564  0.1189E+02  0.1189E+02  0.6847E+02  0.6847E+02
     -8.367  0.7841E+01  0.7841E+01  0.7002E+02  0.7002E+02
     -8.170  0.7076E+01  0.7076E+01  0.7141E+02  0.7141E+02
     -7.973  0.1309E+02  0.1309E+02  0.7399E+02  0.7399E+02
     -7.776  0.1088E+02  0.1088E+02  0.7613E+02  0.7613E+02
     -7.579  0.3657E+01  0.3657E+01  0.7685E+02  0.7685E+02
     -7.382  0.5938E+01  0.5938E+01  0.7802E+02  0.7802E+02
     -7.185  0.1062E+02  0.1062E+02  0.8012E+02  0.8012E+02
     -6.988  0.8689E+01  0.8689E+01  0.8183E+02  0.8183E+02
     -6.791  0.8291E+01  0.8291E+01  0.8346E+02  0.8346E+02
     -6.594  0.5436E+01  0.5436E+01  0.8453E+02  0.8453E+02
     -6.397  0.6948E+01  0.6948E+01  0.8590E+02  0.8590E+02
     -6.200  0.3985E+01  0.3985E+01  0.8669E+02  0.8669E+02
     -6.003  0.9779E+01  0.9779E+01  0.8861E+02  0.8861E+02
     -5.806  0.3098E+01  0.3098E+01  0.8922E+02  0.8922E+02
     -5.609  0.3506E+01  0.3506E+01  0.8991E+02  0.8991E+02
     -5.412  0.6173E+01  0.6173E+01  0.9113E+02  0.9113E+02
     -5.215  0.2685E+01  0.2685E+01  0.9166E+02  0.9166E+02
     -5.018  0.5560E+01  0.5560E+01  0.9275E+02  0.9275E+02
     -4.821  0.6451E+01  0.6451E+01  0.9402E+02  0.9402E+02
     -4.624  0.4384E+01  0.4384E+01  0.9489E+02  0.9489E+02
     -4.427  0.1221E+00  0.1221E+00  0.9491E+02  0.9491E+02
     -4.230  0.2799E+01  0.2799E+01  0.9546E+02  0.9546E+02
     -4.033  0.2751E+01  0.2751E+01  0.9600E+02  0.9600E+02
     -3.836  0.1673E+01  0.1673E+01  0.9633E+02  0.9633E+02
     -3.639  0.3231E+01  0.3231E+01  0.9697E+02  0.9697E+02
     -3.442  0.1523E+00  0.1523E+00  0.9700E+02  0.9700E+02
     -3.245  0.2020E+00  0.2020E+00  0.9704E+02  0.9704E+02
     -3.048  0.2615E+01  0.2615E+01  0.9755E+02  0.9755E+02
     -2.851  0.1097E+01  0.1097E+01  0.9777E+02  0.9777E+02
     -2.654  0.1583E+00  0.1583E+00  0.9780E+02  0.9780E+02
     -2.457  0.2070E+01  0.2070E+01  0.9821E+02  0.9821E+02
     -2.260  0.6215E-01  0.6214E-01  0.9822E+02  0.9822E+02
     -2.063  0.5509E-07  0.5509E-07  0.9822E+02  0.9822E+02
     -1.866  0.4739E+00  0.4739E+00  0.9832E+02  0.9832E+02
     -1.669  0.5834E+01  0.5834E+01  0.9946E+02  0.9946E+02
     -1.472  0.1688E+01  0.1688E+01  0.9980E+02  0.9980E+02
     -1.276  0.2188E+01  0.2188E+01  0.1002E+03  0.1002E+03
     -1.079  0.7631E+01  0.7631E+01  0.1017E+03  0.1017E+03
     -0.882  0.8529E+01  0.8528E+01  0.1034E+03  0.1034E+03
     -0.685  0.5671E+01  0.5672E+01  0.1045E+03  0.1045E+03
     -0.488  0.4586E+01  0.4586E+01  0.1054E+03  0.1054E+03
     -0.291  0.5856E+01  0.5856E+01  0.1066E+03  0.1066E+03
     -0.094  0.3103E+01  0.3103E+01  0.1072E+03  0.1072E+03
      0.103  0.4119E+01  0.4119E+01  0.1080E+03  0.1080E+03
      0.300  0.6466E+01  0.6462E+01  0.1093E+03  0.1093E+03
      0.497  0.8071E+01  0.8070E+01  0.1109E+03  0.1109E+03
      0.694  0.4969E+01  0.4969E+01  0.1119E+03  0.1118E+03
      0.891  0.1283E+02  0.1277E+02  0.1144E+03  0.1144E+03
      1.088  0.8647E+01  0.8478E+01  0.1161E+03  0.1160E+03
      1.285  0.1254E+02  0.1240E+02  0.1186E+03  0.1185E+03
      1.482  0.1379E+02  0.1340E+02  0.1213E+03  0.1211E+03
      1.679  0.1344E+02  0.1358E+02  0.1239E+03  0.1238E+03
      1.876  0.1676E+02  0.1670E+02  0.1272E+03  0.1271E+03
      2.073  0.2929E+01  0.3960E+01  0.1278E+03  0.1279E+03
      2.270  0.1045E+01  0.7000E+00  0.1280E+03  0.1280E+03
      2.467  0.1106E-03  0.7081E-04  0.1280E+03  0.1280E+03
      2.664  0.0000E+00  0.0000E+00  0.1280E+03  0.1280E+03
      2.861  0.0000E+00  0.0000E+00  0.1280E+03  0.1280E+03
      3.058  0.0000E+00  0.0000E+00  0.1280E+03  0.1280E+03
      3.255  0.0000E+00  0.0000E+00  0.1280E+03  0.1280E+03
      3.452  0.0000E+00  0.0000E+00  0.1280E+03  0.1280E+03
      3.649  0.0000E+00  0.0000E+00  0.1280E+03  0.1280E+03
      3.846  0.0000E+00  0.0000E+00  0.1280E+03  0.1280E+03
      4.043  0.0000E+00  0.0000E+00  0.1280E+03  0.1280E+03
      4.240  0.0000E+00  0.0000E+00  0.1280E+03  0.1280E+03
      4.437  0.0000E+00  0.0000E+00  0.1280E+03  0.1280E+03
      4.634  0.0000E+00  0.0000E+00  0.1280E+03  0.1280E+03
      4.831  0.0000E+00  0.0000E+00  0.1280E+03  0.1280E+03
