  55  55   0   0
  0.7146599E+02  0.1230000E-08  0.1230000E-08  0.3000000E-08  0.5000000E-15
  1.000000000000000E-004
  CAR 
 Li defective graphene MACE training lab 
      4.37459920    -52.56750637  301     -3.03421014      1.00000000
    -52.568  0.0000E+00  0.0000E+00  0.0000E+00  0.0000E+00
    -52.378  0.0000E+00  0.0000E+00  0.0000E+00  0.0000E+00
    -52.188  0.0000E+00  0.0000E+00  0.0000E+00  0.0000E+00
    -51.998  0.0000E+00  0.0000E+00  0.0000E+00  0.0000E+00
    -51.808  0.0000E+00  0.0000E+00  0.0000E+00  0.0000E+00
    -51.618  0.0000E+00  0.0000E+00  0.0000E+00  0.0000E+00
    -51.429  0.0000E+00  0.0000E+00  0.0000E+00  0.0000E+00
    -51.239  0.0000E+00  0.0000E+00  0.0000E+00  0.0000E+00
    -51.049  0.0000E+00  0.0000E+00  0.0000E+00  0.0000E+00
    -50.859  0.0000E+00  0.0000E+00  0.0000E+00  0.0000E+00
    -50.669  0.0000E+00  0.0000E+00  0.0000E+00  0.0000E+00
    -50.480  0.0000E+00  0.0000E+00  0.0000E+00  0.0000E+00
    -50.290  0.0000E+00  0.0000E+00  0.0000E+00  0.0000E+00
    -50.100  0.1672E-02  0.1434E-02  0.3173E-03  0.2722E-03
    -49.910  0.5133E+01  0.5119E+01  0.9745E+00  0.9720E+00
    -49.720  0.1341E+00  0.1476E+00  0.1000E+01  0.1000E+01
    -49.531  0.0000E+00  0.0000E+00  0.1000E+01  0.1000E+01
    -49.341  0.0000E+00  0.0000E+00  0.1000E+01  0.1000E+01
    -49.151  0.0000E+00  0.0000E+00  0.1000E+01  0.1000E+01
    -48.961  0.0000E+00  0.0000E+00  0.1000E+01  0.1000E+01
    -48.771  0.0000E+00  0.0000E+00  0.1000E+01  0.1000E+01
    -48.582  0.0000E+00  0.0000E+00  0.1000E+01  0.1000E+01
    -48.392  0.0000E+00  0.0000E+00  0.1000E+01  0.1000E+01
    -48.202  0.0000E+00  0.0000E+00  0.1000E+01  0.1000E+01
    -48.012  0.0000E+00  0.0000E+00  0.1000E+01  0.1000E+01
    -47.822  0.0000E+00  0.0000E+00  0.1000E+01  0.1000E+01
    -47.633  0.0000E+00  0.0000E+00  0.1000E+01  0.1000E+01
    -47.443  0.0000E+00  0.0000E+00  0.1000E+01  0.1000E+01
    -47.253  0.0000E+00  0.0000E+00  0.1000E+01  0.1000E+01
    -47.063  0.0000E+00  0.0000E+00  0.1000E+01  0.1000E+01
    -46.873  0.0000E+00  0.0000E+00  0.1000E+01  0.1000E+01
    -46.683  0.0000E+00  0.0000E+00  0.1000E+01  0.1000E+01
    -46.494  0.0000E+00  0.0000E+00  0.1000E+01  0.1000E+01
    -46.304  0.0000E+00  0.0000E+00  0.1000E+01  0.1000E+01
    -46.114  0.0000E+00  0.0000E+00  0.1000E+01  0.1000E+01
    -45.924  0.0000E+00  0.0000E+00  0.1000E+01  0.1000E+01
    -45.734  0.0000E+00  0.0000E+00  0.1000E+01  0.1000E+01
    -45.545  0.0000E+00  0.0000E+00  0.1000E+01  0.1000E+01
    -45.355  0.0000E+00  0.0000E+00  0.1000E+01  0.1000E+01
    -45.165  0.0000E+00  0.0000E+00  0.1000E+01  0.1000E+01
    -44.975  0.0000E+00  0.0000E+00  0.1000E+01  0.1000E+01
    -44.785  0.0000E+00  0.0000E+00  0.1000E+01  0.1000E+01
    -44.596  0.0000E+00  0.0000E+00  0.1000E+01  0.1000E+01
    -44.406  0.0000E+00  0.0000E+00  0.1000E+01  0.1000E+01
    -44.216  0.0000E+00  0.0000E+00  0.1000E+01  0.1000E+01
    -44.026  0.0000E+00  0.0000E+00  0.1000E+01  0.1000E+01
    -43.836  0.0000E+00  0.0000E+00  0.1000E+01  0.1000E+01
    -43.647  0.0000E+00  0.0000E+00  0.1000E+01  0.1000E+01
    -43.457  0.0000E+00  0.0000E+00  0.1000E+01  0.1000E+01
    -43.267  0.0000E+00  0.0000E+00  0.1000E+01  0.1000E+01
    -43.077  0.0000E+00  0.0000E+00  0.1000E+01  0.1000E+01
    -42.887  0.0000E+00  0.0000E+00  0.1000E+01  0.1000E+01
    -42.698  0.0000E+00  0.0000E+00  0.1000E+01  0.1000E+01
    -42.508  0.0000E+00  0.0000E+00  0.1000E+01  0.1000E+01
    -42.318  0.0000E+00  0.0000E+00  0.1000E+01  0.1000E+01
    -42.128  0.0000E+00  0.0000E+00  0.1000E+01  0.1000E+01
    -41.938  0.0000E+00  0.0000E+00  0.1000E+01  0.1000E+01
    -41.749  0.0000E+00  0.0000E+00  0.1000E+01  0.1000E+01
    -41.559  0.0000E+00  0.0000E+00  0.1000E+01  0.1000E+01
    -41.369  0.0000E+00  0.0000E+00  0.1000E+01  0.1000E+01
    -41.179  0.0000E+00  0.0000E+00  0.1000E+01  0.1000E+01
    -40.989  0.0000E+00  0.0000E+00  0.1000E+01  0.1000E+01
    -40.799  0.0000E+00  0.0000E+00  0.1000E+01  0.1000E+01
    -40.610  0.0000E+00  0.0000E+00  0.1000E+01  0.1000E+01
    -40.420  0.0000E+00  0.0000E+00  0.1000E+01  0.1000E+01
    -40.230  0.0000E+00  0.0000E+00  0.1000E+01  0.1000E+01
    -40.040  0.0000E+00  0.0000E+00  0.1000E+01  0.1000E+01
    -39.850  0.0000E+00  0.0000E+00  0.1000E+01  0.1000E+01
    -39.661  0.0000E+00  0.0000E+00  0.1000E+01  0.1000E+01
    -39.471  0.0000E+00  0.0000E+00  0.1000E+01  0.1000E+01
    -39.281  0.0000E+00  0.0000E+00  0.1000E+01  0.1000E+01
    -39.091  0.0000E+00  0.0000E+00  0.1000E+01  0.1000E+01
    -38.901  0.0000E+00  0.0000E+00  0.1000E+01  0.1000E+01
    -38.712  0.0000E+00  0.0000E+00  0.1000E+01  0.1000E+01
    -38.522  0.0000E+00  0.0000E+00  0.1000E+01  0.1000E+01
    -38.332  0.0000E+00  0.0000E+00  0.1000E+01  0.1000E+01
    -38.142  0.0000E+00  0.0000E+00  0.1000E+01  0.1000E+01
    -37.952  0.0000E+00  0.0000E+00  0.1000E+01  0.1000E+01
    -37.763  0.0000E+00  0.0000E+00  0.1000E+01  0.1000E+01
    -37.573  0.0000E+00  0.0000E+00  0.1000E+01  0.1000E+01
    -37.383  0.0000E+00  0.0000E+00  0.1000E+01  0.1000E+01
    -37.193  0.0000E+00  0.0000E+00  0.1000E+01  0.1000E+01
    -37.003  0.0000E+00  0.0000E+00  0.1000E+01  0.1000E+01
    -36.814  0.0000E+00  0.0000E+00  0.1000E+01  0.1000E+01
    -36.624  0.0000E+00  0.0000E+00  0.1000E+01  0.1000E+01
    -36.434  0.0000E+00  0.0000E+00  0.1000E+01  0.1000E+01
    -36.244  0.0000E+00  0.0000E+00  0.1000E+01  0.1000E+01
    -36.054  0.0000E+00  0.0000E+00  0.1000E+01  0.1000E+01
    -35.864  0.0000E+00  0.0000E+00  0.1000E+01  0.1000E+01
    -35.675  0.0000E+00  0.0000E+00  0.1000E+01  0.1000E+01
    -35.485  0.0000E+00  0.0000E+00  0.1000E+01  0.1000E+01
    -35.295  0.0000E+00  0.0000E+00  0.1000E+01  0.1000E+01
    -35.105  0.0000E+00  0.0000E+00  0.1000E+01  0.1000E+01
    -34.915  0.0000E+00  0.0000E+00  0.1000E+01  0.1000E+01
    -34.726  0.0000E+00  0.0000E+00  0.1000E+01  0.1000E+01
    -34.536  0.0000E+00  0.0000E+00  0.1000E+01  0.1000E+01
    -34.346  0.0000E+00  0.0000E+00  0.1000E+01  0.1000E+01
    -34.156  0.0000E+00  0.0000E+00  0.1000E+01  0.1000E+01
    -33.966  0.0000E+00  0.0000E+00  0.1000E+01  0.1000E+01
    -33.777  0.0000E+00  0.0000E+00  0.1000E+01  0.1000E+01
    -33.587  0.0000E+00  0.0000E+00  0.1000E+01  0.1000E+01
    -33.397  0.0000E+00  0.0000E+00  0.1000E+01  0.1000E+01
    -33.207  0.0000E+00  0.0000E+00  0.1000E+01  0.1000E+01
    -33.017  0.0000E+00  0.0000E+00  0.1000E+01  0.1000E+01
    -32.828  0.0000E+00  0.0000E+00  0.1000E+01  0.1000E+01
    -32.638  0.0000E+00  0.0000E+00  0.1000E+01  0.1000E+01
    -32.448  0.0000E+00  0.0000E+00  0.1000E+01  0.1000E+01
    -32.258  0.0000E+00  0.0000E+00  0.1000E+01  0.1000E+01
    -32.068  0.0000E+00  0.0000E+00  0.1000E+01  0.1000E+01
    -31.879  0.0000E+00  0.0000E+00  0.1000E+01  0.1000E+01
    -31.689  0.0000E+00  0.0000E+00  0.1000E+01  0.1000E+01
    -31.499  0.0000E+00  0.0000E+00  0.1000E+01  0.1000E+01
    -31.309  0.0000E+00  0.0000E+00  0.1000E+01  0.1000E+01
    -31.119  0.0000E+00  0.0000E+00  0.1000E+01  0.1000E+01
    -30.930  0.0000E+00  0.0000E+00  0.1000E+01  0.1000E+01
    -30.740  0.0000E+00  0.0000E+00  0.1000E+01  0.1000E+01
    -30.550  0.0000E+00  0.0000E+00  0.1000E+01  0.1000E+01
    -30.360  0.0000E+00  0.0000E+00  0.1000E+01  0.1000E+01
    -30.170  0.0000E+00  0.0000E+00  0.1000E+01  0.1000E+01
    -29.980  0.0000E+00  0.0000E+00  0.1000E+01  0.1000E+01
    -29.791  0.0000E+00  0.0000E+00  0.1000E+01  0.1000E+01
    -29.601  0.0000E+00  0.0000E+00  0.1000E+01  0.1000E+01
    -29.411  0.0000E+00  0.0000E+00  0.1000E+01  0.1000E+01
    -29.221  0.0000E+00  0.0000E+00  0.1000E+01  0.1000E+01
    -29.031  0.0000E+00  0.0000E+00  0.1000E+01  0.1000E+01
    -28.842  0.0000E+00  0.0000E+00  0.1000E+01  0.1000E+01
    -28.652  0.0000E+00  0.0000E+00  0.1000E+01  0.1000E+01
    -28.462  0.0000E+00  0.0000E+00  0.1000E+01  0.1000E+01
    -28.272  0.0000E+00  0.0000E+00  0.1000E+01  0.1000E+01
    -28.082  0.0000E+00  0.0000E+00  0.1000E+01  0.1000E+01
    -27.893  0.0000E+00  0.0000E+00  0.1000E+01  0.1000E+01
    -27.703  0.0000E+00  0.0000E+00  0.1000E+01  0.1000E+01
    -27.513  0.0000E+00  0.0000E+00  0.1000E+01  0.1000E+01
    -27.323  0.0000E+00  0.0000E+00  0.1000E+01  0.1000E+01
    -27.133  0.0000E+00  0.0000E+00  0.1000E+01  0.1000E+01
    -26.944  0.0000E+00  0.0000E+00  0.1000E+01  0.1000E+01
    -26.754  0.0000E+00  0.0000E+00  0.1000E+01  0.1000E+01
    -26.564  0.0000E+00  0.0000E+00  0.1000E+01  0.1000E+01
    -26.374  0.0000E+00  0.0000E+00  0.1000E+01  0.1000E+01
    -26.184  0.0000E+00  0.0000E+00  0.1000E+01  0.1000E+01
    -25.995  0.0000E+00  0.0000E+00  0.1000E+01  0.1000E+01
    -25.805  0.0000E+00  0.0000E+00  0.1000E+01  0.1000E+01
    -25.615  0.0000E+00  0.0000E+00  0.1000E+01  0.1000E+01
    -25.425  0.0000E+00  0.0000E+00  0.1000E+01  0.1000E+01
    -25.235  0.0000E+00  0.0000E+00  0.1000E+01  0.1000E+01
    -25.045  0.0000E+00  0.0000E+00  0.1000E+01  0.1000E+01
    -24.856  0.0000E+00  0.0000E+00  0.1000E+01  0.1000E+01
    -24.666  0.0000E+00  0.0000E+00  0.1000E+01  0.1000E+01
    -24.476  0.0000E+00  0.0000E+00  0.1000E+01  0.1000E+01
    -24.286  0.0000E+00  0.0000E+00  0.1000E+01  0.1000E+01
    -24.096  0.0000E+00  0.0000E+00  0.1000E+01  0.1000E+01
    -23.907  0.0000E+00  0.0000E+00  0.1000E+01  0.1000E+01
    -23.717  0.0000E+00  0.0000E+00  0.1000E+01  0.1000E+01
    -23.527  0.0000E+00  0.0000E+00  0.1000E+01  0.1000E+01
    -23.337  0.0000E+00  0.0000E+00  0.1000E+01  0.1000E+01
    -23.147  0.0000E+00  0.0000E+00  0.1000E+01  0.1000E+01
    -22.958  0.4733E-03  0.4708E-03  0.1000E+01  0.1000E+01
    -22.768  0.1759E+01  0.1756E+01  0.1334E+01  0.1333E+01
    -22.578  0.3488E+01  0.3490E+01  0.1996E+01  0.1996E+01
    -22.388  0.4732E+01  0.4731E+01  0.2894E+01  0.2894E+01
    -22.198  0.1147E+01  0.1148E+01  0.3112E+01  0.3112E+01
    -22.009  0.7268E+01  0.7267E+01  0.4491E+01  0.4491E+01
    -21.819  0.2032E+01  0.2033E+01  0.4877E+01  0.4877E+01
    -21.629  0.1453E+01  0.1453E+01  0.5153E+01  0.5153E+01
    -21.439  0.7987E+01  0.7985E+01  0.6669E+01  0.6668E+01
    -21.249  0.2332E+01  0.2333E+01  0.7111E+01  0.7111E+01
    -21.060  0.3410E+01  0.3410E+01  0.7759E+01  0.7759E+01
    -20.870  0.1923E+01  0.1921E+01  0.8123E+01  0.8123E+01
    -20.680  0.7033E+01  0.7033E+01  0.9458E+01  0.9458E+01
    -20.490  0.5154E+01  0.5156E+01  0.1044E+02  0.1044E+02
    -20.300  0.6387E-01  0.6386E-01  0.1045E+02  0.1045E+02
    -20.111  0.3708E+01  0.3708E+01  0.1115E+02  0.1115E+02
    -19.921  0.7263E+01  0.7260E+01  0.1253E+02  0.1253E+02
    -19.731  0.3056E+01  0.3060E+01  0.1311E+02  0.1311E+02
    -19.541  0.6737E+01  0.6736E+01  0.1439E+02  0.1439E+02
    -19.351  0.2869E+00  0.2874E+00  0.1444E+02  0.1444E+02
    -19.161  0.4479E+00  0.4474E+00  0.1453E+02  0.1453E+02
    -18.972  0.9341E+01  0.9341E+01  0.1630E+02  0.1630E+02
    -18.782  0.5351E+01  0.5352E+01  0.1732E+02  0.1732E+02
    -18.592  0.2422E+01  0.2422E+01  0.1778E+02  0.1778E+02
    -18.402  0.5703E+01  0.5701E+01  0.1886E+02  0.1886E+02
    -18.212  0.1322E+01  0.1323E+01  0.1911E+02  0.1911E+02
    -18.023  0.3691E+00  0.3682E+00  0.1918E+02  0.1918E+02
    -17.833  0.1219E+02  0.1219E+02  0.2149E+02  0.2149E+02
    -17.643  0.3134E+01  0.3134E+01  0.2209E+02  0.2209E+02
    -17.453  0.7515E+01  0.7515E+01  0.2352E+02  0.2352E+02
    -17.263  0.1382E+01  0.1383E+01  0.2378E+02  0.2378E+02
    -17.074  0.1178E-01  0.1174E-01  0.2378E+02  0.2378E+02
    -16.884  0.2915E+01  0.2914E+01  0.2433E+02  0.2433E+02
    -16.694  0.7608E+01  0.7609E+01  0.2578E+02  0.2578E+02
    -16.504  0.2812E+00  0.2808E+00  0.2583E+02  0.2583E+02
    -16.314  0.3233E+01  0.3234E+01  0.2644E+02  0.2644E+02
    -16.125  0.1322E+01  0.1321E+01  0.2670E+02  0.2670E+02
    -15.935  0.4781E+01  0.4781E+01  0.2760E+02  0.2760E+02
    -15.745  0.1028E+02  0.1028E+02  0.2955E+02  0.2955E+02
    -15.555  0.5071E-02  0.5087E-02  0.2956E+02  0.2956E+02
    -15.365  0.2513E+01  0.2510E+01  0.3003E+02  0.3003E+02
    -15.176  0.1153E+02  0.1154E+02  0.3222E+02  0.3222E+02
    -14.986  0.1665E+00  0.1662E+00  0.3225E+02  0.3225E+02
    -14.796  0.6843E+01  0.6843E+01  0.3355E+02  0.3355E+02
    -14.606  0.1293E+01  0.1292E+01  0.3380E+02  0.3380E+02
    -14.416  0.4396E+01  0.4395E+01  0.3463E+02  0.3463E+02
    -14.226  0.7390E+01  0.7392E+01  0.3603E+02  0.3603E+02
    -14.037  0.9883E+00  0.9888E+00  0.3622E+02  0.3622E+02
    -13.847  0.4871E+00  0.4869E+00  0.3631E+02  0.3631E+02
    -13.657  0.7267E+01  0.7216E+01  0.3769E+02  0.3768E+02
    -13.467  0.1023E+02  0.9509E+01  0.3964E+02  0.3949E+02
    -13.277  0.2914E+01  0.3686E+01  0.4019E+02  0.4019E+02
    -13.088  0.6614E+01  0.6615E+01  0.4144E+02  0.4144E+02
    -12.898  0.1412E+01  0.1411E+01  0.4171E+02  0.4171E+02
    -12.708  0.9960E+01  0.9960E+01  0.4360E+02  0.4360E+02
    -12.518  0.2678E+01  0.2678E+01  0.4411E+02  0.4411E+02
    -12.328  0.8281E-02  0.8252E-02  0.4411E+02  0.4411E+02
    -12.139  0.4023E+01  0.4022E+01  0.4488E+02  0.4488E+02
    -11.949  0.1413E+02  0.1412E+02  0.4756E+02  0.4756E+02
    -11.759  0.2918E+01  0.2920E+01  0.4811E+02  0.4811E+02
    -11.569  0.1816E+01  0.1815E+01  0.4846E+02  0.4846E+02
    -11.379  0.5209E+01  0.5210E+01  0.4944E+02  0.4944E+02
    -11.190  0.2486E+01  0.2483E+01  0.4992E+02  0.4992E+02
    -11.000  0.8150E+01  0.8151E+01  0.5146E+02  0.5146E+02
    -10.810  0.1079E+02  0.1078E+02  0.5351E+02  0.5351E+02
    -10.620  0.1030E+02  0.1010E+02  0.5547E+02  0.5543E+02
    -10.430  0.1077E+02  0.5968E+01  0.5751E+02  0.5656E+02
    -10.241  0.9463E+01  0.1447E+02  0.5931E+02  0.5930E+02
    -10.051  0.9777E+01  0.9776E+01  0.6116E+02  0.6116E+02
     -9.861  0.1442E+02  0.1444E+02  0.6390E+02  0.6390E+02
     -9.671  0.7783E+01  0.7785E+01  0.6538E+02  0.6538E+02
     -9.481  0.1734E+02  0.1733E+02  0.6867E+02  0.6867E+02
     -9.292  0.1443E+02  0.1443E+02  0.7141E+02  0.7141E+02
     -9.102  0.5339E+01  0.5341E+01  0.7242E+02  0.7242E+02
     -8.912  0.1005E+02  0.1004E+02  0.7433E+02  0.7433E+02
     -8.722  0.5376E+01  0.5167E+01  0.7535E+02  0.7531E+02
     -8.532  0.1795E+02  0.1816E+02  0.7876E+02  0.7875E+02
     -8.342  0.1457E+02  0.1458E+02  0.8152E+02  0.8152E+02
     -8.153  0.3693E+01  0.3695E+01  0.8222E+02  0.8222E+02
     -7.963  0.1310E+00  0.1298E+00  0.8225E+02  0.8225E+02
     -7.773  0.8850E+01  0.8843E+01  0.8393E+02  0.8393E+02
     -7.583  0.1485E+02  0.1483E+02  0.8674E+02  0.8674E+02
     -7.393  0.6714E+01  0.6742E+01  0.8802E+02  0.8802E+02
     -7.204  0.6552E+01  0.6531E+01  0.8926E+02  0.8926E+02
     -7.014  0.4754E+01  0.4740E+01  0.9017E+02  0.9016E+02
     -6.824  0.9562E+01  0.4689E+01  0.9198E+02  0.9105E+02
     -6.634  0.7793E+01  0.1251E+02  0.9346E+02  0.9342E+02
     -6.444  0.1124E+02  0.1143E+02  0.9559E+02  0.9559E+02
     -6.255  0.5587E+01  0.5591E+01  0.9665E+02  0.9665E+02
     -6.065  0.7078E+01  0.7074E+01  0.9800E+02  0.9800E+02
     -5.875  0.6900E+00  0.6937E+00  0.9813E+02  0.9813E+02
     -5.685  0.3490E+01  0.3489E+01  0.9879E+02  0.9879E+02
     -5.495  0.5399E+01  0.5343E+01  0.9982E+02  0.9980E+02
     -5.306  0.1775E+02  0.1435E+02  0.1032E+03  0.1025E+03
     -5.116  0.3128E+01  0.5320E+01  0.1038E+03  0.1035E+03
     -4.926  0.4836E+01  0.2701E+01  0.1047E+03  0.1041E+03
     -4.736  0.2517E+01  0.5908E+01  0.1052E+03  0.1052E+03
     -4.546  0.2826E+01  0.2801E+01  0.1057E+03  0.1057E+03
     -4.357  0.6120E+01  0.6134E+01  0.1069E+03  0.1069E+03
     -4.167  0.4777E+01  0.4789E+01  0.1078E+03  0.1078E+03
     -3.977  0.5170E+01  0.2117E+01  0.1088E+03  0.1082E+03
     -3.787  0.9532E-01  0.3152E+01  0.1088E+03  0.1088E+03
     -3.597  0.0000E+00  0.8199E-06  0.1088E+03  0.1088E+03
     -3.407  0.5610E-04  0.4971E-04  0.1088E+03  0.1088E+03
     -3.218  0.2066E+01  0.2059E+01  0.1092E+03  0.1092E+03
     -3.028  0.3569E+01  0.2827E+00  0.1098E+03  0.1092E+03
     -2.838  0.1975E+01  0.0000E+00  0.1102E+03  0.1092E+03
     -2.648  0.3448E-07  0.8507E-03  0.1102E+03  0.1092E+03
     -2.458  0.7695E-07  0.5064E+01  0.1102E+03  0.1102E+03
     -2.269  0.1137E+01  0.1271E+01  0.1104E+03  0.1104E+03
     -2.079  0.6468E+01  0.6506E+01  0.1117E+03  0.1117E+03
     -1.889  0.2328E+01  0.2335E+01  0.1121E+03  0.1121E+03
     -1.699  0.7114E+01  0.6595E+01  0.1135E+03  0.1134E+03
     -1.509  0.1011E+02  0.9280E+01  0.1154E+03  0.1151E+03
     -1.320  0.7915E+01  0.9232E+01  0.1169E+03  0.1169E+03
     -1.130  0.6467E+01  0.6507E+01  0.1181E+03  0.1181E+03
     -0.940  0.4082E+01  0.4086E+01  0.1189E+03  0.1189E+03
     -0.750  0.7046E+01  0.7054E+01  0.1202E+03  0.1202E+03
     -0.560  0.3224E+01  0.2411E-01  0.1208E+03  0.1202E+03
     -0.371  0.3280E+01  0.1439E+01  0.1215E+03  0.1205E+03
     -0.181  0.4095E+01  0.8638E+01  0.1222E+03  0.1221E+03
      0.009  0.5103E+01  0.5497E+01  0.1232E+03  0.1232E+03
      0.199  0.8108E+01  0.7956E+01  0.1247E+03  0.1247E+03
      0.389  0.7665E+01  0.6824E+01  0.1262E+03  0.1260E+03
      0.578  0.4358E+01  0.4687E+01  0.1270E+03  0.1269E+03
      0.768  0.1251E+02  0.1266E+02  0.1294E+03  0.1293E+03
      0.958  0.8078E+01  0.6903E+01  0.1309E+03  0.1306E+03
      1.148  0.7074E+01  0.7319E+01  0.1323E+03  0.1320E+03
      1.338  0.9716E+01  0.1017E+02  0.1341E+03  0.1339E+03
      1.527  0.1646E+02  0.1604E+02  0.1372E+03  0.1369E+03
      1.717  0.1186E+02  0.1258E+02  0.1395E+03  0.1393E+03
      1.907  0.2689E+01  0.3490E+01  0.1400E+03  0.1400E+03
      2.097  0.1441E-03  0.4516E-03  0.1400E+03  0.1400E+03
      2.287  0.0000E+00  0.0000E+00  0.1400E+03  0.1400E+03
      2.477  0.0000E+00  0.0000E+00  0.1400E+03  0.1400E+03
      2.666  0.0000E+00  0.0000E+00  0.1400E+03  0.1400E+03
      2.856  0.0000E+00  0.0000E+00  0.1400E+03  0.1400E+03
      3.046  0.0000E+00  0.0000E+00  0.1400E+03  0.1400E+03
      3.236  0.0000E+00  0.0000E+00  0.1400E+03  0.1400E+03
      3.426  0.0000E+00  0.0000E+00  0.1400E+03  0.1400E+03
      3.615  0.0000E+00  0.0000E+00  0.1400E+03  0.1400E+03
      3.805  0.0000E+00  0.0000E+00  0.1400E+03  0.1400E+03
      3.995  0.0000E+00  0.0000E+00  0.1400E+03  0.1400E+03
      4.185  0.0000E+00  0.0000E+00  0.1400E+03  0.1400E+03
      4.375  0.0000E+00  0.0000E+00  0.1400E+03  0.1400E+03
