  49  49   0   0
  0.8021693E+02  0.1230000E-08  0.1230000E-08  0.3000000E-08  0.5000000E-15
  1.000000000000000E-004
  CAR 
 Li defective graphene MACE training lab 
      4.82745626    -54.29302097  301     -3.11677871      1.00000000
    -54.293  0.0000E+00  0.0000E+00  0.0000E+00  0.0000E+00
    -54.096  0.0000E+00  0.0000E+00  0.0000E+00  0.0000E+00
    -53.899  0.0000E+00  0.0000E+00  0.0000E+00  0.0000E+00
    -53.702  0.0000E+00  0.0000E+00  0.0000E+00  0.0000E+00
    -53.505  0.0000E+00  0.0000E+00  0.0000E+00  0.0000E+00
    -53.308  0.0000E+00  0.0000E+00  0.0000E+00  0.0000E+00
    -53.111  0.0000E+00  0.0000E+00  0.0000E+00  0.0000E+00
    -52.914  0.0000E+00  0.0000E+00  0.0000E+00  0.0000E+00
    -52.716  0.0000E+00  0.0000E+00  0.0000E+00  0.0000E+00
    -52.519  0.0000E+00  0.0000E+00  0.0000E+00  0.0000E+00
    -52.322  0.0000E+00  0.0000E+00  0.0000E+00  0.0000E+00
    -52.125  0.0000E+00  0.0000E+00  0.0000E+00  0.0000E+00
    -51.928  0.0000E+00  0.0000E+00  0.0000E+00  0.0000E+00
    -51.731  0.9883E-03  0.9882E-03  0.1948E-03  0.1948E-03
    -51.534  0.4965E+01  0.4965E+01  0.9787E+00  0.9787E+00
    -51.337  0.1083E+00  0.1083E+00  0.1000E+01  0.1000E+01
    -51.140  0.0000E+00  0.0000E+00  0.1000E+01  0.1000E+01
    -50.943  0.0000E+00  0.0000E+00  0.1000E+01  0.1000E+01
    -50.746  0.0000E+00  0.0000E+00  0.1000E+01  0.1000E+01
    -50.549  0.0000E+00  0.0000E+00  0.1000E+01  0.1000E+01
    -50.352  0.0000E+00  0.0000E+00  0.1000E+01  0.1000E+01
    -50.155  0.0000E+00  0.0000E+00  0.1000E+01  0.1000E+01
    -49.958  0.0000E+00  0.0000E+00  0.1000E+01  0.1000E+01
    -49.760  0.0000E+00  0.0000E+00  0.1000E+01  0.1000E+01
    -49.563  0.0000E+00  0.0000E+00  0.1000E+01  0.1000E+01
    -49.366  0.0000E+00  0.0000E+00  0.1000E+01  0.1000E+01
    -49.169  0.0000E+00  0.0000E+00  0.1000E+01  0.1000E+01
    -48.972  0.0000E+00  0.0000E+00  0.1000E+01  0.1000E+01
    -48.775  0.0000E+00  0.0000E+00  0.1000E+01  0.1000E+01
    -48.578  0.0000E+00  0.0000E+00  0.1000E+01  0.1000E+01
    -48.381  0.0000E+00  0.0000E+00  0.1000E+01  0.1000E+01
    -48.184  0.0000E+00  0.0000E+00  0.1000E+01  0.1000E+01
    -47.987  0.0000E+00  0.0000E+00  0.1000E+01  0.1000E+01
    -47.790  0.0000E+00  0.0000E+00  0.1000E+01  0.1000E+01
    -47.593  0.0000E+00  0.0000E+00  0.1000E+01  0.1000E+01
    -47.396  0.0000E+00  0.0000E+00  0.1000E+01  0.1000E+01
    -47.199  0.0000E+00  0.0000E+00  0.1000E+01  0.1000E+01
    -47.001  0.0000E+00  0.0000E+00  0.1000E+01  0.1000E+01
    -46.804  0.0000E+00  0.0000E+00  0.1000E+01  0.1000E+01
    -46.607  0.0000E+00  0.0000E+00  0.1000E+01  0.1000E+01
    -46.410  0.0000E+00  0.0000E+00  0.1000E+01  0.1000E+01
    -46.213  0.0000E+00  0.0000E+00  0.1000E+01  0.1000E+01
    -46.016  0.0000E+00  0.0000E+00  0.1000E+01  0.1000E+01
    -45.819  0.0000E+00  0.0000E+00  0.1000E+01  0.1000E+01
    -45.622  0.0000E+00  0.0000E+00  0.1000E+01  0.1000E+01
    -45.425  0.0000E+00  0.0000E+00  0.1000E+01  0.1000E+01
    -45.228  0.0000E+00  0.0000E+00  0.1000E+01  0.1000E+01
    -45.031  0.0000E+00  0.0000E+00  0.1000E+01  0.1000E+01
    -44.834  0.0000E+00  0.0000E+00  0.1000E+01  0.1000E+01
    -44.637  0.0000E+00  0.0000E+00  0.1000E+01  0.1000E+01
    -44.440  0.0000E+00  0.0000E+00  0.1000E+01  0.1000E+01
    -44.243  0.0000E+00  0.0000E+00  0.1000E+01  0.1000E+01
    -44.045  0.0000E+00  0.0000E+00  0.1000E+01  0.1000E+01
    -43.848  0.0000E+00  0.0000E+00  0.1000E+01  0.1000E+01
    -43.651  0.0000E+00  0.0000E+00  0.1000E+01  0.1000E+01
    -43.454  0.0000E+00  0.0000E+00  0.1000E+01  0.1000E+01
    -43.257  0.0000E+00  0.0000E+00  0.1000E+01  0.1000E+01
    -43.060  0.0000E+00  0.0000E+00  0.1000E+01  0.1000E+01
    -42.863  0.0000E+00  0.0000E+00  0.1000E+01  0.1000E+01
    -42.666  0.0000E+00  0.0000E+00  0.1000E+01  0.1000E+01
    -42.469  0.0000E+00  0.0000E+00  0.1000E+01  0.1000E+01
    -42.272  0.0000E+00  0.0000E+00  0.1000E+01  0.1000E+01
    -42.075  0.0000E+00  0.0000E+00  0.1000E+01  0.1000E+01
    -41.878  0.0000E+00  0.0000E+00  0.1000E+01  0.1000E+01
    -41.681  0.0000E+00  0.0000E+00  0.1000E+01  0.1000E+01
    -41.484  0.0000E+00  0.0000E+00  0.1000E+01  0.1000E+01
    -41.287  0.0000E+00  0.0000E+00  0.1000E+01  0.1000E+01
    -41.089  0.0000E+00  0.0000E+00  0.1000E+01  0.1000E+01
    -40.892  0.0000E+00  0.0000E+00  0.1000E+01  0.1000E+01
    -40.695  0.0000E+00  0.0000E+00  0.1000E+01  0.1000E+01
    -40.498  0.0000E+00  0.0000E+00  0.1000E+01  0.1000E+01
    -40.301  0.0000E+00  0.0000E+00  0.1000E+01  0.1000E+01
    -40.104  0.0000E+00  0.0000E+00  0.1000E+01  0.1000E+01
    -39.907  0.0000E+00  0.0000E+00  0.1000E+01  0.1000E+01
    -39.710  0.0000E+00  0.0000E+00  0.1000E+01  0.1000E+01
    -39.513  0.0000E+00  0.0000E+00  0.1000E+01  0.1000E+01
    -39.316  0.0000E+00  0.0000E+00  0.1000E+01  0.1000E+01
    -39.119  0.0000E+00  0.0000E+00  0.1000E+01  0.1000E+01
    -38.922  0.0000E+00  0.0000E+00  0.1000E+01  0.1000E+01
    -38.725  0.0000E+00  0.0000E+00  0.1000E+01  0.1000E+01
    -38.528  0.0000E+00  0.0000E+00  0.1000E+01  0.1000E+01
    -38.330  0.0000E+00  0.0000E+00  0.1000E+01  0.1000E+01
    -38.133  0.0000E+00  0.0000E+00  0.1000E+01  0.1000E+01
    -37.936  0.0000E+00  0.0000E+00  0.1000E+01  0.1000E+01
    -37.739  0.0000E+00  0.0000E+00  0.1000E+01  0.1000E+01
    -37.542  0.0000E+00  0.0000E+00  0.1000E+01  0.1000E+01
    -37.345  0.0000E+00  0.0000E+00  0.1000E+01  0.1000E+01
    -37.148  0.0000E+00  0.0000E+00  0.1000E+01  0.1000E+01
    -36.951  0.0000E+00  0.0000E+00  0.1000E+01  0.1000E+01
    -36.754  0.0000E+00  0.0000E+00  0.1000E+01  0.1000E+01
    -36.557  0.0000E+00  0.0000E+00  0.1000E+01  0.1000E+01
    -36.360  0.0000E+00  0.0000E+00  0.1000E+01  0.1000E+01
    -36.163  0.0000E+00  0.0000E+00  0.1000E+01  0.1000E+01
    -35.966  0.0000E+00  0.0000E+00  0.1000E+01  0.1000E+01
    -35.769  0.0000E+00  0.0000E+00  0.1000E+01  0.1000E+01
    -35.572  0.0000E+00  0.0000E+00  0.1000E+01  0.1000E+01
    -35.374  0.0000E+00  0.0000E+00  0.1000E+01  0.1000E+01
    -35.177  0.0000E+00  0.0000E+00  0.1000E+01  0.1000E+01
    -34.980  0.0000E+00  0.0000E+00  0.1000E+01  0.1000E+01
    -34.783  0.0000E+00  0.0000E+00  0.1000E+01  0.1000E+01
    -34.586  0.0000E+00  0.0000E+00  0.1000E+01  0.1000E+01
    -34.389  0.0000E+00  0.0000E+00  0.1000E+01  0.1000E+01
    -34.192  0.0000E+00  0.0000E+00  0.1000E+01  0.1000E+01
    -33.995  0.0000E+00  0.0000E+00  0.1000E+01  0.1000E+01
    -33.798  0.0000E+00  0.0000E+00  0.1000E+01  0.1000E+01
    -33.601  0.0000E+00  0.0000E+00  0.1000E+01  0.1000E+01
    -33.404  0.0000E+00  0.0000E+00  0.1000E+01  0.1000E+01
    -33.207  0.0000E+00  0.0000E+00  0.1000E+01  0.1000E+01
    -33.010  0.0000E+00  0.0000E+00  0.1000E+01  0.1000E+01
    -32.813  0.0000E+00  0.0000E+00  0.1000E+01  0.1000E+01
    -32.616  0.0000E+00  0.0000E+00  0.1000E+01  0.1000E+01
    -32.418  0.0000E+00  0.0000E+00  0.1000E+01  0.1000E+01
    -32.221  0.0000E+00  0.0000E+00  0.1000E+01  0.1000E+01
    -32.024  0.0000E+00  0.0000E+00  0.1000E+01  0.1000E+01
    -31.827  0.0000E+00  0.0000E+00  0.1000E+01  0.1000E+01
    -31.630  0.0000E+00  0.0000E+00  0.1000E+01  0.1000E+01
    -31.433  0.0000E+00  0.0000E+00  0.1000E+01  0.1000E+01
    -31.236  0.0000E+00  0.0000E+00  0.1000E+01  0.1000E+01
    -31.039  0.0000E+00  0.0000E+00  0.1000E+01  0.1000E+01
    -30.842  0.0000E+00  0.0000E+00  0.1000E+01  0.1000E+01
    -30.645  0.0000E+00  0.0000E+00  0.1000E+01  0.1000E+01
    -30.448  0.0000E+00  0.0000E+00  0.1000E+01  0.1000E+01
    -30.251  0.0000E+00  0.0000E+00  0.1000E+01  0.1000E+01
    -30.054  0.0000E+00  0.0000E+00  0.1000E+01  0.1000E+01
    -29.857  0.0000E+00  0.0000E+00  0.1000E+01  0.1000E+01
    -29.659  0.0000E+00  0.0000E+00  0.1000E+01  0.1000E+01
    -29.462  0.0000E+00  0.0000E+00  0.1000E+01  0.1000E+01
    -29.265  0.0000E+00  0.0000E+00  0.1000E+01  0.1000E+01
    -29.068  0.0000E+00  0.0000E+00  0.1000E+01  0.1000E+01
    -28.871  0.0000E+00  0.0000E+00  0.1000E+01  0.1000E+01
    -28.674  0.0000E+00  0.0000E+00  0.1000E+01  0.1000E+01
    -28.477  0.0000E+00  0.0000E+00  0.1000E+01  0.1000E+01
    -28.280  0.0000E+00  0.0000E+00  0.1000E+01  0.1000E+01
    -28.083  0.0000E+00  0.0000E+00  0.1000E+01  0.1000E+01
    -27.886  0.0000E+00  0.0000E+00  0.1000E+01  0.1000E+01
    -27.689  0.0000E+00  0.0000E+00  0.1000E+01  0.1000E+01
    -27.492  0.0000E+00  0.0000E+00  0.1000E+01  0.1000E+01
    -27.295  0.0000E+00  0.0000E+00  0.1000E+01  0.1000E+01
    -27.098  0.0000E+00  0.0000E+00  0.1000E+01  0.1000E+01
    -26.901  0.0000E+00  0.0000E+00  0.1000E+01  0.1000E+01
    -26.703  0.0000E+00  0.0000E+00  0.1000E+01  0.1000E+01
    -26.506  0.0000E+00  0.0000E+00  0.1000E+01  0.1000E+01
    -26.309  0.0000E+00  0.0000E+00  0.1000E+01  0.1000E+01
    -26.112  0.0000E+00  0.0000E+00  0.1000E+01  0.1000E+01
    -25.915  0.0000E+00  0.0000E+00  0.1000E+01  0.1000E+01
    -25.718  0.0000E+00  0.0000E+00  0.1000E+01  0.1000E+01
    -25.521  0.0000E+00  0.0000E+00  0.1000E+01  0.1000E+01
    -25.324  0.0000E+00  0.0000E+00  0.1000E+01  0.1000E+01
    -25.127  0.0000E+00  0.0000E+00  0.1000E+01  0.1000E+01
    -24.930  0.0000E+00  0.0000E+00  0.1000E+01  0.1000E+01
    -24.733  0.0000E+00  0.0000E+00  0.1000E+01  0.1000E+01
    -24.536  0.0000E+00  0.0000E+00  0.1000E+01  0.1000E+01
    -24.339  0.0000E+00  0.0000E+00  0.1000E+01  0.1000E+01
    -24.142  0.0000E+00  0.0000E+00  0.1000E+01  0.1000E+01
    -23.945  0.0000E+00  0.0000E+00  0.1000E+01  0.1000E+01
    -23.747  0.0000E+00  0.0000E+00  0.1000E+01  0.1000E+01
    -23.550  0.0000E+00  0.0000E+00  0.1000E+01  0.1000E+01
    -23.353  0.0000E+00  0.0000E+00  0.1000E+01  0.1000E+01
    -23.156  0.0000E+00  0.0000E+00  0.1000E+01  0.1000E+01
    -22.959  0.0000E+00  0.0000E+00  0.1000E+01  0.1000E+01
    -22.762  0.0000E+00  0.0000E+00  0.1000E+01  0.1000E+01
    -22.565  0.6134E-12  0.6134E-12  0.1000E+01  0.1000E+01
    -22.368  0.4257E-01  0.4257E-01  0.1008E+01  0.1008E+01
    -22.171  0.4049E+01  0.4049E+01  0.1806E+01  0.1806E+01
    -21.974  0.2377E+01  0.2377E+01  0.2275E+01  0.2275E+01
    -21.777  0.2710E+01  0.2710E+01  0.2809E+01  0.2809E+01
    -21.580  0.4133E+01  0.4133E+01  0.3623E+01  0.3623E+01
    -21.383  0.4295E+01  0.4295E+01  0.4470E+01  0.4470E+01
    -21.186  0.2219E+01  0.2219E+01  0.4907E+01  0.4907E+01
    -20.988  0.4561E+01  0.4561E+01  0.5806E+01  0.5806E+01
    -20.791  0.4603E+01  0.4603E+01  0.6713E+01  0.6713E+01
    -20.594  0.2180E+01  0.2180E+01  0.7143E+01  0.7143E+01
    -20.397  0.3539E+01  0.3539E+01  0.7840E+01  0.7840E+01
    -20.200  0.3969E+01  0.3969E+01  0.8622E+01  0.8622E+01
    -20.003  0.6707E+01  0.6707E+01  0.9944E+01  0.9944E+01
    -19.806  0.1411E+01  0.1411E+01  0.1022E+02  0.1022E+02
    -19.609  0.2995E+01  0.2995E+01  0.1081E+02  0.1081E+02
    -19.412  0.5141E+01  0.5141E+01  0.1183E+02  0.1183E+02
    -19.215  0.5394E+01  0.5394E+01  0.1289E+02  0.1289E+02
    -19.018  0.3510E+01  0.3510E+01  0.1358E+02  0.1358E+02
    -18.821  0.2349E+01  0.2349E+01  0.1404E+02  0.1404E+02
    -18.624  0.3150E+01  0.3150E+01  0.1466E+02  0.1466E+02
    -18.427  0.5121E+01  0.5121E+01  0.1567E+02  0.1567E+02
    -18.230  0.7429E+01  0.7429E+01  0.1714E+02  0.1714E+02
    -18.032  0.5405E+00  0.5405E+00  0.1724E+02  0.1724E+02
    -17.835  0.4025E+01  0.4025E+01  0.1804E+02  0.1804E+02
    -17.638  0.5420E+01  0.5420E+01  0.1910E+02  0.1910E+02
    -17.441  0.3351E+01  0.3351E+01  0.1977E+02  0.1977E+02
    -17.244  0.5149E+01  0.5149E+01  0.2078E+02  0.2078E+02
    -17.047  0.4923E+01  0.4923E+01  0.2175E+02  0.2175E+02
    -16.850  0.4635E+01  0.4635E+01  0.2266E+02  0.2266E+02
    -16.653  0.9345E+00  0.9345E+00  0.2285E+02  0.2285E+02
    -16.456  0.4503E+01  0.4503E+01  0.2374E+02  0.2374E+02
    -16.259  0.2843E+01  0.2843E+01  0.2430E+02  0.2430E+02
    -16.062  0.2932E+01  0.2932E+01  0.2487E+02  0.2487E+02
    -15.865  0.2176E+01  0.2176E+01  0.2530E+02  0.2530E+02
    -15.668  0.4676E+01  0.4676E+01  0.2622E+02  0.2622E+02
    -15.471  0.2494E+01  0.2494E+01  0.2672E+02  0.2672E+02
    -15.274  0.4216E+01  0.4216E+01  0.2755E+02  0.2755E+02
    -15.076  0.6856E+01  0.6856E+01  0.2890E+02  0.2890E+02
    -14.879  0.3151E+01  0.3151E+01  0.2952E+02  0.2952E+02
    -14.682  0.5304E+01  0.5304E+01  0.3056E+02  0.3056E+02
    -14.485  0.3350E+01  0.3350E+01  0.3122E+02  0.3122E+02
    -14.288  0.4890E+01  0.4890E+01  0.3219E+02  0.3219E+02
    -14.091  0.2587E+01  0.2587E+01  0.3270E+02  0.3270E+02
    -13.894  0.5731E+01  0.5731E+01  0.3383E+02  0.3383E+02
    -13.697  0.2052E+01  0.2052E+01  0.3423E+02  0.3423E+02
    -13.500  0.6968E+01  0.6968E+01  0.3560E+02  0.3560E+02
    -13.303  0.3187E+00  0.3187E+00  0.3567E+02  0.3567E+02
    -13.106  0.5620E+00  0.5620E+00  0.3578E+02  0.3578E+02
    -12.909  0.8007E+01  0.8007E+01  0.3736E+02  0.3736E+02
    -12.712  0.4935E+01  0.4935E+01  0.3833E+02  0.3833E+02
    -12.515  0.5146E+01  0.5146E+01  0.3934E+02  0.3934E+02
    -12.317  0.4442E+01  0.4442E+01  0.4022E+02  0.4022E+02
    -12.120  0.2259E+01  0.2259E+01  0.4066E+02  0.4066E+02
    -11.923  0.4463E+01  0.4463E+01  0.4154E+02  0.4154E+02
    -11.726  0.5244E+01  0.5244E+01  0.4258E+02  0.4258E+02
    -11.529  0.5170E+01  0.5170E+01  0.4359E+02  0.4359E+02
    -11.332  0.5490E+01  0.5490E+01  0.4468E+02  0.4468E+02
    -11.135  0.6916E+01  0.6916E+01  0.4604E+02  0.4604E+02
    -10.938  0.3139E+01  0.3139E+01  0.4666E+02  0.4666E+02
    -10.741  0.4897E+01  0.4897E+01  0.4762E+02  0.4762E+02
    -10.544  0.5831E+01  0.5831E+01  0.4877E+02  0.4877E+02
    -10.347  0.6728E+01  0.6728E+01  0.5010E+02  0.5010E+02
    -10.150  0.1038E+02  0.1038E+02  0.5214E+02  0.5214E+02
     -9.953  0.1084E+02  0.1084E+02  0.5428E+02  0.5428E+02
     -9.756  0.8508E+01  0.8508E+01  0.5596E+02  0.5596E+02
     -9.559  0.7658E+01  0.7658E+01  0.5747E+02  0.5747E+02
     -9.361  0.8902E+01  0.8902E+01  0.5922E+02  0.5922E+02
     -9.164  0.1064E+02  0.1064E+02  0.6132E+02  0.6132E+02
     -8.967  0.1067E+02  0.1067E+02  0.6342E+02  0.6342E+02
     -8.770  0.1321E+02  0.1321E+02  0.6602E+02  0.6602E+02
     -8.573  0.1232E+02  0.1232E+02  0.6845E+02  0.6845E+02
     -8.376  0.7756E+01  0.7756E+01  0.6998E+02  0.6998E+02
     -8.179  0.6913E+01  0.6913E+01  0.7134E+02  0.7134E+02
     -7.982  0.1294E+02  0.1294E+02  0.7389E+02  0.7389E+02
     -7.785  0.1126E+02  0.1126E+02  0.7611E+02  0.7611E+02
     -7.588  0.3702E+01  0.3702E+01  0.7684E+02  0.7684E+02
     -7.391  0.5548E+01  0.5548E+01  0.7793E+02  0.7793E+02
     -7.194  0.1065E+02  0.1065E+02  0.8003E+02  0.8003E+02
     -6.997  0.8928E+01  0.8928E+01  0.8179E+02  0.8179E+02
     -6.800  0.8055E+01  0.8055E+01  0.8338E+02  0.8338E+02
     -6.603  0.5533E+01  0.5533E+01  0.8447E+02  0.8447E+02
     -6.405  0.7071E+01  0.7071E+01  0.8586E+02  0.8586E+02
     -6.208  0.3948E+01  0.3948E+01  0.8664E+02  0.8664E+02
     -6.011  0.9634E+01  0.9634E+01  0.8854E+02  0.8854E+02
     -5.814  0.3451E+01  0.3451E+01  0.8922E+02  0.8922E+02
     -5.617  0.3200E+01  0.3200E+01  0.8985E+02  0.8985E+02
     -5.420  0.6425E+01  0.6425E+01  0.9112E+02  0.9112E+02
     -5.223  0.2657E+01  0.2657E+01  0.9164E+02  0.9164E+02
     -5.026  0.5341E+01  0.5341E+01  0.9269E+02  0.9269E+02
     -4.829  0.6488E+01  0.6488E+01  0.9397E+02  0.9397E+02
     -4.632  0.4639E+01  0.4639E+01  0.9489E+02  0.9489E+02
     -4.435  0.8808E-01  0.8808E-01  0.9490E+02  0.9490E+02
     -4.238  0.2798E+01  0.2798E+01  0.9545E+02  0.9545E+02
     -4.041  0.2782E+01  0.2782E+01  0.9600E+02  0.9600E+02
     -3.844  0.1677E+01  0.1677E+01  0.9633E+02  0.9633E+02
     -3.646  0.3194E+01  0.3194E+01  0.9696E+02  0.9696E+02
     -3.449  0.1896E+00  0.1896E+00  0.9700E+02  0.9700E+02
     -3.252  0.1818E+00  0.1819E+00  0.9704E+02  0.9704E+02
     -3.055  0.2633E+01  0.2633E+01  0.9755E+02  0.9755E+02
     -2.858  0.1090E+01  0.1090E+01  0.9777E+02  0.9777E+02
     -2.661  0.1306E+00  0.1306E+00  0.9780E+02  0.9780E+02
     -2.464  0.2090E+01  0.2090E+01  0.9821E+02  0.9821E+02
     -2.267  0.7630E-01  0.7630E-01  0.9822E+02  0.9822E+02
     -2.070  0.3023E-07  0.3023E-07  0.9822E+02  0.9822E+02
     -1.873  0.4159E+00  0.4159E+00  0.9830E+02  0.9830E+02
     -1.676  0.5727E+01  0.5727E+01  0.9943E+02  0.9943E+02
     -1.479  0.1791E+01  0.1791E+01  0.9979E+02  0.9979E+02
     -1.282  0.2140E+01  0.2140E+01  0.1002E+03  0.1002E+03
     -1.085  0.7496E+01  0.7496E+01  0.1017E+03  0.1017E+03
     -0.888  0.8268E+01  0.8267E+01  0.1033E+03  0.1033E+03
     -0.690  0.6054E+01  0.6056E+01  0.1045E+03  0.1045E+03
     -0.493  0.4363E+01  0.4363E+01  0.1054E+03  0.1054E+03
     -0.296  0.6137E+01  0.6137E+01  0.1066E+03  0.1066E+03
     -0.099  0.2924E+01  0.2924E+01  0.1072E+03  0.1072E+03
      0.098  0.4263E+01  0.4263E+01  0.1080E+03  0.1080E+03
      0.295  0.6445E+01  0.6441E+01  0.1093E+03  0.1093E+03
      0.492  0.8073E+01  0.8071E+01  0.1109E+03  0.1109E+03
      0.689  0.4795E+01  0.4796E+01  0.1118E+03  0.1118E+03
      0.886  0.1300E+02  0.1295E+02  0.1144E+03  0.1143E+03
      1.083  0.8503E+01  0.8357E+01  0.1160E+03  0.1160E+03
      1.280  0.1242E+02  0.1228E+02  0.1185E+03  0.1184E+03
      1.477  0.1364E+02  0.1336E+02  0.1212E+03  0.1210E+03
      1.674  0.1347E+02  0.1349E+02  0.1238E+03  0.1237E+03
      1.871  0.1694E+02  0.1671E+02  0.1272E+03  0.1270E+03
      2.069  0.3291E+01  0.4351E+01  0.1278E+03  0.1279E+03
      2.266  0.9524E+00  0.7300E+00  0.1280E+03  0.1280E+03
      2.463  0.3888E-05  0.1098E-03  0.1280E+03  0.1280E+03
      2.660  0.0000E+00  0.0000E+00  0.1280E+03  0.1280E+03
      2.857  0.0000E+00  0.0000E+00  0.1280E+03  0.1280E+03
      3.054  0.0000E+00  0.0000E+00  0.1280E+03  0.1280E+03
      3.251  0.0000E+00  0.0000E+00  0.1280E+03  0.1280E+03
      3.448  0.0000E+00  0.0000E+00  0.1280E+03  0.1280E+03
      3.645  0.0000E+00  0.0000E+00  0.1280E+03  0.1280E+03
      3.842  0.0000E+00  0.0000E+00  0.1280E+03  0.1280E+03
      4.039  0.0000E+00  0.0000E+00  0.1280E+03  0.1280E+03
      4.236  0.0000E+00  0.0000E+00  0.1280E+03  0.1280E+03
      4.433  0.0000E+00  0.0000E+00  0.1280E+03  0.1280E+03
      4.630  0.0000E+00  0.0000E+00  0.1280E+03  0.1280E+03
      4.827  0.0000E+00  0.0000E+00  0.1280E+03  0.1280E+03
