C  Li                                   
   1.00000000000000     
    12.3000000000000007    0.0000000000000000    0.0000000000000000
    -6.1500000000000004   10.6521124665485960    0.0000000000000000
     0.0000000000000000    0.0000000000000000   30.0000000000000000
   C    Li
    50     1
Direct
 -0.0016693794721563  0.0039571558786321  0.5024897755681818
  0.5384936314189948  0.6614527367628433  0.4927642385206862
  0.4025603352121960  0.7975768210487452  0.5085797507279022
  0.5350817766731115  0.8627788322658271  0.5029009469414584
  0.5979138145526453 -0.0047741312388521  0.5039615164821261
  0.7295715279444711  0.0688389802486150  0.4958964598128026
  0.5839904789133403  0.1839132684192706  0.5057186179082693
  0.7081175867408080  0.2600699925420570  0.4915546859929233
  0.5934033303791661  0.3747842583647639  0.4915546887036769
  0.7110969969033950  0.3777636635380563  0.4810321989605817
  0.6067261930903992  0.5934414870993817  0.4889208338137125
  0.4040392796070110  0.5974828500707337  0.4953184058237108
  0.7424326602134800  0.6621856638983410  0.4904146191899608
  0.7352410586785999  0.8652349569829513  0.4944111555585542
  0.7979630881697102  0.0011819464706308  0.4945363097750942
  0.9308161856448640  0.0707059475915448  0.4953183894217910
  0.7909192059630943  0.2047644335653988  0.4908155448419070
  0.9267748212721810  0.2733928610253807  0.4889208346256078
  0.8216729714503149  0.4883396370254803  0.4806490505680943
  0.9398642040341270  0.4915609485312288  0.4906804633887339
  0.8248942809825249  0.6065308696012345  0.4906804536880420
  0.9493388615895180  0.6824684791887362  0.5041563161076980
  0.8037840701966885  0.7978718419640366  0.4953768766604739
  0.6024386851536006  0.7961601535652574  0.4954075031461668
  0.9354216241685345  0.8712893923844658  0.5031872109603480
  0.5380977660728693  0.4575858707923642  0.4908155517500165
  0.5172465946084540  0.2506571380220485  0.5057186212602077
  0.1309101554143835  0.0692270006842483  0.5085797414003440
 -0.0052139268516931  0.2051603006006125  0.4927642357215917
  0.1294934874917306  0.2691053530215023  0.4954075104027251
 -0.0044810021130597  0.4090993256443041  0.4904146317062024
  0.1312051738828261  0.4704507373830343  0.4953768973891381
  0.0158018047976271  0.6160055236948500  0.5041563218544856
  0.1435293151664744  0.6731521829126991  0.5107183006936903
  0.0064855135449181  0.8101959809580086  0.5107182860505426
  0.1365859942673991  0.8715689850766821  0.5181919449247487
  0.1973574497954846  0.0026093668107806  0.5170239537590829
  0.4021723166207183  0.3962381984376450  0.4958964721466850
  0.3285750432372217  0.0636227151640486  0.5190446516437406
  0.3285592001019944  0.2645804792778265  0.5039615251759390
  0.1985682912436069  0.4019077254698525  0.4944111743719238
  0.3345152775973411  0.4646297527208883  0.4945363284779208
  0.2046227193880023  0.6020882852126243  0.5031872335199483
  0.3372904893381413  0.6649972876005558  0.5024897950778194
  0.2049023162279615  0.8032526596196092  0.5181919517893417
  0.3359426978407966  0.8640241179508947  0.5170239596911431
  0.3969560527345039 -0.0047582879769536  0.5190446507357654
  0.5270831919428504  0.0566949167665364  0.5119536661812439
  0.3900282616219373  0.1937498673145814  0.5119536700553057
  0.1961121660758293  0.2017484473123057  0.5029009494208081
  0.7667663604710482  0.4334330227336969  0.5469377942778000
 
  0.00000000E+00  0.00000000E+00  0.00000000E+00
  0.00000000E+00  0.00000000E+00  0.00000000E+00
  0.00000000E+00  0.00000000E+00  0.00000000E+00
  0.00000000E+00  0.00000000E+00  0.00000000E+00
  0.00000000E+00  0.00000000E+00  0.00000000E+00
  0.00000000E+00  0.00000000E+00  0.00000000E+00
  0.00000000E+00  0.00000000E+00  0.00000000E+00
  0.00000000E+00  0.00000000E+00  0.00000000E+00
  0.00000000E+00  0.00000000E+00  0.00000000E+00
  0.00000000E+00  0.00000000E+00  0.00000000E+00
  0.00000000E+00  0.00000000E+00  0.00000000E+00
  0.00000000E+00  0.00000000E+00  0.00000000E+00
  0.00000000E+00  0.00000000E+00  0.00000000E+00
  0.00000000E+00  0.00000000E+00  0.00000000E+00
  0.00000000E+00  0.00000000E+00  0.00000000E+00
  0.00000000E+00  0.00000000E+00  0.00000000E+00
  0.00000000E+00  0.00000000E+00  0.00000000E+00
  0.00000000E+00  0.00000000E+00  0.00000000E+00
  0.00000000E+00  0.00000000E+00  0.00000000E+00
  0.00000000E+00  0.00000000E+00  0.00000000E+00
  0.00000000E+00  0.00000000E+00  0.00000000E+00
  0.00000000E+00  0.00000000E+00  0.00000000E+00
  0.00000000E+00  0.00000000E+00  0.00000000E+00
  0.00000000E+00  0.00000000E+00  0.00000000E+00
  0.00000000E+00  0.00000000E+00  0.00000000E+00
  0.00000000E+00  0.00000000E+00  0.00000000E+00
  0.00000000E+00  0.00000000E+00  0.00000000E+00
  0.00000000E+00  0.00000000E+00  0.00000000E+00
  0.00000000E+00  0.00000000E+00  0.00000000E+00
  0.00000000E+00  0.00000000E+00  0.00000000E+00
  0.00000000E+00  0.00000000E+00  0.00000000E+00
  0.00000000E+00  0.00000000E+00  0.00000000E+00
  0.00000000E+00  0.00000000E+00  0.00000000E+00
  0.00000000E+00  0.00000000E+00  0.00000000E+00
  0.00000000E+00  0.00000000E+00  0.00000000E+00
  0.00000000E+00  0.00000000E+00  0.00000000E+00
  0.00000000E+00  0.00000000E+00  0.00000000E+00
  0.00000000E+00  0.00000000E+00  0.00000000E+00
  0.00000000E+00  0.00000000E+00  0.00000000E+00
  0.00000000E+00  0.00000000E+00  0.00000000E+00
  0.00000000E+00  0.00000000E+00  0.00000000E+00
  0.00000000E+00  0.00000000E+00  0.00000000E+00
  0.00000000E+00  0.00000000E+00  0.00000000E+00
  0.00000000E+00  0.00000000E+00  0.00000000E+00
  0.00000000E+00  0.00000000E+00  0.00000000E+00
  0.00000000E+00  0.00000000E+00  0.00000000E+00
  0.00000000E+00  0.00000000E+00  0.00000000E+00
  0.00000000E+00  0.00000000E+00  0.00000000E+00
  0.00000000E+00  0.00000000E+00  0.00000000E+00
  0.00000000E+00  0.00000000E+00  0.00000000E+00
  0.00000000E+00  0.00000000E+00  0.00000000E+00
