 running on   16 total cores
 distrk:  each k-point on   16 cores,    1 groups
 distr:  one band on    4 cores,    4 groups
 using from now: INCAR     
 vasp.5.4.1 24Jun15 (build Jul 23 2024 06:15:33) complex                        
  
 POSCAR found type information on POSCAR  C  Li
 POSCAR found :  2 types and      51 ions
 scaLAPACK will be used
 LDA part: xc-table for Pade appr. of Perdew
 POSCAR, INCAR and KPOINTS ok, starting setup
 FFT: planning ...
 WAVECAR not read
 entering main loop
       N       E                     dE             d eps       ncg     rms          rms(c)
DAV:   1     0.195242887478E+04    0.19524E+04   -0.67592E+04  3224   0.106E+03
DAV:   2     0.427426442277E+02   -0.19097E+04   -0.17662E+04  4080   0.237E+02
DAV:   3    -0.462217883184E+03   -0.50496E+03   -0.50073E+03  3488   0.129E+02
DAV:   4    -0.489184367488E+03   -0.26966E+02   -0.26669E+02  3368   0.389E+01
DAV:   5    -0.490166413442E+03   -0.98205E+00   -0.97541E+00  3960   0.631E+00    0.329E+01
DAV:   6    -0.465439376470E+03    0.24727E+02   -0.25198E+01  3004   0.127E+01    0.189E+01
DAV:   7    -0.453502362557E+03    0.11937E+02   -0.17303E+01  2984   0.101E+01    0.995E+00
DAV:   8    -0.452827974913E+03    0.67439E+00   -0.42425E+00  3072   0.474E+00    0.387E+00
DAV:   9    -0.453945317137E+03   -0.11173E+01   -0.61216E-01  3544   0.200E+00    0.147E+00
DAV:  10    -0.454340786743E+03   -0.39547E+00   -0.16729E-01  2872   0.981E-01    0.978E-01
DAV:  11    -0.454654690296E+03   -0.31390E+00   -0.40214E-02  3244   0.446E-01    0.836E-01
DAV:  12    -0.455428130448E+03   -0.77344E+00   -0.18954E-01  2904   0.771E-01    0.597E-01
DAV:  13    -0.455462746211E+03   -0.34616E-01   -0.11836E-01  2816   0.626E-01    0.437E-01
DAV:  14    -0.456007263556E+03   -0.54452E+00   -0.61839E-02  2960   0.446E-01    0.293E-01
DAV:  15    -0.456733589165E+03   -0.72633E+00   -0.33654E-02  2952   0.284E-01    0.200E-01
DAV:  16    -0.457095826617E+03   -0.36224E+00   -0.65711E-03  3032   0.167E-01    0.152E-01
DAV:  17    -0.457417978655E+03   -0.32215E+00   -0.60021E-03  2948   0.152E-01    0.102E-01
DAV:  18    -0.457533254619E+03   -0.11528E+00   -0.23343E-03  2904   0.934E-02    0.763E-02
DAV:  19    -0.457578670927E+03   -0.45416E-01   -0.14081E-03  2984   0.726E-02    0.552E-02
DAV:  20    -0.457592009304E+03   -0.13338E-01   -0.69583E-04  2964   0.568E-02    0.385E-02
DAV:  21    -0.457604664402E+03   -0.12655E-01   -0.26886E-04  2520   0.452E-02    0.266E-02
DAV:  22    -0.457633440583E+03   -0.28776E-01   -0.15709E-04  2508   0.391E-02    0.152E-02
DAV:  23    -0.457648062893E+03   -0.14622E-01   -0.65634E-05  2504   0.295E-02    0.963E-03
DAV:  24    -0.457652749356E+03   -0.46865E-02   -0.35600E-05  2296   0.194E-02    0.615E-03
DAV:  25    -0.457654905775E+03   -0.21564E-02   -0.33846E-05  2320   0.173E-02    0.370E-03
DAV:  26    -0.457655802575E+03   -0.89680E-03   -0.15597E-05  2272   0.122E-02    0.234E-03
DAV:  27    -0.457656184891E+03   -0.38232E-03   -0.42559E-06  1800   0.683E-03    0.152E-03
DAV:  28    -0.457656420405E+03   -0.23551E-03   -0.18691E-06  1960   0.372E-03    0.967E-04
DAV:  29    -0.457656529572E+03   -0.10917E-03   -0.84049E-07  2028   0.219E-03    0.660E-04
DAV:  30    -0.457656597348E+03   -0.67776E-04   -0.44442E-07  1972   0.141E-03    0.412E-04
DAV:  31    -0.457656639918E+03   -0.42570E-04   -0.24642E-07  1988   0.950E-04    0.247E-04
DAV:  32    -0.457656656903E+03   -0.16985E-04   -0.73860E-08  2004   0.600E-04    0.153E-04
DAV:  33    -0.457656665578E+03   -0.86750E-05   -0.36588E-08  1924   0.419E-04
   1 F= -.45765667E+03 E0= -.45765321E+03  d E =-.457657E+03  mag=     0.2952
 curvature:   0.00 expect dE= 0.000E+00 dE for cont linesearch  0.000E+00
 trial: gam= 0.00000 g(F)=  0.130E+00 g(S)=  0.000E+00 ort = 0.000E+00 (trialstep = 0.100E+01)
 search vector abs. value=  0.130E+00
 bond charge predicted
       N       E                     dE             d eps       ncg     rms          rms(c)
DAV:   1    -0.457527673572E+03    0.12898E+00   -0.17373E+01  2640   0.126E+01    0.101E+00
DAV:   2    -0.457545463402E+03   -0.17790E-01   -0.42053E-01  3280   0.191E+00    0.670E-01
DAV:   3    -0.457537806472E+03    0.76569E-02   -0.49391E-02  3124   0.639E-01    0.315E-01
DAV:   4    -0.457536926617E+03    0.87986E-03   -0.70089E-03  3032   0.235E-01    0.153E-01
DAV:   5    -0.457536677366E+03    0.24925E-03   -0.11317E-03  3056   0.971E-02    0.492E-02
DAV:   6    -0.457536612759E+03    0.64607E-04   -0.33461E-04  2880   0.540E-02    0.264E-02
DAV:   7    -0.457536622539E+03   -0.97800E-05   -0.36774E-05  2564   0.165E-02
   2 F= -.45753662E+03 E0= -.45753347E+03  d E =0.120043E+00  mag=     0.3027
 trial-energy change:    0.120043  1 .order    0.117021   -0.130344    0.364385
 step:   0.2565(harm=  0.2635)  dis= 0.00473  next Energy=  -457.673330 (dE=-0.167E-01)
 bond charge predicted
       N       E                     dE             d eps       ncg     rms          rms(c)
DAV:   1    -0.457668073166E+03   -0.13146E+00   -0.95953E+00  2676   0.938E+00    0.774E-01
DAV:   2    -0.457677402471E+03   -0.93293E-02   -0.22755E-01  3220   0.141E+00    0.494E-01
DAV:   3    -0.457673335859E+03    0.40666E-02   -0.27497E-02  3220   0.477E-01    0.225E-01
DAV:   4    -0.457673111038E+03    0.22482E-03   -0.39556E-03  3016   0.175E-01    0.106E-01
DAV:   5    -0.457673258632E+03   -0.14759E-03   -0.60479E-04  3092   0.701E-02    0.369E-02
DAV:   6    -0.457673311194E+03   -0.52562E-04   -0.16341E-04  2960   0.378E-02    0.203E-02
DAV:   7    -0.457673351509E+03   -0.40315E-04   -0.20328E-05  2124   0.130E-02    0.896E-03
DAV:   8    -0.457673372363E+03   -0.20854E-04   -0.51060E-06  1960   0.675E-03    0.337E-03
DAV:   9    -0.457673390098E+03   -0.17734E-04   -0.26103E-06  1948   0.457E-03    0.141E-03
DAV:  10    -0.457673398677E+03   -0.85796E-05   -0.86686E-07  1940   0.272E-03
   3 F= -.45767340E+03 E0= -.45767004E+03  d E =-.167331E-01  mag=     0.3021
 curvature:  -0.13 expect dE=-0.310E-02 dE for cont linesearch -0.752E-06
 trial: gam= 0.17398 g(F)=  0.235E-01 g(S)=  0.000E+00 ort = 0.862E-03 (trialstep = 0.851E+00)
 search vector abs. value=  0.278E-01
 bond charge predicted
       N       E                     dE             d eps       ncg     rms          rms(c)
DAV:   1    -0.457670523953E+03    0.28661E-02   -0.24838E+00  2664   0.479E+00    0.338E-01
DAV:   2    -0.457672872031E+03   -0.23481E-02   -0.51191E-02  3052   0.651E-01    0.223E-01
DAV:   3    -0.457672234166E+03    0.63787E-03   -0.53069E-03  3296   0.214E-01    0.105E-01
DAV:   4    -0.457672192437E+03    0.41729E-04   -0.84384E-04  2964   0.821E-02    0.461E-02
DAV:   5    -0.457672201717E+03   -0.92795E-05   -0.12727E-04  2980   0.326E-02    0.165E-02
DAV:   6    -0.457672198872E+03    0.28444E-05   -0.31189E-05  2412   0.171E-02
   4 F= -.45767220E+03 E0= -.45766883E+03  d E =0.119980E-02  mag=     0.3007
 trial-energy change:    0.001200  1 .order    0.001242   -0.020167    0.022651
 step:   0.4022(harm=  0.4009)  dis= 0.00246  next Energy=  -457.678167 (dE=-0.477E-02)
 bond charge predicted
       N       E                     dE             d eps       ncg     rms          rms(c)
DAV:   1    -0.457677710659E+03   -0.55089E-02   -0.69028E-01  2660   0.253E+00    0.177E-01
DAV:   2    -0.457678336914E+03   -0.62625E-03   -0.14117E-02  3004   0.342E-01    0.118E-01
DAV:   3    -0.457678167952E+03    0.16896E-03   -0.14692E-03  3228   0.113E-01    0.551E-02
DAV:   4    -0.457678170380E+03   -0.24276E-05   -0.23182E-04  3024   0.432E-02    0.242E-02
DAV:   5    -0.457678188586E+03   -0.18206E-04   -0.34028E-05  2464   0.172E-02    0.841E-03
DAV:   6    -0.457678195539E+03   -0.69534E-05   -0.82566E-06  1880   0.930E-03
   5 F= -.45767820E+03 E0= -.45767484E+03  d E =-.479686E-02  mag=     0.3001
 curvature:  -0.24 expect dE=-0.308E-02 dE for cont linesearch -0.136E-06
 trial: gam= 0.55806 g(F)=  0.131E-01 g(S)=  0.000E+00 ort = 0.127E-03 (trialstep = 0.761E+00)
 search vector abs. value=  0.219E-01
 bond charge predicted
       N       E                     dE             d eps       ncg     rms          rms(c)
DAV:   1    -0.457682506554E+03   -0.43180E-02   -0.14980E+00  2656   0.363E+00    0.206E-01
DAV:   2    -0.457684352749E+03   -0.18462E-02   -0.26479E-02  3360   0.434E-01    0.150E-01
DAV:   3    -0.457684146785E+03    0.20596E-03   -0.15636E-03  3156   0.127E-01    0.647E-02
DAV:   4    -0.457684202876E+03   -0.56091E-04   -0.40021E-04  3008   0.543E-02    0.225E-02
DAV:   5    -0.457684219754E+03   -0.16878E-04   -0.33322E-05  2412   0.172E-02    0.103E-02
DAV:   6    -0.457684223473E+03   -0.37191E-05   -0.87065E-06  1956   0.998E-03
   6 F= -.45768422E+03 E0= -.45768087E+03  d E =-.602793E-02  mag=     0.2999
 trial-energy change:   -0.006028  1 .order   -0.005973   -0.010027   -0.001919
 step:   0.9331(harm=  0.9417)  dis= 0.00630  next Energy=  -457.684440 (dE=-0.624E-02)
 bond charge predicted
       N       E                     dE             d eps       ncg     rms          rms(c)
DAV:   1    -0.457684375257E+03   -0.15550E-03   -0.76282E-02  2684   0.820E-01    0.466E-02
DAV:   2    -0.457684466489E+03   -0.91233E-04   -0.13675E-03  3256   0.984E-02    0.341E-02
DAV:   3    -0.457684462020E+03    0.44690E-05   -0.79926E-05  3048   0.289E-02
   7 F= -.45768446E+03 E0= -.45768111E+03  d E =-.626648E-02  mag=     0.2999
 curvature:  -0.78 expect dE=-0.131E-01 dE for cont linesearch -0.191E-06
 trial: gam= 1.26802 g(F)=  0.168E-01 g(S)=  0.000E+00 ort = 0.732E-04 (trialstep = 0.334E+00)
 search vector abs. value=  0.521E-01
 bond charge predicted
       N       E                     dE             d eps       ncg     rms          rms(c)
DAV:   1    -0.457687793180E+03   -0.33267E-02   -0.71967E-01  2640   0.248E+00    0.146E-01
DAV:   2    -0.457688656630E+03   -0.86345E-03   -0.12951E-02  3296   0.303E-01    0.105E-01
DAV:   3    -0.457688568219E+03    0.88411E-04   -0.89425E-04  3112   0.911E-02    0.451E-02
DAV:   4    -0.457688603445E+03   -0.35226E-04   -0.17937E-04  2960   0.357E-02    0.160E-02
DAV:   5    -0.457688618534E+03   -0.15089E-04   -0.15505E-05  2156   0.112E-02    0.560E-03
DAV:   6    -0.457688621266E+03   -0.27322E-05   -0.41999E-06  1976   0.641E-03
   8 F= -.45768862E+03 E0= -.45768524E+03  d E =-.415925E-02  mag=     0.2996
 trial-energy change:   -0.004159  1 .order   -0.004126   -0.005631   -0.002621
 step:   0.6249(harm=  0.6249)  dis= 0.00639  next Energy=  -457.689729 (dE=-0.527E-02)
 bond charge predicted
       N       E                     dE             d eps       ncg     rms          rms(c)
DAV:   1    -0.457689159096E+03   -0.54056E-03   -0.54650E-01  2640   0.216E+00    0.126E-01
DAV:   2    -0.457689822206E+03   -0.66311E-03   -0.99411E-03  3312   0.265E-01    0.905E-02
DAV:   3    -0.457689752669E+03    0.69536E-04   -0.67305E-04  3120   0.790E-02    0.397E-02
DAV:   4    -0.457689779884E+03   -0.27214E-04   -0.13560E-04  2968   0.311E-02    0.140E-02
DAV:   5    -0.457689790398E+03   -0.10514E-04   -0.11534E-05  2100   0.981E-03    0.518E-03
DAV:   6    -0.457689793306E+03   -0.29087E-05   -0.32505E-06  2032   0.568E-03
   9 F= -.45768979E+03 E0= -.45768640E+03  d E =-.533129E-02  mag=     0.2991
 curvature:  -0.97 expect dE=-0.184E-01 dE for cont linesearch -0.218E-07
 trial: gam= 1.16760 g(F)=  0.190E-01 g(S)=  0.000E+00 ort = 0.343E-04 (trialstep = 0.227E+00)
 search vector abs. value=  0.902E-01
 bond charge predicted
       N       E                     dE             d eps       ncg     rms          rms(c)
DAV:   1    -0.457693071037E+03   -0.32806E-02   -0.59462E-01  2640   0.220E+00    0.128E-01
DAV:   2    -0.457693756355E+03   -0.68532E-03   -0.10443E-02  3388   0.268E-01    0.933E-02
DAV:   3    -0.457693670236E+03    0.86119E-04   -0.63352E-04  3032   0.796E-02    0.365E-02
DAV:   4    -0.457693705136E+03   -0.34900E-04   -0.16303E-04  3024   0.326E-02    0.123E-02
DAV:   5    -0.457693718118E+03   -0.12982E-04   -0.11848E-05  2056   0.105E-02    0.571E-03
DAV:   6    -0.457693727933E+03   -0.98148E-05   -0.26297E-06  1968   0.533E-03
  10 F= -.45769373E+03 E0= -.45769034E+03  d E =-.393463E-02  mag=     0.2990
 ZBRENT: can't locate minimum, use default step
 trial-energy change:   -0.003935  1 .order   -0.003897   -0.004317   -0.003478
 step:   0.9075(harm=  1.1667)  dis= 0.01478  next Energy=  -457.700894 (dE=-0.111E-01)
 bond charge predicted
       N       E                     dE             d eps       ncg     rms          rms(c)
DAV:   1    -0.457694611372E+03   -0.89325E-03   -0.53471E+00  2640   0.660E+00    0.386E-01
DAV:   2    -0.457701099150E+03   -0.64878E-02   -0.94446E-02  3400   0.804E-01    0.279E-01
DAV:   3    -0.457700149295E+03    0.94985E-03   -0.57260E-03  3068   0.236E-01    0.113E-01
DAV:   4    -0.457700334364E+03   -0.18507E-03   -0.14328E-03  3068   0.969E-02    0.368E-02
DAV:   5    -0.457700389458E+03   -0.55093E-04   -0.12744E-04  3396   0.315E-02    0.171E-02
DAV:   6    -0.457700424488E+03   -0.35030E-04   -0.81888E-06  2008   0.107E-02    0.893E-03
DAV:   7    -0.457700439851E+03   -0.15363E-04   -0.37733E-06  1996   0.565E-03    0.342E-03
DAV:   8    -0.457700447339E+03   -0.74886E-05   -0.13021E-06  1972   0.306E-03
  11 F= -.45770045E+03 E0= -.45769709E+03  d E =-.106540E-01  mag=     0.2999
 curvature:  -2.55 expect dE=-0.788E-01 dE for cont linesearch -0.554E-03
 trial: gam= 1.36122 g(F)=  0.309E-01 g(S)=  0.000E+00 ort = 0.442E-02 (trialstep = 0.156E+00)
 search vector abs. value=  0.210E+00
 bond charge predicted
       N       E                     dE             d eps       ncg     rms          rms(c)
DAV:   1    -0.457704844501E+03   -0.44047E-02   -0.65555E-01  2640   0.231E+00    0.136E-01
DAV:   2    -0.457705580382E+03   -0.73588E-03   -0.11569E-02  3356   0.284E-01    0.989E-02
DAV:   3    -0.457705478791E+03    0.10159E-03   -0.73670E-04  3044   0.839E-02    0.380E-02
DAV:   4    -0.457705509712E+03   -0.30921E-04   -0.16916E-04  3024   0.322E-02    0.145E-02
DAV:   5    -0.457705522442E+03   -0.12730E-04   -0.99752E-06  2060   0.103E-02    0.638E-03
DAV:   6    -0.457705536398E+03   -0.13955E-04   -0.21933E-06  1988   0.497E-03    0.268E-03
DAV:   7    -0.457705540966E+03   -0.45681E-05   -0.71571E-07  1952   0.266E-03
  12 F= -.45770554E+03 E0= -.45770218E+03  d E =-.509363E-02  mag=     0.3004
 ZBRENT: can't locate minimum, use default step
 trial-energy change:   -0.005094  1 .order   -0.005060   -0.005747   -0.004373
 step:   0.6235(harm=  0.6519)  dis= 0.01493  next Energy=  -457.712464 (dE=-0.120E-01)
 bond charge predicted
       N       E                     dE             d eps       ncg     rms          rms(c)
DAV:   1    -0.457706414167E+03   -0.87777E-03   -0.58997E+00  2640   0.694E+00    0.413E-01
DAV:   2    -0.457713352113E+03   -0.69379E-02   -0.10493E-01  3392   0.854E-01    0.297E-01
DAV:   3    -0.457712234136E+03    0.11180E-02   -0.65424E-03  3108   0.247E-01    0.122E-01
DAV:   4    -0.457712409722E+03   -0.17559E-03   -0.14732E-03  3064   0.959E-02    0.442E-02
DAV:   5    -0.457712466467E+03   -0.56745E-04   -0.10972E-04  3264   0.310E-02    0.199E-02
DAV:   6    -0.457712529333E+03   -0.62866E-04   -0.82896E-06  2072   0.109E-02    0.836E-03
DAV:   7    -0.457712539264E+03   -0.99309E-05   -0.30168E-06  2040   0.544E-03
  13 F= -.45771254E+03 E0= -.45770917E+03  d E =-.120919E-01  mag=     0.3007
 curvature:  -1.85 expect dE=-0.572E-01 dE for cont linesearch -0.291E-04
 trial: gam= 1.33060 g(F)=  0.309E-01 g(S)=  0.000E+00 ort = 0.182E-02 (trialstep = 0.129E+00)
 search vector abs. value=  0.407E+00
 bond charge predicted
       N       E                     dE             d eps       ncg     rms          rms(c)
DAV:   1    -0.457715583607E+03   -0.30543E-02   -0.85953E-01  2640   0.264E+00    0.154E-01
DAV:   2    -0.457716541674E+03   -0.95807E-03   -0.14832E-02  3364   0.320E-01    0.112E-01
DAV:   3    -0.457716404731E+03    0.13694E-03   -0.88092E-04  2984   0.921E-02    0.434E-02
DAV:   4    -0.457716439591E+03   -0.34860E-04   -0.21718E-04  3048   0.359E-02    0.162E-02
DAV:   5    -0.457716456502E+03   -0.16910E-04   -0.11566E-05  2056   0.115E-02    0.832E-03
DAV:   6    -0.457716474590E+03   -0.18089E-04   -0.24699E-06  2016   0.519E-03    0.264E-03
DAV:   7    -0.457716477974E+03   -0.33841E-05   -0.72369E-07  1968   0.278E-03
  14 F= -.45771648E+03 E0= -.45771311E+03  d E =-.393871E-02  mag=     0.3012
 ZBRENT: can't locate minimum, use default step
 trial-energy change:   -0.003939  1 .order   -0.003915   -0.004283   -0.003546
 step:   0.5141(harm=  0.7473)  dis= 0.01585  next Energy=  -457.724991 (dE=-0.125E-01)
 bond charge predicted
       N       E                     dE             d eps       ncg     rms          rms(c)
DAV:   1    -0.457716048685E+03    0.42591E-03   -0.77307E+00  2644   0.792E+00    0.469E-01
DAV:   2    -0.457725082155E+03   -0.90335E-02   -0.13447E-01  3400   0.962E-01    0.336E-01
DAV:   3    -0.457723661195E+03    0.14210E-02   -0.77738E-03  3096   0.269E-01    0.143E-01
DAV:   4    -0.457723865504E+03   -0.20431E-03   -0.18585E-03  3104   0.106E-01    0.489E-02
DAV:   5    -0.457723939955E+03   -0.74451E-04   -0.12680E-04  3304   0.341E-02    0.229E-02
DAV:   6    -0.457724012566E+03   -0.72610E-04   -0.98015E-06  2156   0.117E-02    0.871E-03
DAV:   7    -0.457724024424E+03   -0.11858E-04   -0.28029E-06  1988   0.554E-03    0.329E-03
DAV:   8    -0.457724034553E+03   -0.10129E-04   -0.14915E-06  2012   0.346E-03    0.145E-03
DAV:   9    -0.457724042557E+03   -0.80033E-05   -0.49246E-07  2036   0.200E-03
  15 F= -.45772404E+03 E0= -.45772067E+03  d E =-.115033E-01  mag=     0.3030
 curvature:  -3.92 expect dE=-0.738E-01 dE for cont linesearch -0.117E-02
 ZBRENT: increasing intervall
 opt :   1.2851  next Energy=  -457.719759 (dE=-0.722E-02)
 bond charge predicted
       N       E                     dE             d eps       ncg     rms          rms(c)
DAV:   1    -0.457686011010E+03    0.38024E-01   -0.30890E+01  2640   0.158E+01    0.977E-01
DAV:   2    -0.457723784079E+03   -0.37773E-01   -0.54973E-01  3360   0.194E+00    0.675E-01
DAV:   3    -0.457718233490E+03    0.55506E-02   -0.29980E-02  3128   0.511E-01    0.338E-01
DAV:   4    -0.457718374812E+03   -0.14132E-03   -0.69477E-03  3092   0.216E-01    0.107E-01
DAV:   5    -0.457718660542E+03   -0.28573E-03   -0.59397E-04  3292   0.709E-02    0.435E-02
DAV:   6    -0.457718850723E+03   -0.19018E-03   -0.46278E-05  2876   0.234E-02    0.184E-02
DAV:   7    -0.457718893429E+03   -0.42706E-04   -0.90145E-06  2056   0.942E-03    0.744E-03
DAV:   8    -0.457718929483E+03   -0.36054E-04   -0.46270E-06  1988   0.614E-03    0.324E-03
DAV:   9    -0.457718956929E+03   -0.27446E-04   -0.12987E-06  2044   0.323E-03    0.184E-03
DAV:  10    -0.457718994225E+03   -0.37296E-04   -0.11845E-06  2000   0.242E-03    0.115E-03
DAV:  11    -0.457719033532E+03   -0.39307E-04   -0.11167E-06  2008   0.178E-03    0.954E-04
DAV:  12    -0.457719080181E+03   -0.46650E-04   -0.15324E-06  1992   0.163E-03    0.695E-04
DAV:  13    -0.457719114226E+03   -0.34044E-04   -0.10713E-06  2016   0.132E-03    0.450E-04
DAV:  14    -0.457719138857E+03   -0.24631E-04   -0.53106E-07  1976   0.972E-04    0.324E-04
DAV:  15    -0.457719155350E+03   -0.16493E-04   -0.23256E-07  1980   0.718E-04    0.233E-04
DAV:  16    -0.457719168596E+03   -0.13246E-04   -0.96976E-08  1852   0.513E-04    0.187E-04
DAV:  17    -0.457719182550E+03   -0.13954E-04   -0.74919E-08  1876   0.432E-04    0.147E-04
DAV:  18    -0.457719192683E+03   -0.10132E-04   -0.45956E-08  1884   0.359E-04    0.120E-04
DAV:  19    -0.457719197967E+03   -0.52839E-05   -0.12880E-08  1940   0.276E-04
  16 F= -.45771920E+03 E0= -.45771576E+03  d E =-.665870E-02  mag=     0.3132
 curvature:  14.37 expect dE= 0.109E+01 dE for cont linesearch  0.177E-01
 ZBRENT: bracketing found
 ZBRENT: interpolating
 opt :   0.7683  next Energy=  -457.725443 (dE=-0.129E-01)
 bond charge predicted
       N       E                     dE             d eps       ncg     rms          rms(c)
DAV:   1    -0.457711796581E+03    0.73961E-02   -0.13899E+01  2640   0.106E+01    0.629E-01
DAV:   2    -0.457727488461E+03   -0.15692E-01   -0.23748E-01  3332   0.129E+00    0.450E-01
DAV:   3    -0.457724756558E+03    0.27319E-02   -0.13253E-02  3076   0.357E-01    0.191E-01
DAV:   4    -0.457725011081E+03   -0.25452E-03   -0.33042E-03  3068   0.142E-01    0.673E-02
DAV:   5    -0.457725095223E+03   -0.84142E-04   -0.21342E-04  3200   0.460E-02    0.311E-02
DAV:   6    -0.457725188799E+03   -0.93577E-04   -0.17988E-05  2200   0.164E-02    0.110E-02
DAV:   7    -0.457725200685E+03   -0.11885E-04   -0.37099E-06  2004   0.691E-03    0.433E-03
DAV:   8    -0.457725215243E+03   -0.14558E-04   -0.20309E-06  2012   0.445E-03    0.206E-03
DAV:   9    -0.457725228413E+03   -0.13170E-04   -0.56604E-07  1956   0.248E-03    0.114E-03
DAV:  10    -0.457725246300E+03   -0.17888E-04   -0.34366E-07  1984   0.160E-03    0.733E-04
DAV:  11    -0.457725264202E+03   -0.17901E-04   -0.24707E-07  1996   0.109E-03    0.591E-04
DAV:  12    -0.457725288950E+03   -0.24748E-04   -0.42867E-07  1980   0.101E-03    0.453E-04
DAV:  13    -0.457725304954E+03   -0.16004E-04   -0.29401E-07  2000   0.821E-04    0.278E-04
DAV:  14    -0.457725314993E+03   -0.10038E-04   -0.14076E-07  1964   0.630E-04    0.199E-04
DAV:  15    -0.457725323254E+03   -0.82612E-05   -0.92387E-08  1900   0.499E-04
  17 F= -.45772532E+03 E0= -.45772194E+03  d E =-.127840E-01  mag=     0.3074
 curvature:  -1.14 expect dE=-0.314E-01 dE for cont linesearch -0.250E-05
 trial: gam= 0.66707 g(F)=  0.276E-01 g(S)=  0.000E+00 ort =-0.947E-03 (trialstep = 0.256E+00)
 search vector abs. value=  0.208E+00
 bond charge predicted
       N       E                     dE             d eps       ncg     rms          rms(c)
DAV:   1    -0.457728373788E+03   -0.30588E-02   -0.17392E+00  2644   0.380E+00    0.227E-01
DAV:   2    -0.457730340281E+03   -0.19665E-02   -0.30546E-02  3372   0.467E-01    0.164E-01
DAV:   3    -0.457730000036E+03    0.34025E-03   -0.20577E-03  3088   0.142E-01    0.666E-02
DAV:   4    -0.457730059441E+03   -0.59405E-04   -0.48147E-04  2996   0.572E-02    0.227E-02
DAV:   5    -0.457730075247E+03   -0.15806E-04   -0.44744E-05  2544   0.182E-02    0.100E-02
DAV:   6    -0.457730086707E+03   -0.11461E-04   -0.51859E-06  2004   0.796E-03    0.548E-03
DAV:   7    -0.457730091550E+03   -0.48432E-05   -0.22732E-06  2004   0.441E-03
  18 F= -.45773009E+03 E0= -.45772672E+03  d E =-.476830E-02  mag=     0.3067
 trial-energy change:   -0.004768  1 .order   -0.004801   -0.006926   -0.002676
 step:   0.4179(harm=  0.4179)  dis= 0.00873  next Energy=  -457.730967 (dE=-0.564E-02)
 bond charge predicted
       N       E                     dE             d eps       ncg     rms          rms(c)
DAV:   1    -0.457730265707E+03   -0.17900E-03   -0.68959E-01  2640   0.239E+00    0.143E-01
DAV:   2    -0.457731032021E+03   -0.76631E-03   -0.12122E-02  3328   0.294E-01    0.103E-01
DAV:   3    -0.457730905347E+03    0.12667E-03   -0.81759E-04  3076   0.896E-02    0.418E-02
DAV:   4    -0.457730934510E+03   -0.29164E-04   -0.19211E-04  2968   0.362E-02    0.143E-02
DAV:   5    -0.457730942455E+03   -0.79450E-05   -0.16360E-05  2136   0.116E-02
  19 F= -.45773094E+03 E0= -.45772758E+03  d E =-.561920E-02  mag=     0.3061
 curvature:  -1.61 expect dE=-0.181E-01 dE for cont linesearch -0.546E-06
 trial: gam= 0.36837 g(F)=  0.112E-01 g(S)=  0.000E+00 ort =-0.266E-03 (trialstep = 0.289E+00)
 search vector abs. value=  0.392E-01
 bond charge predicted
       N       E                     dE             d eps       ncg     rms          rms(c)
DAV:   1    -0.457733071832E+03   -0.21373E-02   -0.40358E-01  2640   0.185E+00    0.110E-01
DAV:   2    -0.457733506562E+03   -0.43473E-03   -0.68531E-03  3140   0.224E-01    0.795E-02
DAV:   3    -0.457733441193E+03    0.65369E-04   -0.43602E-04  3164   0.669E-02    0.339E-02
DAV:   4    -0.457733464628E+03   -0.23435E-04   -0.11601E-04  2952   0.289E-02    0.112E-02
DAV:   5    -0.457733470728E+03   -0.61001E-05   -0.10097E-05  2080   0.908E-03
  20 F= -.45773347E+03 E0= -.45773009E+03  d E =-.252827E-02  mag=     0.3057
 trial-energy change:   -0.002528  1 .order   -0.002471   -0.003219   -0.001723
 step:   0.5236(harm=  0.6211)  dis= 0.00443  next Energy=  -457.734202 (dE=-0.326E-02)
 bond charge predicted
       N       E                     dE             d eps       ncg     rms          rms(c)
DAV:   1    -0.457734110291E+03   -0.64566E-03   -0.26696E-01  2656   0.150E+00    0.893E-02
DAV:   2    -0.457734393879E+03   -0.28359E-03   -0.45463E-03  3124   0.182E-01    0.646E-02
DAV:   3    -0.457734352200E+03    0.41679E-04   -0.28741E-04  3136   0.544E-02    0.277E-02
DAV:   4    -0.457734369504E+03   -0.17303E-04   -0.77493E-05  2936   0.236E-02    0.915E-03
DAV:   5    -0.457734374060E+03   -0.45567E-05   -0.68456E-06  2000   0.753E-03
  21 F= -.45773437E+03 E0= -.45773097E+03  d E =-.343161E-02  mag=     0.3054
 curvature:  -1.00 expect dE=-0.572E-02 dE for cont linesearch -0.624E-04
 ZBRENT: extrapolating
 opt :   0.6071  next Energy=  -457.734439 (dE=-0.350E-02)
 bond charge predicted
       N       E                     dE             d eps       ncg     rms          rms(c)
DAV:   1    -0.457734419805E+03   -0.50301E-04   -0.33870E-02  2680   0.535E-01    0.317E-02
DAV:   2    -0.457734455046E+03   -0.35241E-04   -0.58357E-04  3084   0.651E-02    0.230E-02
DAV:   3    -0.457734452825E+03    0.22207E-05   -0.34160E-05  2336   0.192E-02
  22 F= -.45773445E+03 E0= -.45773104E+03  d E =-.351037E-02  mag=     0.3053
 curvature:  -1.05 expect dE=-0.770E-02 dE for cont linesearch -0.899E-06
 trial: gam= 0.64050 g(F)=  0.735E-02 g(S)=  0.000E+00 ort = 0.184E-03 (trialstep = 0.352E+00)
 search vector abs. value=  0.237E-01
 bond charge predicted
       N       E                     dE             d eps       ncg     rms          rms(c)
DAV:   1    -0.457735928500E+03   -0.14735E-02   -0.35810E-01  2664   0.174E+00    0.107E-01
DAV:   2    -0.457736261091E+03   -0.33259E-03   -0.59209E-03  3128   0.210E-01    0.775E-02
DAV:   3    -0.457736188156E+03    0.72935E-04   -0.40506E-04  3080   0.654E-02    0.307E-02
DAV:   4    -0.457736201603E+03   -0.13447E-04   -0.11153E-04  2972   0.280E-02    0.111E-02
DAV:   5    -0.457736202956E+03   -0.13534E-05   -0.69229E-06  1928   0.910E-03
  23 F= -.45773620E+03 E0= -.45773281E+03  d E =-.175013E-02  mag=     0.3048
 trial-energy change:   -0.001750  1 .order   -0.001726   -0.002633   -0.000820
 step:   0.5119(harm=  0.5119)  dis= 0.00263  next Energy=  -457.736365 (dE=-0.191E-02)
 bond charge predicted
       N       E                     dE             d eps       ncg     rms          rms(c)
DAV:   1    -0.457736344393E+03   -0.14279E-03   -0.73736E-02  2700   0.791E-01    0.478E-02
DAV:   2    -0.457736417820E+03   -0.73426E-04   -0.12552E-03  3064   0.963E-02    0.349E-02
DAV:   3    -0.457736405493E+03    0.12327E-04   -0.80581E-05  2956   0.293E-02    0.147E-02
DAV:   4    -0.457736409298E+03   -0.38055E-05   -0.21913E-05  2160   0.130E-02
  24 F= -.45773641E+03 E0= -.45773302E+03  d E =-.195647E-02  mag=     0.3044
 curvature:  -0.81 expect dE=-0.340E-02 dE for cont linesearch -0.450E-07
 trial: gam= 0.57489 g(F)=  0.419E-02 g(S)=  0.000E+00 ort = 0.362E-04 (trialstep = 0.384E+00)
 search vector abs. value=  0.121E-01
 bond charge predicted
       N       E                     dE             d eps       ncg     rms          rms(c)
DAV:   1    -0.457737203456E+03   -0.79796E-03   -0.22000E-01  2672   0.136E+00    0.850E-02
DAV:   2    -0.457737400208E+03   -0.19675E-03   -0.37239E-03  3076   0.167E-01    0.616E-02
DAV:   3    -0.457737350683E+03    0.49526E-04   -0.27052E-04  2876   0.525E-02    0.238E-02
DAV:   4    -0.457737356636E+03   -0.59535E-05   -0.67279E-05  2768   0.219E-02
  25 F= -.45773736E+03 E0= -.45773398E+03  d E =-.947338E-03  mag=     0.3040
 trial-energy change:   -0.000947  1 .order   -0.000919   -0.001618   -0.000220
 step:   0.4448(harm=  0.4448)  dis= 0.00168  next Energy=  -457.737345 (dE=-0.936E-03)
 bond charge predicted
       N       E                     dE             d eps       ncg     rms          rms(c)
DAV:   1    -0.457737372935E+03   -0.22252E-04   -0.54771E-03  2860   0.215E-01    0.138E-02
DAV:   2    -0.457737380099E+03   -0.71641E-05   -0.93874E-05  2988   0.264E-02
  26 F= -.45773738E+03 E0= -.45773400E+03  d E =-.970801E-03  mag=     0.3038
 curvature:  -0.64 expect dE=-0.198E-02 dE for cont linesearch -0.192E-06
 trial: gam= 0.74396 g(F)=  0.310E-02 g(S)=  0.000E+00 ort = 0.603E-04 (trialstep = 0.396E+00)
 search vector abs. value=  0.987E-02
 bond charge predicted
       N       E                     dE             d eps       ncg     rms          rms(c)
DAV:   1    -0.457738250254E+03   -0.87732E-03   -0.18899E-01  2720   0.124E+00    0.789E-02
DAV:   2    -0.457738375378E+03   -0.12512E-03   -0.27220E-03  3072   0.141E-01    0.557E-02
DAV:   3    -0.457738341915E+03    0.33462E-04   -0.19720E-04  2928   0.444E-02    0.176E-02
DAV:   4    -0.457738352025E+03   -0.10110E-04   -0.47958E-05  2336   0.173E-02    0.667E-03
DAV:   5    -0.457738353911E+03   -0.18861E-05   -0.34420E-06  1804   0.611E-03
  27 F= -.45773835E+03 E0= -.45773496E+03  d E =-.973812E-03  mag=     0.3034
 trial-energy change:   -0.000974  1 .order   -0.000960   -0.001248   -0.000672
 step:   0.8591(harm=  0.8591)  dis= 0.00300  next Energy=  -457.738732 (dE=-0.135E-02)
 bond charge predicted
       N       E                     dE             d eps       ncg     rms          rms(c)
DAV:   1    -0.457738602472E+03   -0.25045E-03   -0.25812E-01  2744   0.145E+00    0.886E-02
DAV:   2    -0.457738790176E+03   -0.18770E-03   -0.37581E-03  3052   0.166E-01    0.631E-02
DAV:   3    -0.457738744512E+03    0.45664E-04   -0.25225E-04  2984   0.502E-02    0.211E-02
DAV:   4    -0.457738757490E+03   -0.12978E-04   -0.61370E-05  2588   0.199E-02    0.747E-03
DAV:   5    -0.457738759435E+03   -0.19453E-05   -0.43438E-06  1816   0.682E-03
  28 F= -.45773876E+03 E0= -.45773535E+03  d E =-.137934E-02  mag=     0.3032
 curvature:  -1.35 expect dE=-0.435E-02 dE for cont linesearch -0.260E-06
 trial: gam= 1.05336 g(F)=  0.323E-02 g(S)=  0.000E+00 ort =-0.437E-04 (trialstep = 0.342E+00)
 search vector abs. value=  0.141E-01
 bond charge predicted
       N       E                     dE             d eps       ncg     rms          rms(c)
DAV:   1    -0.457739347089E+03   -0.58960E-03   -0.20525E-01  2664   0.130E+00    0.806E-02
DAV:   2    -0.457739510682E+03   -0.16359E-03   -0.32903E-03  2996   0.156E-01    0.583E-02
DAV:   3    -0.457739467155E+03    0.43527E-04   -0.24417E-04  2872   0.498E-02    0.205E-02
DAV:   4    -0.457739474676E+03   -0.75208E-05   -0.59548E-05  2528   0.201E-02
  29 F= -.45773947E+03 E0= -.45773607E+03  d E =-.715241E-03  mag=     0.3028
 trial-energy change:   -0.000715  1 .order   -0.000704   -0.001091   -0.000317
 step:   0.4831(harm=  0.4831)  dis= 0.00204  next Energy=  -457.739529 (dE=-0.769E-03)
 bond charge predicted
       N       E                     dE             d eps       ncg     rms          rms(c)
DAV:   1    -0.457739521949E+03   -0.54794E-04   -0.34627E-02  2760   0.533E-01    0.332E-02
DAV:   2    -0.457739549908E+03   -0.27959E-04   -0.55435E-04  3028   0.639E-02    0.238E-02
DAV:   3    -0.457739543842E+03    0.60652E-05   -0.36598E-05  2432   0.197E-02
  30 F= -.45773954E+03 E0= -.45773614E+03  d E =-.784407E-03  mag=     0.3025
 curvature:  -1.07 expect dE=-0.171E-02 dE for cont linesearch -0.591E-07
 trial: gam= 0.48983 g(F)=  0.160E-02 g(S)=  0.000E+00 ort =-0.279E-04 (trialstep = 0.371E+00)
 search vector abs. value=  0.495E-02
 bond charge predicted
       N       E                     dE             d eps       ncg     rms          rms(c)
DAV:   1    -0.457739876719E+03   -0.32681E-03   -0.84560E-02  2696   0.839E-01    0.534E-02
DAV:   2    -0.457739949653E+03   -0.72934E-04   -0.14143E-03  2972   0.104E-01    0.385E-02
DAV:   3    -0.457739933223E+03    0.16430E-04   -0.10789E-04  2908   0.335E-02    0.155E-02
DAV:   4    -0.457739939325E+03   -0.61024E-05   -0.28145E-05  2168   0.144E-02
  31 F= -.45773994E+03 E0= -.45773654E+03  d E =-.395483E-03  mag=     0.3022
 trial-energy change:   -0.000395  1 .order   -0.000376   -0.000587   -0.000166
 step:   0.5171(harm=  0.5171)  dis= 0.00113  next Energy=  -457.739953 (dE=-0.409E-03)
 bond charge predicted
       N       E                     dE             d eps       ncg     rms          rms(c)
DAV:   1    -0.457739969180E+03   -0.35957E-04   -0.13229E-02  2748   0.332E-01    0.210E-02
DAV:   2    -0.457739984197E+03   -0.15017E-04   -0.22678E-04  3036   0.413E-02    0.150E-02
DAV:   3    -0.457739984401E+03   -0.20367E-06   -0.13091E-05  2000   0.125E-02
  32 F= -.45773998E+03 E0= -.45773659E+03  d E =-.440559E-03  mag=     0.3021
 curvature:  -0.81 expect dE=-0.104E-02 dE for cont linesearch -0.822E-07
 trial: gam= 0.81772 g(F)=  0.129E-02 g(S)=  0.000E+00 ort = 0.224E-04 (trialstep = 0.400E+00)
 search vector abs. value=  0.464E-02
 bond charge predicted
       N       E                     dE             d eps       ncg     rms          rms(c)
DAV:   1    -0.457740276242E+03   -0.29204E-03   -0.90488E-02  2672   0.867E-01    0.534E-02
DAV:   2    -0.457740351200E+03   -0.74958E-04   -0.14429E-03  3124   0.103E-01    0.387E-02
DAV:   3    -0.457740335988E+03    0.15212E-04   -0.98470E-05  2880   0.327E-02    0.138E-02
DAV:   4    -0.457740341352E+03   -0.53633E-05   -0.27000E-05  2216   0.137E-02
  33 F= -.45774034E+03 E0= -.45773695E+03  d E =-.356951E-03  mag=     0.3018
 trial-energy change:   -0.000357  1 .order   -0.000350   -0.000524   -0.000176
 step:   0.6017(harm=  0.6017)  dis= 0.00178  next Energy=  -457.740379 (dE=-0.394E-03)
 bond charge predicted
       N       E                     dE             d eps       ncg     rms          rms(c)
DAV:   1    -0.457740379450E+03   -0.43462E-04   -0.23172E-02  2720   0.439E-01    0.269E-02
DAV:   2    -0.457740399557E+03   -0.20107E-04   -0.37730E-04  3072   0.525E-02    0.195E-02
DAV:   3    -0.457740396453E+03    0.31039E-05   -0.20877E-05  1932   0.159E-02
  34 F= -.45774040E+03 E0= -.45773700E+03  d E =-.412052E-03  mag=     0.3016
 curvature:  -1.06 expect dE=-0.112E-02 dE for cont linesearch -0.102E-05
 trial: gam= 0.74128 g(F)=  0.105E-02 g(S)=  0.000E+00 ort = 0.667E-04 (trialstep = 0.440E+00)
 search vector abs. value=  0.370E-02
 bond charge predicted
       N       E                     dE             d eps       ncg     rms          rms(c)
DAV:   1    -0.457740644219E+03   -0.24466E-03   -0.89233E-02  2760   0.860E-01    0.553E-02
DAV:   2    -0.457740702223E+03   -0.58004E-04   -0.13630E-03  3072   0.101E-01    0.390E-02
DAV:   3    -0.457740685350E+03    0.16873E-04   -0.10543E-04  2884   0.322E-02    0.136E-02
DAV:   4    -0.457740689706E+03   -0.43562E-05   -0.23543E-05  2172   0.126E-02
  35 F= -.45774069E+03 E0= -.45773728E+03  d E =-.293253E-03  mag=     0.3013
 trial-energy change:   -0.000293  1 .order   -0.000283   -0.000484   -0.000082
 step:   0.5305(harm=  0.5305)  dis= 0.00161  next Energy=  -457.740688 (dE=-0.292E-03)
 bond charge predicted
       N       E                     dE             d eps       ncg     rms          rms(c)
DAV:   1    -0.457740698415E+03   -0.13065E-04   -0.37774E-03  2904   0.177E-01    0.118E-02
DAV:   2    -0.457740701017E+03   -0.26020E-05   -0.58085E-05  2828   0.209E-02
  36 F= -.45774070E+03 E0= -.45773729E+03  d E =-.304563E-03  mag=     0.3012
 curvature:  -0.89 expect dE=-0.595E-03 dE for cont linesearch -0.170E-06
 trial: gam= 0.70080 g(F)=  0.667E-03 g(S)=  0.000E+00 ort = 0.266E-04 (trialstep = 0.458E+00)
 search vector abs. value=  0.252E-02
 bond charge predicted
       N       E                     dE             d eps       ncg     rms          rms(c)
DAV:   1    -0.457740875887E+03   -0.17747E-03   -0.64834E-02  2660   0.733E-01    0.469E-02
DAV:   2    -0.457740925435E+03   -0.49548E-04   -0.10327E-03  3144   0.876E-02    0.338E-02
DAV:   3    -0.457740914635E+03    0.10800E-04   -0.74305E-05  2876   0.280E-02    0.124E-02
DAV:   4    -0.457740919741E+03   -0.51060E-05   -0.18808E-05  2064   0.116E-02
  37 F= -.45774092E+03 E0= -.45773750E+03  d E =-.218725E-03  mag=     0.3009
 trial-energy change:   -0.000219  1 .order   -0.000210   -0.000314   -0.000106
 step:   0.6921(harm=  0.6921)  dis= 0.00192  next Energy=  -457.740938 (dE=-0.237E-03)
 bond charge predicted
       N       E                     dE             d eps       ncg     rms          rms(c)
DAV:   1    -0.457740941159E+03   -0.26524E-04   -0.16959E-02  2712   0.375E-01    0.230E-02
DAV:   2    -0.457740956391E+03   -0.15232E-04   -0.27376E-04  3096   0.450E-02    0.167E-02
DAV:   3    -0.457740954727E+03    0.16645E-05   -0.14765E-05  1836   0.133E-02
  38 F= -.45774095E+03 E0= -.45773754E+03  d E =-.253710E-03  mag=     0.3008
 curvature:  -1.27 expect dE=-0.929E-03 dE for cont linesearch -0.753E-06
 trial: gam= 1.05979 g(F)=  0.730E-03 g(S)=  0.000E+00 ort = 0.386E-04 (trialstep = 0.349E+00)
 search vector abs. value=  0.364E-02
 bond charge predicted
       N       E                     dE             d eps       ncg     rms          rms(c)
DAV:   1    -0.457741117269E+03   -0.16088E-03   -0.55285E-02  2692   0.674E-01    0.416E-02
DAV:   2    -0.457741160068E+03   -0.42799E-04   -0.86532E-04  3052   0.798E-02    0.302E-02
DAV:   3    -0.457741152022E+03    0.80464E-05   -0.57860E-05  2732   0.246E-02
  39 F= -.45774115E+03 E0= -.45773774E+03  d E =-.197295E-03  mag=     0.3006
 trial-energy change:   -0.000197  1 .order   -0.000190   -0.000269   -0.000110
 step:   0.5899(harm=  0.5899)  dis= 0.00201  next Energy=  -457.741182 (dE=-0.227E-03)
 bond charge predicted
       N       E                     dE             d eps       ncg     rms          rms(c)
DAV:   1    -0.457741196952E+03   -0.36883E-04   -0.26257E-02  2716   0.465E-01    0.299E-02
DAV:   2    -0.457741214636E+03   -0.17684E-04   -0.39699E-04  3032   0.543E-02    0.214E-02
DAV:   3    -0.457741211954E+03    0.26815E-05   -0.26265E-05  2132   0.172E-02
  40 F= -.45774121E+03 E0= -.45773780E+03  d E =-.257228E-03  mag=     0.3003
 curvature:  -1.39 expect dE=-0.899E-03 dE for cont linesearch -0.312E-05
 trial: gam= 0.81667 g(F)=  0.645E-03 g(S)=  0.000E+00 ort = 0.903E-04 (trialstep = 0.398E+00)
 search vector abs. value=  0.322E-02
 bond charge predicted
       N       E                     dE             d eps       ncg     rms          rms(c)
DAV:   1    -0.457741398825E+03   -0.18419E-03   -0.62879E-02  2704   0.718E-01    0.431E-02
DAV:   2    -0.457741450276E+03   -0.51451E-04   -0.97723E-04  3064   0.847E-02    0.315E-02
DAV:   3    -0.457741443416E+03    0.68594E-05   -0.63074E-05  2760   0.262E-02
  41 F= -.45774144E+03 E0= -.45773803E+03  d E =-.231462E-03  mag=     0.3001
 trial-energy change:   -0.000231  1 .order   -0.000217   -0.000286   -0.000147
 step:   0.8212(harm=  0.8212)  dis= 0.00261  next Energy=  -457.741507 (dE=-0.295E-03)
 bond charge predicted
       N       E                     dE             d eps       ncg     rms          rms(c)
DAV:   1    -0.457741500110E+03   -0.49834E-04   -0.71496E-02  2708   0.766E-01    0.471E-02
DAV:   2    -0.457741558361E+03   -0.58251E-04   -0.10991E-03  3056   0.900E-02    0.342E-02
DAV:   3    -0.457741551933E+03    0.64274E-05   -0.73222E-05  2860   0.282E-02
  42 F= -.45774155E+03 E0= -.45773814E+03  d E =-.339979E-03  mag=     0.3000
 curvature:  -1.84 expect dE=-0.143E-02 dE for cont linesearch -0.110E-07
 trial: gam= 1.32296 g(F)=  0.775E-03 g(S)=  0.000E+00 ort = 0.439E-05 (trialstep = 0.242E+00)
 search vector abs. value=  0.642E-02
 bond charge predicted
       N       E                     dE             d eps       ncg     rms          rms(c)
DAV:   1    -0.457741685899E+03   -0.12754E-03   -0.46608E-02  2704   0.619E-01    0.378E-02
DAV:   2    -0.457741723507E+03   -0.37608E-04   -0.72169E-04  3108   0.726E-02    0.275E-02
DAV:   3    -0.457741721634E+03    0.18721E-05   -0.49195E-05  2600   0.227E-02
  43 F= -.45774172E+03 E0= -.45773830E+03  d E =-.169701E-03  mag=     0.2999
 trial-energy change:   -0.000170  1 .order   -0.000144   -0.000189   -0.000100
 step:   0.5141(harm=  0.5141)  dis= 0.00234  next Energy=  -457.741753 (dE=-0.201E-03)
 bond charge predicted
       N       E                     dE             d eps       ncg     rms          rms(c)
DAV:   1    -0.457741751411E+03   -0.27904E-04   -0.59120E-02  2696   0.697E-01    0.422E-02
DAV:   2    -0.457741800224E+03   -0.48814E-04   -0.92291E-04  3104   0.821E-02    0.307E-02
DAV:   3    -0.457741795364E+03    0.48606E-05   -0.61859E-05  2708   0.254E-02
  44 F= -.45774180E+03 E0= -.45773837E+03  d E =-.243430E-03  mag=     0.2998
 curvature:  -2.12 expect dE=-0.951E-03 dE for cont linesearch -0.808E-06
 trial: gam= 0.61912 g(F)=  0.449E-03 g(S)=  0.000E+00 ort =-0.495E-04 (trialstep = 0.296E+00)
 search vector abs. value=  0.285E-02
 bond charge predicted
       N       E                     dE             d eps       ncg     rms          rms(c)
DAV:   1    -0.457741880048E+03   -0.79824E-04   -0.31264E-02  2708   0.507E-01    0.308E-02
DAV:   2    -0.457741905576E+03   -0.25527E-04   -0.49936E-04  3200   0.597E-02    0.224E-02
DAV:   3    -0.457741904898E+03    0.67794E-06   -0.32070E-05  2380   0.182E-02
  45 F= -.45774190E+03 E0= -.45773848E+03  d E =-.109534E-03  mag=     0.2997
 trial-energy change:   -0.000110  1 .order   -0.000095   -0.000124   -0.000066
 step:   0.6361(harm=  0.6361)  dis= 0.00208  next Energy=  -457.741929 (dE=-0.133E-03)
 reached required accuracy - stopping structural energy minimisation
