Li defective graphene MACE training lab 
           1
    12.300000    0.000000    0.000000
    -6.150000   10.652112    0.000000
     0.000000    0.000000   30.000000
   C    Li
  50   1
Direct configuration=     1
   0.99833062  0.00395716  0.50248978
   0.53849363  0.66145274  0.49276424
   0.40256034  0.79757682  0.50857975
   0.53508178  0.86277883  0.50290095
   0.59791381  0.99522587  0.50396152
   0.72957153  0.06883898  0.49589646
   0.58399048  0.18391327  0.50571862
   0.70811759  0.26006999  0.49155469
   0.59340333  0.37478426  0.49155469
   0.71109700  0.37776366  0.48103220
   0.60672619  0.59344149  0.48892083
   0.40403928  0.59748285  0.49531841
   0.74243266  0.66218566  0.49041462
   0.73524106  0.86523496  0.49441116
   0.79796309  0.00118195  0.49453631
   0.93081619  0.07070595  0.49531839
   0.79091921  0.20476443  0.49081554
   0.92677482  0.27339286  0.48892083
   0.82167297  0.48833964  0.48064905
   0.93986420  0.49156095  0.49068046
   0.82489428  0.60653087  0.49068045
   0.94933886  0.68246848  0.50415632
   0.80378407  0.79787184  0.49537688
   0.60243869  0.79616015  0.49540750
   0.93542162  0.87128939  0.50318721
   0.53809777  0.45758587  0.49081555
   0.51724659  0.25065714  0.50571862
   0.13091016  0.06922700  0.50857974
   0.99478607  0.20516030  0.49276424
   0.12949349  0.26910535  0.49540751
   0.99551900  0.40909933  0.49041463
   0.13120517  0.47045074  0.49537690
   0.01580180  0.61600552  0.50415632
   0.14352932  0.67315218  0.51071830
   0.00648551  0.81019598  0.51071829
   0.13658599  0.87156899  0.51819194
   0.19735745  0.00260937  0.51702395
   0.40217232  0.39623820  0.49589647
   0.32857504  0.06362272  0.51904465
   0.32855920  0.26458048  0.50396153
   0.19856829  0.40190773  0.49441117
   0.33451528  0.46462975  0.49453633
   0.20462272  0.60208829  0.50318723
   0.33729049  0.66499729  0.50248980
   0.20490232  0.80325266  0.51819195
   0.33594270  0.86402412  0.51702396
   0.39695605  0.99524171  0.51904465
   0.52708319  0.05669492  0.51195367
   0.39002826  0.19374987  0.51195367
   0.19611217  0.20174845  0.50290095
   0.76676636  0.43343302  0.54693779
Direct configuration=     2
   0.99866435  0.00503826  0.50255371
   0.53835818  0.66198898  0.49281917
   0.40285516  0.79667509  0.50847577
   0.53480050  0.86164599  0.50290083
   0.59784864  0.99621855  0.50400125
   0.73011840  0.06920861  0.49584325
   0.58493372  0.18564302  0.50553457
   0.70835620  0.25916765  0.49144049
   0.59250097  0.37502285  0.49144050
   0.70949340  0.37616006  0.48113822
   0.60686868  0.59286588  0.48902979
   0.40420404  0.59808214  0.49551969
   0.74281997  0.66184973  0.49037542
   0.73481512  0.86560506  0.49452578
   0.79846818  0.00131971  0.49460026
   0.93141547  0.07087071  0.49551967
   0.79043632  0.20468423  0.49084105
   0.92619921  0.27353535  0.48902979
   0.82287129  0.48953795  0.48065073
   0.94037944  0.49122627  0.49054078
   0.82455962  0.60704612  0.49054078
   0.94927717  0.68306604  0.50412429
   0.80311389  0.79740427  0.49532572
   0.60182229  0.79531832  0.49559251
   0.93595440  0.87117677  0.50322295
   0.53801757  0.45710300  0.49084105
   0.51897641  0.25160043  0.50553457
   0.13000842  0.06952183  0.50847576
   0.99532231  0.20502485  0.49281916
   0.12865165  0.26848896  0.49559251
   0.99518306  0.40948664  0.49037543
   0.13073760  0.46978055  0.49532575
   0.01639940  0.61594386  0.50412430
   0.14349759  0.67312981  0.51069128
   0.00646317  0.81016428  0.51069127
   0.13588721  0.87022840  0.51802491
   0.19814967  0.00236559  0.51722219
   0.40254194  0.39678506  0.49584326
   0.32938979  0.06361194  0.51889682
   0.32955189  0.26451532  0.50400126
   0.19893839  0.40148179  0.49452580
   0.33465304  0.46513485  0.49460028
   0.20451011  0.60262107  0.50322298
   0.33837159  0.66533100  0.50255373
   0.20356174  0.80255389  0.51802492
   0.33569893  0.86481633  0.51722220
   0.39694526  0.99605645  0.51889682
   0.52697975  0.05535455  0.51195685
   0.38868784  0.19364638  0.51195686
   0.19497933  0.20146715  0.50290084
   0.76676175  0.43342841  0.54675890
Direct configuration=     3
   0.99841621  0.00423443  0.50250617
   0.53845889  0.66159027  0.49277833
   0.40263595  0.79734555  0.50855308
   0.53500963  0.86248829  0.50290092
   0.59789710  0.99548047  0.50397171
   0.72971179  0.06893378  0.49588281
   0.58423240  0.18435691  0.50567141
   0.70817879  0.25983856  0.49152540
   0.59317190  0.37484545  0.49152540
   0.71068571  0.37735238  0.48105939
   0.60676274  0.59329386  0.48894878
   0.40408154  0.59763655  0.49537003
   0.74253200  0.66209950  0.49040456
   0.73513182  0.86532988  0.49444055
   0.79809263  0.00121728  0.49455271
   0.93096989  0.07074820  0.49537001
   0.79079536  0.20474386  0.49082209
   0.92662719  0.27342941  0.48894878
   0.82198031  0.48864697  0.48064948
   0.93999635  0.49147511  0.49064464
   0.82480845  0.60666302  0.49064463
   0.94932304  0.68262174  0.50414810
   0.80361219  0.79775192  0.49536376
   0.60228059  0.79594424  0.49545495
   0.93555827  0.87126051  0.50319638
   0.53807720  0.45746203  0.49082209
   0.51769025  0.25089907  0.50567142
   0.13067888  0.06930262  0.50855307
   0.99492360  0.20512556  0.49277832
   0.12927758  0.26894726  0.49545496
   0.99543284  0.40919866  0.49040458
   0.13108525  0.47027885  0.49536378
   0.01595507  0.61598971  0.50414811
   0.14352118  0.67314645  0.51071137
   0.00647978  0.81018785  0.51071136
   0.13640677  0.87122516  0.51814910
   0.19756063  0.00254684  0.51707480
   0.40226712  0.39637845  0.49588283
   0.32878401  0.06361995  0.51900674
   0.32881380  0.26456377  0.50397172
   0.19866321  0.40179848  0.49444057
   0.33455061  0.46475930  0.49455273
   0.20459384  0.60222493  0.50319640
   0.33756776  0.66508288  0.50250619
   0.20455849  0.80307344  0.51814911
   0.33588018  0.86422730  0.51707480
   0.39695328  0.99545067  0.51900674
   0.52705666  0.05635115  0.51195448
   0.38968448  0.19372333  0.51195449
   0.19582162  0.20167630  0.50290092
   0.76676518  0.43343184  0.54689191
Direct configuration=     4
   0.99832296  0.00439747  0.50257839
   0.53844554  0.66152807  0.49283362
   0.40279633  0.79726913  0.50853302
   0.53500427  0.86219127  0.50292420
   0.59792151  0.99539520  0.50396979
   0.72998284  0.06915191  0.49585904
   0.58436525  0.18404674  0.50562378
   0.70831136  0.25952751  0.49139812
   0.59286084  0.37497803  0.49139812
   0.71104571  0.37771238  0.48105490
   0.60683501  0.59298229  0.48904549
   0.40428701  0.59799924  0.49553801
   0.74245265  0.66180669  0.49036073
   0.73488725  0.86540803  0.49454842
   0.79838707  0.00137627  0.49462622
   0.93133257  0.07095368  0.49553799
   0.79071931  0.20462019  0.49083125
   0.92631562  0.27350167  0.48904549
   0.82153939  0.48820606  0.48062124
   0.94039338  0.49166992  0.49053700
   0.82500325  0.60706005  0.49053699
   0.94927961  0.68262324  0.50408885
   0.80347192  0.79772174  0.49534928
   0.60202931  0.79563872  0.49561800
   0.93563481  0.87141801  0.50319270
   0.53795352  0.45738597  0.49083126
   0.51738007  0.25103191  0.50562378
   0.13060246  0.06946299  0.50853301
   0.99486140  0.20511221  0.49283361
   0.12897205  0.26869598  0.49561801
   0.99514002  0.40911932  0.49036074
   0.13105507  0.47013859  0.49534930
   0.01595656  0.61594627  0.50408886
   0.14352535  0.67301575  0.51067657
   0.00634908  0.81019202  0.51067656
   0.13622068  0.87081388  0.51802267
   0.19768288  0.00209865  0.51719591
   0.40248525  0.39664951  0.49585906
   0.32902011  0.06379116  0.51887226
   0.32872853  0.26458817  0.50396980
   0.19874136  0.40155392  0.49454844
   0.33470960  0.46505373  0.49462624
   0.20475134  0.60230147  0.50319272
   0.33773080  0.66498962  0.50257841
   0.20414720  0.80288734  0.51802267
   0.33543198  0.86434955  0.51719592
   0.39712450  0.99568678  0.51887226
   0.52734578  0.05683931  0.51191102
   0.39017266  0.19401245  0.51191102
   0.19552461  0.20167094  0.50292420
   0.76676234  0.43342900  0.54672168
Direct configuration=     5
   0.99837215  0.00431146  0.50254029
   0.53845258  0.66156088  0.49280445
   0.40271172  0.79730944  0.50854361
   0.53500710  0.86234796  0.50291192
   0.59790863  0.99544018  0.50397080
   0.72983985  0.06903684  0.49587158
   0.58429517  0.18421036  0.50564891
   0.70824142  0.25969160  0.49146526
   0.59302493  0.37490809  0.49146526
   0.71085580  0.37752247  0.48105727
   0.60679688  0.59314665  0.48899447
   0.40417862  0.59780791  0.49544939
   0.74249451  0.66196116  0.49038385
   0.73501627  0.86536680  0.49449152
   0.79823174  0.00129240  0.49458744
   0.93114125  0.07084528  0.49544938
   0.79075943  0.20468543  0.49082642
   0.92647999  0.27346355  0.48899447
   0.82177199  0.48843865  0.48063614
   0.94018394  0.49156715  0.49059378
   0.82490049  0.60685060  0.49059377
   0.94930252  0.68262245  0.50412011
   0.80354592  0.79773766  0.49535691
   0.60216187  0.79579989  0.49553199
   0.93559443  0.87133492  0.50319464
   0.53801877  0.45742609  0.49082642
   0.51754370  0.25096183  0.50564891
   0.13064278  0.06937839  0.50854360
   0.99489422  0.20511925  0.49280445
   0.12913323  0.26882854  0.49553200
   0.99529449  0.40916118  0.49038387
   0.13107099  0.47021258  0.49535694
   0.01595578  0.61596918  0.50412012
   0.14352315  0.67308470  0.51069493
   0.00641803  0.81018982  0.51069491
   0.13631885  0.87103084  0.51808937
   0.19761839  0.00233508  0.51713202
   0.40237018  0.39650652  0.49587160
   0.32889556  0.06370084  0.51894320
   0.32877351  0.26457530  0.50397081
   0.19870014  0.40168294  0.49449154
   0.33462573  0.46489841  0.49458746
   0.20466825  0.60226109  0.50319466
   0.33764480  0.66503882  0.50254031
   0.20436417  0.80298551  0.51808937
   0.33566842  0.86428506  0.51713203
   0.39703418  0.99556222  0.51894320
   0.52719326  0.05658179  0.51193395
   0.38991513  0.19385993  0.51193395
   0.19568129  0.20167377  0.50291192
   0.76676384  0.43343050  0.54681149
Direct configuration=     6
   0.99841656  0.00434813  0.50264249
   0.53857869  0.66134332  0.49289629
   0.40255693  0.79742561  0.50858142
   0.53502732  0.86235113  0.50296366
   0.59807813  0.99531083  0.50395454
   0.72988383  0.06895495  0.49587432
   0.58446088  0.18441580  0.50555083
   0.70819573  0.25960038  0.49132692
   0.59293371  0.37486239  0.49132693
   0.71077092  0.37743759  0.48105183
   0.60677679  0.59298147  0.48909254
   0.40433069  0.59789315  0.49562072
   0.74243176  0.66187083  0.49034497
   0.73492699  0.86536126  0.49461983
   0.79843523  0.00145238  0.49468591
   0.93122649  0.07099736  0.49562070
   0.79079079  0.20461790  0.49082312
   0.92631480  0.27344346  0.48909254
   0.82187315  0.48853981  0.48061371
   0.94022936  0.49170809  0.49044810
   0.82504142  0.60689602  0.49044810
   0.94929585  0.68258162  0.50403293
   0.80347906  0.79780478  0.49535739
   0.60212483  0.79565534  0.49570338
   0.93539465  0.87140860  0.50317759
   0.53795123  0.45745746  0.49082313
   0.51774913  0.25112755  0.50555083
   0.13075894  0.06922360  0.50858141
   0.99467665  0.20524536  0.49289628
   0.12898868  0.26879150  0.49570339
   0.99520416  0.40909843  0.49034499
   0.13113811  0.47014573  0.49535741
   0.01591495  0.61596251  0.50403294
   0.14351074  0.67289737  0.51064081
   0.00623071  0.81017742  0.51064080
   0.13618867  0.87084969  0.51796897
   0.19760871  0.00219817  0.51719730
   0.40228828  0.39655049  0.49587433
   0.32902753  0.06379431  0.51880638
   0.32864416  0.26474479  0.50395455
   0.19869459  0.40159366  0.49461985
   0.33478571  0.46510190  0.49468593
   0.20474194  0.60206131  0.50317762
   0.33768147  0.66508323  0.50264251
   0.20418303  0.80285534  0.51796898
   0.33553150  0.86427538  0.51719731
   0.39712765  0.99569419  0.51880638
   0.52737167  0.05664470  0.51188192
   0.38997803  0.19403833  0.51188192
   0.19568446  0.20169399  0.50296366
   0.76676473  0.43343139  0.54661630
Direct configuration=     7
   0.99842657  0.00435640  0.50266552
   0.53860712  0.66129428  0.49291698
   0.40252205  0.79745179  0.50858994
   0.53503188  0.86235184  0.50297532
   0.59811632  0.99528167  0.50395088
   0.72989374  0.06893649  0.49587494
   0.58449823  0.18446210  0.50552872
   0.70818543  0.25957982  0.49129575
   0.59291315  0.37485210  0.49129575
   0.71075179  0.37741846  0.48105061
   0.60677226  0.59294424  0.48911464
   0.40436497  0.59791236  0.49565933
   0.74241762  0.66185047  0.49033621
   0.73490687  0.86536001  0.49464875
   0.79848109  0.00148844  0.49470810
   0.93124570  0.07103163  0.49565931
   0.79079786  0.20460268  0.49082238
   0.92627758  0.27343893  0.48911464
   0.82189595  0.48856261  0.48060865
   0.94023959  0.49173985  0.49041527
   0.82507319  0.60690626  0.49041526
   0.94929434  0.68257242  0.50401328
   0.80346399  0.79781991  0.49535750
   0.60211648  0.79562277  0.49574201
   0.93534962  0.87142521  0.50317375
   0.53793601  0.45746452  0.49082239
   0.51779543  0.25116489  0.50552873
   0.13078512  0.06918871  0.50858993
   0.99462762  0.20527378  0.49291698
   0.12895610  0.26878315  0.49574201
   0.99518381  0.40908429  0.49033623
   0.13115324  0.47013066  0.49535752
   0.01590576  0.61596101  0.50401329
   0.14350795  0.67285516  0.51062862
   0.00618849  0.81017462  0.51062860
   0.13615933  0.87080887  0.51794184
   0.19760653  0.00216731  0.51721202
   0.40226983  0.39656041  0.49587495
   0.32905727  0.06381538  0.51877555
   0.32861501  0.26478299  0.50395089
   0.19869334  0.40157354  0.49464877
   0.33482177  0.46514776  0.49470812
   0.20475854  0.60201629  0.50317378
   0.33768973  0.66509324  0.50266554
   0.20414220  0.80282600  0.51794184
   0.33550065  0.86427320  0.51721202
   0.39714871  0.99572393  0.51877555
   0.52741187  0.05665887  0.51187019
   0.38999221  0.19407854  0.51187020
   0.19568518  0.20169855  0.50297532
   0.76676493  0.43343159  0.54657231
Direct configuration=     8
   0.99850514  0.00441152  0.50274268
   0.53867057  0.66126781  0.49302450
   0.40245395  0.79752885  0.50864190
   0.53492778  0.86227949  0.50303046
   0.59815984  0.99529835  0.50394647
   0.72997364  0.06889491  0.49588461
   0.58445039  0.18440843  0.50546049
   0.70823783  0.25965730  0.49120114
   0.59299063  0.37490450  0.49120115
   0.71085339  0.37752006  0.48099595
   0.60679856  0.59292310  0.48916786
   0.40446304  0.59792465  0.49577323
   0.74249395  0.66191440  0.49031616
   0.73495655  0.86540334  0.49474242
   0.79846041  0.00143773  0.49479285
   0.93125798  0.07112970  0.49577321
   0.79070422  0.20453042  0.49081536
   0.92625643  0.27346523  0.48916786
   0.82184226  0.48850893  0.48055279
   0.94019696  0.49170422  0.49031099
   0.82503756  0.60686363  0.49031098
   0.94934841  0.68268310  0.50394075
   0.80332496  0.79776474  0.49536236
   0.60214063  0.79556569  0.49585375
   0.93527215  0.87142395  0.50317362
   0.53786376  0.45737089  0.49081537
   0.51774176  0.25111706  0.50546049
   0.13086219  0.06912061  0.50864189
   0.99460114  0.20533724  0.49302450
   0.12889903  0.26880730  0.49585375
   0.99524774  0.40916062  0.49031617
   0.13109807  0.46999162  0.49536239
   0.01601643  0.61601508  0.50394076
   0.14346730  0.67273370  0.51057246
   0.00606703  0.81013397  0.51057245
   0.13605776  0.87078902  0.51787251
   0.19766354  0.00217686  0.51721143
   0.40222824  0.39664031  0.49588463
   0.32906874  0.06387522  0.51869216
   0.32863169  0.26482650  0.50394648
   0.19873667  0.40162322  0.49474244
   0.33477106  0.46512708  0.49479287
   0.20475728  0.60193881  0.50317365
   0.33774485  0.66517180  0.50274271
   0.20412235  0.80272443  0.51787252
   0.33551020  0.86433021  0.51721144
   0.39720855  0.99573541  0.51869216
   0.52750207  0.05664029  0.51181168
   0.38997363  0.19416874  0.51181168
   0.19561282  0.20159444  0.50303046
   0.76676886  0.43343552  0.54643406
Direct configuration=     9
   0.99857354  0.00445951  0.50280987
   0.53872582  0.66124476  0.49311811
   0.40239466  0.79759595  0.50868714
   0.53483714  0.86221649  0.50307847
   0.59819772  0.99531287  0.50394264
   0.73004321  0.06885870  0.49589304
   0.58440874  0.18436170  0.50540108
   0.70828346  0.25972475  0.49111878
   0.59305809  0.37495013  0.49111878
   0.71094185  0.37760852  0.48094837
   0.60682146  0.59290469  0.48921419
   0.40454842  0.59793534  0.49587240
   0.74256041  0.66197006  0.49029870
   0.73499980  0.86544106  0.49482397
   0.79844240  0.00139359  0.49486663
   0.93126868  0.07121509  0.49587238
   0.79062270  0.20446752  0.49080925
   0.92623802  0.27348813  0.48921419
   0.82179552  0.48846219  0.48050415
   0.94015984  0.49167320  0.49022019
   0.82500654  0.60682651  0.49022018
   0.94939549  0.68277946  0.50387760
   0.80320390  0.79771671  0.49536660
   0.60216166  0.79551600  0.49595103
   0.93520470  0.87142286  0.50317351
   0.53780085  0.45728937  0.49080926
   0.51769503  0.25107541  0.50540109
   0.13092928  0.06906133  0.50868713
   0.99457809  0.20539249  0.49311810
   0.12884934  0.26882832  0.49595104
   0.99530340  0.40922707  0.49029871
   0.13105004  0.46987057  0.49536663
   0.01611278  0.61606215  0.50387761
   0.14343191  0.67262795  0.51052358
   0.00596128  0.81009858  0.51052356
   0.13596933  0.87077174  0.51781215
   0.19771318  0.00218518  0.51721092
   0.40219203  0.39670988  0.49589306
   0.32907874  0.06392732  0.51861957
   0.32864621  0.26486439  0.50394265
   0.19877440  0.40166646  0.49482400
   0.33472692  0.46510907  0.49486666
   0.20475619  0.60187136  0.50317353
   0.33779285  0.66524020  0.50280989
   0.20410507  0.80263600  0.51781216
   0.33551851  0.86437985  0.51721093
   0.39726065  0.99574540  0.51861957
   0.52758060  0.05662411  0.51176073
   0.38995745  0.19424727  0.51176074
   0.19554983  0.20150381  0.50307847
   0.76677228  0.43343894  0.54631369
Direct configuration=    10
   0.99857972  0.00447663  0.50288011
   0.53877034  0.66128256  0.49324130
   0.40240624  0.79760222  0.50874447
   0.53479195  0.86218347  0.50313939
   0.59819719  0.99529503  0.50393843
   0.73004119  0.06882660  0.49591368
   0.58437960  0.18432183  0.50532013
   0.70824754  0.25974160  0.49105559
   0.59307494  0.37491421  0.49105559
   0.71094903  0.37761570  0.48085941
   0.60686749  0.59291479  0.48924903
   0.40455869  0.59793199  0.49597554
   0.74257464  0.66199141  0.49028070
   0.73498325  0.86541744  0.49490649
   0.79843843  0.00134042  0.49495301
   0.93126532  0.07122535  0.49597552
   0.79059644  0.20447139  0.49079447
   0.92624812  0.27353416  0.48924903
   0.82184854  0.48851520  0.48041986
   0.94019328  0.49169661  0.49014443
   0.82502994  0.60685994  0.49014442
   0.94936583  0.68271812  0.50378173
   0.80318611  0.79770488  0.49538392
   0.60218483  0.79554677  0.49605147
   0.93516103  0.87141772  0.50317773
   0.53780472  0.45726311  0.49079448
   0.51765517  0.25104627  0.50532013
   0.13093555  0.06907291  0.50874445
   0.99461589  0.20543701  0.49324129
   0.12888010  0.26885150  0.49605148
   0.99532474  0.40924131  0.49028071
   0.13103821  0.46985278  0.49538394
   0.01605144  0.61603249  0.50378174
   0.14349997  0.67262455  0.51046895
   0.00595788  0.81016664  0.51046893
   0.13596570  0.87077539  0.51776338
   0.19775673  0.00217552  0.51717771
   0.40215994  0.39670786  0.49591370
   0.32910560  0.06394734  0.51855699
   0.32862837  0.26486385  0.50393844
   0.19875078  0.40164992  0.49490651
   0.33467376  0.46510510  0.49495304
   0.20475105  0.60182769  0.50317776
   0.33780996  0.66524639  0.50288014
   0.20410872  0.80263237  0.51776339
   0.33550885  0.86442340  0.51717772
   0.39728067  0.99577227  0.51855699
   0.52757880  0.05659018  0.51169789
   0.38992352  0.19424547  0.51169789
   0.19551680  0.20145861  0.50313940
   0.76677738  0.43344404  0.54619417
Direct configuration=    11
   0.99859827  0.00452797  0.50309084
   0.53890390  0.66139595  0.49361087
   0.40244098  0.79762104  0.50891645
   0.53465637  0.86208440  0.50332217
   0.59819558  0.99524152  0.50392582
   0.73003515  0.06873031  0.49597560
   0.58429220  0.18420222  0.50507726
   0.70813979  0.25979215  0.49086602
   0.59312548  0.37480646  0.49086602
   0.71097059  0.37763725  0.48059254
   0.60700557  0.59294509  0.48935354
   0.40458948  0.59792192  0.49628498
   0.74261735  0.66205544  0.49022670
   0.73493363  0.86534658  0.49515403
   0.79842653  0.00118093  0.49521214
   0.93125526  0.07125615  0.49628495
   0.79051768  0.20448301  0.49075013
   0.92627843  0.27367224  0.48935354
   0.82200758  0.48867424  0.48016699
   0.94029359  0.49176683  0.48991715
   0.82510016  0.60696025  0.48991714
   0.94927684  0.68253410  0.50349413
   0.80313274  0.79766939  0.49543587
   0.60225436  0.79563906  0.49635279
   0.93503002  0.87140229  0.50319039
   0.53781634  0.45718435  0.49075014
   0.51753556  0.25095886  0.50507726
   0.13095438  0.06910764  0.50891644
   0.99472928  0.20557057  0.49361087
   0.12897240  0.26892103  0.49635280
   0.99538878  0.40928402  0.49022671
   0.13100272  0.46979941  0.49543590
   0.01586743  0.61594351  0.50349414
   0.14370414  0.67261435  0.51030506
   0.00594769  0.81037081  0.51030504
   0.13595480  0.87078635  0.51761706
   0.19788737  0.00214655  0.51707807
   0.40206365  0.39670182  0.49597562
   0.32918619  0.06400740  0.51836927
   0.32857485  0.26486225  0.50392583
   0.19867992  0.40160030  0.49515406
   0.33451427  0.46509320  0.49521217
   0.20473562  0.60169669  0.50319043
   0.33786130  0.66526493  0.50309087
   0.20411968  0.80262147  0.51761707
   0.33547988  0.86455404  0.51707808
   0.39734073  0.99585285  0.51836927
   0.52757338  0.05648838  0.51150934
   0.38982171  0.19424005  0.51150935
   0.19541773  0.20132303  0.50332217
   0.76679266  0.43345932  0.54583561
Direct configuration=    12
   0.99853768  0.00451078  0.50316221
   0.53890931  0.66140404  0.49373530
   0.40243781  0.79756821  0.50897467
   0.53473051  0.86213278  0.50338977
   0.59815669  0.99517735  0.50392341
   0.73000515  0.06873145  0.49600411
   0.58424905  0.18418900  0.50498253
   0.70808930  0.25974456  0.49081046
   0.59307789  0.37475596  0.49081047
   0.71097068  0.37763735  0.48048578
   0.60700077  0.59295784  0.48938448
   0.40457351  0.59793421  0.49639179
   0.74260150  0.66204461  0.49020956
   0.73490752  0.86530387  0.49523381
   0.79845158  0.00119268  0.49529955
   0.93126755  0.07124017  0.49639177
   0.79055050  0.20451898  0.49073388
   0.92629117  0.27366744  0.48938448
   0.82200970  0.48867636  0.48005182
   0.94031891  0.49177372  0.48984463
   0.82510706  0.60698557  0.48984462
   0.94933906  0.68265539  0.50339896
   0.80316554  0.79767932  0.49546327
   0.60221942  0.79565694  0.49645529
   0.93505804  0.87144794  0.50319946
   0.53785231  0.45721717  0.49073389
   0.51752233  0.25091572  0.50498254
   0.13090154  0.06910448  0.50897465
   0.99473738  0.20557597  0.49373529
   0.12899028  0.26888609  0.49645530
   0.99537795  0.40926817  0.49020958
   0.13101265  0.46983220  0.49546330
   0.01598872  0.61600573  0.50339897
   0.14362603  0.67263706  0.51024321
   0.00597040  0.81029271  0.51024319
   0.13598929  0.87078290  0.51757295
   0.19789709  0.00213958  0.51703181
   0.40206478  0.39667182  0.49600414
   0.32921147  0.06398445  0.51831539
   0.32851069  0.26482336  0.50392342
   0.19863720  0.40157419  0.49523384
   0.33452602  0.46511824  0.49529958
   0.20478127  0.60172470  0.50319950
   0.33784411  0.66520435  0.50316224
   0.20411623  0.80265596  0.51757296
   0.33547292  0.86456375  0.51703182
   0.39731779  0.99587814  0.51831539
   0.52753054  0.05649687  0.51144271
   0.38983021  0.19419721  0.51144272
   0.19546612  0.20139718  0.50338977
   0.76679878  0.43346544  0.54572242
Direct configuration=    13
   0.99835592  0.00445922  0.50337631
   0.53892552  0.66142832  0.49410856
   0.40242830  0.79740971  0.50914933
   0.53495296  0.86227793  0.50359257
   0.59804003  0.99498485  0.50391619
   0.72991515  0.06873485  0.49608966
   0.58411962  0.18414932  0.50469836
   0.70793780  0.25960178  0.49064380
   0.59293512  0.37460447  0.49064381
   0.71097096  0.37763762  0.48016548
   0.60698637  0.59299608  0.48947730
   0.40452557  0.59797107  0.49671224
   0.74255397  0.66201212  0.49015816
   0.73482921  0.86517572  0.49547314
   0.79852672  0.00122794  0.49556178
   0.93130441  0.07119224  0.49671221
   0.79064897  0.20462690  0.49068514
   0.92632941  0.27365304  0.48947730
   0.82201607  0.48868273  0.47970632
   0.94039487  0.49179442  0.48962707
   0.82512775  0.60706154  0.48962705
   0.94952570  0.68301924  0.50311347
   0.80326392  0.79770910  0.49554548
   0.60211460  0.79571059  0.49676277
   0.93514209  0.87158488  0.50322668
   0.53796023  0.45731564  0.49068516
   0.51748266  0.25078629  0.50469836
   0.13074305  0.06909497  0.50914931
   0.99476166  0.20559218  0.49410855
   0.12904392  0.26878127  0.49676278
   0.99534545  0.40922064  0.49015818
   0.13104244  0.46993059  0.49554552
   0.01635257  0.61619237  0.50311348
   0.14339173  0.67270519  0.51005768
   0.00603853  0.81005840  0.51005765
   0.13609279  0.87077254  0.51744061
   0.19792624  0.00211870  0.51689302
   0.40206819  0.39658182  0.49608969
   0.32928733  0.06391561  0.51815374
   0.32831818  0.26470669  0.50391621
   0.19850905  0.40149588  0.49547317
   0.33456127  0.46519339  0.49556181
   0.20491821  0.60180875  0.50322672
   0.33779255  0.66502259  0.50337635
   0.20410587  0.80275946  0.51744062
   0.33545203  0.86459291  0.51689303
   0.39724894  0.99595399  0.51815374
   0.52740201  0.05652235  0.51124284
   0.38985569  0.19406868  0.51124284
   0.19561127  0.20161963  0.50359258
   0.76681715  0.43348380  0.54538284
Direct configuration=    14
   0.99832151  0.00444618  0.50346329
   0.53887602  0.66141056  0.49424063
   0.40244901  0.79737351  0.50920946
   0.53497163  0.86227664  0.50367940
   0.59801053  0.99501405  0.50391833
   0.72991190  0.06876844  0.49612586
   0.58406291  0.18410799  0.50458327
   0.70795179  0.25958107  0.49056961
   0.59291440  0.37461846  0.49056961
   0.71091699  0.37758365  0.48004573
   0.60694338  0.59302813  0.48951249
   0.40452471  0.59795072  0.49683696
   0.74254983  0.66200603  0.49014238
   0.73482728  0.86517070  0.49556153
   0.79852352  0.00125826  0.49565930
   0.93128405  0.07119138  0.49683692
   0.79066065  0.20462237  0.49067252
   0.92636147  0.27361005  0.48951249
   0.82202778  0.48869444  0.47957176
   0.94041710  0.49181698  0.48954215
   0.82515032  0.60708376  0.48954213
   0.94959571  0.68303523  0.50298970
   0.80330316  0.79772280  0.49558378
   0.60210375  0.79568669  0.49688046
   0.93520623  0.87157587  0.50324193
   0.53795571  0.45732732  0.49067254
   0.51744133  0.25072958  0.50458327
   0.13070684  0.06911567  0.50920944
   0.99474389  0.20554269  0.49424062
   0.12902002  0.26877042  0.49688047
   0.99533937  0.40921649  0.49014240
   0.13105613  0.46996982  0.49558382
   0.01636855  0.61626238  0.50298971
   0.14343103  0.67280829  0.50999204
   0.00614163  0.81009770  0.50999201
   0.13613942  0.87077136  0.51738937
   0.19788817  0.00211763  0.51684145
   0.40210177  0.39657857  0.49612588
   0.32926680  0.06387929  0.51809398
   0.32834739  0.26467720  0.50391835
   0.19850403  0.40149395  0.49556157
   0.33459160  0.46519019  0.49565933
   0.20490920  0.60187289  0.50324197
   0.33777952  0.66498817  0.50346333
   0.20410469  0.80280609  0.51738938
   0.33545096  0.86455484  0.51684146
   0.39721263  0.99593347  0.51809398
   0.52733319  0.05653211  0.51116589
   0.38986545  0.19399986  0.51116590
   0.19560998  0.20163830  0.50367940
   0.76682508  0.43349174  0.54525742
Direct configuration=    15
   0.99821826  0.00440709  0.50372423
   0.53872754  0.66135727  0.49463684
   0.40251112  0.79726490  0.50938986
   0.53502765  0.86227277  0.50393987
   0.59792204  0.99510167  0.50392474
   0.72990215  0.06886919  0.49623445
   0.58389278  0.18398400  0.50423800
   0.70799376  0.25951892  0.49034701
   0.59285226  0.37466043  0.49034701
   0.71075508  0.37742174  0.47968649
   0.60681441  0.59312430  0.48961807
   0.40452213  0.59788965  0.49721111
   0.74253739  0.66198777  0.49009504
   0.73482149  0.86515563  0.49582670
   0.79851393  0.00134924  0.49595185
   0.93122299  0.07118880  0.49721107
   0.79069571  0.20460880  0.49063466
   0.92645763  0.27348108  0.48961807
   0.82206290  0.48872957  0.47916807
   0.94048378  0.49188468  0.48928737
   0.82521802  0.60715045  0.48928735
   0.94980574  0.68308319  0.50261840
   0.80342086  0.79776389  0.49569869
   0.60207121  0.79561498  0.49723355
   0.93539868  0.87154886  0.50328768
   0.53794213  0.45736238  0.49063468
   0.51731733  0.25055945  0.50423801
   0.13059823  0.06917779  0.50938984
   0.99469060  0.20539421  0.49463683
   0.12894832  0.26873788  0.49723357
   0.99532110  0.40920406  0.49009506
   0.13109722  0.47008753  0.49569873
   0.01641652  0.61647240  0.50261841
   0.14354893  0.67311759  0.50979513
   0.00645093  0.81021560  0.50979510
   0.13627931  0.87076782  0.51723563
   0.19777395  0.00211441  0.51668674
   0.40220252  0.39656882  0.49623448
   0.32920523  0.06377035  0.51791470
   0.32843500  0.26458871  0.50392476
   0.19848896  0.40148816  0.49582674
   0.33468257  0.46518059  0.49595189
   0.20488219  0.60206534  0.50328773
   0.33774042  0.66488493  0.50372427
   0.20410115  0.80294598  0.51723564
   0.33544774  0.86444061  0.51668675
   0.39710368  0.99587189  0.51791470
   0.52712673  0.05656139  0.51093504
   0.38989473  0.19379339  0.51093505
   0.19560611  0.20169432  0.50393987
   0.76684889  0.43351555  0.54488114
Direct configuration=    16
   0.99801177  0.00432889  0.50424610
   0.53843057  0.66125068  0.49542926
   0.40263535  0.79704767  0.50975065
   0.53513970  0.86226503  0.50446080
   0.59774507  0.99527690  0.50393755
   0.72988264  0.06907069  0.49645162
   0.58355253  0.18373601  0.50354747
   0.70807770  0.25939464  0.48990181
   0.59272797  0.37474437  0.48990182
   0.71043125  0.37709792  0.47896801
   0.60655648  0.59331663  0.48982922
   0.40451698  0.59776753  0.49795942
   0.74251253  0.66195124  0.49000035
   0.73480992  0.86512548  0.49635705
   0.79849473  0.00153119  0.49653696
   0.93110086  0.07118364  0.49795937
   0.79076582  0.20458165  0.49055894
   0.92664996  0.27322315  0.48982922
   0.82213316  0.48879982  0.47836069
   0.94061715  0.49202008  0.48877783
   0.82535342  0.60728382  0.48877780
   0.95022579  0.68317911  0.50187580
   0.80365627  0.79784606  0.49592850
   0.60200611  0.79547158  0.49793974
   0.93578356  0.87149483  0.50337918
   0.53791498  0.45743248  0.49055896
   0.51706934  0.25021920  0.50354748
   0.13038100  0.06930202  0.50975063
   0.99458402  0.20509725  0.49542925
   0.12880491  0.26867278  0.49793975
   0.99528457  0.40917919  0.49000038
   0.13117939  0.47032294  0.49592856
   0.01651244  0.61689246  0.50187582
   0.14378472  0.67373619  0.50940131
   0.00706953  0.81045140  0.50940127
   0.13655910  0.87076074  0.51692815
   0.19754550  0.00210797  0.51637733
   0.40240402  0.39654931  0.49645166
   0.32908208  0.06355246  0.51755613
   0.32861024  0.26441174  0.50393757
   0.19845882  0.40147658  0.49635710
   0.33486452  0.46516140  0.49653701
   0.20482816  0.60245022  0.50337925
   0.33766223  0.66467844  0.50424615
   0.20409407  0.80322577  0.51692817
   0.33544131  0.86421217  0.51637734
   0.39688579  0.99574875  0.51755613
   0.52671379  0.05661995  0.51047334
   0.38995329  0.19338046  0.51047335
   0.19559837  0.20180636  0.50446081
   0.76689652  0.43356317  0.54412859
Direct configuration=    17
   0.99815019  0.00438131  0.50389627
   0.53862964  0.66132213  0.49489807
   0.40255208  0.79719329  0.50950880
   0.53506459  0.86227022  0.50411159
   0.59786370  0.99515944  0.50392896
   0.72989572  0.06893561  0.49630604
   0.58378062  0.18390225  0.50401036
   0.70802143  0.25947795  0.49020024
   0.59281129  0.37468810  0.49020025
   0.71064833  0.37731499  0.47944964
   0.60672938  0.59318770  0.48968768
   0.40452043  0.59784939  0.49745779
   0.74252920  0.66197572  0.49006382
   0.73481768  0.86514569  0.49600154
   0.79850760  0.00140922  0.49614473
   0.93118273  0.07118710  0.49745776
   0.79071882  0.20459985  0.49060970
   0.92652103  0.27339605  0.48968768
   0.82208606  0.48875273  0.47890191
   0.94052775  0.49192932  0.48911940
   0.82526266  0.60719441  0.48911938
   0.94994421  0.68311481  0.50237360
   0.80349847  0.79779098  0.49577445
   0.60204975  0.79556771  0.49746635
   0.93552556  0.87153105  0.50331784
   0.53793318  0.45738549  0.49060972
   0.51723558  0.25044728  0.50401037
   0.13052662  0.06921874  0.50950878
   0.99465547  0.20529631  0.49489806
   0.12890104  0.26871642  0.49746637
   0.99530906  0.40919586  0.49006385
   0.13112431  0.47016513  0.49577450
   0.01644814  0.61661088  0.50237361
   0.14362666  0.67332152  0.50966531
   0.00665485  0.81029333  0.50966527
   0.13637154  0.87076549  0.51713427
   0.19769864  0.00211229  0.51658474
   0.40226895  0.39656239  0.49630607
   0.32916463  0.06369852  0.51779649
   0.32849277  0.26453037  0.50392898
   0.19847902  0.40148434  0.49600158
   0.33474255  0.46517427  0.49614478
   0.20486437  0.60219222  0.50331790
   0.33771464  0.66481686  0.50389631
   0.20409882  0.80303821  0.51713428
   0.33544562  0.86436531  0.51658475
   0.39703185  0.99583130  0.51779649
   0.52699060  0.05658070  0.51078284
   0.38991404  0.19365727  0.51078285
   0.19560356  0.20173126  0.50411160
   0.76686459  0.43353125  0.54463306
Direct configuration=    18
   0.99822225  0.00439947  0.50402702
   0.53861700  0.66131126  0.49503650
   0.40258538  0.79721633  0.50956500
   0.53498554  0.86223153  0.50424332
   0.59787166  0.99529058  0.50394680
   0.72990103  0.06895233  0.49636184
   0.58381498  0.18391728  0.50383131
   0.70805506  0.25952437  0.49006216
   0.59285771  0.37472173  0.49006217
   0.71070230  0.37736897  0.47931791
   0.60670092  0.59320221  0.48974056
   0.40445211  0.59770432  0.49763632
   0.74254748  0.66207443  0.49006077
   0.73491002  0.86524666  0.49612480
   0.79836008  0.00137234  0.49627179
   0.93103766  0.07111878  0.49763628
   0.79073580  0.20452901  0.49060881
   0.92653555  0.27336759  0.48974056
   0.82199421  0.48866087  0.47875141
   0.94048674  0.49194376  0.48897175
   0.82527710  0.60715341  0.48897173
   0.94995553  0.68312690  0.50218876
   0.80349454  0.79775313  0.49583474
   0.60216825  0.79552804  0.49763044
   0.93556693  0.87146297  0.50334604
   0.53786234  0.45740246  0.49060883
   0.51725061  0.25048164  0.50383131
   0.13054966  0.06925205  0.50956497
   0.99464459  0.20528367  0.49503649
   0.12886138  0.26883492  0.49763045
   0.99540776  0.40921414  0.49006080
   0.13108646  0.47016121  0.49583479
   0.01646022  0.61662220  0.50218878
   0.14365751  0.67339735  0.50957555
   0.00673069  0.81032419  0.50957551
   0.13641843  0.87094080  0.51705066
   0.19770496  0.00214024  0.51656329
   0.40228567  0.39656770  0.49636187
   0.32895053  0.06358240  0.51770497
   0.32862392  0.26453833  0.50394682
   0.19857999  0.40157669  0.49612484
   0.33470567  0.46502675  0.49627183
   0.20479630  0.60223358  0.50334610
   0.33773280  0.66488892  0.50402706
   0.20427413  0.80308510  0.51705068
   0.33547358  0.86437163  0.51656331
   0.39691574  0.99561720  0.51770497
   0.52691023  0.05650221  0.51068420
   0.38983554  0.19357690  0.51068421
   0.19556486  0.20165221  0.50424333
   0.76688059  0.43354725  0.54446225
Direct configuration=    19
   0.99826762  0.00441090  0.50410934
   0.53860903  0.66130442  0.49512366
   0.40260636  0.79723083  0.50960038
   0.53493577  0.86220717  0.50432626
   0.59787667  0.99537315  0.50395803
   0.72990438  0.06896286  0.49639697
   0.58383661  0.18392674  0.50371857
   0.70807623  0.25955360  0.48997522
   0.59288693  0.37474290  0.48997523
   0.71073628  0.37740295  0.47923498
   0.60668300  0.59321135  0.48977385
   0.40440910  0.59761298  0.49774872
   0.74255899  0.66213657  0.49005884
   0.73496816  0.86531023  0.49620240
   0.79826720  0.00134912  0.49635178
   0.93094632  0.07107577  0.49774867
   0.79074648  0.20448440  0.49060825
   0.92654469  0.27334967  0.48977385
   0.82193638  0.48860304  0.47865665
   0.94046092  0.49195285  0.48887880
   0.82528619  0.60712759  0.48887877
   0.94996266  0.68313450  0.50207239
   0.80349207  0.79772931  0.49587270
   0.60224286  0.79550307  0.49773374
   0.93559297  0.87142010  0.50336379
   0.53781774  0.45741315  0.49060827
   0.51726008  0.25050328  0.50371858
   0.13056416  0.06927302  0.50960036
   0.99463775  0.20527570  0.49512365
   0.12883640  0.26890953  0.49773376
   0.99546991  0.40922566  0.49005887
   0.13106264  0.47015874  0.49587276
   0.01646783  0.61662933  0.50207241
   0.14367694  0.67344510  0.50951903
   0.00677844  0.81034362  0.50951900
   0.13644794  0.87105118  0.51699802
   0.19770895  0.00215784  0.51654979
   0.40229620  0.39657105  0.49639700
   0.32881573  0.06350930  0.51764735
   0.32870649  0.26454334  0.50395806
   0.19864357  0.40163483  0.49620245
   0.33468245  0.46493387  0.49635183
   0.20475343  0.60225963  0.50336385
   0.33774423  0.66493429  0.50410938
   0.20438451  0.80311462  0.51699804
   0.33549118  0.86437562  0.51654980
   0.39684263  0.99548240  0.51764735
   0.52685963  0.05645279  0.51062210
   0.38978612  0.19352630  0.51062211
   0.19554050  0.20160244  0.50432627
   0.76689066  0.43355732  0.54435470
Direct configuration=    20
   0.99824906  0.00438080  0.50416747
   0.53864946  0.66126376  0.49514258
   0.40260921  0.79729149  0.50960705
   0.53502182  0.86225940  0.50437995
   0.59786521  0.99530145  0.50398523
   0.72985990  0.06893715  0.49642712
   0.58385236  0.18393011  0.50362539
   0.70810915  0.25957540  0.48988002
   0.59290874  0.37477582  0.48988003
   0.71076508  0.37743174  0.47921195
   0.60672079  0.59319216  0.48980348
   0.40436167  0.59755307  0.49783009
   0.74254447  0.66215945  0.49006851
   0.73500990  0.86532134  0.49626194
   0.79819841  0.00130690  0.49640415
   0.93088640  0.07102834  0.49783004
   0.79078014  0.20448214  0.49061755
   0.92652549  0.27338746  0.48980348
   0.82196380  0.48863046  0.47863101
   0.94044354  0.49190378  0.48878551
   0.82523712  0.60711021  0.48878549
   0.94993880  0.68315576  0.50197606
   0.80349890  0.79775674  0.49590889
   0.60230925  0.79554587  0.49781121
   0.93555573  0.87143483  0.50338424
   0.53781547  0.45744680  0.49061757
   0.51726344  0.25051903  0.50362540
   0.13062482  0.06927587  0.50960702
   0.99459710  0.20531613  0.49514257
   0.12887920  0.26897592  0.49781122
   0.99549279  0.40921114  0.49006854
   0.13109007  0.47016556  0.49590894
   0.01648909  0.61660546  0.50197607
   0.14359566  0.67337933  0.50947733
   0.00671267  0.81026234  0.50947729
   0.13647411  0.87106756  0.51695184
   0.19768091  0.00220048  0.51658981
   0.40227049  0.39652658  0.49642715
   0.32882549  0.06347014  0.51759936
   0.32863479  0.26453187  0.50398525
   0.19865467  0.40167657  0.49626199
   0.33464024  0.46486508  0.49640421
   0.20476815  0.60222239  0.50338431
   0.33771413  0.66491572  0.50416752
   0.20440088  0.80314078  0.51695186
   0.33553381  0.86434758  0.51658982
   0.39680348  0.99549216  0.51759936
   0.52686274  0.05648132  0.51058483
   0.38981466  0.19352940  0.51058484
   0.19559274  0.20168848  0.50437996
   0.76690402  0.43357067  0.54428416
Direct configuration=    21
   0.99823396  0.00435631  0.50421473
   0.53868234  0.66123071  0.49515796
   0.40261152  0.79734081  0.50961247
   0.53509179  0.86230188  0.50442362
   0.59785588  0.99524315  0.50400734
   0.72982374  0.06891625  0.49645163
   0.58386516  0.18393285  0.50354963
   0.70813591  0.25959313  0.48980261
   0.59292647  0.37480258  0.48980262
   0.71078849  0.37745516  0.47919323
   0.60675151  0.59317655  0.48982757
   0.40432310  0.59750435  0.49789626
   0.74253266  0.66217806  0.49007637
   0.73504384  0.86533037  0.49631035
   0.79814248  0.00127258  0.49644674
   0.93083768  0.07098977  0.49789621
   0.79080750  0.20448029  0.49062510
   0.92650989  0.27341818  0.48982757
   0.82198610  0.48865276  0.47861015
   0.94042941  0.49186388  0.48870966
   0.82519722  0.60709607  0.48870964
   0.94991939  0.68317305  0.50189772
   0.80350445  0.79777904  0.49593831
   0.60236323  0.79558067  0.49787420
   0.93552545  0.87144680  0.50340088
   0.53781363  0.45747417  0.49062512
   0.51726618  0.25053183  0.50354964
   0.13067414  0.06927819  0.50961245
   0.99456404  0.20534900  0.49515795
   0.12891400  0.26902990  0.49787421
   0.99551140  0.40919933  0.49007640
   0.13111237  0.47017111  0.49593837
   0.01650637  0.61658605  0.50189774
   0.14352957  0.67332585  0.50944342
   0.00665919  0.81019625  0.50944338
   0.13649539  0.87108087  0.51691429
   0.19765812  0.00223515  0.51662235
   0.40224959  0.39649041  0.49645167
   0.32883343  0.06343830  0.51756034
   0.32857648  0.26452255  0.50400737
   0.19866370  0.40171051  0.49631040
   0.33460591  0.46480915  0.49644680
   0.20478012  0.60219211  0.50340094
   0.33768965  0.66490062  0.50421479
   0.20441420  0.80316206  0.51691430
   0.33556848  0.86432479  0.51662237
   0.39677164  0.99550010  0.51756034
   0.52686526  0.05650452  0.51055452
   0.38983786  0.19353193  0.51055454
   0.19563521  0.20175846  0.50442362
   0.76691488  0.43358153  0.54422680
Direct configuration=    22
   0.99822859  0.00434761  0.50423155
   0.53869403  0.66121895  0.49516344
   0.40261235  0.79735836  0.50961440
   0.53511668  0.86231699  0.50443915
   0.59785256  0.99522241  0.50401521
   0.72981087  0.06890882  0.49646035
   0.58386972  0.18393382  0.50352268
   0.70814543  0.25959944  0.48977508
   0.59293278  0.37481210  0.48977509
   0.71079682  0.37746349  0.47918657
   0.60676244  0.59317100  0.48983614
   0.40430938  0.59748702  0.49791979
   0.74252846  0.66218468  0.49007916
   0.73505591  0.86533358  0.49632756
   0.79812259  0.00126037  0.49646189
   0.93082035  0.07097605  0.49791974
   0.79081723  0.20447964  0.49062779
   0.92650433  0.27342911  0.48983614
   0.82199403  0.48866069  0.47860273
   0.94042438  0.49184969  0.48868268
   0.82518303  0.60709104  0.48868266
   0.94991249  0.68317920  0.50186986
   0.80350642  0.79778698  0.49594878
   0.60238243  0.79559305  0.49789660
   0.93551468  0.87145106  0.50340679
   0.53781297  0.45748390  0.49062781
   0.51726716  0.25053639  0.50352269
   0.13069169  0.06927901  0.50961438
   0.99455228  0.20536070  0.49516342
   0.12892638  0.26904910  0.49789662
   0.99551802  0.40919513  0.49007919
   0.13112031  0.47017309  0.49594884
   0.01651252  0.61657915  0.50186988
   0.14350606  0.67330683  0.50943136
   0.00664016  0.81017274  0.50943132
   0.13650296  0.87108561  0.51690093
   0.19765001  0.00224748  0.51663392
   0.40224215  0.39647755  0.49646039
   0.32883626  0.06342698  0.51754646
   0.32855574  0.26451923  0.50401523
   0.19866691  0.40172258  0.49632762
   0.33459370  0.46478925  0.49646195
   0.20478438  0.60218134  0.50340686
   0.33768094  0.66489525  0.50423160
   0.20441893  0.80316963  0.51690095
   0.33558082  0.86431668  0.51663394
   0.39676031  0.99550292  0.51754646
   0.52686616  0.05651277  0.51054374
   0.38984611  0.19353283  0.51054376
   0.19565032  0.20178334  0.50443915
   0.76691874  0.43358539  0.54420640
Direct configuration=    23
   0.99821370  0.00437668  0.50427641
   0.53869062  0.66121846  0.49516520
   0.40266668  0.79734895  0.50961774
   0.53515638  0.86227022  0.50447884
   0.59785710  0.99521843  0.50405760
   0.72979062  0.06887852  0.49649047
   0.58385794  0.18392979  0.50342174
   0.70815537  0.25955409  0.48968437
   0.59288743  0.37482204  0.48968438
   0.71085892  0.37752559  0.47917631
   0.60678486  0.59317511  0.48986253
   0.40437536  0.59751100  0.49797387
   0.74253474  0.66216032  0.49008836
   0.73501600  0.86528965  0.49638650
   0.79817171  0.00127214  0.49650879
   0.93084434  0.07104202  0.49797382
   0.79078075  0.20450383  0.49063672
   0.92650844  0.27345153  0.48986253
   0.82199999  0.48866665  0.47859669
   0.94050247  0.49183758  0.48860152
   0.82517092  0.60716913  0.48860150
   0.94987698  0.68308120  0.50176249
   0.80349769  0.79781569  0.49598729
   0.60236952  0.79555093  0.49795046
   0.93547517  0.87144427  0.50343855
   0.53783716  0.45744741  0.49063674
   0.51726313  0.25052460  0.50342175
   0.13068228  0.06933335  0.50961771
   0.99455179  0.20535729  0.49516519
   0.12888426  0.26903619  0.49795048
   0.99549366  0.40920141  0.49008839
   0.13114902  0.47016436  0.49598735
   0.01641453  0.61654364  0.50176251
   0.14353014  0.67329724  0.50939730
   0.00663058  0.81019682  0.50939726
   0.13642011  0.87097502  0.51686091
   0.19766372  0.00223371  0.51669425
   0.40221186  0.39645729  0.49649051
   0.32894288  0.06351560  0.51750944
   0.32855177  0.26452377  0.50405762
   0.19862298  0.40168267  0.49638656
   0.33460547  0.46483838  0.49650885
   0.20477759  0.60214183  0.50343861
   0.33771001  0.66488036  0.50427647
   0.20430835  0.80308678  0.51686093
   0.33556705  0.86433039  0.51669427
   0.39684894  0.99560955  0.51750944
   0.52687051  0.05654550  0.51051517
   0.38987884  0.19353718  0.51051518
   0.19560355  0.20182304  0.50447885
   0.76693612  0.43360277  0.54416025
Direct configuration=    24
   0.99820696  0.00438984  0.50429671
   0.53868907  0.66121824  0.49516600
   0.40269127  0.79734470  0.50961924
   0.53517434  0.86224905  0.50449680
   0.59785916  0.99521664  0.50407678
   0.72978145  0.06886481  0.49650411
   0.58385260  0.18392797  0.50337607
   0.70815987  0.25953357  0.48964332
   0.59286691  0.37482654  0.48964334
   0.71088702  0.37755369  0.47917167
   0.60679501  0.59317696  0.48987448
   0.40440521  0.59752186  0.49799834
   0.74253759  0.66214930  0.49009252
   0.73499794  0.86526977  0.49641317
   0.79819395  0.00127747  0.49653002
   0.93085519  0.07107188  0.49799829
   0.79076423  0.20451477  0.49064075
   0.92651030  0.27346168  0.48987448
   0.82200268  0.48866934  0.47859395
   0.94053780  0.49183211  0.48856479
   0.82516545  0.60720447  0.48856477
   0.94986091  0.68303686  0.50171390
   0.80349374  0.79782869  0.49600472
   0.60236368  0.79553186  0.49797484
   0.93545729  0.87144119  0.50345292
   0.53784810  0.45743090  0.49064078
   0.51726131  0.25051927  0.50337607
   0.13067803  0.06935794  0.50961922
   0.99455157  0.20535574  0.49516599
   0.12886520  0.26903035  0.49797485
   0.99548264  0.40920426  0.49009255
   0.13116201  0.47016041  0.49600478
   0.01637019  0.61652757  0.50171392
   0.14354103  0.67329290  0.50938189
   0.00662624  0.81020771  0.50938185
   0.13638262  0.87092497  0.51684280
   0.19766992  0.00222748  0.51672155
   0.40219815  0.39644812  0.49650415
   0.32899114  0.06355571  0.51749268
   0.32854997  0.26452582  0.50407680
   0.19860310  0.40166461  0.49641323
   0.33461080  0.46486061  0.49653007
   0.20477452  0.60212395  0.50345299
   0.33772317  0.66487362  0.50429677
   0.20425830  0.80304929  0.51684282
   0.33556081  0.86433659  0.51672157
   0.39688904  0.99565780  0.51749268
   0.52687248  0.05656031  0.51050224
   0.38989365  0.19353915  0.51050225
   0.19558239  0.20184101  0.50449681
   0.76694398  0.43361063  0.54413937
Direct configuration=    25
   0.99820375  0.00445362  0.50432156
   0.53869547  0.66123497  0.49516943
   0.40269074  0.79729893  0.50964270
   0.53515373  0.86219583  0.50452163
   0.59788017  0.99524175  0.50411806
   0.72981931  0.06887596  0.49653217
   0.58383169  0.18392219  0.50327805
   0.70810916  0.25948992  0.48958615
   0.59282325  0.37477583  0.48958616
   0.71090975  0.37757642  0.47915776
   0.60677186  0.59316453  0.48988662
   0.40447714  0.59758481  0.49801287
   0.74254520  0.66215973  0.49009717
   0.73496847  0.86525943  0.49646161
   0.79824482  0.00130401  0.49656896
   0.93091814  0.07114380  0.49801282
   0.79073324  0.20451159  0.49064131
   0.92649786  0.27343854  0.48988662
   0.82197598  0.48864264  0.47858205
   0.94056303  0.49185416  0.48851331
   0.82518749  0.60722970  0.48851329
   0.94991581  0.68315501  0.50163240
   0.80344290  0.79778196  0.49603672
   0.60231027  0.79544222  0.49799244
   0.93546703  0.87147207  0.50348691
   0.53784492  0.45739991  0.49064133
   0.51725552  0.25049836  0.50327806
   0.13063226  0.06935740  0.50964267
   0.99456831  0.20536214  0.49516942
   0.12877555  0.26897694  0.49799246
   0.99549306  0.40921187  0.49009720
   0.13111529  0.47010956  0.49603679
   0.01648833  0.61658248  0.50163242
   0.14345131  0.67322920  0.50934519
   0.00656254  0.81011799  0.50934515
   0.13631922  0.87090384  0.51682938
   0.19772196  0.00218534  0.51675910
   0.40220929  0.39648598  0.49653222
   0.32898780  0.06359095  0.51748789
   0.32857509  0.26454684  0.50411808
   0.19859277  0.40163514  0.49646167
   0.33463735  0.46491149  0.49656902
   0.20480539  0.60213369  0.50348698
   0.33778695  0.66487041  0.50432162
   0.20423717  0.80298589  0.51682940
   0.33551867  0.86438863  0.51675912
   0.39692429  0.99565447  0.51748789
   0.52694316  0.05659361  0.51047820
   0.38992695  0.19360983  0.51047822
   0.19552917  0.20182039  0.50452164
   0.76696139  0.43362804  0.54412677
Direct configuration=    26
   0.99820324  0.00446366  0.50432547
   0.53869648  0.66123761  0.49516997
   0.40269066  0.79729173  0.50964639
   0.53515048  0.86218746  0.50452554
   0.59788347  0.99524570  0.50412455
   0.72982526  0.06887771  0.49653659
   0.58382840  0.18392127  0.50326263
   0.70810118  0.25948305  0.48957715
   0.59281639  0.37476785  0.48957716
   0.71091332  0.37757999  0.47915557
   0.60676822  0.59316257  0.48988853
   0.40448845  0.59759471  0.49801516
   0.74254640  0.66216136  0.49009790
   0.73496383  0.86525781  0.49646923
   0.79825282  0.00130819  0.49657508
   0.93092805  0.07115512  0.49801510
   0.79072836  0.20451109  0.49064140
   0.92649591  0.27343489  0.48988853
   0.82197178  0.48863844  0.47858018
   0.94056700  0.49185762  0.48850521
   0.82519096  0.60723367  0.48850519
   0.94992445  0.68317360  0.50161958
   0.80343490  0.79777461  0.49604176
   0.60230187  0.79542811  0.49799521
   0.93546857  0.87147693  0.50349226
   0.53784442  0.45739503  0.49064142
   0.51725461  0.25049507  0.50326264
   0.13062506  0.06935732  0.50964636
   0.99457094  0.20536314  0.49516996
   0.12876145  0.26896854  0.49799523
   0.99549470  0.40921307  0.49009794
   0.13110794  0.47010157  0.49604182
   0.01650692  0.61659112  0.50161960
   0.14343720  0.67321918  0.50933942
   0.00655252  0.81010388  0.50933937
   0.13630924  0.87090052  0.51682727
   0.19773015  0.00217871  0.51676501
   0.40221105  0.39649194  0.49653663
   0.32898728  0.06359649  0.51748714
   0.32857904  0.26455014  0.50412458
   0.19859114  0.40163050  0.49646929
   0.33464152  0.46491949  0.49657514
   0.20481025  0.60213522  0.50349233
   0.33779699  0.66486990  0.50432553
   0.20423384  0.80297591  0.51682729
   0.33551204  0.86439682  0.51676503
   0.39692983  0.99565394  0.51748714
   0.52695428  0.05659885  0.51047442
   0.38993219  0.19362095  0.51047444
   0.19552079  0.20181715  0.50452555
   0.76696413  0.43363078  0.54412479
Direct configuration=    27
   0.99820841  0.00449154  0.50434438
   0.53871459  0.66121517  0.49517620
   0.40265033  0.79729209  0.50969248
   0.53509980  0.86216961  0.50454804
   0.59793918  0.99523662  0.50416157
   0.72987923  0.06890678  0.49656810
   0.58376704  0.18386696  0.50315875
   0.70805884  0.25948029  0.48953165
   0.59281363  0.37472551  0.48953166
   0.71087175  0.37753842  0.47913197
   0.60674178  0.59313502  0.48989110
   0.40450886  0.59762128  0.49800713
   0.74252106  0.66215582  0.49009762
   0.73495085  0.86525830  0.49651321
   0.79828209  0.00133150  0.49661483
   0.93095462  0.07117553  0.49800707
   0.79072745  0.20448798  0.49063498
   0.92646836  0.27340845  0.48989110
   0.82198554  0.48865220  0.47856244
   0.94057368  0.49191236  0.48847127
   0.82524570  0.60724035  0.48847124
   0.94999408  0.68322016  0.50153059
   0.80342364  0.79775747  0.49607749
   0.60228358  0.79541485  0.49799629
   0.93544228  0.87149518  0.50352298
   0.53782131  0.45739411  0.49063501
   0.51720030  0.25043371  0.50315876
   0.13062542  0.06931699  0.50969245
   0.99454850  0.20538126  0.49517619
   0.12874818  0.26895025  0.49799631
   0.99548915  0.40918773  0.49009766
   0.13109080  0.47009031  0.49607756
   0.01655348  0.61666075  0.50153062
   0.14347954  0.67320803  0.50930679
   0.00654137  0.81014622  0.50930674
   0.13631361  0.87088622  0.51683357
   0.19770476  0.00215489  0.51678258
   0.40224012  0.39654591  0.49656814
   0.32899155  0.06360207  0.51750452
   0.32856996  0.26460585  0.50416160
   0.19859163  0.40161752  0.49651327
   0.33466484  0.46494876  0.49661489
   0.20482850  0.60210894  0.50352306
   0.33782487  0.66487507  0.50434445
   0.20421955  0.80298029  0.51683359
   0.33548823  0.86437143  0.51678260
   0.39693540  0.99565822  0.51750452
   0.52699873  0.05660362  0.51045393
   0.38993696  0.19366540  0.51045395
   0.19550294  0.20176647  0.50454805
   0.76698390  0.43365056  0.54413172
Direct configuration=    28
   0.99821443  0.00452409  0.50436646
   0.53873573  0.66118897  0.49518347
   0.40260325  0.79729252  0.50974628
   0.53504065  0.86214878  0.50457430
   0.59800420  0.99522603  0.50420478
   0.72994222  0.06894070  0.49660487
   0.58369542  0.18380358  0.50303751
   0.70800941  0.25947708  0.48947854
   0.59281041  0.37467608  0.48947855
   0.71082322  0.37748989  0.47910441
   0.60671092  0.59310287  0.48989410
   0.40453268  0.59765229  0.49799775
   0.74249149  0.66214934  0.49009729
   0.73493570  0.86525887  0.49656454
   0.79831626  0.00135871  0.49666121
   0.93098562  0.07119935  0.49799769
   0.79072638  0.20446101  0.49062749
   0.92643621  0.27337760  0.48989410
   0.82200159  0.48866825  0.47854174
   0.94058148  0.49197625  0.48843166
   0.82530959  0.60724815  0.48843163
   0.95007535  0.68327450  0.50142674
   0.80341050  0.79773747  0.49611920
   0.60226223  0.79539936  0.49799756
   0.93541160  0.87151648  0.50355884
   0.53779434  0.45739304  0.49062752
   0.51713692  0.25036209  0.50303752
   0.13062585  0.06926992  0.50974624
   0.99452231  0.20540240  0.49518346
   0.12873270  0.26892890  0.49799758
   0.99548268  0.40915816  0.49009734
   0.13107080  0.47007717  0.49611927
   0.01660783  0.61674202  0.50142677
   0.14352896  0.67319501  0.50926871
   0.00652835  0.81019565  0.50926866
   0.13631872  0.87086955  0.51684093
   0.19767512  0.00212710  0.51680308
   0.40227404  0.39660890  0.49660492
   0.32899654  0.06360857  0.51752480
   0.32855937  0.26467087  0.50420481
   0.19859220  0.40160237  0.49656461
   0.33469205  0.46498293  0.49666128
   0.20484980  0.60207826  0.50355892
   0.33785742  0.66488109  0.50436653
   0.20420287  0.80298539  0.51684095
   0.33546043  0.86434179  0.51680310
   0.39694190  0.99566321  0.51752480
   0.52705061  0.05660918  0.51043001
   0.38994252  0.19371728  0.51043003
   0.19548211  0.20170731  0.50457431
   0.76700698  0.43367364  0.54413981
Direct configuration=    29
   0.99822218  0.00449650  0.50438780
   0.53873794  0.66118037  0.49518841
   0.40257328  0.79729342  0.50979454
   0.53503928  0.86216516  0.50460024
   0.59804028  0.99519817  0.50423631
   0.72996383  0.06893275  0.49663889
   0.58359919  0.18369028  0.50293268
   0.70802547  0.25945207  0.48943297
   0.59278541  0.37469214  0.48943299
   0.71088795  0.37755462  0.47906845
   0.60672709  0.59309150  0.48989046
   0.40452222  0.59764309  0.49798894
   0.74250571  0.66212059  0.49009583
   0.73493842  0.86526706  0.49660347
   0.79832754  0.00135392  0.49669965
   0.93097643  0.07118888  0.49798888
   0.79070887  0.20446651  0.49061601
   0.92642484  0.27339376  0.48989045
   0.82194692  0.48861358  0.47851678
   0.94059358  0.49195657  0.48839963
   0.82528991  0.60726025  0.48839960
   0.95015983  0.68336889  0.50133635
   0.80338461  0.79774523  0.49615308
   0.60226079  0.79544330  0.49800129
   0.93538005  0.87153911  0.50358139
   0.53779984  0.45737553  0.49061604
   0.51702362  0.25026585  0.50293269
   0.13062675  0.06923994  0.50979450
   0.99451371  0.20540461  0.49518839
   0.12877663  0.26892747  0.49800132
   0.99545392  0.40917238  0.49009587
   0.13107856  0.47005128  0.49615316
   0.01670222  0.61682650  0.50133637
   0.14360455  0.67327083  0.50924263
   0.00660417  0.81027123  0.50924257
   0.13630071  0.87085840  0.51685333
   0.19768043  0.00212993  0.51682378
   0.40226608  0.39663050  0.49663894
   0.32901115  0.06363356  0.51754954
   0.32853151  0.26470695  0.50423635
   0.19860040  0.40160509  0.49660354
   0.33468726  0.46499420  0.49669973
   0.20487244  0.60204671  0.50358147
   0.33782984  0.66488884  0.50438787
   0.20419173  0.80296738  0.51685336
   0.33546326  0.86434710  0.51682380
   0.39696689  0.99567782  0.51754954
   0.52698807  0.05654204  0.51041680
   0.38987539  0.19365473  0.51041681
   0.19549849  0.20170595  0.50460025
   0.76703080  0.43369745  0.54415294
Direct configuration=    30
   0.99822536  0.00448518  0.50439656
   0.53873885  0.66117684  0.49519043
   0.40256097  0.79729379  0.50981436
   0.53503872  0.86217188  0.50461089
   0.59805509  0.99518673  0.50424926
   0.72997270  0.06892948  0.49665285
   0.58355967  0.18364376  0.50288963
   0.70803206  0.25944180  0.48941426
   0.59277514  0.37469873  0.48941428
   0.71091453  0.37758120  0.47905369
   0.60673373  0.59308683  0.48988896
   0.40451792  0.59763931  0.49798533
   0.74251155  0.66210878  0.49009523
   0.73493954  0.86527043  0.49661945
   0.79833217  0.00135195  0.49671544
   0.93097265  0.07118459  0.49798526
   0.79070168  0.20446877  0.49061130
   0.92642017  0.27340040  0.48988896
   0.82192447  0.48859113  0.47850652
   0.94059855  0.49194848  0.48838648
   0.82528183  0.60726521  0.48838645
   0.95019452  0.68340765  0.50129923
   0.80337398  0.79774842  0.49616700
   0.60226021  0.79546134  0.49800283
   0.93536710  0.87154841  0.50359065
   0.53780210  0.45736834  0.49061133
   0.51697710  0.25022634  0.50288964
   0.13062712  0.06922763  0.50981432
   0.99451018  0.20540552  0.49519042
   0.12879468  0.26892688  0.49800286
   0.99544212  0.40917822  0.49009527
   0.13108175  0.47004065  0.49616708
   0.01674098  0.61686119  0.50129925
   0.14363559  0.67330197  0.50923192
   0.00663531  0.81030227  0.50923186
   0.13629331  0.87085383  0.51685843
   0.19768261  0.00213109  0.51683227
   0.40226282  0.39663937  0.49665291
   0.32901715  0.06364382  0.51755969
   0.32852007  0.26472176  0.50424930
   0.19860376  0.40160621  0.49661953
   0.33468529  0.46499883  0.49671551
   0.20488173  0.60203375  0.50359073
   0.33781851  0.66489202  0.50439663
   0.20418715  0.80295999  0.51685845
   0.33546442  0.86434928  0.51683230
   0.39697715  0.99568381  0.51755969
   0.52696238  0.05651447  0.51041137
   0.38984782  0.19362905  0.51041138
   0.19550522  0.20170539  0.50461090
   0.76704058  0.43370723  0.54415833
Direct configuration=    31
   0.99822279  0.00447050  0.50441152
   0.53873527  0.66121105  0.49518793
   0.40258841  0.79730257  0.50983491
   0.53506474  0.86217377  0.50463394
   0.59802314  0.99518482  0.50426337
   0.72994387  0.06890063  0.49667131
   0.58352068  0.18360004  0.50282160
   0.70801733  0.25939309  0.48938326
   0.59272642  0.37468400  0.48938328
   0.71087701  0.37754368  0.47903511
   0.60676782  0.59310080  0.48988220
   0.40449914  0.59764209  0.49799142
   0.74254373  0.66210854  0.49009570
   0.73493459  0.86527464  0.49663634
   0.79832300  0.00132761  0.49673373
   0.93097543  0.07116581  0.49799135
   0.79069541  0.20447918  0.49060266
   0.92643414  0.27343449  0.48988220
   0.82198889  0.48865555  0.47849519
   0.94062658  0.49194647  0.48836862
   0.82527981  0.60729325  0.48836859
   0.95021383  0.68345635  0.50124238
   0.80335524  0.79775199  0.49618088
   0.60226003  0.79547940  0.49801464
   0.93537129  0.87153064  0.50359549
   0.53781252  0.45736208  0.49060269
   0.51693338  0.25018735  0.50282161
   0.13063590  0.06925507  0.50983488
   0.99454439  0.20540194  0.49518791
   0.12881273  0.26892670  0.49801466
   0.99544188  0.40921040  0.49009574
   0.13108532  0.47002190  0.49618097
   0.01678967  0.61688049  0.50124241
   0.14364744  0.67332894  0.50921678
   0.00666228  0.81031412  0.50921672
   0.13633081  0.87089608  0.51687118
   0.19772015  0.00214254  0.51685919
   0.40223397  0.39661054  0.49667137
   0.32899420  0.06360766  0.51758176
   0.32851815  0.26468981  0.50426340
   0.19860797  0.40160126  0.49663642
   0.33466094  0.46498967  0.49673381
   0.20486396  0.60203795  0.50359558
   0.33780383  0.66488945  0.50441160
   0.20422940  0.80299748  0.51687121
   0.33547587  0.86438682  0.51685921
   0.39694099  0.99566087  0.51758176
   0.52691506  0.05645144  0.51040339
   0.38978478  0.19358173  0.51040341
   0.19550711  0.20173141  0.50463395
   0.76705870  0.43372535  0.54416744
Direct configuration=    32
   0.99822178  0.00446469  0.50441744
   0.53873386  0.66122457  0.49518694
   0.40259925  0.79730604  0.50984304
   0.53507503  0.86217452  0.50464305
   0.59801051  0.99518406  0.50426894
   0.72993247  0.06888923  0.49667861
   0.58350528  0.18358277  0.50279471
   0.70801151  0.25937384  0.48937101
   0.59270717  0.37467818  0.48937103
   0.71086219  0.37752885  0.47902777
   0.60678129  0.59310632  0.48987953
   0.40449172  0.59764319  0.49799383
   0.74255645  0.66210845  0.49009588
   0.73493264  0.86527631  0.49664301
   0.79831937  0.00131799  0.49674096
   0.93097653  0.07115839  0.49799375
   0.79069293  0.20448330  0.49059924
   0.92643965  0.27344796  0.48987953
   0.82201434  0.48868100  0.47849071
   0.94063766  0.49194567  0.48836157
   0.82527902  0.60730433  0.48836153
   0.95022146  0.68347559  0.50121992
   0.80334783  0.79775340  0.49618637
   0.60225996  0.79548654  0.49801930
   0.93537295  0.87152361  0.50359740
   0.53781663  0.45735960  0.49059927
   0.51691611  0.25017194  0.50279473
   0.13063937  0.06926591  0.50984300
   0.99455790  0.20540053  0.49518693
   0.12881987  0.26892663  0.49801933
   0.99544178  0.40922312  0.49009593
   0.13108673  0.47001449  0.49618646
   0.01680891  0.61688812  0.50121994
   0.14365212  0.67333960  0.50921079
   0.00667294  0.81031880  0.50921073
   0.13634563  0.87091277  0.51687622
   0.19773499  0.00214707  0.51686982
   0.40222257  0.39659915  0.49667866
   0.32898514  0.06359337  0.51759048
   0.32851740  0.26467718  0.50426898
   0.19860964  0.40159931  0.49664309
   0.33465132  0.46498604  0.49674104
   0.20485693  0.60203961  0.50359749
   0.33779802  0.66488844  0.50441752
   0.20424610  0.80301230  0.51687625
   0.33548040  0.86440166  0.51686985
   0.39692671  0.99565181  0.51759048
   0.52689637  0.05642653  0.51040023
   0.38975987  0.19356303  0.51040025
   0.19550786  0.20174170  0.50464306
   0.76706585  0.43373251  0.54417105
Direct configuration=    33
   0.99822999  0.00446525  0.50443462
   0.53872956  0.66125292  0.49517988
   0.40264525  0.79732244  0.50985685
   0.53508531  0.86216584  0.50467417
   0.59796102  0.99517477  0.50427899
   0.72990088  0.06888218  0.49668985
   0.58344213  0.18350309  0.50273031
   0.70796129  0.25932759  0.48933167
   0.59266093  0.37462796  0.48933168
   0.71088797  0.37755464  0.47901200
   0.60680000  0.59313470  0.48987163
   0.40447815  0.59765371  0.49801238
   0.74256764  0.66213868  0.49009661
   0.73492198  0.86526566  0.49665413
   0.79830082  0.00130414  0.49675380
   0.93098705  0.07114482  0.49801230
   0.79070245  0.20446340  0.49059166
   0.92646804  0.27346667  0.48987163
   0.82199624  0.48866290  0.47848352
   0.94067861  0.49199208  0.48834216
   0.82532542  0.60734528  0.48834213
   0.95025721  0.68348731  0.50116477
   0.80336164  0.79775075  0.49619276
   0.60226377  0.79548270  0.49804021
   0.93538669  0.87149436  0.50359531
   0.53779673  0.45736912  0.49059169
   0.51683643  0.25010880  0.50273033
   0.13065577  0.06931191  0.50985680
   0.99458626  0.20539623  0.49517986
   0.12881604  0.26893044  0.49804024
   0.99547202  0.40923431  0.49009667
   0.13108407  0.47002830  0.49619285
   0.01682064  0.61692388  0.50116480
   0.14364525  0.67336154  0.50919622
   0.00669488  0.81031193  0.50919616
   0.13639581  0.87094585  0.51689236
   0.19773133  0.00217477  0.51690921
   0.40221552  0.39656755  0.49668991
   0.32897763  0.06356205  0.51761869
   0.32850811  0.26462769  0.50427903
   0.19859899  0.40158865  0.49665421
   0.33463747  0.46496749  0.49675388
   0.20482768  0.60205335  0.50359541
   0.33779858  0.66489665  0.50443471
   0.20427918  0.80306248  0.51689239
   0.33550810  0.86439800  0.51690924
   0.39689539  0.99564430  0.51761869
   0.52686079  0.05643847  0.51038853
   0.38977181  0.19352746  0.51038855
   0.19549917  0.20175198  0.50467418
   0.76708630  0.43375295  0.54417702
Direct configuration=    34
   0.99823414  0.00446553  0.50444330
   0.53872740  0.66126723  0.49517632
   0.40266846  0.79733071  0.50986381
   0.53509050  0.86216145  0.50468987
   0.59793604  0.99517008  0.50428406
   0.72988493  0.06887862  0.49669553
   0.58341026  0.18346287  0.50269781
   0.70793595  0.25930425  0.48931181
   0.59263759  0.37460262  0.48931183
   0.71090098  0.37756765  0.47900405
   0.60680944  0.59314902  0.48986765
   0.40447130  0.59765902  0.49802174
   0.74257329  0.66215394  0.49009699
   0.73491660  0.86526028  0.49665974
   0.79829146  0.00129715  0.49676028
   0.93099236  0.07113797  0.49802166
   0.79070726  0.20445336  0.49058783
   0.92648236  0.27347611  0.48986765
   0.82198710  0.48865376  0.47847989
   0.94069928  0.49201550  0.48833237
   0.82534885  0.60736595  0.48833233
   0.95027526  0.68349323  0.50113693
   0.80336861  0.79774941  0.49619599
   0.60226569  0.79548077  0.49805076
   0.93539363  0.87147960  0.50359425
   0.53778669  0.45737393  0.49058786
   0.51679621  0.25007693  0.50269782
   0.13066404  0.06933513  0.50986377
   0.99460057  0.20539407  0.49517630
   0.12881410  0.26893236  0.49805079
   0.99548728  0.40923996  0.49009704
   0.13108274  0.47003527  0.49619608
   0.01682655  0.61694192  0.50113696
   0.14364178  0.67337262  0.50918887
   0.00670596  0.81030847  0.50918880
   0.13642114  0.87096255  0.51690051
   0.19772948  0.00218874  0.51692910
   0.40221196  0.39655161  0.49669559
   0.32897385  0.06354624  0.51763293
   0.32850342  0.26460271  0.50428410
   0.19859362  0.40158328  0.49665983
   0.33463048  0.46495813  0.49676037
   0.20481292  0.60206028  0.50359435
   0.33779886  0.66490079  0.50444339
   0.20429588  0.80308781  0.51690054
   0.33552208  0.86439615  0.51692912
   0.39687958  0.99564051  0.51763293
   0.52684283  0.05644450  0.51038263
   0.38977784  0.19350950  0.51038265
   0.19549479  0.20175717  0.50468988
   0.76709662  0.43376327  0.54418003
Direct configuration=    35
   0.99825029  0.00446029  0.50445987
   0.53871887  0.66124764  0.49517301
   0.40265786  0.79731286  0.50987981
   0.53510410  0.86217233  0.50472077
   0.59792049  0.99517111  0.50429061
   0.72986630  0.06887890  0.49669597
   0.58335913  0.18346875  0.50263606
   0.70789944  0.25928656  0.48926862
   0.59261988  0.37456613  0.48926864
   0.71087992  0.37754661  0.47899907
   0.60677423  0.59316977  0.48986186
   0.40446467  0.59764481  0.49804559
   0.74257634  0.66218402  0.49009422
   0.73493453  0.86525295  0.49666699
   0.79828097  0.00130854  0.49676812
   0.93097813  0.07113135  0.49804550
   0.79070839  0.20443546  0.49058009
   0.92650309  0.27344093  0.48986186
   0.82196660  0.48863327  0.47848105
   0.94069818  0.49202583  0.48830504
   0.82535915  0.60736487  0.48830500
   0.95033100  0.68352584  0.50109464
   0.80340235  0.79775486  0.49619210
   0.60227248  0.79547081  0.49807505
   0.93543364  0.87149478  0.50359036
   0.53776878  0.45737507  0.49058013
   0.51680208  0.25002582  0.50263607
   0.13064617  0.06932453  0.50987977
   0.99458096  0.20538556  0.49517299
   0.12880412  0.26893917  0.49807509
   0.99551734  0.40924303  0.49009428
   0.13108817  0.47006903  0.49619220
   0.01685915  0.61699768  0.50109467
   0.14364141  0.67343444  0.50917590
   0.00676776  0.81030811  0.50917584
   0.13640022  0.87096255  0.51691707
   0.19770063  0.00222320  0.51697376
   0.40221222  0.39653300  0.49669604
   0.32897694  0.06356124  0.51766557
   0.32850443  0.26458718  0.50429065
   0.19858627  0.40160122  0.49666708
   0.33464185  0.46494765  0.49676822
   0.20482858  0.60209990  0.50359010
   0.33779360  0.66491697  0.50445997
   0.20429586  0.80306691  0.51691710
   0.33555651  0.86436732  0.51697379
   0.39689456  0.99564363  0.51766557
   0.52678240  0.05643376  0.51037221
   0.38976709  0.19344909  0.51037223
   0.19550565  0.20177079  0.50472078
   0.76711720  0.43378387  0.54417967
Direct configuration=    36
   0.99825360  0.00445922  0.50446327
   0.53871713  0.66124363  0.49517233
   0.40265568  0.79730920  0.50988309
   0.53510689  0.86217456  0.50472710
   0.59791731  0.99517132  0.50429195
   0.72986249  0.06887895  0.49669607
   0.58334865  0.18346996  0.50262341
   0.70789196  0.25928294  0.48925978
   0.59261625  0.37455866  0.48925980
   0.71087560  0.37754229  0.47899804
   0.60676702  0.59317402  0.48986067
   0.40446331  0.59764190  0.49805048
   0.74257697  0.66219019  0.49009365
   0.73493820  0.86525145  0.49666848
   0.79827882  0.00131087  0.49676973
   0.93097522  0.07112999  0.49805039
   0.79070862  0.20443180  0.49057851
   0.92650734  0.27343372  0.48986067
   0.82196240  0.48862908  0.47848129
   0.94069795  0.49202794  0.48829945
   0.82536126  0.60736464  0.48829941
   0.95034242  0.68353253  0.50108597
   0.80340926  0.79775598  0.49619130
   0.60227387  0.79546877  0.49808003
   0.93544184  0.87149790  0.50358956
   0.53776511  0.45737531  0.49057855
   0.51680328  0.25001534  0.50262342
   0.13064251  0.06932236  0.50988305
   0.99457695  0.20538382  0.49517231
   0.12880208  0.26894056  0.49808006
   0.99552350  0.40924366  0.49009371
   0.13108929  0.47007594  0.49619141
   0.01686583  0.61700911  0.50108601
   0.14364133  0.67344710  0.50917325
   0.00678042  0.81030804  0.50917318
   0.13639593  0.87096255  0.51692046
   0.19769472  0.00223026  0.51698291
   0.40221227  0.39652919  0.49669613
   0.32897758  0.06356431  0.51767226
   0.32850464  0.26458400  0.50429199
   0.19858476  0.40160489  0.49666857
   0.33464418  0.46494551  0.49676982
   0.20483179  0.60210801  0.50358923
   0.33779253  0.66492028  0.50446337
   0.20429586  0.80306262  0.51692049
   0.33556357  0.86436141  0.51698294
   0.39689763  0.99564427  0.51767226
   0.52677002  0.05643156  0.51037007
   0.38976489  0.19343671  0.51037009
   0.19550788  0.20177358  0.50472711
   0.76712142  0.43378809  0.54417960
Direct configuration=    37
   0.99822829  0.00444696  0.50447427
   0.53869020  0.66121599  0.49518213
   0.40264755  0.79730338  0.50990620
   0.53511674  0.86217704  0.50475141
   0.59791933  0.99518697  0.50429724
   0.72986050  0.06888255  0.49668765
   0.58332749  0.18344320  0.50257602
   0.70789962  0.25927761  0.48921967
   0.59261092  0.37456633  0.48921969
   0.71085083  0.37751754  0.47899322
   0.60673466  0.59315905  0.48985745
   0.40446082  0.59761466  0.49806959
   0.74256670  0.66217915  0.49008388
   0.73496122  0.86525861  0.49667375
   0.79828059  0.00131893  0.49677557
   0.93094793  0.07112742  0.49806950
   0.79069153  0.20443784  0.49056849
   0.92649238  0.27340139  0.48985746
   0.82195433  0.48862100  0.47848581
   0.94069342  0.49201454  0.48827527
   0.82534789  0.60736015  0.48827524
   0.95035583  0.68354886  0.50105220
   0.80345431  0.79778424  0.49618131
   0.60229132  0.79546779  0.49810165
   0.93549208  0.87152158  0.50358595
   0.53777114  0.45735824  0.49056854
   0.51677651  0.24999420  0.50257604
   0.13063663  0.06931427  0.50990614
   0.99454931  0.20535691  0.49518210
   0.12880111  0.26895802  0.49810169
   0.99551241  0.40923342  0.49008394
   0.13111755  0.47012067  0.49618135
   0.01688225  0.61702257  0.50105224
   0.14366544  0.67346750  0.50915815
   0.00680117  0.81033185  0.50915815
   0.13640625  0.87097753  0.51694130
   0.19767214  0.00221787  0.51702530
   0.40221586  0.39652720  0.49668772
   0.32894767  0.06355980  0.51770782
   0.32852027  0.26458605  0.50429729
   0.19859187  0.40162783  0.49667385
   0.33465222  0.46494730  0.49677567
   0.20485507  0.60215879  0.50358553
   0.33778059  0.66489494  0.50447431
   0.20431077  0.80307287  0.51694133
   0.33555121  0.86433887  0.51702533
   0.39689308  0.99561436  0.51770782
   0.52677713  0.05645154  0.51035491
   0.38978485  0.19344382  0.51035494
   0.19551036  0.20178346  0.50475142
   0.76714065  0.43380734  0.54417316
Direct configuration=    38
   0.99821537  0.00444070  0.50447989
   0.53867646  0.66120189  0.49518712
   0.40264340  0.79730041  0.50991799
   0.53512176  0.86217830  0.50476381
   0.59792036  0.99519495  0.50429994
   0.72985949  0.06888439  0.49668336
   0.58331670  0.18342955  0.50255185
   0.70790353  0.25927489  0.48919922
   0.59260820  0.37457024  0.48919924
   0.71083819  0.37750491  0.47899076
   0.60671815  0.59315142  0.48985581
   0.40445955  0.59760076  0.49807935
   0.74256147  0.66217352  0.49007889
   0.73497296  0.86526227  0.49667644
   0.79828149  0.00132304  0.49677855
   0.93093401  0.07112611  0.49807924
   0.79068280  0.20444092  0.49056338
   0.92648475  0.27338490  0.48985581
   0.82195021  0.48861689  0.47848812
   0.94069110  0.49200770  0.48826294
   0.82534107  0.60735786  0.48826291
   0.95036267  0.68355719  0.50103496
   0.80347729  0.79779865  0.49617622
   0.60230021  0.79546730  0.49811267
   0.93551770  0.87153366  0.50358411
   0.53777421  0.45734954  0.49056343
   0.51676285  0.24998341  0.50255186
   0.13063363  0.06931014  0.50991793
   0.99453521  0.20534318  0.49518709
   0.12880061  0.26896692  0.49811272
   0.99550675  0.40922820  0.49007896
   0.13113196  0.47014349  0.49617622
   0.01689063  0.61702944  0.50103501
   0.14367774  0.67347791  0.50915044
   0.00681175  0.81034400  0.50915049
   0.13641152  0.87098517  0.51695193
   0.19766063  0.00221155  0.51704693
   0.40221770  0.39652619  0.49668343
   0.32893242  0.06355749  0.51772597
   0.32852824  0.26458709  0.50429999
   0.19859550  0.40163953  0.49667654
   0.33465632  0.46494822  0.49677866
   0.20486695  0.60218469  0.50358365
   0.33777451  0.66488202  0.50447990
   0.20431838  0.80307810  0.51695195
   0.33554491  0.86432737  0.51704695
   0.39689077  0.99559911  0.51772597
   0.52678076  0.05646173  0.51034718
   0.38979503  0.19344745  0.51034720
   0.19551163  0.20178850  0.50476381
   0.76715047  0.43381715  0.54416988
Direct configuration=    39
   0.99822031  0.00446887  0.50449059
   0.53867200  0.66120084  0.49520717
   0.40265376  0.79728245  0.50994550
   0.53512264  0.86217546  0.50478548
   0.59793767  0.99520285  0.50430153
   0.72985375  0.06888506  0.49667287
   0.58332338  0.18342104  0.50250811
   0.70789373  0.25925492  0.48916807
   0.59258820  0.37456047  0.48916809
   0.71086502  0.37753175  0.47897842
   0.60671747  0.59312449  0.48985436
   0.40444920  0.59758762  0.49809367
   0.74254781  0.66216266  0.49006480
   0.73498897  0.86527088  0.49668120
   0.79827031  0.00131922  0.49678347
   0.93092096  0.07111569  0.49809357
   0.79067689  0.20444995  0.49054912
   0.92645775  0.27338421  0.48985437
   0.82192522  0.48859192  0.47848725
   0.94069658  0.49200205  0.48824562
   0.82533529  0.60736326  0.48824558
   0.95035330  0.68356911  0.50100523
   0.80350149  0.79780649  0.49616283
   0.60230693  0.79546014  0.49813020
   0.93552301  0.87154133  0.50357772
   0.53778323  0.45734360  0.49054916
   0.51675433  0.24999010  0.50250813
   0.13061575  0.06932040  0.50994544
   0.99453414  0.20533863  0.49520714
   0.12879341  0.26897356  0.49813025
   0.99549591  0.40921445  0.49006487
   0.13113977  0.47016789  0.49616276
   0.01690260  0.61701986  0.50100525
   0.14368408  0.67348857  0.50913528
   0.00682210  0.81035052  0.50913540
   0.13642084  0.87096970  0.51697522
   0.19765990  0.00220582  0.51708664
   0.40221834  0.39652051  0.49667295
   0.32893963  0.06355280  0.51775990
   0.32853614  0.26460438  0.50430158
   0.19860419  0.40165551  0.49668131
   0.33465252  0.46493701  0.49678358
   0.20487475  0.60218991  0.50357725
   0.33780248  0.66488707  0.50449053
   0.20430310  0.80308727  0.51697523
   0.33553901  0.86432657  0.51708667
   0.39688612  0.99560638  0.51775989
   0.52677643  0.05644796  0.51033576
   0.38978125  0.19344317  0.51033578
   0.19550872  0.20178937  0.50478548
   0.76716956  0.43383626  0.54416041
Direct configuration=    40
   0.99822371  0.00448826  0.50449795
   0.53866892  0.66120012  0.49522098
   0.40266088  0.79727008  0.50996443
   0.53512325  0.86217351  0.50480040
   0.59794959  0.99520828  0.50430262
   0.72984981  0.06888552  0.49666565
   0.58332797  0.18341518  0.50247800
   0.70788699  0.25924117  0.48914663
   0.59257444  0.37455375  0.48914665
   0.71088349  0.37755022  0.47896993
   0.60671701  0.59310596  0.48985337
   0.40444208  0.59757858  0.49810353
   0.74253841  0.66215518  0.49005510
   0.73499999  0.86527681  0.49668448
   0.79826261  0.00131660  0.49678686
   0.93091198  0.07110852  0.49810343
   0.79067281  0.20445616  0.49053930
   0.92643916  0.27338373  0.48985338
   0.82190802  0.48857474  0.47848664
   0.94070035  0.49199815  0.48823370
   0.82533131  0.60736698  0.48823365
   0.95034686  0.68357732  0.50098476
   0.80351814  0.79781188  0.49615361
   0.60231156  0.79545522  0.49814226
   0.93552666  0.87154661  0.50357333
   0.53778945  0.45733951  0.49053934
   0.51674846  0.24999470  0.50247802
   0.13060344  0.06932746  0.50996438
   0.99453340  0.20533550  0.49522094
   0.12878846  0.26897812  0.49814232
   0.99548846  0.40920499  0.49005517
   0.13114514  0.47018468  0.49615349
   0.01691085  0.61701326  0.50098477
   0.14368845  0.67349591  0.50912485
   0.00682923  0.81035501  0.50912501
   0.13642726  0.87095905  0.51699126
   0.19765940  0.00220188  0.51711397
   0.40221878  0.39651660  0.49666574
   0.32894460  0.06354956  0.51778325
   0.32854158  0.26461629  0.50430267
   0.19861017  0.40166651  0.49668460
   0.33464991  0.46492930  0.49678697
   0.20488012  0.60219350  0.50357285
   0.33782174  0.66489055  0.50449785
   0.20429258  0.80309358  0.51699125
   0.33553494  0.86432603  0.51711400
   0.39688292  0.99561139  0.51778325
   0.52677345  0.05643849  0.51032789
   0.38977177  0.19344023  0.51032792
   0.19550673  0.20178997  0.50480039
   0.76718271  0.43384941  0.54415389
Direct configuration=    41
   0.99822648  0.00450704  0.50451144
   0.53869561  0.66119871  0.49524913
   0.40268094  0.79728018  0.51000182
   0.53513813  0.86216623  0.50482232
   0.59794566  0.99518545  0.50430198
   0.72985267  0.06889062  0.49665355
   0.58330094  0.18339161  0.50243661
   0.70788007  0.25923830  0.48911577
   0.59257154  0.37454683  0.48911579
   0.71087585  0.37754258  0.47894906
   0.60673797  0.59310465  0.48985452
   0.40445469  0.59759109  0.49811401
   0.74254201  0.66215699  0.49003751
   0.73499310  0.86526945  0.49668773
   0.79824738  0.00130757  0.49679000
   0.93092444  0.07112123  0.49811392
   0.79066966  0.20444551  0.49051901
   0.92643785  0.27340454  0.48985454
   0.82194126  0.48860800  0.47847846
   0.94070339  0.49199143  0.48821989
   0.82532485  0.60737008  0.48821986
   0.95035026  0.68357162  0.50095512
   0.80349365  0.79779099  0.49613689
   0.60231071  0.79545079  0.49815859
   0.93551789  0.87155653  0.50356328
   0.53777878  0.45733642  0.49051906
   0.51672488  0.24996770  0.50243663
   0.13061348  0.06934755  0.51000177
   0.99453193  0.20536210  0.49524908
   0.12878398  0.26897724  0.49815865
   0.99549027  0.40920860  0.49003756
   0.13112436  0.47016045  0.49613670
   0.01690507  0.61701672  0.50095510
   0.14367830  0.67349999  0.50911040
   0.00683322  0.81034489  0.50911065
   0.13639941  0.87094414  0.51701711
   0.19767072  0.00220977  0.51715611
   0.40222391  0.39651941  0.49665365
   0.32897354  0.06357966  0.51781651
   0.32851870  0.26461241  0.50430204
   0.19860279  0.40165970  0.49668783
   0.33464092  0.46491403  0.49679012
   0.20489012  0.60218458  0.50356286
   0.33784035  0.66489325  0.50451127
   0.20427760  0.80306582  0.51701708
   0.33554321  0.86433740  0.51715613
   0.39691283  0.99564020  0.51781652
   0.52676189  0.05642547  0.51031989
   0.38975874  0.19342862  0.51031992
   0.19549946  0.20180468  0.50482232
   0.76720450  0.43387121  0.54414091
Direct configuration=    42
   0.99822943  0.00452706  0.50452583
   0.53872405  0.66119720  0.49527912
   0.40270231  0.79729095  0.51004166
   0.53515399  0.86215848  0.50484568
   0.59794147  0.99516112  0.50430131
   0.72985573  0.06889606  0.49664065
   0.58327214  0.18336649  0.50239251
   0.70787271  0.25923524  0.48908288
   0.59256846  0.37453945  0.48908291
   0.71086771  0.37753443  0.47892682
   0.60676030  0.59310326  0.48985574
   0.40446814  0.59760442  0.49812518
   0.74254585  0.66215891  0.49001877
   0.73498575  0.86526161  0.49669119
   0.79823115  0.00129795  0.49679334
   0.93093772  0.07113477  0.49812509
   0.79066630  0.20443417  0.49049740
   0.92643644  0.27342673  0.48985578
   0.82197668  0.48864344  0.47846975
   0.94070663  0.49198426  0.48820517
   0.82531797  0.60737338  0.48820517
   0.95035387  0.68356554  0.50092353
   0.80346755  0.79776872  0.49611908
   0.60230980  0.79544608  0.49817598
   0.93550855  0.87156711  0.50355258
   0.53776742  0.45733311  0.49049745
   0.51669975  0.24993893  0.50239253
   0.13062417  0.06936896  0.51004161
   0.99453036  0.20539044  0.49527907
   0.12877921  0.26897629  0.49817606
   0.99549220  0.40921244  0.49001879
   0.13110221  0.47013464  0.49611881
   0.01689892  0.61702040  0.50092349
   0.14366749  0.67350433  0.50909501
   0.00683748  0.81033411  0.50909535
   0.13636973  0.87092824  0.51704466
   0.19768279  0.00221818  0.51720102
   0.40222938  0.39652239  0.49664076
   0.32900438  0.06361173  0.51785196
   0.32849432  0.26460827  0.50430136
   0.19859492  0.40165244  0.49669127
   0.33463135  0.46489777  0.49679347
   0.20490077  0.60217507  0.50355221
   0.33786019  0.66489613  0.50452556
   0.20426165  0.80303624  0.51704461
   0.33555203  0.86434952  0.51720102
   0.39694471  0.99567090  0.51785198
   0.52674958  0.05641160  0.51031135
   0.38974486  0.19341625  0.51031139
   0.19549172  0.20182036  0.50484569
   0.76722771  0.43389443  0.54412708
Direct configuration=    43
   0.99823497  0.00452272  0.50453992
   0.53874537  0.66118923  0.49530196
   0.40270849  0.79730622  0.51007748
   0.53516221  0.86214983  0.50486577
   0.59793634  0.99515217  0.50429890
   0.72984802  0.06888307  0.49663112
   0.58324100  0.18333782  0.50235936
   0.70786006  0.25922852  0.48905770
   0.59256176  0.37452683  0.48905773
   0.71088529  0.37755204  0.47890412
   0.60676812  0.59311372  0.48985746
   0.40449084  0.59760022  0.49813277
   0.74255505  0.66215977  0.49000331
   0.73496445  0.86524851  0.49669154
   0.79824887  0.00130366  0.49679341
   0.93093346  0.07115747  0.49813271
   0.79066463  0.20443274  0.49047976
   0.92644695  0.27343454  0.48985749
   0.82196448  0.48863119  0.47845508
   0.94070835  0.49199188  0.48819311
   0.82532565  0.60737517  0.48819312
   0.95037029  0.68357411  0.50090149
   0.80345623  0.79776897  0.49610612
   0.60231338  0.79543622  0.49819016
   0.93549874  0.87156157  0.50354231
   0.53776602  0.45733146  0.49047981
   0.51667107  0.24990779  0.50235938
   0.13063945  0.06937499  0.51007747
   0.99452238  0.20541180  0.49530191
   0.12876938  0.26897991  0.49819023
   0.99549306  0.40922159  0.49000329
   0.13110249  0.47012321  0.49610581
   0.01690738  0.61703683  0.50090141
   0.14366768  0.67348658  0.50908428
   0.00681981  0.81033419  0.50908468
   0.13635949  0.87093057  0.51706657
   0.19768680  0.00222661  0.51723770
   0.40221642  0.39651469  0.49663124
   0.32901047  0.06362452  0.51787936
   0.32848537  0.26460306  0.50429895
   0.19858176  0.40163114  0.49669160
   0.33463705  0.46491552  0.49679354
   0.20489507  0.60216539  0.50354198
   0.33785598  0.66490168  0.50453962
   0.20426406  0.80302616  0.51706649
   0.33556039  0.86435348  0.51723770
   0.39695768  0.99567711  0.51787937
   0.52676177  0.05641289  0.51030585
   0.38974618  0.19342857  0.51030588
   0.19548309  0.20182862  0.50486577
   0.76724672  0.43391345  0.54411288
Direct configuration=    44
   0.99824121  0.00451784  0.50455580
   0.53876938  0.66118025  0.49532768
   0.40271545  0.79732342  0.51011782
   0.53517146  0.86214010  0.50488839
   0.59793056  0.99514210  0.50429618
   0.72983935  0.06886844  0.49662040
   0.58320593  0.18330555  0.50232203
   0.70784582  0.25922096  0.48902934
   0.59255420  0.37451261  0.48902937
   0.71090508  0.37757186  0.47887857
   0.60677693  0.59312551  0.48985939
   0.40451640  0.59759549  0.49814132
   0.74256541  0.66216074  0.48998589
   0.73494046  0.86523376  0.49669194
   0.79826882  0.00131009  0.49679348
   0.93092865  0.07118303  0.49814129
   0.79066275  0.20443113  0.49045990
   0.92645878  0.27344334  0.48985942
   0.82195073  0.48861738  0.47843856
   0.94071028  0.49200045  0.48817953
   0.82533430  0.60737718  0.48817955
   0.95038878  0.68358375  0.50087667
   0.80344348  0.79776925  0.49609152
   0.60231742  0.79542510  0.49820611
   0.93548769  0.87155534  0.50353074
   0.53776445  0.45732959  0.49045995
   0.51663878  0.24987273  0.50232206
   0.13065664  0.06938179  0.51011785
   0.99451340  0.20543584  0.49532763
   0.12875831  0.26898399  0.49820619
   0.99549403  0.40923190  0.48998583
   0.13110280  0.47011034  0.49609116
   0.01691691  0.61705533  0.50087654
   0.14366790  0.67346660  0.50907220
   0.00679990  0.81033427  0.50907267
   0.13634795  0.87093319  0.51709125
   0.19769131  0.00223611  0.51727900
   0.40220182  0.39650601  0.49662053
   0.32901733  0.06363891  0.51791022
   0.32847530  0.26459719  0.50429624
   0.19856693  0.40160716  0.49669197
   0.33464347  0.46493551  0.49679362
   0.20488866  0.60215449  0.50353047
   0.33785124  0.66490794  0.50455545
   0.20426679  0.80301480  0.51709113
   0.33556980  0.86435793  0.51727900
   0.39697229  0.99568409  0.51791023
   0.52677551  0.05641436  0.51029964
   0.38974766  0.19344245  0.51029967
   0.19547337  0.20183793  0.50488839
   0.76726813  0.43393487  0.54409688
Direct configuration=    45
   0.99824632  0.00451485  0.50456974
   0.53877040  0.66117011  0.49533946
   0.40270914  0.79730880  0.51014714
   0.53516185  0.86213429  0.50490773
   0.59793910  0.99514473  0.50429256
   0.72983580  0.06885333  0.49661244
   0.58320626  0.18330190  0.50229480
   0.70782687  0.25920486  0.48900840
   0.59253813  0.37449369  0.48900842
   0.71088039  0.37754721  0.47886008
   0.60677497  0.59312172  0.48985965
   0.40452511  0.59760148  0.49815080
   0.74257744  0.66216589  0.48997508
   0.73494768  0.86523935  0.49668863
   0.79827934  0.00131561  0.49678948
   0.93093470  0.07119166  0.49815081
   0.79065586  0.20443305  0.49044784
   0.92645497  0.27344147  0.48985966
   0.82194826  0.48861487  0.47841955
   0.94070656  0.49201793  0.48816656
   0.82535155  0.60737341  0.48816659
   0.95040365  0.68361294  0.50086218
   0.80344850  0.79778282  0.49608286
   0.60231162  0.79541019  0.49821990
   0.93547874  0.87155144  0.50352185
   0.53776641  0.45732263  0.49044788
   0.51663516  0.24987308  0.50229483
   0.13064214  0.06937547  0.51014723
   0.99450334  0.20543693  0.49533941
   0.12874344  0.26897822  0.49821997
   0.99549924  0.40924387  0.48997498
   0.13111623  0.47011518  0.49608251
   0.01694627  0.61707021  0.50086202
   0.14368459  0.67346735  0.50906859
   0.00680056  0.81035110  0.50906906
   0.13634663  0.87093284  0.51710703
   0.19769422  0.00223603  0.51731135
   0.40218667  0.39650253  0.49661258
   0.32901416  0.06363699  0.51793012
   0.32847798  0.26460571  0.50429262
   0.19857260  0.40161433  0.49668863
   0.33464895  0.46494607  0.49678961
   0.20488481  0.60214560  0.50352156
   0.33784857  0.66491353  0.50456968
   0.20426646  0.80301336  0.51710687
   0.33556953  0.86436090  0.51731135
   0.39697042  0.99568090  0.51793013
   0.52677657  0.05640753  0.51029899
   0.38974075  0.19344334  0.51029902
   0.19546749  0.20182835  0.50490773
   0.76728363  0.43395037  0.54408074
