  50  50   0   0
  0.7861259E+02  0.1230000E-08  0.1230000E-08  0.3000000E-08  0.5000000E-15
  1.000000000000000E-004
  CAR 
 Li defective graphene MACE training lab 
      4.63478489    -53.98251761  301     -2.83128329      1.00000000
    -53.983  0.0000E+00  0.0000E+00  0.0000E+00  0.0000E+00
    -53.787  0.0000E+00  0.0000E+00  0.0000E+00  0.0000E+00
    -53.592  0.0000E+00  0.0000E+00  0.0000E+00  0.0000E+00
    -53.396  0.0000E+00  0.0000E+00  0.0000E+00  0.0000E+00
    -53.201  0.0000E+00  0.0000E+00  0.0000E+00  0.0000E+00
    -53.006  0.0000E+00  0.0000E+00  0.0000E+00  0.0000E+00
    -52.810  0.0000E+00  0.0000E+00  0.0000E+00  0.0000E+00
    -52.615  0.0000E+00  0.0000E+00  0.0000E+00  0.0000E+00
    -52.419  0.0000E+00  0.0000E+00  0.0000E+00  0.0000E+00
    -52.224  0.0000E+00  0.0000E+00  0.0000E+00  0.0000E+00
    -52.029  0.0000E+00  0.0000E+00  0.0000E+00  0.0000E+00
    -51.833  0.0000E+00  0.0000E+00  0.0000E+00  0.0000E+00
    -51.638  0.0000E+00  0.0000E+00  0.0000E+00  0.0000E+00
    -51.442  0.1117E-02  0.1010E-02  0.2183E-03  0.1974E-03
    -51.247  0.5003E+01  0.4996E+01  0.9778E+00  0.9763E+00
    -51.052  0.1138E+00  0.1212E+00  0.1000E+01  0.1000E+01
    -50.856  0.0000E+00  0.0000E+00  0.1000E+01  0.1000E+01
    -50.661  0.0000E+00  0.0000E+00  0.1000E+01  0.1000E+01
    -50.465  0.0000E+00  0.0000E+00  0.1000E+01  0.1000E+01
    -50.270  0.0000E+00  0.0000E+00  0.1000E+01  0.1000E+01
    -50.075  0.0000E+00  0.0000E+00  0.1000E+01  0.1000E+01
    -49.879  0.0000E+00  0.0000E+00  0.1000E+01  0.1000E+01
    -49.684  0.0000E+00  0.0000E+00  0.1000E+01  0.1000E+01
    -49.489  0.0000E+00  0.0000E+00  0.1000E+01  0.1000E+01
    -49.293  0.0000E+00  0.0000E+00  0.1000E+01  0.1000E+01
    -49.098  0.0000E+00  0.0000E+00  0.1000E+01  0.1000E+01
    -48.902  0.0000E+00  0.0000E+00  0.1000E+01  0.1000E+01
    -48.707  0.0000E+00  0.0000E+00  0.1000E+01  0.1000E+01
    -48.512  0.0000E+00  0.0000E+00  0.1000E+01  0.1000E+01
    -48.316  0.0000E+00  0.0000E+00  0.1000E+01  0.1000E+01
    -48.121  0.0000E+00  0.0000E+00  0.1000E+01  0.1000E+01
    -47.925  0.0000E+00  0.0000E+00  0.1000E+01  0.1000E+01
    -47.730  0.0000E+00  0.0000E+00  0.1000E+01  0.1000E+01
    -47.535  0.0000E+00  0.0000E+00  0.1000E+01  0.1000E+01
    -47.339  0.0000E+00  0.0000E+00  0.1000E+01  0.1000E+01
    -47.144  0.0000E+00  0.0000E+00  0.1000E+01  0.1000E+01
    -46.948  0.0000E+00  0.0000E+00  0.1000E+01  0.1000E+01
    -46.753  0.0000E+00  0.0000E+00  0.1000E+01  0.1000E+01
    -46.558  0.0000E+00  0.0000E+00  0.1000E+01  0.1000E+01
    -46.362  0.0000E+00  0.0000E+00  0.1000E+01  0.1000E+01
    -46.167  0.0000E+00  0.0000E+00  0.1000E+01  0.1000E+01
    -45.971  0.0000E+00  0.0000E+00  0.1000E+01  0.1000E+01
    -45.776  0.0000E+00  0.0000E+00  0.1000E+01  0.1000E+01
    -45.581  0.0000E+00  0.0000E+00  0.1000E+01  0.1000E+01
    -45.385  0.0000E+00  0.0000E+00  0.1000E+01  0.1000E+01
    -45.190  0.0000E+00  0.0000E+00  0.1000E+01  0.1000E+01
    -44.995  0.0000E+00  0.0000E+00  0.1000E+01  0.1000E+01
    -44.799  0.0000E+00  0.0000E+00  0.1000E+01  0.1000E+01
    -44.604  0.0000E+00  0.0000E+00  0.1000E+01  0.1000E+01
    -44.408  0.0000E+00  0.0000E+00  0.1000E+01  0.1000E+01
    -44.213  0.0000E+00  0.0000E+00  0.1000E+01  0.1000E+01
    -44.018  0.0000E+00  0.0000E+00  0.1000E+01  0.1000E+01
    -43.822  0.0000E+00  0.0000E+00  0.1000E+01  0.1000E+01
    -43.627  0.0000E+00  0.0000E+00  0.1000E+01  0.1000E+01
    -43.431  0.0000E+00  0.0000E+00  0.1000E+01  0.1000E+01
    -43.236  0.0000E+00  0.0000E+00  0.1000E+01  0.1000E+01
    -43.041  0.0000E+00  0.0000E+00  0.1000E+01  0.1000E+01
    -42.845  0.0000E+00  0.0000E+00  0.1000E+01  0.1000E+01
    -42.650  0.0000E+00  0.0000E+00  0.1000E+01  0.1000E+01
    -42.454  0.0000E+00  0.0000E+00  0.1000E+01  0.1000E+01
    -42.259  0.0000E+00  0.0000E+00  0.1000E+01  0.1000E+01
    -42.064  0.0000E+00  0.0000E+00  0.1000E+01  0.1000E+01
    -41.868  0.0000E+00  0.0000E+00  0.1000E+01  0.1000E+01
    -41.673  0.0000E+00  0.0000E+00  0.1000E+01  0.1000E+01
    -41.477  0.0000E+00  0.0000E+00  0.1000E+01  0.1000E+01
    -41.282  0.0000E+00  0.0000E+00  0.1000E+01  0.1000E+01
    -41.087  0.0000E+00  0.0000E+00  0.1000E+01  0.1000E+01
    -40.891  0.0000E+00  0.0000E+00  0.1000E+01  0.1000E+01
    -40.696  0.0000E+00  0.0000E+00  0.1000E+01  0.1000E+01
    -40.501  0.0000E+00  0.0000E+00  0.1000E+01  0.1000E+01
    -40.305  0.0000E+00  0.0000E+00  0.1000E+01  0.1000E+01
    -40.110  0.0000E+00  0.0000E+00  0.1000E+01  0.1000E+01
    -39.914  0.0000E+00  0.0000E+00  0.1000E+01  0.1000E+01
    -39.719  0.0000E+00  0.0000E+00  0.1000E+01  0.1000E+01
    -39.524  0.0000E+00  0.0000E+00  0.1000E+01  0.1000E+01
    -39.328  0.0000E+00  0.0000E+00  0.1000E+01  0.1000E+01
    -39.133  0.0000E+00  0.0000E+00  0.1000E+01  0.1000E+01
    -38.937  0.0000E+00  0.0000E+00  0.1000E+01  0.1000E+01
    -38.742  0.0000E+00  0.0000E+00  0.1000E+01  0.1000E+01
    -38.547  0.0000E+00  0.0000E+00  0.1000E+01  0.1000E+01
    -38.351  0.0000E+00  0.0000E+00  0.1000E+01  0.1000E+01
    -38.156  0.0000E+00  0.0000E+00  0.1000E+01  0.1000E+01
    -37.960  0.0000E+00  0.0000E+00  0.1000E+01  0.1000E+01
    -37.765  0.0000E+00  0.0000E+00  0.1000E+01  0.1000E+01
    -37.570  0.0000E+00  0.0000E+00  0.1000E+01  0.1000E+01
    -37.374  0.0000E+00  0.0000E+00  0.1000E+01  0.1000E+01
    -37.179  0.0000E+00  0.0000E+00  0.1000E+01  0.1000E+01
    -36.983  0.0000E+00  0.0000E+00  0.1000E+01  0.1000E+01
    -36.788  0.0000E+00  0.0000E+00  0.1000E+01  0.1000E+01
    -36.593  0.0000E+00  0.0000E+00  0.1000E+01  0.1000E+01
    -36.397  0.0000E+00  0.0000E+00  0.1000E+01  0.1000E+01
    -36.202  0.0000E+00  0.0000E+00  0.1000E+01  0.1000E+01
    -36.007  0.0000E+00  0.0000E+00  0.1000E+01  0.1000E+01
    -35.811  0.0000E+00  0.0000E+00  0.1000E+01  0.1000E+01
    -35.616  0.0000E+00  0.0000E+00  0.1000E+01  0.1000E+01
    -35.420  0.0000E+00  0.0000E+00  0.1000E+01  0.1000E+01
    -35.225  0.0000E+00  0.0000E+00  0.1000E+01  0.1000E+01
    -35.030  0.0000E+00  0.0000E+00  0.1000E+01  0.1000E+01
    -34.834  0.0000E+00  0.0000E+00  0.1000E+01  0.1000E+01
    -34.639  0.0000E+00  0.0000E+00  0.1000E+01  0.1000E+01
    -34.443  0.0000E+00  0.0000E+00  0.1000E+01  0.1000E+01
    -34.248  0.0000E+00  0.0000E+00  0.1000E+01  0.1000E+01
    -34.053  0.0000E+00  0.0000E+00  0.1000E+01  0.1000E+01
    -33.857  0.0000E+00  0.0000E+00  0.1000E+01  0.1000E+01
    -33.662  0.0000E+00  0.0000E+00  0.1000E+01  0.1000E+01
    -33.466  0.0000E+00  0.0000E+00  0.1000E+01  0.1000E+01
    -33.271  0.0000E+00  0.0000E+00  0.1000E+01  0.1000E+01
    -33.076  0.0000E+00  0.0000E+00  0.1000E+01  0.1000E+01
    -32.880  0.0000E+00  0.0000E+00  0.1000E+01  0.1000E+01
    -32.685  0.0000E+00  0.0000E+00  0.1000E+01  0.1000E+01
    -32.490  0.0000E+00  0.0000E+00  0.1000E+01  0.1000E+01
    -32.294  0.0000E+00  0.0000E+00  0.1000E+01  0.1000E+01
    -32.099  0.0000E+00  0.0000E+00  0.1000E+01  0.1000E+01
    -31.903  0.0000E+00  0.0000E+00  0.1000E+01  0.1000E+01
    -31.708  0.0000E+00  0.0000E+00  0.1000E+01  0.1000E+01
    -31.513  0.0000E+00  0.0000E+00  0.1000E+01  0.1000E+01
    -31.317  0.0000E+00  0.0000E+00  0.1000E+01  0.1000E+01
    -31.122  0.0000E+00  0.0000E+00  0.1000E+01  0.1000E+01
    -30.926  0.0000E+00  0.0000E+00  0.1000E+01  0.1000E+01
    -30.731  0.0000E+00  0.0000E+00  0.1000E+01  0.1000E+01
    -30.536  0.0000E+00  0.0000E+00  0.1000E+01  0.1000E+01
    -30.340  0.0000E+00  0.0000E+00  0.1000E+01  0.1000E+01
    -30.145  0.0000E+00  0.0000E+00  0.1000E+01  0.1000E+01
    -29.949  0.0000E+00  0.0000E+00  0.1000E+01  0.1000E+01
    -29.754  0.0000E+00  0.0000E+00  0.1000E+01  0.1000E+01
    -29.559  0.0000E+00  0.0000E+00  0.1000E+01  0.1000E+01
    -29.363  0.0000E+00  0.0000E+00  0.1000E+01  0.1000E+01
    -29.168  0.0000E+00  0.0000E+00  0.1000E+01  0.1000E+01
    -28.972  0.0000E+00  0.0000E+00  0.1000E+01  0.1000E+01
    -28.777  0.0000E+00  0.0000E+00  0.1000E+01  0.1000E+01
    -28.582  0.0000E+00  0.0000E+00  0.1000E+01  0.1000E+01
    -28.386  0.0000E+00  0.0000E+00  0.1000E+01  0.1000E+01
    -28.191  0.0000E+00  0.0000E+00  0.1000E+01  0.1000E+01
    -27.996  0.0000E+00  0.0000E+00  0.1000E+01  0.1000E+01
    -27.800  0.0000E+00  0.0000E+00  0.1000E+01  0.1000E+01
    -27.605  0.0000E+00  0.0000E+00  0.1000E+01  0.1000E+01
    -27.409  0.0000E+00  0.0000E+00  0.1000E+01  0.1000E+01
    -27.214  0.0000E+00  0.0000E+00  0.1000E+01  0.1000E+01
    -27.019  0.0000E+00  0.0000E+00  0.1000E+01  0.1000E+01
    -26.823  0.0000E+00  0.0000E+00  0.1000E+01  0.1000E+01
    -26.628  0.0000E+00  0.0000E+00  0.1000E+01  0.1000E+01
    -26.432  0.0000E+00  0.0000E+00  0.1000E+01  0.1000E+01
    -26.237  0.0000E+00  0.0000E+00  0.1000E+01  0.1000E+01
    -26.042  0.0000E+00  0.0000E+00  0.1000E+01  0.1000E+01
    -25.846  0.0000E+00  0.0000E+00  0.1000E+01  0.1000E+01
    -25.651  0.0000E+00  0.0000E+00  0.1000E+01  0.1000E+01
    -25.455  0.0000E+00  0.0000E+00  0.1000E+01  0.1000E+01
    -25.260  0.0000E+00  0.0000E+00  0.1000E+01  0.1000E+01
    -25.065  0.0000E+00  0.0000E+00  0.1000E+01  0.1000E+01
    -24.869  0.0000E+00  0.0000E+00  0.1000E+01  0.1000E+01
    -24.674  0.0000E+00  0.0000E+00  0.1000E+01  0.1000E+01
    -24.478  0.0000E+00  0.0000E+00  0.1000E+01  0.1000E+01
    -24.283  0.0000E+00  0.0000E+00  0.1000E+01  0.1000E+01
    -24.088  0.0000E+00  0.0000E+00  0.1000E+01  0.1000E+01
    -23.892  0.0000E+00  0.0000E+00  0.1000E+01  0.1000E+01
    -23.697  0.0000E+00  0.0000E+00  0.1000E+01  0.1000E+01
    -23.502  0.0000E+00  0.0000E+00  0.1000E+01  0.1000E+01
    -23.306  0.0000E+00  0.0000E+00  0.1000E+01  0.1000E+01
    -23.111  0.0000E+00  0.0000E+00  0.1000E+01  0.1000E+01
    -22.915  0.0000E+00  0.0000E+00  0.1000E+01  0.1000E+01
    -22.720  0.1262E-12  0.1032E-13  0.1000E+01  0.1000E+01
    -22.525  0.2459E-01  0.1157E-01  0.1005E+01  0.1002E+01
    -22.329  0.3608E+01  0.3380E+01  0.1710E+01  0.1663E+01
    -22.134  0.2630E+01  0.2789E+01  0.2224E+01  0.2208E+01
    -21.938  0.4181E+01  0.3995E+01  0.3040E+01  0.2988E+01
    -21.743  0.2620E+01  0.2605E+01  0.3552E+01  0.3497E+01
    -21.548  0.5755E+01  0.5522E+01  0.4677E+01  0.4576E+01
    -21.352  0.1644E+01  0.2145E+01  0.4998E+01  0.4995E+01
    -21.157  0.3523E+01  0.2925E+01  0.5687E+01  0.5567E+01
    -20.961  0.6852E+01  0.6904E+01  0.7025E+01  0.6916E+01
    -20.766  0.4676E+00  0.1002E+01  0.7117E+01  0.7111E+01
    -20.571  0.3588E+01  0.3440E+01  0.7818E+01  0.7784E+01
    -20.375  0.4263E+01  0.4087E+01  0.8651E+01  0.8582E+01
    -20.180  0.7033E+01  0.7043E+01  0.1003E+02  0.9958E+01
    -19.984  0.1009E+01  0.1351E+01  0.1022E+02  0.1022E+02
    -19.789  0.2109E+01  0.1140E+01  0.1063E+02  0.1045E+02
    -19.594  0.5677E+01  0.5936E+01  0.1174E+02  0.1160E+02
    -19.398  0.6419E+01  0.7102E+01  0.1300E+02  0.1299E+02
    -19.203  0.2630E+01  0.1790E+01  0.1351E+02  0.1334E+02
    -19.008  0.2769E+01  0.3250E+01  0.1405E+02  0.1398E+02
    -18.812  0.2822E+01  0.2999E+01  0.1460E+02  0.1456E+02
    -18.617  0.5478E+01  0.5305E+01  0.1567E+02  0.1560E+02
    -18.421  0.7173E+01  0.7122E+01  0.1708E+02  0.1699E+02
    -18.226  0.1880E+01  0.2167E+01  0.1744E+02  0.1741E+02
    -18.031  0.3459E+01  0.2551E+01  0.1812E+02  0.1791E+02
    -17.835  0.4680E+01  0.5289E+01  0.1903E+02  0.1895E+02
    -17.640  0.1602E+01  0.1588E+01  0.1935E+02  0.1926E+02
    -17.444  0.7829E+01  0.7992E+01  0.2088E+02  0.2082E+02
    -17.249  0.6196E+01  0.5490E+01  0.2209E+02  0.2189E+02
    -17.054  0.3343E+01  0.3914E+01  0.2274E+02  0.2266E+02
    -16.858  0.1818E+01  0.1573E+01  0.2310E+02  0.2296E+02
    -16.663  0.3000E+01  0.3454E+01  0.2368E+02  0.2364E+02
    -16.467  0.3784E+01  0.2941E+01  0.2442E+02  0.2421E+02
    -16.272  0.2964E+01  0.4028E+01  0.2500E+02  0.2500E+02
    -16.077  0.3198E+01  0.1660E+01  0.2562E+02  0.2532E+02
    -15.881  0.3392E+01  0.4706E+01  0.2629E+02  0.2624E+02
    -15.686  0.1397E+01  0.1351E+01  0.2656E+02  0.2651E+02
    -15.490  0.5145E+01  0.4947E+01  0.2757E+02  0.2747E+02
    -15.295  0.8209E+01  0.8332E+01  0.2917E+02  0.2910E+02
    -15.100  0.4569E+00  0.6945E+00  0.2926E+02  0.2924E+02
    -14.904  0.7770E+01  0.7554E+01  0.3078E+02  0.3071E+02
    -14.709  0.3489E+01  0.3261E+01  0.3146E+02  0.3135E+02
    -14.514  0.5574E+01  0.5445E+01  0.3255E+02  0.3241E+02
    -14.318  0.1952E+01  0.2512E+01  0.3293E+02  0.3291E+02
    -14.123  0.2768E+01  0.2513E+01  0.3347E+02  0.3340E+02
    -13.927  0.5814E+01  0.5705E+01  0.3461E+02  0.3451E+02
    -13.732  0.5684E+01  0.5752E+01  0.3572E+02  0.3564E+02
    -13.537  0.8789E+00  0.1297E+01  0.3589E+02  0.3589E+02
    -13.341  0.7116E+00  0.2344E+00  0.3603E+02  0.3593E+02
    -13.146  0.7779E+01  0.7190E+01  0.3755E+02  0.3734E+02
    -12.950  0.4018E+01  0.4697E+01  0.3833E+02  0.3826E+02
    -12.755  0.6010E+01  0.6203E+01  0.3951E+02  0.3947E+02
    -12.560  0.4698E+01  0.4335E+01  0.4043E+02  0.4032E+02
    -12.364  0.2207E+01  0.1543E+01  0.4086E+02  0.4062E+02
    -12.169  0.6985E+01  0.8181E+01  0.4222E+02  0.4222E+02
    -11.973  0.1574E+01  0.1379E+01  0.4253E+02  0.4249E+02
    -11.778  0.5595E+01  0.4573E+01  0.4362E+02  0.4338E+02
    -11.583  0.5910E+01  0.6836E+01  0.4478E+02  0.4471E+02
    -11.387  0.7369E+01  0.6067E+01  0.4622E+02  0.4590E+02
    -11.192  0.3591E+01  0.4816E+01  0.4692E+02  0.4684E+02
    -10.996  0.4324E+01  0.4326E+01  0.4776E+02  0.4769E+02
    -10.801  0.3074E+01  0.2727E+01  0.4836E+02  0.4822E+02
    -10.606  0.7587E+01  0.7905E+01  0.4985E+02  0.4976E+02
    -10.410  0.1050E+02  0.9795E+01  0.5190E+02  0.5168E+02
    -10.215  0.8774E+01  0.8727E+01  0.5361E+02  0.5338E+02
    -10.020  0.8619E+01  0.8911E+01  0.5530E+02  0.5512E+02
     -9.824  0.9627E+01  0.9094E+01  0.5718E+02  0.5690E+02
     -9.629  0.8863E+01  0.9624E+01  0.5891E+02  0.5878E+02
     -9.433  0.1277E+02  0.1183E+02  0.6140E+02  0.6109E+02
     -9.238  0.1059E+02  0.1084E+02  0.6347E+02  0.6321E+02
     -9.043  0.1130E+02  0.1194E+02  0.6568E+02  0.6554E+02
     -8.847  0.1219E+02  0.1142E+02  0.6806E+02  0.6778E+02
     -8.652  0.7670E+01  0.9007E+01  0.6956E+02  0.6954E+02
     -8.456  0.9601E+01  0.8061E+01  0.7144E+02  0.7111E+02
     -8.261  0.7817E+01  0.8993E+01  0.7297E+02  0.7287E+02
     -8.066  0.1230E+02  0.1189E+02  0.7537E+02  0.7519E+02
     -7.870  0.7249E+01  0.6921E+01  0.7679E+02  0.7654E+02
     -7.675  0.3790E+01  0.4253E+01  0.7753E+02  0.7738E+02
     -7.479  0.7442E+01  0.6800E+01  0.7898E+02  0.7870E+02
     -7.284  0.9577E+01  0.1008E+02  0.8085E+02  0.8067E+02
     -7.089  0.1039E+02  0.1004E+02  0.8288E+02  0.8264E+02
     -6.893  0.6597E+01  0.5841E+01  0.8417E+02  0.8378E+02
     -6.698  0.5785E+01  0.6302E+01  0.8530E+02  0.8501E+02
     -6.503  0.6925E+01  0.7131E+01  0.8665E+02  0.8640E+02
     -6.307  0.7986E+01  0.7963E+01  0.8821E+02  0.8796E+02
     -6.112  0.6263E+01  0.6948E+01  0.8944E+02  0.8932E+02
     -5.916  0.4890E+01  0.5018E+01  0.9039E+02  0.9030E+02
     -5.721  0.4139E+01  0.3744E+01  0.9120E+02  0.9103E+02
     -5.526  0.4679E+01  0.5540E+01  0.9212E+02  0.9211E+02
     -5.330  0.4087E+01  0.3590E+01  0.9292E+02  0.9281E+02
     -5.135  0.5508E+01  0.4989E+01  0.9399E+02  0.9379E+02
     -4.939  0.8934E+01  0.8844E+01  0.9574E+02  0.9551E+02
     -4.744  0.8376E+00  0.1919E+01  0.9590E+02  0.9589E+02
     -4.549  0.2610E+01  0.1159E+01  0.9641E+02  0.9612E+02
     -4.353  0.3963E+01  0.3667E+01  0.9719E+02  0.9683E+02
     -4.158  0.7781E+00  0.1429E+01  0.9734E+02  0.9711E+02
     -3.962  0.5999E+01  0.4250E+01  0.9851E+02  0.9794E+02
     -3.767  0.1374E+01  0.2993E+00  0.9878E+02  0.9800E+02
     -3.572  0.6246E+00  0.1839E-01  0.9890E+02  0.9800E+02
     -3.376  0.5127E+00  0.3504E+01  0.9900E+02  0.9869E+02
     -3.181  0.2006E+01  0.4584E+00  0.9939E+02  0.9878E+02
     -2.985  0.2476E+01  0.2984E+00  0.9988E+02  0.9884E+02
     -2.790  0.6359E+00  0.8454E+00  0.1000E+03  0.9900E+02
     -2.595  0.4746E+00  0.1129E+01  0.1001E+03  0.9922E+02
     -2.399  0.6627E+00  0.1545E-02  0.1002E+03  0.9922E+02
     -2.204  0.6354E-04  0.1182E+01  0.1002E+03  0.9945E+02
     -2.009  0.1957E+01  0.4487E+01  0.1006E+03  0.1003E+03
     -1.813  0.4042E+01  0.4544E+01  0.1014E+03  0.1012E+03
     -1.618  0.2986E+01  0.3532E+01  0.1020E+03  0.1019E+03
     -1.422  0.3232E+01  0.2128E+01  0.1026E+03  0.1023E+03
     -1.227  0.5133E+01  0.5862E+01  0.1036E+03  0.1035E+03
     -1.032  0.5671E+01  0.5684E+01  0.1047E+03  0.1046E+03
     -0.836  0.1315E+02  0.1036E+02  0.1073E+03  0.1066E+03
     -0.641  0.7148E+01  0.1015E+02  0.1087E+03  0.1086E+03
     -0.445  0.4264E+01  0.4565E+01  0.1095E+03  0.1095E+03
     -0.250  0.6573E+00  0.5683E+00  0.1096E+03  0.1096E+03
     -0.055  0.4880E+01  0.2753E+01  0.1106E+03  0.1101E+03
      0.141  0.4230E+01  0.6094E+01  0.1114E+03  0.1113E+03
      0.336  0.3488E+01  0.3748E+01  0.1121E+03  0.1121E+03
      0.532  0.8415E+01  0.8257E+01  0.1138E+03  0.1137E+03
      0.727  0.4386E+01  0.4414E+01  0.1146E+03  0.1145E+03
      0.922  0.7788E+01  0.7548E+01  0.1161E+03  0.1160E+03
      1.118  0.9759E+01  0.1003E+02  0.1180E+03  0.1180E+03
      1.313  0.9935E+01  0.9411E+01  0.1200E+03  0.1198E+03
      1.509  0.1534E+02  0.1469E+02  0.1230E+03  0.1227E+03
      1.704  0.1464E+02  0.1574E+02  0.1258E+03  0.1257E+03
      1.899  0.1049E+02  0.1087E+02  0.1279E+03  0.1279E+03
      2.095  0.5740E+00  0.6709E+00  0.1280E+03  0.1280E+03
      2.290  0.1242E-03  0.2162E-05  0.1280E+03  0.1280E+03
      2.485  0.0000E+00  0.0000E+00  0.1280E+03  0.1280E+03
      2.681  0.0000E+00  0.0000E+00  0.1280E+03  0.1280E+03
      2.876  0.0000E+00  0.0000E+00  0.1280E+03  0.1280E+03
      3.072  0.0000E+00  0.0000E+00  0.1280E+03  0.1280E+03
      3.267  0.0000E+00  0.0000E+00  0.1280E+03  0.1280E+03
      3.462  0.0000E+00  0.0000E+00  0.1280E+03  0.1280E+03
      3.658  0.0000E+00  0.0000E+00  0.1280E+03  0.1280E+03
      3.853  0.0000E+00  0.0000E+00  0.1280E+03  0.1280E+03
      4.049  0.0000E+00  0.0000E+00  0.1280E+03  0.1280E+03
      4.244  0.0000E+00  0.0000E+00  0.1280E+03  0.1280E+03
      4.439  0.0000E+00  0.0000E+00  0.1280E+03  0.1280E+03
      4.635  0.0000E+00  0.0000E+00  0.1280E+03  0.1280E+03
