       N       E                     dE             d eps       ncg     rms          rms(c)
DAV:   1     0.192375891261E+04    0.19238E+04   -0.65947E+04  3144   0.107E+03
DAV:   2     0.535507593451E+02   -0.18702E+04   -0.17337E+04  3936   0.236E+02
DAV:   3    -0.447496905077E+03   -0.50105E+03   -0.49711E+03  3344   0.130E+02
DAV:   4    -0.475903301233E+03   -0.28406E+02   -0.27939E+02  3384   0.403E+01
DAV:   5    -0.477006560126E+03   -0.11033E+01   -0.10903E+01  3912   0.682E+00    0.326E+01
DAV:   6    -0.453792770418E+03    0.23214E+02   -0.27872E+01  2856   0.125E+01    0.188E+01
DAV:   7    -0.443081955787E+03    0.10711E+02   -0.15921E+01  2856   0.999E+00    0.100E+01
DAV:   8    -0.442176790500E+03    0.90517E+00   -0.51577E+00  2944   0.548E+00    0.395E+00
DAV:   9    -0.442820303434E+03   -0.64351E+00   -0.83926E-01  3528   0.255E+00    0.188E+00
DAV:  10    -0.443185943423E+03   -0.36564E+00   -0.23299E-01  2784   0.124E+00    0.103E+00
DAV:  11    -0.443506377780E+03   -0.32043E+00   -0.64816E-02  2976   0.667E-01    0.783E-01
DAV:  12    -0.443858058563E+03   -0.35168E+00   -0.56774E-02  2784   0.516E-01    0.637E-01
DAV:  13    -0.444349481221E+03   -0.49142E+00   -0.84034E-02  2776   0.538E-01    0.472E-01
DAV:  14    -0.444428695677E+03   -0.79214E-01   -0.88064E-02  2784   0.561E-01    0.325E-01
DAV:  15    -0.444999852015E+03   -0.57116E+00   -0.40391E-02  2928   0.334E-01    0.225E-01
DAV:  16    -0.445454672906E+03   -0.45482E+00   -0.15295E-02  2928   0.209E-01    0.157E-01
DAV:  17    -0.445800450791E+03   -0.34578E+00   -0.66467E-03  2872   0.157E-01    0.111E-01
DAV:  18    -0.446009686001E+03   -0.20924E+00   -0.37692E-03  2840   0.114E-01    0.799E-02
DAV:  19    -0.446100410225E+03   -0.90724E-01   -0.18307E-03  2936   0.752E-02    0.560E-02
DAV:  20    -0.446124097665E+03   -0.23687E-01   -0.69838E-04  2896   0.452E-02    0.404E-02
DAV:  21    -0.446135570820E+03   -0.11473E-01   -0.33476E-04  2952   0.315E-02    0.283E-02
DAV:  22    -0.446156235683E+03   -0.20665E-01   -0.11218E-04  2920   0.215E-02    0.183E-02
DAV:  23    -0.446177856076E+03   -0.21620E-01   -0.36225E-05  2952   0.157E-02    0.105E-02
DAV:  24    -0.446184049843E+03   -0.61938E-02   -0.13896E-05  2472   0.127E-02    0.702E-03
DAV:  25    -0.446186645459E+03   -0.25956E-02   -0.18534E-05  2328   0.119E-02    0.448E-03
DAV:  26    -0.446187950800E+03   -0.13053E-02   -0.15626E-05  2272   0.112E-02    0.264E-03
DAV:  27    -0.446188533076E+03   -0.58228E-03   -0.68843E-06  2304   0.753E-03    0.163E-03
DAV:  28    -0.446188767638E+03   -0.23456E-03   -0.18267E-06  2248   0.456E-03    0.111E-03
DAV:  29    -0.446188900448E+03   -0.13281E-03   -0.87388E-07  1928   0.295E-03    0.730E-04
DAV:  30    -0.446188986658E+03   -0.86210E-04   -0.53642E-07  1952   0.172E-03    0.466E-04
DAV:  31    -0.446189025748E+03   -0.39091E-04   -0.26978E-07  2008   0.111E-03    0.309E-04
DAV:  32    -0.446189050278E+03   -0.24530E-04   -0.12183E-07  1960   0.746E-04    0.201E-04
DAV:  33    -0.446189061693E+03   -0.11414E-04   -0.57773E-08  1960   0.493E-04    0.146E-04
DAV:  34    -0.446189065665E+03   -0.39725E-05   -0.65151E-09  1888   0.308E-04    0.121E-04
DAV:  35    -0.446189067465E+03   -0.18001E-05    0.59055E-09  1776   0.203E-04    0.111E-04
DAV:  36    -0.446189068191E+03   -0.72626E-06    0.12480E-08  1800   0.124E-04
   1 F= -.44618907E+03 E0= -.44618906E+03  d E =-.689498E-05  mag=     1.0000
