<?xml version="1.0" encoding="ISO-8859-1"?>
<modeling>
 <generator>
  <i name="program" type="string">vasp </i>
  <i name="version" type="string">5.4.1  </i>
  <i name="subversion" type="string">24Jun15 (build Jul 23 2024 06:15:33) complex                          parallel </i>
  <i name="platform" type="string">IFC91_ompi </i>
  <i name="date" type="string">2026 05 05 </i>
  <i name="time" type="string">12:46:44 </i>
 </generator>
 <incar>
  <i type="string" name="SYSTEM"> Li defective graphene MACE training lab</i>
  <i type="int" name="ISTART">     0</i>
  <i type="string" name="PREC">accurate</i>
  <i type="string" name="ALGO"> Normal</i>
  <i type="logical" name="ADDGRID"> T  </i>
  <i type="int" name="ISPIN">     2</i>
  <i type="int" name="ICHARG">     2</i>
  <i type="int" name="NELM">   120</i>
  <i type="int" name="IBRION">    -1</i>
  <i name="EDIFF">      0.00000100</i>
  <i type="int" name="NSW">     0</i>
  <i type="int" name="ISIF">     2</i>
  <i type="int" name="ISYM">     0</i>
  <i name="ENCUT">    520.00000000</i>
  <v name="MAGMOM">      0.10000000      0.10000000      0.10000000      0.10000000      0.10000000      0.10000000      0.10000000      0.10000000      0.10000000      0.10000000      0.10000000      0.10000000      0.10000000      0.10000000      0.10000000      0.10000000      0.10000000      0.10000000      0.10000000      0.10000000
      0.10000000      0.10000000      0.10000000      0.10000000      0.10000000      0.10000000      0.10000000      0.10000000      0.10000000      0.10000000      0.10000000      0.10000000      0.10000000      0.10000000      0.10000000      0.10000000      0.10000000      0.10000000      0.10000000      0.10000000
      0.10000000      0.10000000      0.10000000      0.10000000      0.10000000      0.10000000      0.10000000      0.10000000      0.10000000      1.00000000</v>
  <i type="string" name="LREAL"> Auto</i>
  <i type="int" name="ISMEAR">     0</i>
  <i name="SIGMA">      0.05000000</i>
  <i type="logical" name="LWAVE"> F  </i>
  <i type="logical" name="LCHARG"> F  </i>
  <i type="logical" name="LASPH"> T  </i>
  <v type="int" name="KPOINT_BSE">    -1     0     0     0</v>
  <i type="int" name="NELM">   120</i>
  <i type="logical" name="LASPH"> T  </i>
 </incar>
 <kpoints>
  <generation param="Gamma">
   <v type="int" name="divisions">       3        3        1 </v>
   <v name="usershift">      0.00000000       0.00000000       0.00000000 </v>
   <v name="genvec1">      0.33333333       0.00000000       0.00000000 </v>
   <v name="genvec2">      0.00000000       0.33333333       0.00000000 </v>
   <v name="genvec3">      0.00000000       0.00000000       1.00000000 </v>
   <v name="shift">      0.00000000       0.00000000       0.00000000 </v>
  </generation>
  <varray name="kpointlist" >
   <v>       0.00000000       0.00000000       0.00000000 </v>
   <v>       0.33333333      -0.00000000       0.00000000 </v>
   <v>       0.00000000       0.33333333       0.00000000 </v>
   <v>       0.33333333       0.33333333       0.00000000 </v>
   <v>      -0.33333333       0.33333333       0.00000000 </v>
  </varray>
  <varray name="weights" >
   <v>       0.11111111 </v>
   <v>       0.22222222 </v>
   <v>       0.22222222 </v>
   <v>       0.22222222 </v>
   <v>       0.22222222 </v>
  </varray>
 </kpoints>
 <parameters>
  <separator name="general" >
   <i type="string" name="SYSTEM">Li defective graphene MACE training lab</i>
   <i type="logical" name="LCOMPAT"> F  </i>
  </separator>
  <separator name="electronic" >
   <i type="string" name="PREC">accura</i>
   <i name="ENMAX">    520.00000000</i>
   <i name="ENAUG">    644.87300000</i>
   <i name="EDIFF">      0.00000100</i>
   <i type="int" name="IALGO">    38</i>
   <i type="int" name="IWAVPR">    10</i>
   <i type="int" name="NBANDS">   128</i>
   <i name="NELECT">    199.00000000</i>
   <i type="int" name="TURBO">     0</i>
   <i type="int" name="IRESTART">     0</i>
   <i type="int" name="NREBOOT">     0</i>
   <i type="int" name="NMIN">     0</i>
   <i name="EREF">      0.00000000</i>
   <separator name="electronic smearing" >
    <i type="int" name="ISMEAR">     0</i>
    <i name="SIGMA">      0.05000000</i>
    <i name="KSPACING">      0.50000000</i>
    <i type="logical" name="KGAMMA"> T  </i>
   </separator>
   <separator name="electronic projectors" >
    <i type="logical" name="LREAL"> T  </i>
    <v name="ROPT">     -0.00025000     -0.00025000</v>
    <i type="int" name="LMAXPAW">  -100</i>
    <i type="int" name="LMAXMIX">     2</i>
    <i type="logical" name="NLSPLINE"> F  </i>
   </separator>
   <separator name="electronic startup" >
    <i type="int" name="ISTART">     0</i>
    <i type="int" name="ICHARG">     2</i>
    <i type="int" name="INIWAV">     1</i>
   </separator>
   <separator name="electronic spin" >
    <i type="int" name="ISPIN">     2</i>
    <i type="logical" name="LNONCOLLINEAR"> F  </i>
    <v name="MAGMOM">      0.10000000      0.10000000      0.10000000      0.10000000      0.10000000      0.10000000      0.10000000      0.10000000      0.10000000      0.10000000      0.10000000      0.10000000      0.10000000      0.10000000      0.10000000      0.10000000      0.10000000      0.10000000      0.10000000      0.10000000
      0.10000000      0.10000000      0.10000000      0.10000000      0.10000000      0.10000000      0.10000000      0.10000000      0.10000000      0.10000000      0.10000000      0.10000000      0.10000000      0.10000000      0.10000000      0.10000000      0.10000000      0.10000000      0.10000000      0.10000000
      0.10000000      0.10000000      0.10000000      0.10000000      0.10000000      0.10000000      0.10000000      0.10000000      0.10000000      1.00000000</v>
    <i name="NUPDOWN">     -1.00000000</i>
    <i type="logical" name="LSORBIT"> F  </i>
    <v name="SAXIS">      0.00000000      0.00000000      1.00000000</v>
    <i type="logical" name="LSPIRAL"> F  </i>
    <v name="QSPIRAL">      0.00000000      0.00000000      0.00000000</v>
    <i type="logical" name="LZEROZ"> F  </i>
   </separator>
   <separator name="electronic exchange-correlation" >
    <i type="logical" name="LASPH"> T  </i>
    <i type="logical" name="LMETAGGA"> F  </i>
   </separator>
   <separator name="electronic convergence" >
    <i type="int" name="NELM">   120</i>
    <i type="int" name="NELMDL">    -5</i>
    <i type="int" name="NELMIN">     2</i>
    <i name="ENINI">    520.00000000</i>
    <separator name="electronic convergence detail" >
     <i type="logical" name="LDIAG"> T  </i>
     <i type="logical" name="LSUBROT"> F  </i>
     <i name="WEIMIN">      0.00000000</i>
     <i name="EBREAK">      0.00000000</i>
     <i name="DEPER">      0.30000000</i>
     <i type="int" name="NRMM">     4</i>
     <i name="TIME">      0.40000000</i>
    </separator>
   </separator>
   <separator name="electronic mixer" >
    <i name="AMIX">      0.40000000</i>
    <i name="BMIX">      1.00000000</i>
    <i name="AMIN">      0.10000000</i>
    <i name="AMIX_MAG">      1.60000000</i>
    <i name="BMIX_MAG">      1.00000000</i>
    <separator name="electronic mixer details" >
     <i type="int" name="IMIX">     4</i>
     <i type="logical" name="MIXFIRST"> F  </i>
     <i type="int" name="MAXMIX">   -45</i>
     <i name="WC">    100.00000000</i>
     <i type="int" name="INIMIX">     1</i>
     <i type="int" name="MIXPRE">     1</i>
     <i type="int" name="MREMOVE">     5</i>
    </separator>
   </separator>
   <separator name="electronic dipolcorrection" >
    <i type="logical" name="LDIPOL"> F  </i>
    <i type="logical" name="LMONO"> F  </i>
    <i type="int" name="IDIPOL">     0</i>
    <i name="EPSILON">      1.00000000</i>
    <v name="DIPOL">   -100.00000000   -100.00000000   -100.00000000</v>
    <i name="EFIELD">      0.00000000</i>
   </separator>
  </separator>
  <separator name="grids" >
   <i type="int" name="NGX">    96</i>
   <i type="int" name="NGY">    96</i>
   <i type="int" name="NGZ">   224</i>
   <i type="int" name="NGXF">   192</i>
   <i type="int" name="NGYF">   192</i>
   <i type="int" name="NGZF">   448</i>
   <i type="logical" name="ADDGRID"> T  </i>
  </separator>
  <separator name="ionic" >
   <i type="int" name="NSW">     0</i>
   <i type="int" name="IBRION">    -1</i>
   <i type="int" name="ISIF">     2</i>
   <i name="PSTRESS">      0.00000000</i>
   <i name="EDIFFG">      0.00001000</i>
   <i type="int" name="NFREE">     0</i>
   <i name="POTIM">      0.50000000</i>
   <i name="SMASS">     -3.00000000</i>
   <i name="SCALEE">      1.00000000</i>
  </separator>
  <separator name="ionic md" >
   <i name="TEBEG">      0.00010000</i>
   <i name="TEEND">      0.00010000</i>
   <i type="int" name="NBLOCK">     1</i>
   <i type="int" name="KBLOCK">     1</i>
   <i type="int" name="NPACO">   256</i>
   <i name="APACO">     16.00000000</i>
  </separator>
  <separator name="symmetry" >
   <i type="int" name="ISYM">     0</i>
   <i name="SYMPREC">      0.00001000</i>
  </separator>
  <separator name="dos" >
   <i type="logical" name="LORBIT"> F  </i>
   <v name="RWIGS">     -1.00000000     -1.00000000</v>
   <i type="int" name="NEDOS">   301</i>
   <i name="EMIN">     10.00000000</i>
   <i name="EMAX">    -10.00000000</i>
   <i name="EFERMI">      0.00000000</i>
  </separator>
  <separator name="writing" >
   <i type="int" name="NWRITE">     2</i>
   <i type="logical" name="LWAVE"> F  </i>
   <i type="logical" name="LCHARG"> F  </i>
   <i type="logical" name="LPARD"> F  </i>
   <i type="logical" name="LVTOT"> F  </i>
   <i type="logical" name="LVHAR"> F  </i>
   <i type="logical" name="LELF"> F  </i>
   <i type="logical" name="LOPTICS"> F  </i>
   <v name="STM">      0.00000000      0.00000000      0.00000000      0.00000000      0.00000000      0.00000000      0.00000000</v>
  </separator>
  <separator name="performance" >
   <i type="int" name="NPAR">     4</i>
   <i type="int" name="NSIM">     4</i>
   <i type="int" name="NBLK">    -1</i>
   <i type="logical" name="LPLANE"> T  </i>
   <i type="logical" name="LSCALAPACK"> T  </i>
   <i type="logical" name="LSCAAWARE"> F  </i>
   <i type="logical" name="LSCALU"> F  </i>
   <i type="logical" name="LASYNC"> F  </i>
   <i type="logical" name="LORBITALREAL"> F  </i>
  </separator>
  <separator name="miscellaneous" >
   <i type="int" name="IDIOT">     3</i>
   <i type="logical" name="LMUSIC"> F  </i>
   <v name="POMASS">     12.01100000      7.01000000</v>
   <v name="DARWINR">      0.00000000      0.00000000</v>
   <v name="DARWINV">      1.00000000      1.00000000</v>
   <i type="logical" name="LCORR"> T  </i>
  </separator>
  <i type="logical" name="GGA_COMPAT"> T  </i>
  <i type="logical" name="LBERRY"> F  </i>
  <i type="int" name="ICORELEVEL">     0</i>
  <i type="logical" name="LDAU"> F  </i>
  <i type="int" name="I_CONSTRAINED_M">     0</i>
  <separator name="electronic exchange-correlation" >
   <i type="string" name="GGA">--</i>
   <i type="int" name="VOSKOWN">     0</i>
   <i type="logical" name="LHFCALC"> F  </i>
   <i type="string" name="PRECFOCK"></i>
   <i type="logical" name="LSYMGRAD"> F  </i>
   <i type="logical" name="LHFONE"> F  </i>
   <i type="logical" name="LRHFCALC"> F  </i>
   <i type="logical" name="LTHOMAS"> F  </i>
   <i type="logical" name="LMODELHF"> F  </i>
   <i name="ENCUT4O">     -1.00000000</i>
   <i type="int" name="EXXOEP">     0</i>
   <i type="int" name="FOURORBIT">     0</i>
   <i name="AEXX">      0.00000000</i>
   <i name="HFALPHA">      0.00000000</i>
   <i name="MCALPHA">      0.00000000</i>
   <i name="ALDAX">      1.00000000</i>
   <i name="AGGAX">      1.00000000</i>
   <i name="ALDAC">      1.00000000</i>
   <i name="AGGAC">      1.00000000</i>
   <i type="int" name="NKREDX">     1</i>
   <i type="int" name="NKREDY">     1</i>
   <i type="int" name="NKREDZ">     1</i>
   <i type="logical" name="SHIFTRED"> F  </i>
   <i type="logical" name="ODDONLY"> F  </i>
   <i type="logical" name="EVENONLY"> F  </i>
   <i type="int" name="LMAXFOCK">     0</i>
   <i type="int" name="NMAXFOCKAE">     0</i>
   <i type="logical" name="LFOCKAEDFT"> F  </i>
   <i name="HFSCREEN">      0.00000000</i>
   <i name="HFSCREENC">      0.00000000</i>
   <i type="int" name="NBANDSGWLOW">     0</i>
  </separator>
  <separator name="vdW DFT" >
   <i type="logical" name="LUSE_VDW"> F  </i>
   <i name="Zab_VDW">     -0.84910000</i>
   <i name="PARAM1">      0.12340000</i>
   <i name="PARAM2">      1.00000000</i>
   <i name="PARAM3">      0.00000000</i>
  </separator>
  <separator name="model GW" >
   <i type="int" name="MODEL_GW">     0</i>
   <i name="MODEL_EPS0">     47.16755400</i>
   <i name="MODEL_ALPHA">      1.00000000</i>
  </separator>
  <separator name="linear response parameters" >
   <i type="logical" name="LEPSILON"> F  </i>
   <i type="logical" name="LRPA"> F  </i>
   <i type="logical" name="LNABLA"> F  </i>
   <i type="logical" name="LVEL"> F  </i>
   <i type="int" name="KINTER">     0</i>
   <i name="CSHIFT">      0.10000000</i>
   <i name="OMEGAMAX">     -1.00000000</i>
   <i name="DEG_THRESHOLD">      0.00200000</i>
  </separator>
  <separator name="orbital magnetization" >
   <i type="logical" name="NUCIND"> F  </i>
   <v name="MAGPOS">      0.00000000      0.00000000      0.00000000</v>
   <i type="logical" name="LNICSALL"> T  </i>
   <i type="logical" name="ORBITALMAG"> F  </i>
   <i type="logical" name="LMAGBLOCH"> F  </i>
   <i type="logical" name="LCHIMAG"> F  </i>
   <i type="logical" name="LGAUGE"> T  </i>
   <i type="int" name="MAGATOM">     0</i>
   <v name="MAGDIPOL">      0.00000000      0.00000000      0.00000000</v>
   <v name="AVECCONST">      0.00000000      0.00000000      0.00000000</v>
  </separator>
  <separator name="response functions" >
   <i type="logical" name="LADDER"> F  </i>
   <i type="logical" name="LFXC"> F  </i>
   <i type="logical" name="LHARTREE"> T  </i>
   <i type="int" name="IBSE">     0</i>
   <v type="int" name="KPOINT">    -1     0     0     0</v>
   <i type="logical" name="LTCTE"> F  </i>
   <i type="logical" name="LTETE"> F  </i>
   <i type="logical" name="LTRIPLET"> F  </i>
   <i type="logical" name="LFXCEPS"> F  </i>
   <i type="logical" name="LFXHEG"> F  </i>
   <i type="int" name="NATURALO">     0</i>
   <i type="logical" name="L2ORDER"> F  </i>
   <i type="logical" name="LUSEW"> F  </i>
   <i name="ENCUTGW">     -2.00000000</i>
   <i name="ENCUTGWSOFT">     -2.00000000</i>
   <i name="ENCUTLF">     -1.00000000</i>
   <i type="int" name="LMAXMP2">    -1</i>
   <i name="SCISSOR">      0.00000000</i>
   <i type="int" name="NOMEGA">     0</i>
   <i type="int" name="NOMEGAR">     0</i>
   <i type="int" name="NBANDSGW">    -1</i>
   <i type="int" name="NBANDSO">    -1</i>
   <i type="int" name="NBANDSV">    -1</i>
   <i type="int" name="NELM">   120</i>
   <i type="int" name="NELMHF">     1</i>
   <i type="int" name="DIM">     3</i>
   <i type="int" name="ANTIRES">     0</i>
   <i name="OMEGAMAX">    -30.00000000</i>
   <i name="OMEGAMIN">    -30.00000000</i>
   <i name="OMEGATL">   -200.00000000</i>
   <i type="int" name="OMEGAGRID">     0</i>
   <i name="CSHIFT">     -0.10000000</i>
   <i type="logical" name="SELFENERGY"> F  </i>
   <i type="logical" name="LSPECTRAL"> F  </i>
   <i type="logical" name="LSPECTRALGW"> F  </i>
   <i type="logical" name="LSINGLES"> F  </i>
   <i type="logical" name="LFERMIGW"> F  </i>
   <i type="logical" name="ODDONLYGW"> F  </i>
   <i type="logical" name="EVENONLYGW"> F  </i>
   <i type="int" name="NKREDLFX">     1</i>
   <i type="int" name="NKREDLFY">     1</i>
   <i type="int" name="NKREDLFZ">     1</i>
   <i type="int" name="MAXMEM">  1800</i>
   <i type="int" name="TELESCOPE">     0</i>
   <i type="int" name="TAUPAR">     1</i>
   <i type="int" name="OMEGAPAR">    -1</i>
   <i name="LAMBDA">      1.00000000</i>
  </separator>
  <separator name="External order field" >
   <i name="OFIELD_KAPPA">      0.00000000</i>
   <v name="OFIELD_K">      0.00000000      0.00000000      0.00000000</v>
   <i name="OFIELD_Q6_NEAR">      0.00000000</i>
   <i name="OFIELD_Q6_FAR">      0.00000000</i>
   <i name="OFIELD_A">      0.00000000</i>
  </separator>
 </parameters>
 <atominfo>
  <atoms>      50 </atoms>
  <types>       2 </types>
  <array name="atoms" >
   <dimension dim="1">ion</dimension>
   <field type="string">element</field>
   <field type="int">atomtype</field>
   <set>
    <rc><c>C </c><c>   1</c></rc>
    <rc><c>C </c><c>   1</c></rc>
    <rc><c>C </c><c>   1</c></rc>
    <rc><c>C </c><c>   1</c></rc>
    <rc><c>C </c><c>   1</c></rc>
    <rc><c>C </c><c>   1</c></rc>
    <rc><c>C </c><c>   1</c></rc>
    <rc><c>C </c><c>   1</c></rc>
    <rc><c>C </c><c>   1</c></rc>
    <rc><c>C </c><c>   1</c></rc>
    <rc><c>C </c><c>   1</c></rc>
    <rc><c>C </c><c>   1</c></rc>
    <rc><c>C </c><c>   1</c></rc>
    <rc><c>C </c><c>   1</c></rc>
    <rc><c>C </c><c>   1</c></rc>
    <rc><c>C </c><c>   1</c></rc>
    <rc><c>C </c><c>   1</c></rc>
    <rc><c>C </c><c>   1</c></rc>
    <rc><c>C </c><c>   1</c></rc>
    <rc><c>C </c><c>   1</c></rc>
    <rc><c>C </c><c>   1</c></rc>
    <rc><c>C </c><c>   1</c></rc>
    <rc><c>C </c><c>   1</c></rc>
    <rc><c>C </c><c>   1</c></rc>
    <rc><c>C </c><c>   1</c></rc>
    <rc><c>C </c><c>   1</c></rc>
    <rc><c>C </c><c>   1</c></rc>
    <rc><c>C </c><c>   1</c></rc>
    <rc><c>C </c><c>   1</c></rc>
    <rc><c>C </c><c>   1</c></rc>
    <rc><c>C </c><c>   1</c></rc>
    <rc><c>C </c><c>   1</c></rc>
    <rc><c>C </c><c>   1</c></rc>
    <rc><c>C </c><c>   1</c></rc>
    <rc><c>C </c><c>   1</c></rc>
    <rc><c>C </c><c>   1</c></rc>
    <rc><c>C </c><c>   1</c></rc>
    <rc><c>C </c><c>   1</c></rc>
    <rc><c>C </c><c>   1</c></rc>
    <rc><c>C </c><c>   1</c></rc>
    <rc><c>C </c><c>   1</c></rc>
    <rc><c>C </c><c>   1</c></rc>
    <rc><c>C </c><c>   1</c></rc>
    <rc><c>C </c><c>   1</c></rc>
    <rc><c>C </c><c>   1</c></rc>
    <rc><c>C </c><c>   1</c></rc>
    <rc><c>C </c><c>   1</c></rc>
    <rc><c>C </c><c>   1</c></rc>
    <rc><c>C </c><c>   1</c></rc>
    <rc><c>Li</c><c>   2</c></rc>
   </set>
  </array>
  <array name="atomtypes" >
   <dimension dim="1">type</dimension>
   <field type="int">atomspertype</field>
   <field type="string">element</field>
   <field>mass</field>
   <field>valence</field>
   <field type="string">pseudopotential</field>
   <set>
    <rc><c>  49</c><c>C </c><c>     12.01100000</c><c>      4.00000000</c><c>  PAW_PBE C 08Apr2002                   </c></rc>
    <rc><c>   1</c><c>Li</c><c>      7.01000000</c><c>      3.00000000</c><c>  PAW_PBE Li_sv 10Sep2004               </c></rc>
   </set>
  </array>
 </atominfo>
 <structure name="initialpos" >
  <crystal>
   <varray name="basis" >
    <v>      12.30000000       0.00000000       0.00000000 </v>
    <v>      -6.15000000      10.65211247       0.00000000 </v>
    <v>       0.00000000       0.00000000      30.00000000 </v>
   </varray>
   <i name="volume">   3930.62950016 </i>
   <varray name="rec_basis" >
    <v>       0.08130081       0.04693905       0.00000000 </v>
    <v>       0.00000000       0.09387809       0.00000000 </v>
    <v>       0.00000000       0.00000000       0.03333333 </v>
   </varray>
  </crystal>
  <varray name="positions" >
   <v>       0.00241675       0.00483448       0.49955969 </v>
   <v>       0.00047808       0.20354369       0.49708490 </v>
   <v>       0.13463609       0.26927074       0.49721905 </v>
   <v>       0.99251997       0.40198658       0.49835808 </v>
   <v>       0.12960135       0.46710097       0.49846242 </v>
   <v>       0.99540656       0.60140123       0.50494583 </v>
   <v>       0.12931837       0.66539858       0.50116589 </v>
   <v>       0.00219701       0.80536586       0.50450399 </v>
   <v>       0.13445484       0.86909391       0.50034337 </v>
   <v>       0.20142472       0.00220199       0.49809883 </v>
   <v>       0.93629167       0.87258305       0.50349194 </v>
   <v>       0.33442020       0.06674621       0.49699704 </v>
   <v>       0.33780229       0.26891012       0.49715611 </v>
   <v>       0.20094230       0.40188479       0.49784824 </v>
   <v>       0.33749957       0.46710116       0.49846275 </v>
   <v>       0.19777702       0.59962370       0.49888439 </v>
   <v>       0.33250809       0.66501671       0.49837366 </v>
   <v>       0.19808171       0.79919043       0.50020985 </v>
   <v>       0.33124695       0.86398847       0.49815780 </v>
   <v>       0.39771561       0.99668493       0.49685870 </v>
   <v>       0.53064147       0.06128312       0.49599153 </v>
   <v>       0.40237348       0.20038227       0.49691357 </v>
   <v>       0.13594450       0.07045562       0.49801649 </v>
   <v>       0.53625545       0.26422682       0.49673049 </v>
   <v>       0.40946572       0.40198596       0.49835855 </v>
   <v>       0.54883905       0.46793449       0.50034638 </v>
   <v>       0.53607948       0.66539893       0.50116650 </v>
   <v>       0.39888492       0.79776914       0.49816137 </v>
   <v>       0.53274075       0.86398815       0.49815849 </v>
   <v>       0.59896972       0.99668492       0.49685896 </v>
   <v>       0.73232587       0.06674688       0.49699773 </v>
   <v>       0.59585928       0.19171921       0.49571791 </v>
   <v>       0.72797051       0.26422719       0.49673137 </v>
   <v>       0.61605989       0.39512436       0.49826195 </v>
   <v>       0.60599398       0.60140207       0.50494646 </v>
   <v>       0.73898476       0.67348731       0.51141615 </v>
   <v>       0.20306558       0.20354364       0.49708475 </v>
   <v>       0.60110866       0.79919002       0.50021035 </v>
   <v>       0.80077774       0.00220153       0.49809858 </v>
   <v>       0.93451202       0.07045564       0.49801598 </v>
   <v>       0.79800901       0.20038199       0.49691389 </v>
   <v>       0.93110804       0.26891088       0.49715507 </v>
   <v>       0.77906601       0.39512445       0.49826169 </v>
   <v>       0.91909509       0.46793455       0.50034557 </v>
   <v>       0.80783333       0.61566627       0.52409629 </v>
   <v>       0.93450279       0.67348741       0.51141558 </v>
   <v>       0.80316869       0.80536493       0.50450437 </v>
   <v>       0.40184557       0.59962381       0.49888479 </v>
   <v>       0.73463922       0.86909291       0.50034273 </v>
   <v>       0.50000000       0.50000000       0.55659087 </v>
  </varray>
 </structure>
 <calculation>
  <scstep>
   <time name="dav">   74.15   74.16</time>
   <time name="total">   78.48   78.48</time>
   <energy>
    <i name="alphaZ">     51.33532475 </i>
    <i name="ewald">  54547.27161985 </i>
    <i name="hartreedc"> -59709.08543632 </i>
    <i name="XCdc">    656.59180183 </i>
    <i name="pawpsdc">   5397.03696553 </i>
    <i name="pawaedc">  -5440.27338102 </i>
    <i name="eentropy">     -0.03011807 </i>
    <i name="bandstr">   -992.15648320 </i>
    <i name="atom">   7413.06861924 </i>
    <i name="e_fr_energy">   1923.75891261 </i>
    <i name="e_wo_entrp">   1923.78903068 </i>
    <i name="e_0_energy">   1923.77397164 </i>
   </energy>
  </scstep>
  <scstep>
   <time name="dav">   90.62   90.63</time>
   <time name="total">   90.62   90.63</time>
   <energy>
    <i name="e_fr_energy">     53.55075935 </i>
    <i name="e_wo_entrp">     53.55784763 </i>
    <i name="e_0_energy">     53.55430349 </i>
   </energy>
  </scstep>
  <scstep>
   <time name="dav">   79.26   79.27</time>
   <time name="total">   79.27   79.28</time>
   <energy>
    <i name="e_fr_energy">   -447.49690508 </i>
    <i name="e_wo_entrp">   -447.48894029 </i>
    <i name="e_0_energy">   -447.49292268 </i>
   </energy>
  </scstep>
  <scstep>
   <time name="dav">   80.02   80.02</time>
   <time name="total">   80.02   80.03</time>
   <energy>
    <i name="e_fr_energy">   -475.90330123 </i>
    <i name="e_wo_entrp">   -475.89794586 </i>
    <i name="e_0_energy">   -475.90062355 </i>
   </energy>
  </scstep>
  <scstep>
   <time name="dav">   90.04   90.05</time>
   <time name="total">   97.68   97.70</time>
   <energy>
    <i name="e_fr_energy">   -477.00656013 </i>
    <i name="e_wo_entrp">   -477.00127820 </i>
    <i name="e_0_energy">   -477.00391916 </i>
   </energy>
  </scstep>
  <scstep>
   <time name="dav">   69.73   69.73</time>
   <time name="total">   81.67   81.69</time>
   <energy>
    <i name="e_fr_energy">   -453.79277042 </i>
    <i name="e_wo_entrp">   -453.79252099 </i>
    <i name="e_0_energy">   -453.79264570 </i>
   </energy>
  </scstep>
  <scstep>
   <time name="dav">   69.92   69.92</time>
   <time name="total">   81.98   81.99</time>
   <energy>
    <i name="e_fr_energy">   -443.08195579 </i>
    <i name="e_wo_entrp">   -443.08195480 </i>
    <i name="e_0_energy">   -443.08195529 </i>
   </energy>
  </scstep>
  <scstep>
   <time name="dav">   70.65   70.65</time>
   <time name="total">   82.71   82.71</time>
   <energy>
    <i name="e_fr_energy">   -442.17679050 </i>
    <i name="e_wo_entrp">   -442.17678773 </i>
    <i name="e_0_energy">   -442.17678911 </i>
   </energy>
  </scstep>
  <scstep>
   <time name="dav">   81.91   81.91</time>
   <time name="total">   93.80   93.81</time>
   <energy>
    <i name="e_fr_energy">   -442.82030343 </i>
    <i name="e_wo_entrp">   -442.82029273 </i>
    <i name="e_0_energy">   -442.82029808 </i>
   </energy>
  </scstep>
  <scstep>
   <time name="dav">   68.51   68.52</time>
   <time name="total">   79.85   79.86</time>
   <energy>
    <i name="e_fr_energy">   -443.18594342 </i>
    <i name="e_wo_entrp">   -443.18593833 </i>
    <i name="e_0_energy">   -443.18594088 </i>
   </energy>
  </scstep>
  <scstep>
   <time name="dav">   72.14   72.14</time>
   <time name="total">   83.94   83.95</time>
   <energy>
    <i name="e_fr_energy">   -443.50637778 </i>
    <i name="e_wo_entrp">   -443.50637231 </i>
    <i name="e_0_energy">   -443.50637505 </i>
   </energy>
  </scstep>
  <scstep>
   <time name="dav">   67.36   67.36</time>
   <time name="total">   79.30   79.31</time>
   <energy>
    <i name="e_fr_energy">   -443.85805856 </i>
    <i name="e_wo_entrp">   -443.85805279 </i>
    <i name="e_0_energy">   -443.85805568 </i>
   </energy>
  </scstep>
  <scstep>
   <time name="dav">   68.31   68.31</time>
   <time name="total">   79.29   79.30</time>
   <energy>
    <i name="e_fr_energy">   -444.34948122 </i>
    <i name="e_wo_entrp">   -444.34947601 </i>
    <i name="e_0_energy">   -444.34947861 </i>
   </energy>
  </scstep>
  <scstep>
   <time name="dav">   68.30   68.31</time>
   <time name="total">   80.29   80.30</time>
   <energy>
    <i name="e_fr_energy">   -444.42869568 </i>
    <i name="e_wo_entrp">   -444.42869031 </i>
    <i name="e_0_energy">   -444.42869299 </i>
   </energy>
  </scstep>
  <scstep>
   <time name="dav">   70.19   70.20</time>
   <time name="total">   82.13   82.14</time>
   <energy>
    <i name="e_fr_energy">   -444.99985201 </i>
    <i name="e_wo_entrp">   -444.99984603 </i>
    <i name="e_0_energy">   -444.99984902 </i>
   </energy>
  </scstep>
  <scstep>
   <time name="dav">   70.10   70.10</time>
   <time name="total">   82.20   82.21</time>
   <energy>
    <i name="e_fr_energy">   -445.45467291 </i>
    <i name="e_wo_entrp">   -445.45466665 </i>
    <i name="e_0_energy">   -445.45466978 </i>
   </energy>
  </scstep>
  <scstep>
   <time name="dav">   69.93   69.94</time>
   <time name="total">   81.92   81.93</time>
   <energy>
    <i name="e_fr_energy">   -445.80045079 </i>
    <i name="e_wo_entrp">   -445.80044428 </i>
    <i name="e_0_energy">   -445.80044754 </i>
   </energy>
  </scstep>
  <scstep>
   <time name="dav">   68.38   68.38</time>
   <time name="total">   80.46   80.47</time>
   <energy>
    <i name="e_fr_energy">   -446.00968600 </i>
    <i name="e_wo_entrp">   -446.00967935 </i>
    <i name="e_0_energy">   -446.00968268 </i>
   </energy>
  </scstep>
  <scstep>
   <time name="dav">   70.43   70.44</time>
   <time name="total">   82.38   82.39</time>
   <energy>
    <i name="e_fr_energy">   -446.10041023 </i>
    <i name="e_wo_entrp">   -446.10040350 </i>
    <i name="e_0_energy">   -446.10040686 </i>
   </energy>
  </scstep>
  <scstep>
   <time name="dav">   70.36   70.37</time>
   <time name="total">   81.79   81.80</time>
   <energy>
    <i name="e_fr_energy">   -446.12409766 </i>
    <i name="e_wo_entrp">   -446.12409085 </i>
    <i name="e_0_energy">   -446.12409426 </i>
   </energy>
  </scstep>
  <scstep>
   <time name="dav">   71.70   71.71</time>
   <time name="total">   83.51   83.53</time>
   <energy>
    <i name="e_fr_energy">   -446.13557082 </i>
    <i name="e_wo_entrp">   -446.13556393 </i>
    <i name="e_0_energy">   -446.13556738 </i>
   </energy>
  </scstep>
  <scstep>
   <time name="dav">   69.93   69.98</time>
   <time name="total">   82.02   82.07</time>
   <energy>
    <i name="e_fr_energy">   -446.15623568 </i>
    <i name="e_wo_entrp">   -446.15622878 </i>
    <i name="e_0_energy">   -446.15623223 </i>
   </energy>
  </scstep>
  <scstep>
   <time name="dav">   70.60   70.60</time>
   <time name="total">   82.52   82.53</time>
   <energy>
    <i name="e_fr_energy">   -446.17785608 </i>
    <i name="e_wo_entrp">   -446.17784917 </i>
    <i name="e_0_energy">   -446.17785262 </i>
   </energy>
  </scstep>
  <scstep>
   <time name="dav">   62.46   62.47</time>
   <time name="total">   74.63   74.64</time>
   <energy>
    <i name="e_fr_energy">   -446.18404984 </i>
    <i name="e_wo_entrp">   -446.18404293 </i>
    <i name="e_0_energy">   -446.18404639 </i>
   </energy>
  </scstep>
  <scstep>
   <time name="dav">   58.93   58.93</time>
   <time name="total">   70.94   70.95</time>
   <energy>
    <i name="e_fr_energy">   -446.18664546 </i>
    <i name="e_wo_entrp">   -446.18663855 </i>
    <i name="e_0_energy">   -446.18664200 </i>
   </energy>
  </scstep>
  <scstep>
   <time name="dav">   57.79   57.80</time>
   <time name="total">   69.91   69.92</time>
   <energy>
    <i name="e_fr_energy">   -446.18795080 </i>
    <i name="e_wo_entrp">   -446.18794390 </i>
    <i name="e_0_energy">   -446.18794735 </i>
   </energy>
  </scstep>
  <scstep>
   <time name="dav">   59.19   59.20</time>
   <time name="total">   71.19   71.21</time>
   <energy>
    <i name="e_fr_energy">   -446.18853308 </i>
    <i name="e_wo_entrp">   -446.18852618 </i>
    <i name="e_0_energy">   -446.18852963 </i>
   </energy>
  </scstep>
  <scstep>
   <time name="dav">   57.38   57.40</time>
   <time name="total">   69.51   69.53</time>
   <energy>
    <i name="e_fr_energy">   -446.18876764 </i>
    <i name="e_wo_entrp">   -446.18876074 </i>
    <i name="e_0_energy">   -446.18876419 </i>
   </energy>
  </scstep>
  <scstep>
   <time name="dav">   52.22   52.23</time>
   <time name="total">   64.27   64.29</time>
   <energy>
    <i name="e_fr_energy">   -446.18890045 </i>
    <i name="e_wo_entrp">   -446.18889355 </i>
    <i name="e_0_energy">   -446.18889700 </i>
   </energy>
  </scstep>
  <scstep>
   <time name="dav">   51.86   51.87</time>
   <time name="total">   63.87   63.88</time>
   <energy>
    <i name="e_fr_energy">   -446.18898666 </i>
    <i name="e_wo_entrp">   -446.18897976 </i>
    <i name="e_0_energy">   -446.18898321 </i>
   </energy>
  </scstep>
  <scstep>
   <time name="dav">   53.19   53.19</time>
   <time name="total">   65.06   65.07</time>
   <energy>
    <i name="e_fr_energy">   -446.18902575 </i>
    <i name="e_wo_entrp">   -446.18901885 </i>
    <i name="e_0_energy">   -446.18902230 </i>
   </energy>
  </scstep>
  <scstep>
   <time name="dav">   52.73   52.73</time>
   <time name="total">   64.86   64.87</time>
   <energy>
    <i name="e_fr_energy">   -446.18905028 </i>
    <i name="e_wo_entrp">   -446.18904338 </i>
    <i name="e_0_energy">   -446.18904683 </i>
   </energy>
  </scstep>
  <scstep>
   <time name="dav">   52.10   52.12</time>
   <time name="total">   64.21   64.27</time>
   <energy>
    <i name="e_fr_energy">   -446.18906169 </i>
    <i name="e_wo_entrp">   -446.18905480 </i>
    <i name="e_0_energy">   -446.18905825 </i>
   </energy>
  </scstep>
  <scstep>
   <time name="dav">   51.47   51.47</time>
   <time name="total">   63.60   63.61</time>
   <energy>
    <i name="e_fr_energy">   -446.18906567 </i>
    <i name="e_wo_entrp">   -446.18905877 </i>
    <i name="e_0_energy">   -446.18906222 </i>
   </energy>
  </scstep>
  <scstep>
   <time name="dav">   48.70   48.70</time>
   <time name="total">   60.72   60.73</time>
   <energy>
    <i name="e_fr_energy">   -446.18906747 </i>
    <i name="e_wo_entrp">   -446.18906057 </i>
    <i name="e_0_energy">   -446.18906402 </i>
   </energy>
  </scstep>
  <scstep>
   <time name="dav">   49.69   49.69</time>
   <time name="total">   54.05   54.06</time>
   <energy>
    <i name="alphaZ">     51.33532475 </i>
    <i name="ewald">  54547.27161985 </i>
    <i name="hartreedc"> -60630.89700011 </i>
    <i name="XCdc">    685.29982802 </i>
    <i name="pawpsdc">  20098.11906304 </i>
    <i name="pawaedc"> -20147.18197710 </i>
    <i name="eentropy">     -0.00000689 </i>
    <i name="bandstr">  -2463.20453899 </i>
    <i name="atom">   7413.06861924 </i>
    <i name="e_fr_energy">   -446.18906819 </i>
    <i name="e_wo_entrp">   -446.18906130 </i>
    <i name="e_0_energy">   -446.18906474 </i>
   </energy>
  </scstep>
  <structure>
   <crystal>
    <varray name="basis" >
     <v>      12.30000000       0.00000000       0.00000000 </v>
     <v>      -6.15000000      10.65211247       0.00000000 </v>
     <v>       0.00000000       0.00000000      30.00000000 </v>
    </varray>
    <i name="volume">   3930.62950016 </i>
    <varray name="rec_basis" >
     <v>       0.08130081       0.04693905       0.00000000 </v>
     <v>       0.00000000       0.09387809       0.00000000 </v>
     <v>       0.00000000       0.00000000       0.03333333 </v>
    </varray>
   </crystal>
   <varray name="positions" >
    <v>       0.00241675       0.00483448       0.49955969 </v>
    <v>       0.00047808       0.20354369       0.49708490 </v>
    <v>       0.13463609       0.26927074       0.49721905 </v>
    <v>       0.99251997       0.40198658       0.49835808 </v>
    <v>       0.12960135       0.46710097       0.49846242 </v>
    <v>       0.99540656       0.60140123       0.50494583 </v>
    <v>       0.12931837       0.66539858       0.50116589 </v>
    <v>       0.00219701       0.80536586       0.50450399 </v>
    <v>       0.13445484       0.86909391       0.50034337 </v>
    <v>       0.20142472       0.00220199       0.49809883 </v>
    <v>       0.93629167       0.87258305       0.50349194 </v>
    <v>       0.33442020       0.06674621       0.49699704 </v>
    <v>       0.33780229       0.26891012       0.49715611 </v>
    <v>       0.20094230       0.40188479       0.49784824 </v>
    <v>       0.33749957       0.46710116       0.49846275 </v>
    <v>       0.19777702       0.59962370       0.49888439 </v>
    <v>       0.33250809       0.66501671       0.49837366 </v>
    <v>       0.19808171       0.79919043       0.50020985 </v>
    <v>       0.33124695       0.86398847       0.49815780 </v>
    <v>       0.39771561       0.99668493       0.49685870 </v>
    <v>       0.53064147       0.06128312       0.49599153 </v>
    <v>       0.40237348       0.20038227       0.49691357 </v>
    <v>       0.13594450       0.07045562       0.49801649 </v>
    <v>       0.53625545       0.26422682       0.49673049 </v>
    <v>       0.40946572       0.40198596       0.49835855 </v>
    <v>       0.54883905       0.46793449       0.50034638 </v>
    <v>       0.53607948       0.66539893       0.50116650 </v>
    <v>       0.39888492       0.79776914       0.49816137 </v>
    <v>       0.53274075       0.86398815       0.49815849 </v>
    <v>       0.59896972       0.99668492       0.49685896 </v>
    <v>       0.73232587       0.06674688       0.49699773 </v>
    <v>       0.59585928       0.19171921       0.49571791 </v>
    <v>       0.72797051       0.26422719       0.49673137 </v>
    <v>       0.61605989       0.39512436       0.49826195 </v>
    <v>       0.60599398       0.60140207       0.50494646 </v>
    <v>       0.73898476       0.67348731       0.51141615 </v>
    <v>       0.20306558       0.20354364       0.49708475 </v>
    <v>       0.60110866       0.79919002       0.50021035 </v>
    <v>       0.80077774       0.00220153       0.49809858 </v>
    <v>       0.93451202       0.07045564       0.49801598 </v>
    <v>       0.79800901       0.20038199       0.49691389 </v>
    <v>       0.93110804       0.26891088       0.49715507 </v>
    <v>       0.77906601       0.39512445       0.49826169 </v>
    <v>       0.91909509       0.46793455       0.50034557 </v>
    <v>       0.80783333       0.61566627       0.52409629 </v>
    <v>       0.93450279       0.67348741       0.51141558 </v>
    <v>       0.80316869       0.80536493       0.50450437 </v>
    <v>       0.40184557       0.59962381       0.49888479 </v>
    <v>       0.73463922       0.86909291       0.50034273 </v>
    <v>       0.50000000       0.50000000       0.55659087 </v>
   </varray>
  </structure>
  <varray name="forces" >
   <v>      -0.01427658       0.13704574      -0.03088964 </v>
   <v>       0.04212726       0.03490842       0.00810105 </v>
   <v>      -0.02861447      -0.07753147      -0.00840191 </v>
   <v>       0.01230441      -0.02622126      -0.02789519 </v>
   <v>      -0.03318298      -0.00279448       0.00010740 </v>
   <v>       0.09953606      -0.07400444      -0.08394528 </v>
   <v>      -0.14779681      -0.02033020       0.01840880 </v>
   <v>      -0.13717681       0.08669777       0.16201242 </v>
   <v>      -0.00121109      -0.05615269      -0.00518325 </v>
   <v>       0.01440462       0.00004503      -0.00270531 </v>
   <v>       0.00079947      -0.14124095      -0.04170361 </v>
   <v>      -0.03887021      -0.05983973      -0.00028182 </v>
   <v>      -0.01594675      -0.30793375       0.04691289 </v>
   <v>      -0.04884870      -0.00833491       0.03954556 </v>
   <v>      -0.26463187      -0.10985016       0.07467233 </v>
   <v>       0.05445941      -0.02995148       0.00960545 </v>
   <v>      -0.11531163       0.06875076       0.01749462 </v>
   <v>       0.06099985       0.03092803      -0.00498499 </v>
   <v>      -0.06826984       0.00474932       0.00510014 </v>
   <v>       0.01730442       0.01893568       0.00184186 </v>
   <v>      -0.03791846       0.05344735      -0.00937283 </v>
   <v>       0.07536500       0.04458582      -0.06485297 </v>
   <v>      -0.03791629      -0.05797036       0.00997276 </v>
   <v>      -0.02876508       0.03802822       0.01515782 </v>
   <v>      -0.06894484      -0.27267820      -0.24516423 </v>
   <v>       0.96907496      -0.62608742      -1.28081256 </v>
   <v>      -0.13569769       0.23367260      -0.00430264 </v>
   <v>       0.05264664      -0.00270580       0.00061905 </v>
   <v>      -0.04615051      -0.01467761       0.00184104 </v>
   <v>       0.02399280       0.01026100      -0.00162460 </v>
   <v>      -0.03043006       0.01236916      -0.00936805 </v>
   <v>      -0.03987737       0.07836052       0.06616184 </v>
   <v>      -0.05942395       0.30569909       0.01498709 </v>
   <v>       0.29214992       0.30281704       0.18471392 </v>
   <v>       0.21769599       0.32557715      -0.39372001 </v>
   <v>       0.36871681      -0.59514897       0.41040895 </v>
   <v>       0.00710281       0.03658253       0.00233535 </v>
   <v>      -0.04948200       0.05332616       0.03815453 </v>
   <v>       0.02063963      -0.04018623      -0.00501360 </v>
   <v>       0.07519770      -0.04001333       0.01189313 </v>
   <v>       0.00864955       0.04553924      -0.04872871 </v>
   <v>      -0.02975206       0.02919812       0.01355923 </v>
   <v>       0.03824153       0.18318094       0.11066576 </v>
   <v>      -0.29023624      -0.17750460       0.06504592 </v>
   <v>      -0.11190424       0.82705234      -1.10018088 </v>
   <v>       0.01221597      -0.70606590       0.36440107 </v>
   <v>       0.13077747       0.15284960       0.12600548 </v>
   <v>      -0.14135451       0.17923236       0.06238160 </v>
   <v>       0.05368818      -0.02084954      -0.00097899 </v>
   <v>      -0.62609942       0.17423347       1.48800399 </v>
  </varray>
  <varray name="stress" >
   <v>      -9.57456463      -0.11524894      -0.38352768 </v>
   <v>      -0.11524833       6.94757413       0.18602069 </v>
   <v>      -0.38352837       0.18602236       0.66384244 </v>
  </varray>
  <energy>
   <i name="e_fr_energy">   -446.18906819 </i>
   <i name="e_wo_entrp">   -446.18906474 </i>
   <i name="e_0_energy">     -0.00000689 </i>
  </energy>
  <time name="totalsc"> 2896.62 2897.17</time>
  <eigenvalues>
   <array>
    <dimension dim="1">band</dimension>
    <dimension dim="2">kpoint</dimension>
    <dimension dim="3">spin</dimension>
    <field>eigene</field>
    <field>occ</field>
    <set>
     <set comment="spin 1">
      <set comment="kpoint 1">
       <r>  -51.3181    1.0000 </r>
       <r>  -22.4639    1.0000 </r>
       <r>  -21.6926    1.0000 </r>
       <r>  -21.6172    1.0000 </r>
       <r>  -21.5661    1.0000 </r>
       <r>  -21.4904    1.0000 </r>
       <r>  -21.4217    1.0000 </r>
       <r>  -21.0019    1.0000 </r>
       <r>  -19.7686    1.0000 </r>
       <r>  -19.7260    1.0000 </r>
       <r>  -19.7033    1.0000 </r>
       <r>  -19.6563    1.0000 </r>
       <r>  -19.5605    1.0000 </r>
       <r>  -19.3242    1.0000 </r>
       <r>  -18.8449    1.0000 </r>
       <r>  -18.8132    1.0000 </r>
       <r>  -18.7626    1.0000 </r>
       <r>  -18.6881    1.0000 </r>
       <r>  -18.6183    1.0000 </r>
       <r>  -17.9307    1.0000 </r>
       <r>  -16.6856    1.0000 </r>
       <r>  -16.6526    1.0000 </r>
       <r>  -16.5799    1.0000 </r>
       <r>  -16.5232    1.0000 </r>
       <r>  -16.4908    1.0000 </r>
       <r>  -16.0578    1.0000 </r>
       <r>  -15.6924    1.0000 </r>
       <r>  -15.6361    1.0000 </r>
       <r>  -15.5797    1.0000 </r>
       <r>  -15.4853    1.0000 </r>
       <r>  -15.3237    1.0000 </r>
       <r>  -14.8700    1.0000 </r>
       <r>  -14.2930    1.0000 </r>
       <r>  -14.2757    1.0000 </r>
       <r>  -14.2410    1.0000 </r>
       <r>  -14.0726    1.0000 </r>
       <r>  -13.9608    1.0000 </r>
       <r>  -13.0643    1.0000 </r>
       <r>  -11.9950    1.0000 </r>
       <r>  -11.9167    1.0000 </r>
       <r>  -11.8856    1.0000 </r>
       <r>  -11.8767    1.0000 </r>
       <r>  -11.8300    1.0000 </r>
       <r>  -11.7944    1.0000 </r>
       <r>  -11.7708    1.0000 </r>
       <r>  -11.7461    1.0000 </r>
       <r>  -11.6852    1.0000 </r>
       <r>  -11.3190    1.0000 </r>
       <r>  -11.2809    1.0000 </r>
       <r>  -10.6603    1.0000 </r>
       <r>  -10.6110    1.0000 </r>
       <r>  -10.4113    1.0000 </r>
       <r>  -10.3551    1.0000 </r>
       <r>  -10.3427    1.0000 </r>
       <r>  -10.1150    1.0000 </r>
       <r>  -10.0297    1.0000 </r>
       <r>   -9.8957    1.0000 </r>
       <r>   -9.7286    1.0000 </r>
       <r>   -9.5924    1.0000 </r>
       <r>   -9.4809    1.0000 </r>
       <r>   -9.4468    1.0000 </r>
       <r>   -9.4073    1.0000 </r>
       <r>   -9.2035    1.0000 </r>
       <r>   -9.1669    1.0000 </r>
       <r>   -9.1299    1.0000 </r>
       <r>   -9.1175    1.0000 </r>
       <r>   -9.0949    1.0000 </r>
       <r>   -9.0553    1.0000 </r>
       <r>   -9.0122    1.0000 </r>
       <r>   -8.9707    1.0000 </r>
       <r>   -8.9209    1.0000 </r>
       <r>   -8.8629    1.0000 </r>
       <r>   -8.1627    1.0000 </r>
       <r>   -8.1286    1.0000 </r>
       <r>   -7.6737    1.0000 </r>
       <r>   -7.5323    1.0000 </r>
       <r>   -7.4871    1.0000 </r>
       <r>   -7.4722    1.0000 </r>
       <r>   -7.4293    1.0000 </r>
       <r>   -7.3551    1.0000 </r>
       <r>   -7.3363    1.0000 </r>
       <r>   -7.2966    1.0000 </r>
       <r>   -7.2250    1.0000 </r>
       <r>   -7.2028    1.0000 </r>
       <r>   -7.0150    1.0000 </r>
       <r>   -6.5436    1.0000 </r>
       <r>   -6.5019    1.0000 </r>
       <r>   -6.4242    1.0000 </r>
       <r>   -6.3668    1.0000 </r>
       <r>   -6.3562    1.0000 </r>
       <r>   -6.2768    1.0000 </r>
       <r>   -6.1912    1.0000 </r>
       <r>   -5.6996    1.0000 </r>
       <r>   -4.6149    1.0000 </r>
       <r>   -4.5188    1.0000 </r>
       <r>   -4.4549    1.0000 </r>
       <r>   -4.4193    1.0000 </r>
       <r>   -4.3134    1.0000 </r>
       <r>   -4.0335    1.0000 </r>
       <r>   -3.2025    1.0000 </r>
       <r>   -1.9305    0.0000 </r>
       <r>   -1.8688    0.0000 </r>
       <r>   -1.6845    0.0000 </r>
       <r>   -1.6493    0.0000 </r>
       <r>   -1.5127    0.0000 </r>
       <r>   -0.9817    0.0000 </r>
       <r>   -0.8516    0.0000 </r>
       <r>   -0.8157    0.0000 </r>
       <r>   -0.1307    0.0000 </r>
       <r>    0.0386    0.0000 </r>
       <r>    0.1141    0.0000 </r>
       <r>    0.1812    0.0000 </r>
       <r>    0.3631    0.0000 </r>
       <r>    0.5036    0.0000 </r>
       <r>    0.7697    0.0000 </r>
       <r>    0.8280    0.0000 </r>
       <r>    0.9639    0.0000 </r>
       <r>    1.0008    0.0000 </r>
       <r>    1.0251    0.0000 </r>
       <r>    1.3527    0.0000 </r>
       <r>    1.3933    0.0000 </r>
       <r>    1.4630    0.0000 </r>
       <r>    1.4908    0.0000 </r>
       <r>    1.5473    0.0000 </r>
       <r>    1.7092    0.0000 </r>
       <r>    1.7253    0.0000 </r>
       <r>    1.8271    0.0000 </r>
       <r>    1.9704    0.0000 </r>
      </set>
      <set comment="kpoint 2">
       <r>  -51.3181    1.0000 </r>
       <r>  -22.3738    1.0000 </r>
       <r>  -22.0450    1.0000 </r>
       <r>  -21.7911    1.0000 </r>
       <r>  -21.5717    1.0000 </r>
       <r>  -21.1543    1.0000 </r>
       <r>  -21.0005    1.0000 </r>
       <r>  -20.6659    1.0000 </r>
       <r>  -20.5261    1.0000 </r>
       <r>  -20.3171    1.0000 </r>
       <r>  -19.8028    1.0000 </r>
       <r>  -19.5815    1.0000 </r>
       <r>  -19.4755    1.0000 </r>
       <r>  -19.2246    1.0000 </r>
       <r>  -18.9556    1.0000 </r>
       <r>  -18.7285    1.0000 </r>
       <r>  -18.4887    1.0000 </r>
       <r>  -18.0733    1.0000 </r>
       <r>  -17.8674    1.0000 </r>
       <r>  -17.6214    1.0000 </r>
       <r>  -17.5136    1.0000 </r>
       <r>  -17.3592    1.0000 </r>
       <r>  -17.2680    1.0000 </r>
       <r>  -16.7795    1.0000 </r>
       <r>  -16.4119    1.0000 </r>
       <r>  -16.1017    1.0000 </r>
       <r>  -15.6312    1.0000 </r>
       <r>  -15.4560    1.0000 </r>
       <r>  -15.3777    1.0000 </r>
       <r>  -15.0538    1.0000 </r>
       <r>  -14.9843    1.0000 </r>
       <r>  -14.7781    1.0000 </r>
       <r>  -14.6069    1.0000 </r>
       <r>  -14.4687    1.0000 </r>
       <r>  -13.8799    1.0000 </r>
       <r>  -13.3154    1.0000 </r>
       <r>  -13.2005    1.0000 </r>
       <r>  -13.1036    1.0000 </r>
       <r>  -12.9009    1.0000 </r>
       <r>  -12.8294    1.0000 </r>
       <r>  -12.6451    1.0000 </r>
       <r>  -12.3697    1.0000 </r>
       <r>  -12.3249    1.0000 </r>
       <r>  -11.8086    1.0000 </r>
       <r>  -11.4770    1.0000 </r>
       <r>  -11.4228    1.0000 </r>
       <r>  -11.1386    1.0000 </r>
       <r>  -10.9723    1.0000 </r>
       <r>  -10.7861    1.0000 </r>
       <r>  -10.6940    1.0000 </r>
       <r>  -10.5457    1.0000 </r>
       <r>  -10.5011    1.0000 </r>
       <r>  -10.4407    1.0000 </r>
       <r>  -10.2027    1.0000 </r>
       <r>  -10.0891    1.0000 </r>
       <r>   -9.9681    1.0000 </r>
       <r>   -9.8369    1.0000 </r>
       <r>   -9.7841    1.0000 </r>
       <r>   -9.7677    1.0000 </r>
       <r>   -9.5774    1.0000 </r>
       <r>   -9.4911    1.0000 </r>
       <r>   -9.4549    1.0000 </r>
       <r>   -9.3919    1.0000 </r>
       <r>   -9.2723    1.0000 </r>
       <r>   -9.2197    1.0000 </r>
       <r>   -9.0448    1.0000 </r>
       <r>   -8.9199    1.0000 </r>
       <r>   -8.8649    1.0000 </r>
       <r>   -8.8167    1.0000 </r>
       <r>   -8.5944    1.0000 </r>
       <r>   -8.5040    1.0000 </r>
       <r>   -8.4440    1.0000 </r>
       <r>   -8.3234    1.0000 </r>
       <r>   -8.2066    1.0000 </r>
       <r>   -8.1192    1.0000 </r>
       <r>   -8.0915    1.0000 </r>
       <r>   -7.9453    1.0000 </r>
       <r>   -7.6536    1.0000 </r>
       <r>   -7.5122    1.0000 </r>
       <r>   -7.4161    1.0000 </r>
       <r>   -7.2859    1.0000 </r>
       <r>   -7.2085    1.0000 </r>
       <r>   -7.1540    1.0000 </r>
       <r>   -6.9905    1.0000 </r>
       <r>   -6.8860    1.0000 </r>
       <r>   -6.6673    1.0000 </r>
       <r>   -6.5444    1.0000 </r>
       <r>   -6.3929    1.0000 </r>
       <r>   -6.3289    1.0000 </r>
       <r>   -6.1079    1.0000 </r>
       <r>   -5.7901    1.0000 </r>
       <r>   -5.6346    1.0000 </r>
       <r>   -5.4564    1.0000 </r>
       <r>   -5.1682    1.0000 </r>
       <r>   -5.0737    1.0000 </r>
       <r>   -5.0515    1.0000 </r>
       <r>   -4.4955    1.0000 </r>
       <r>   -4.0779    1.0000 </r>
       <r>   -3.9475    1.0000 </r>
       <r>   -3.2205    1.0000 </r>
       <r>   -2.0672    0.0000 </r>
       <r>   -1.7479    0.0000 </r>
       <r>   -1.4240    0.0000 </r>
       <r>   -1.2017    0.0000 </r>
       <r>   -1.0892    0.0000 </r>
       <r>   -0.9308    0.0000 </r>
       <r>   -0.9020    0.0000 </r>
       <r>   -0.8444    0.0000 </r>
       <r>   -0.7671    0.0000 </r>
       <r>   -0.5915    0.0000 </r>
       <r>   -0.0737    0.0000 </r>
       <r>    0.3717    0.0000 </r>
       <r>    0.4238    0.0000 </r>
       <r>    0.6815    0.0000 </r>
       <r>    0.7176    0.0000 </r>
       <r>    0.8260    0.0000 </r>
       <r>    0.8891    0.0000 </r>
       <r>    0.9881    0.0000 </r>
       <r>    1.1401    0.0000 </r>
       <r>    1.2395    0.0000 </r>
       <r>    1.3631    0.0000 </r>
       <r>    1.3877    0.0000 </r>
       <r>    1.4851    0.0000 </r>
       <r>    1.5498    0.0000 </r>
       <r>    1.5957    0.0000 </r>
       <r>    1.6795    0.0000 </r>
       <r>    1.7258    0.0000 </r>
       <r>    1.7959    0.0000 </r>
      </set>
      <set comment="kpoint 3">
       <r>  -51.3181    1.0000 </r>
       <r>  -22.3688    1.0000 </r>
       <r>  -22.0773    1.0000 </r>
       <r>  -21.7085    1.0000 </r>
       <r>  -21.6210    1.0000 </r>
       <r>  -21.1511    1.0000 </r>
       <r>  -21.0213    1.0000 </r>
       <r>  -20.6921    1.0000 </r>
       <r>  -20.5101    1.0000 </r>
       <r>  -20.2957    1.0000 </r>
       <r>  -19.7741    1.0000 </r>
       <r>  -19.5411    1.0000 </r>
       <r>  -19.4983    1.0000 </r>
       <r>  -19.1932    1.0000 </r>
       <r>  -19.1044    1.0000 </r>
       <r>  -18.6902    1.0000 </r>
       <r>  -18.4738    1.0000 </r>
       <r>  -18.0438    1.0000 </r>
       <r>  -17.9443    1.0000 </r>
       <r>  -17.5625    1.0000 </r>
       <r>  -17.4667    1.0000 </r>
       <r>  -17.3715    1.0000 </r>
       <r>  -17.2234    1.0000 </r>
       <r>  -16.8043    1.0000 </r>
       <r>  -16.4642    1.0000 </r>
       <r>  -16.1536    1.0000 </r>
       <r>  -15.6337    1.0000 </r>
       <r>  -15.4367    1.0000 </r>
       <r>  -15.3760    1.0000 </r>
       <r>  -14.9737    1.0000 </r>
       <r>  -14.9639    1.0000 </r>
       <r>  -14.7070    1.0000 </r>
       <r>  -14.6661    1.0000 </r>
       <r>  -14.5638    1.0000 </r>
       <r>  -13.8761    1.0000 </r>
       <r>  -13.2988    1.0000 </r>
       <r>  -13.1903    1.0000 </r>
       <r>  -13.1539    1.0000 </r>
       <r>  -12.9101    1.0000 </r>
       <r>  -12.7853    1.0000 </r>
       <r>  -12.6536    1.0000 </r>
       <r>  -12.3053    1.0000 </r>
       <r>  -12.2640    1.0000 </r>
       <r>  -11.8321    1.0000 </r>
       <r>  -11.5500    1.0000 </r>
       <r>  -11.3990    1.0000 </r>
       <r>  -11.1922    1.0000 </r>
       <r>  -11.0617    1.0000 </r>
       <r>  -10.8040    1.0000 </r>
       <r>  -10.7174    1.0000 </r>
       <r>  -10.5036    1.0000 </r>
       <r>  -10.4477    1.0000 </r>
       <r>  -10.4154    1.0000 </r>
       <r>  -10.2070    1.0000 </r>
       <r>  -10.1458    1.0000 </r>
       <r>   -9.9411    1.0000 </r>
       <r>   -9.8388    1.0000 </r>
       <r>   -9.8061    1.0000 </r>
       <r>   -9.7182    1.0000 </r>
       <r>   -9.5499    1.0000 </r>
       <r>   -9.5027    1.0000 </r>
       <r>   -9.4533    1.0000 </r>
       <r>   -9.3285    1.0000 </r>
       <r>   -9.2344    1.0000 </r>
       <r>   -9.1980    1.0000 </r>
       <r>   -9.0665    1.0000 </r>
       <r>   -8.9515    1.0000 </r>
       <r>   -8.8859    1.0000 </r>
       <r>   -8.8082    1.0000 </r>
       <r>   -8.5492    1.0000 </r>
       <r>   -8.5350    1.0000 </r>
       <r>   -8.4759    1.0000 </r>
       <r>   -8.3727    1.0000 </r>
       <r>   -8.2364    1.0000 </r>
       <r>   -8.1523    1.0000 </r>
       <r>   -8.1246    1.0000 </r>
       <r>   -7.8295    1.0000 </r>
       <r>   -7.6598    1.0000 </r>
       <r>   -7.4964    1.0000 </r>
       <r>   -7.4167    1.0000 </r>
       <r>   -7.2379    1.0000 </r>
       <r>   -7.1446    1.0000 </r>
       <r>   -7.1208    1.0000 </r>
       <r>   -7.0635    1.0000 </r>
       <r>   -6.8821    1.0000 </r>
       <r>   -6.7321    1.0000 </r>
       <r>   -6.5566    1.0000 </r>
       <r>   -6.3907    1.0000 </r>
       <r>   -6.3131    1.0000 </r>
       <r>   -6.1259    1.0000 </r>
       <r>   -5.7686    1.0000 </r>
       <r>   -5.6992    1.0000 </r>
       <r>   -5.4233    1.0000 </r>
       <r>   -5.1708    1.0000 </r>
       <r>   -5.1137    1.0000 </r>
       <r>   -4.9419    1.0000 </r>
       <r>   -4.5667    1.0000 </r>
       <r>   -4.0654    1.0000 </r>
       <r>   -4.0287    1.0000 </r>
       <r>   -3.1784    1.0000 </r>
       <r>   -1.8739    0.0000 </r>
       <r>   -1.7962    0.0000 </r>
       <r>   -1.4212    0.0000 </r>
       <r>   -1.2867    0.0000 </r>
       <r>   -1.1348    0.0000 </r>
       <r>   -1.0112    0.0000 </r>
       <r>   -0.8761    0.0000 </r>
       <r>   -0.8423    0.0000 </r>
       <r>   -0.7866    0.0000 </r>
       <r>   -0.4802    0.0000 </r>
       <r>   -0.0966    0.0000 </r>
       <r>    0.2992    0.0000 </r>
       <r>    0.3631    0.0000 </r>
       <r>    0.6009    0.0000 </r>
       <r>    0.7809    0.0000 </r>
       <r>    0.9483    0.0000 </r>
       <r>    0.9937    0.0000 </r>
       <r>    1.0366    0.0000 </r>
       <r>    1.1424    0.0000 </r>
       <r>    1.3014    0.0000 </r>
       <r>    1.3635    0.0000 </r>
       <r>    1.3798    0.0000 </r>
       <r>    1.5282    0.0000 </r>
       <r>    1.5592    0.0000 </r>
       <r>    1.6108    0.0000 </r>
       <r>    1.6862    0.0000 </r>
       <r>    1.7277    0.0000 </r>
       <r>    1.7877    0.0000 </r>
      </set>
      <set comment="kpoint 4">
       <r>  -51.3181    1.0000 </r>
       <r>  -22.2527    1.0000 </r>
       <r>  -22.1898    1.0000 </r>
       <r>  -21.9557    1.0000 </r>
       <r>  -21.2573    1.0000 </r>
       <r>  -21.2009    1.0000 </r>
       <r>  -21.0412    1.0000 </r>
       <r>  -20.3916    1.0000 </r>
       <r>  -20.3325    1.0000 </r>
       <r>  -20.3122    1.0000 </r>
       <r>  -20.2292    1.0000 </r>
       <r>  -20.1495    1.0000 </r>
       <r>  -19.6864    1.0000 </r>
       <r>  -18.5980    1.0000 </r>
       <r>  -18.5392    1.0000 </r>
       <r>  -18.4910    1.0000 </r>
       <r>  -18.4214    1.0000 </r>
       <r>  -18.3175    1.0000 </r>
       <r>  -18.0383    1.0000 </r>
       <r>  -17.6548    1.0000 </r>
       <r>  -17.5567    1.0000 </r>
       <r>  -17.4194    1.0000 </r>
       <r>  -17.1199    1.0000 </r>
       <r>  -17.0411    1.0000 </r>
       <r>  -16.5230    1.0000 </r>
       <r>  -16.0737    1.0000 </r>
       <r>  -15.9584    1.0000 </r>
       <r>  -15.8637    1.0000 </r>
       <r>  -15.4180    1.0000 </r>
       <r>  -15.0408    1.0000 </r>
       <r>  -14.1275    1.0000 </r>
       <r>  -14.1210    1.0000 </r>
       <r>  -14.0623    1.0000 </r>
       <r>  -14.0202    1.0000 </r>
       <r>  -13.9852    1.0000 </r>
       <r>  -13.8873    1.0000 </r>
       <r>  -13.8129    1.0000 </r>
       <r>  -13.7068    1.0000 </r>
       <r>  -13.2534    1.0000 </r>
       <r>  -12.6124    1.0000 </r>
       <r>  -12.3613    1.0000 </r>
       <r>  -12.2839    1.0000 </r>
       <r>  -12.0495    1.0000 </r>
       <r>  -11.7463    1.0000 </r>
       <r>  -11.6607    1.0000 </r>
       <r>  -11.6158    1.0000 </r>
       <r>  -11.4278    1.0000 </r>
       <r>  -11.3616    1.0000 </r>
       <r>  -10.6877    1.0000 </r>
       <r>  -10.3998    1.0000 </r>
       <r>  -10.3850    1.0000 </r>
       <r>  -10.3447    1.0000 </r>
       <r>  -10.3269    1.0000 </r>
       <r>  -10.2343    1.0000 </r>
       <r>  -10.2074    1.0000 </r>
       <r>  -10.0203    1.0000 </r>
       <r>   -9.9719    1.0000 </r>
       <r>   -9.9179    1.0000 </r>
       <r>   -9.6496    1.0000 </r>
       <r>   -9.5692    1.0000 </r>
       <r>   -9.4721    1.0000 </r>
       <r>   -9.2980    1.0000 </r>
       <r>   -9.2655    1.0000 </r>
       <r>   -9.1855    1.0000 </r>
       <r>   -9.1222    1.0000 </r>
       <r>   -8.9393    1.0000 </r>
       <r>   -8.8757    1.0000 </r>
       <r>   -8.7935    1.0000 </r>
       <r>   -8.7331    1.0000 </r>
       <r>   -8.7202    1.0000 </r>
       <r>   -8.5361    1.0000 </r>
       <r>   -8.4138    1.0000 </r>
       <r>   -8.3502    1.0000 </r>
       <r>   -8.1612    1.0000 </r>
       <r>   -8.1120    1.0000 </r>
       <r>   -8.0366    1.0000 </r>
       <r>   -7.9528    1.0000 </r>
       <r>   -7.9303    1.0000 </r>
       <r>   -7.8934    1.0000 </r>
       <r>   -7.6034    1.0000 </r>
       <r>   -7.4816    1.0000 </r>
       <r>   -7.3939    1.0000 </r>
       <r>   -6.9382    1.0000 </r>
       <r>   -6.8655    1.0000 </r>
       <r>   -6.7305    1.0000 </r>
       <r>   -6.6070    1.0000 </r>
       <r>   -6.2944    1.0000 </r>
       <r>   -6.2320    1.0000 </r>
       <r>   -6.0659    1.0000 </r>
       <r>   -6.0202    1.0000 </r>
       <r>   -5.9430    1.0000 </r>
       <r>   -5.6862    1.0000 </r>
       <r>   -5.3414    1.0000 </r>
       <r>   -5.2470    1.0000 </r>
       <r>   -5.1303    1.0000 </r>
       <r>   -5.1098    1.0000 </r>
       <r>   -4.9785    1.0000 </r>
       <r>   -4.3810    1.0000 </r>
       <r>   -3.5760    1.0000 </r>
       <r>   -2.9802    1.0000 </r>
       <r>   -2.5873    0.0000 </r>
       <r>   -1.5317    0.0000 </r>
       <r>   -1.3535    0.0000 </r>
       <r>   -1.2235    0.0000 </r>
       <r>   -0.9425    0.0000 </r>
       <r>   -0.9106    0.0000 </r>
       <r>   -0.8378    0.0000 </r>
       <r>   -0.7133    0.0000 </r>
       <r>   -0.5694    0.0000 </r>
       <r>   -0.2422    0.0000 </r>
       <r>   -0.1278    0.0000 </r>
       <r>    0.0072    0.0000 </r>
       <r>    0.0762    0.0000 </r>
       <r>    0.2259    0.0000 </r>
       <r>    0.4141    0.0000 </r>
       <r>    0.5387    0.0000 </r>
       <r>    1.0786    0.0000 </r>
       <r>    1.2119    0.0000 </r>
       <r>    1.2497    0.0000 </r>
       <r>    1.2831    0.0000 </r>
       <r>    1.3206    0.0000 </r>
       <r>    1.3796    0.0000 </r>
       <r>    1.4264    0.0000 </r>
       <r>    1.5042    0.0000 </r>
       <r>    1.5321    0.0000 </r>
       <r>    1.5520    0.0000 </r>
       <r>    1.7888    0.0000 </r>
       <r>    1.7937    0.0000 </r>
      </set>
      <set comment="kpoint 5">
       <r>  -51.3181    1.0000 </r>
       <r>  -22.3773    1.0000 </r>
       <r>  -22.0328    1.0000 </r>
       <r>  -21.7826    1.0000 </r>
       <r>  -21.6055    1.0000 </r>
       <r>  -21.1373    1.0000 </r>
       <r>  -21.0011    1.0000 </r>
       <r>  -20.6742    1.0000 </r>
       <r>  -20.5082    1.0000 </r>
       <r>  -20.3129    1.0000 </r>
       <r>  -19.8079    1.0000 </r>
       <r>  -19.5792    1.0000 </r>
       <r>  -19.5012    1.0000 </r>
       <r>  -19.2193    1.0000 </r>
       <r>  -18.9737    1.0000 </r>
       <r>  -18.7074    1.0000 </r>
       <r>  -18.4841    1.0000 </r>
       <r>  -18.0780    1.0000 </r>
       <r>  -17.8697    1.0000 </r>
       <r>  -17.5878    1.0000 </r>
       <r>  -17.5087    1.0000 </r>
       <r>  -17.3397    1.0000 </r>
       <r>  -17.2454    1.0000 </r>
       <r>  -16.8954    1.0000 </r>
       <r>  -16.4195    1.0000 </r>
       <r>  -16.0723    1.0000 </r>
       <r>  -15.6324    1.0000 </r>
       <r>  -15.4408    1.0000 </r>
       <r>  -15.3386    1.0000 </r>
       <r>  -15.0269    1.0000 </r>
       <r>  -14.9926    1.0000 </r>
       <r>  -14.8134    1.0000 </r>
       <r>  -14.5841    1.0000 </r>
       <r>  -14.5108    1.0000 </r>
       <r>  -13.8774    1.0000 </r>
       <r>  -13.3196    1.0000 </r>
       <r>  -13.1820    1.0000 </r>
       <r>  -13.0944    1.0000 </r>
       <r>  -12.9309    1.0000 </r>
       <r>  -12.8405    1.0000 </r>
       <r>  -12.6470    1.0000 </r>
       <r>  -12.3624    1.0000 </r>
       <r>  -12.3279    1.0000 </r>
       <r>  -11.7563    1.0000 </r>
       <r>  -11.4942    1.0000 </r>
       <r>  -11.4304    1.0000 </r>
       <r>  -11.1390    1.0000 </r>
       <r>  -10.9693    1.0000 </r>
       <r>  -10.7773    1.0000 </r>
       <r>  -10.7161    1.0000 </r>
       <r>  -10.5390    1.0000 </r>
       <r>  -10.4892    1.0000 </r>
       <r>  -10.4530    1.0000 </r>
       <r>  -10.1993    1.0000 </r>
       <r>  -10.0752    1.0000 </r>
       <r>  -10.0127    1.0000 </r>
       <r>   -9.8770    1.0000 </r>
       <r>   -9.7747    1.0000 </r>
       <r>   -9.7345    1.0000 </r>
       <r>   -9.5947    1.0000 </r>
       <r>   -9.4863    1.0000 </r>
       <r>   -9.4271    1.0000 </r>
       <r>   -9.4050    1.0000 </r>
       <r>   -9.2713    1.0000 </r>
       <r>   -9.2057    1.0000 </r>
       <r>   -9.0349    1.0000 </r>
       <r>   -8.9378    1.0000 </r>
       <r>   -8.8597    1.0000 </r>
       <r>   -8.8042    1.0000 </r>
       <r>   -8.5714    1.0000 </r>
       <r>   -8.5094    1.0000 </r>
       <r>   -8.4530    1.0000 </r>
       <r>   -8.3062    1.0000 </r>
       <r>   -8.2288    1.0000 </r>
       <r>   -8.1296    1.0000 </r>
       <r>   -8.0621    1.0000 </r>
       <r>   -7.8925    1.0000 </r>
       <r>   -7.7600    1.0000 </r>
       <r>   -7.5057    1.0000 </r>
       <r>   -7.4049    1.0000 </r>
       <r>   -7.2704    1.0000 </r>
       <r>   -7.2245    1.0000 </r>
       <r>   -7.1642    1.0000 </r>
       <r>   -7.0022    1.0000 </r>
       <r>   -6.8811    1.0000 </r>
       <r>   -6.6981    1.0000 </r>
       <r>   -6.5554    1.0000 </r>
       <r>   -6.3918    1.0000 </r>
       <r>   -6.2869    1.0000 </r>
       <r>   -6.0895    1.0000 </r>
       <r>   -5.7753    1.0000 </r>
       <r>   -5.6408    1.0000 </r>
       <r>   -5.4129    1.0000 </r>
       <r>   -5.1547    1.0000 </r>
       <r>   -5.0794    1.0000 </r>
       <r>   -4.9901    1.0000 </r>
       <r>   -4.6870    1.0000 </r>
       <r>   -4.0405    1.0000 </r>
       <r>   -3.9635    1.0000 </r>
       <r>   -3.1252    1.0000 </r>
       <r>   -2.0333    0.0000 </r>
       <r>   -1.9149    0.0000 </r>
       <r>   -1.3944    0.0000 </r>
       <r>   -1.1812    0.0000 </r>
       <r>   -1.0278    0.0000 </r>
       <r>   -0.9444    0.0000 </r>
       <r>   -0.9081    0.0000 </r>
       <r>   -0.8589    0.0000 </r>
       <r>   -0.7469    0.0000 </r>
       <r>   -0.5500    0.0000 </r>
       <r>   -0.0636    0.0000 </r>
       <r>    0.3781    0.0000 </r>
       <r>    0.4194    0.0000 </r>
       <r>    0.5267    0.0000 </r>
       <r>    0.7705    0.0000 </r>
       <r>    0.8131    0.0000 </r>
       <r>    0.9320    0.0000 </r>
       <r>    0.9902    0.0000 </r>
       <r>    1.1354    0.0000 </r>
       <r>    1.2143    0.0000 </r>
       <r>    1.3318    0.0000 </r>
       <r>    1.3884    0.0000 </r>
       <r>    1.4926    0.0000 </r>
       <r>    1.5377    0.0000 </r>
       <r>    1.5878    0.0000 </r>
       <r>    1.6780    0.0000 </r>
       <r>    1.7405    0.0000 </r>
       <r>    1.7882    0.0000 </r>
      </set>
     </set>
     <set comment="spin 2">
      <set comment="kpoint 1">
       <r>  -51.3172    1.0000 </r>
       <r>  -22.4522    1.0000 </r>
       <r>  -21.6862    1.0000 </r>
       <r>  -21.6028    1.0000 </r>
       <r>  -21.5494    1.0000 </r>
       <r>  -21.4754    1.0000 </r>
       <r>  -21.4120    1.0000 </r>
       <r>  -20.9562    1.0000 </r>
       <r>  -19.7566    1.0000 </r>
       <r>  -19.7174    1.0000 </r>
       <r>  -19.6906    1.0000 </r>
       <r>  -19.6102    1.0000 </r>
       <r>  -19.5536    1.0000 </r>
       <r>  -19.3084    1.0000 </r>
       <r>  -18.8241    1.0000 </r>
       <r>  -18.8030    1.0000 </r>
       <r>  -18.7478    1.0000 </r>
       <r>  -18.6421    1.0000 </r>
       <r>  -18.6016    1.0000 </r>
       <r>  -17.8716    1.0000 </r>
       <r>  -16.6609    1.0000 </r>
       <r>  -16.6441    1.0000 </r>
       <r>  -16.5698    1.0000 </r>
       <r>  -16.4924    1.0000 </r>
       <r>  -16.4416    1.0000 </r>
       <r>  -16.0330    1.0000 </r>
       <r>  -15.6807    1.0000 </r>
       <r>  -15.6255    1.0000 </r>
       <r>  -15.5673    1.0000 </r>
       <r>  -15.4266    1.0000 </r>
       <r>  -15.3131    1.0000 </r>
       <r>  -14.8314    1.0000 </r>
       <r>  -14.2712    1.0000 </r>
       <r>  -14.2617    1.0000 </r>
       <r>  -14.2294    1.0000 </r>
       <r>  -14.0077    1.0000 </r>
       <r>  -13.9450    1.0000 </r>
       <r>  -12.9930    1.0000 </r>
       <r>  -11.9726    1.0000 </r>
       <r>  -11.8952    1.0000 </r>
       <r>  -11.8652    1.0000 </r>
       <r>  -11.8551    1.0000 </r>
       <r>  -11.8055    1.0000 </r>
       <r>  -11.7873    1.0000 </r>
       <r>  -11.7659    1.0000 </r>
       <r>  -11.7295    1.0000 </r>
       <r>  -11.6586    1.0000 </r>
       <r>  -11.2746    1.0000 </r>
       <r>  -11.2708    1.0000 </r>
       <r>  -10.6352    1.0000 </r>
       <r>  -10.5922    1.0000 </r>
       <r>  -10.3827    1.0000 </r>
       <r>  -10.3445    1.0000 </r>
       <r>  -10.3312    1.0000 </r>
       <r>  -10.1033    1.0000 </r>
       <r>  -10.0104    1.0000 </r>
       <r>   -9.8174    1.0000 </r>
       <r>   -9.7188    1.0000 </r>
       <r>   -9.5802    1.0000 </r>
       <r>   -9.4672    1.0000 </r>
       <r>   -9.4267    1.0000 </r>
       <r>   -9.3962    1.0000 </r>
       <r>   -9.1823    1.0000 </r>
       <r>   -9.1444    1.0000 </r>
       <r>   -9.1240    1.0000 </r>
       <r>   -9.0943    1.0000 </r>
       <r>   -9.0879    1.0000 </r>
       <r>   -9.0394    1.0000 </r>
       <r>   -9.0012    1.0000 </r>
       <r>   -8.9539    1.0000 </r>
       <r>   -8.8968    1.0000 </r>
       <r>   -8.8382    1.0000 </r>
       <r>   -8.1262    1.0000 </r>
       <r>   -8.0950    1.0000 </r>
       <r>   -7.6573    1.0000 </r>
       <r>   -7.5228    1.0000 </r>
       <r>   -7.4756    1.0000 </r>
       <r>   -7.4634    1.0000 </r>
       <r>   -7.3847    1.0000 </r>
       <r>   -7.3260    1.0000 </r>
       <r>   -7.2913    1.0000 </r>
       <r>   -7.2798    1.0000 </r>
       <r>   -7.1946    1.0000 </r>
       <r>   -7.1172    1.0000 </r>
       <r>   -6.9973    1.0000 </r>
       <r>   -6.5278    1.0000 </r>
       <r>   -6.4937    1.0000 </r>
       <r>   -6.3929    1.0000 </r>
       <r>   -6.3526    1.0000 </r>
       <r>   -6.3351    1.0000 </r>
       <r>   -6.1881    1.0000 </r>
       <r>   -6.1660    1.0000 </r>
       <r>   -5.6382    1.0000 </r>
       <r>   -4.5845    1.0000 </r>
       <r>   -4.4964    1.0000 </r>
       <r>   -4.4256    1.0000 </r>
       <r>   -4.3806    1.0000 </r>
       <r>   -4.2955    1.0000 </r>
       <r>   -3.4717    1.0000 </r>
       <r>   -2.2061    0.0000 </r>
       <r>   -1.9150    0.0000 </r>
       <r>   -1.7479    0.0000 </r>
       <r>   -1.6633    0.0000 </r>
       <r>   -1.5972    0.0000 </r>
       <r>   -1.4969    0.0000 </r>
       <r>   -0.9113    0.0000 </r>
       <r>   -0.7931    0.0000 </r>
       <r>   -0.7629    0.0000 </r>
       <r>   -0.0971    0.0000 </r>
       <r>    0.0654    0.0000 </r>
       <r>    0.1597    0.0000 </r>
       <r>    0.2207    0.0000 </r>
       <r>    0.3789    0.0000 </r>
       <r>    0.5063    0.0000 </r>
       <r>    0.7743    0.0000 </r>
       <r>    0.8292    0.0000 </r>
       <r>    0.9845    0.0000 </r>
       <r>    1.0346    0.0000 </r>
       <r>    1.0451    0.0000 </r>
       <r>    1.3675    0.0000 </r>
       <r>    1.3936    0.0000 </r>
       <r>    1.4707    0.0000 </r>
       <r>    1.4908    0.0000 </r>
       <r>    1.5636    0.0000 </r>
       <r>    1.7220    0.0000 </r>
       <r>    1.7338    0.0000 </r>
       <r>    1.8810    0.0000 </r>
       <r>    1.9364    0.0000 </r>
      </set>
      <set comment="kpoint 2">
       <r>  -51.3172    1.0000 </r>
       <r>  -22.3640    1.0000 </r>
       <r>  -22.0297    1.0000 </r>
       <r>  -21.7772    1.0000 </r>
       <r>  -21.5583    1.0000 </r>
       <r>  -21.1321    1.0000 </r>
       <r>  -20.9913    1.0000 </r>
       <r>  -20.6380    1.0000 </r>
       <r>  -20.5079    1.0000 </r>
       <r>  -20.2950    1.0000 </r>
       <r>  -19.7748    1.0000 </r>
       <r>  -19.5672    1.0000 </r>
       <r>  -19.4674    1.0000 </r>
       <r>  -19.1956    1.0000 </r>
       <r>  -18.9335    1.0000 </r>
       <r>  -18.7056    1.0000 </r>
       <r>  -18.4686    1.0000 </r>
       <r>  -18.0424    1.0000 </r>
       <r>  -17.8525    1.0000 </r>
       <r>  -17.5903    1.0000 </r>
       <r>  -17.5031    1.0000 </r>
       <r>  -17.3362    1.0000 </r>
       <r>  -17.2368    1.0000 </r>
       <r>  -16.7364    1.0000 </r>
       <r>  -16.3800    1.0000 </r>
       <r>  -16.0661    1.0000 </r>
       <r>  -15.6074    1.0000 </r>
       <r>  -15.4381    1.0000 </r>
       <r>  -15.3633    1.0000 </r>
       <r>  -15.0445    1.0000 </r>
       <r>  -14.9705    1.0000 </r>
       <r>  -14.7359    1.0000 </r>
       <r>  -14.5768    1.0000 </r>
       <r>  -14.4403    1.0000 </r>
       <r>  -13.8308    1.0000 </r>
       <r>  -13.2891    1.0000 </r>
       <r>  -13.1739    1.0000 </r>
       <r>  -13.0813    1.0000 </r>
       <r>  -12.8761    1.0000 </r>
       <r>  -12.8145    1.0000 </r>
       <r>  -12.6264    1.0000 </r>
       <r>  -12.3428    1.0000 </r>
       <r>  -12.2895    1.0000 </r>
       <r>  -11.7805    1.0000 </r>
       <r>  -11.4690    1.0000 </r>
       <r>  -11.3924    1.0000 </r>
       <r>  -11.1105    1.0000 </r>
       <r>  -10.9552    1.0000 </r>
       <r>  -10.7579    1.0000 </r>
       <r>  -10.6696    1.0000 </r>
       <r>  -10.5298    1.0000 </r>
       <r>  -10.4877    1.0000 </r>
       <r>  -10.4200    1.0000 </r>
       <r>  -10.1742    1.0000 </r>
       <r>  -10.0771    1.0000 </r>
       <r>   -9.9527    1.0000 </r>
       <r>   -9.8122    1.0000 </r>
       <r>   -9.7695    1.0000 </r>
       <r>   -9.7525    1.0000 </r>
       <r>   -9.5647    1.0000 </r>
       <r>   -9.4692    1.0000 </r>
       <r>   -9.4331    1.0000 </r>
       <r>   -9.3731    1.0000 </r>
       <r>   -9.2556    1.0000 </r>
       <r>   -9.2039    1.0000 </r>
       <r>   -9.0291    1.0000 </r>
       <r>   -8.8992    1.0000 </r>
       <r>   -8.8542    1.0000 </r>
       <r>   -8.7667    1.0000 </r>
       <r>   -8.5664    1.0000 </r>
       <r>   -8.4856    1.0000 </r>
       <r>   -8.4183    1.0000 </r>
       <r>   -8.3066    1.0000 </r>
       <r>   -8.1881    1.0000 </r>
       <r>   -8.1018    1.0000 </r>
       <r>   -8.0769    1.0000 </r>
       <r>   -7.9165    1.0000 </r>
       <r>   -7.6197    1.0000 </r>
       <r>   -7.4924    1.0000 </r>
       <r>   -7.3805    1.0000 </r>
       <r>   -7.2724    1.0000 </r>
       <r>   -7.1814    1.0000 </r>
       <r>   -7.1319    1.0000 </r>
       <r>   -6.8968    1.0000 </r>
       <r>   -6.8587    1.0000 </r>
       <r>   -6.6462    1.0000 </r>
       <r>   -6.5168    1.0000 </r>
       <r>   -6.3465    1.0000 </r>
       <r>   -6.3028    1.0000 </r>
       <r>   -6.0914    1.0000 </r>
       <r>   -5.7635    1.0000 </r>
       <r>   -5.6181    1.0000 </r>
       <r>   -5.4199    1.0000 </r>
       <r>   -5.1469    1.0000 </r>
       <r>   -5.0616    1.0000 </r>
       <r>   -5.0292    1.0000 </r>
       <r>   -4.3385    1.0000 </r>
       <r>   -4.0315    1.0000 </r>
       <r>   -3.4881    1.0000 </r>
       <r>   -2.1908    0.0000 </r>
       <r>   -2.0078    0.0000 </r>
       <r>   -1.7068    0.0000 </r>
       <r>   -1.3183    0.0000 </r>
       <r>   -1.1810    0.0000 </r>
       <r>   -1.0682    0.0000 </r>
       <r>   -0.8991    0.0000 </r>
       <r>   -0.8612    0.0000 </r>
       <r>   -0.8183    0.0000 </r>
       <r>   -0.7136    0.0000 </r>
       <r>   -0.5690    0.0000 </r>
       <r>    0.0043    0.0000 </r>
       <r>    0.3863    0.0000 </r>
       <r>    0.4345    0.0000 </r>
       <r>    0.6974    0.0000 </r>
       <r>    0.7335    0.0000 </r>
       <r>    0.8299    0.0000 </r>
       <r>    0.9125    0.0000 </r>
       <r>    0.9914    0.0000 </r>
       <r>    1.1526    0.0000 </r>
       <r>    1.2723    0.0000 </r>
       <r>    1.3652    0.0000 </r>
       <r>    1.4023    0.0000 </r>
       <r>    1.5176    0.0000 </r>
       <r>    1.5652    0.0000 </r>
       <r>    1.6144    0.0000 </r>
       <r>    1.6900    0.0000 </r>
       <r>    1.7366    0.0000 </r>
       <r>    1.7970    0.0000 </r>
      </set>
      <set comment="kpoint 3">
       <r>  -51.3172    1.0000 </r>
       <r>  -22.3569    1.0000 </r>
       <r>  -22.0680    1.0000 </r>
       <r>  -21.7010    1.0000 </r>
       <r>  -21.5918    1.0000 </r>
       <r>  -21.1432    1.0000 </r>
       <r>  -20.9995    1.0000 </r>
       <r>  -20.6584    1.0000 </r>
       <r>  -20.5005    1.0000 </r>
       <r>  -20.2783    1.0000 </r>
       <r>  -19.7548    1.0000 </r>
       <r>  -19.5267    1.0000 </r>
       <r>  -19.4851    1.0000 </r>
       <r>  -19.1784    1.0000 </r>
       <r>  -19.0408    1.0000 </r>
       <r>  -18.6834    1.0000 </r>
       <r>  -18.4585    1.0000 </r>
       <r>  -18.0295    1.0000 </r>
       <r>  -17.8953    1.0000 </r>
       <r>  -17.5458    1.0000 </r>
       <r>  -17.4557    1.0000 </r>
       <r>  -17.3373    1.0000 </r>
       <r>  -17.2015    1.0000 </r>
       <r>  -16.7858    1.0000 </r>
       <r>  -16.4490    1.0000 </r>
       <r>  -16.0924    1.0000 </r>
       <r>  -15.6028    1.0000 </r>
       <r>  -15.4200    1.0000 </r>
       <r>  -15.3369    1.0000 </r>
       <r>  -14.9544    1.0000 </r>
       <r>  -14.9386    1.0000 </r>
       <r>  -14.6959    1.0000 </r>
       <r>  -14.6343    1.0000 </r>
       <r>  -14.5436    1.0000 </r>
       <r>  -13.8315    1.0000 </r>
       <r>  -13.2843    1.0000 </r>
       <r>  -13.1700    1.0000 </r>
       <r>  -13.1206    1.0000 </r>
       <r>  -12.8958    1.0000 </r>
       <r>  -12.7726    1.0000 </r>
       <r>  -12.6282    1.0000 </r>
       <r>  -12.2630    1.0000 </r>
       <r>  -12.2409    1.0000 </r>
       <r>  -11.7891    1.0000 </r>
       <r>  -11.5355    1.0000 </r>
       <r>  -11.3641    1.0000 </r>
       <r>  -11.1701    1.0000 </r>
       <r>  -11.0373    1.0000 </r>
       <r>  -10.7826    1.0000 </r>
       <r>  -10.6935    1.0000 </r>
       <r>  -10.4865    1.0000 </r>
       <r>  -10.4353    1.0000 </r>
       <r>  -10.4036    1.0000 </r>
       <r>  -10.1801    1.0000 </r>
       <r>  -10.1347    1.0000 </r>
       <r>   -9.9192    1.0000 </r>
       <r>   -9.8208    1.0000 </r>
       <r>   -9.7865    1.0000 </r>
       <r>   -9.7098    1.0000 </r>
       <r>   -9.5312    1.0000 </r>
       <r>   -9.4891    1.0000 </r>
       <r>   -9.4368    1.0000 </r>
       <r>   -9.3021    1.0000 </r>
       <r>   -9.2207    1.0000 </r>
       <r>   -9.1812    1.0000 </r>
       <r>   -9.0571    1.0000 </r>
       <r>   -8.9381    1.0000 </r>
       <r>   -8.8699    1.0000 </r>
       <r>   -8.7851    1.0000 </r>
       <r>   -8.5007    1.0000 </r>
       <r>   -8.4880    1.0000 </r>
       <r>   -8.4455    1.0000 </r>
       <r>   -8.3580    1.0000 </r>
       <r>   -8.2189    1.0000 </r>
       <r>   -8.1351    1.0000 </r>
       <r>   -8.1090    1.0000 </r>
       <r>   -7.7751    1.0000 </r>
       <r>   -7.6200    1.0000 </r>
       <r>   -7.4792    1.0000 </r>
       <r>   -7.3964    1.0000 </r>
       <r>   -7.2269    1.0000 </r>
       <r>   -7.1313    1.0000 </r>
       <r>   -7.0629    1.0000 </r>
       <r>   -7.0331    1.0000 </r>
       <r>   -6.8706    1.0000 </r>
       <r>   -6.6849    1.0000 </r>
       <r>   -6.4904    1.0000 </r>
       <r>   -6.3778    1.0000 </r>
       <r>   -6.3002    1.0000 </r>
       <r>   -6.1110    1.0000 </r>
       <r>   -5.7558    1.0000 </r>
       <r>   -5.6633    1.0000 </r>
       <r>   -5.3802    1.0000 </r>
       <r>   -5.1530    1.0000 </r>
       <r>   -5.0998    1.0000 </r>
       <r>   -4.9162    1.0000 </r>
       <r>   -4.4577    1.0000 </r>
       <r>   -4.0177    1.0000 </r>
       <r>   -3.4826    1.0000 </r>
       <r>   -2.0948    0.0000 </r>
       <r>   -1.8624    0.0000 </r>
       <r>   -1.7697    0.0000 </r>
       <r>   -1.3776    0.0000 </r>
       <r>   -1.2780    0.0000 </r>
       <r>   -1.1118    0.0000 </r>
       <r>   -0.9743    0.0000 </r>
       <r>   -0.8539    0.0000 </r>
       <r>   -0.7729    0.0000 </r>
       <r>   -0.7124    0.0000 </r>
       <r>   -0.4609    0.0000 </r>
       <r>   -0.0268    0.0000 </r>
       <r>    0.3056    0.0000 </r>
       <r>    0.3660    0.0000 </r>
       <r>    0.6581    0.0000 </r>
       <r>    0.7953    0.0000 </r>
       <r>    0.9582    0.0000 </r>
       <r>    1.0027    0.0000 </r>
       <r>    1.0519    0.0000 </r>
       <r>    1.1542    0.0000 </r>
       <r>    1.3177    0.0000 </r>
       <r>    1.3709    0.0000 </r>
       <r>    1.3946    0.0000 </r>
       <r>    1.5413    0.0000 </r>
       <r>    1.5710    0.0000 </r>
       <r>    1.6259    0.0000 </r>
       <r>    1.6970    0.0000 </r>
       <r>    1.7230    0.0000 </r>
       <r>    1.7431    0.0000 </r>
      </set>
      <set comment="kpoint 4">
       <r>  -51.3172    1.0000 </r>
       <r>  -22.2439    1.0000 </r>
       <r>  -22.1794    1.0000 </r>
       <r>  -21.9348    1.0000 </r>
       <r>  -21.2412    1.0000 </r>
       <r>  -21.1854    1.0000 </r>
       <r>  -21.0214    1.0000 </r>
       <r>  -20.3763    1.0000 </r>
       <r>  -20.3237    1.0000 </r>
       <r>  -20.2978    1.0000 </r>
       <r>  -20.2031    1.0000 </r>
       <r>  -20.1283    1.0000 </r>
       <r>  -19.6400    1.0000 </r>
       <r>  -18.5866    1.0000 </r>
       <r>  -18.5258    1.0000 </r>
       <r>  -18.4814    1.0000 </r>
       <r>  -18.4083    1.0000 </r>
       <r>  -18.2650    1.0000 </r>
       <r>  -18.0122    1.0000 </r>
       <r>  -17.6441    1.0000 </r>
       <r>  -17.5271    1.0000 </r>
       <r>  -17.4116    1.0000 </r>
       <r>  -17.1033    1.0000 </r>
       <r>  -16.9874    1.0000 </r>
       <r>  -16.4796    1.0000 </r>
       <r>  -16.0467    1.0000 </r>
       <r>  -15.9433    1.0000 </r>
       <r>  -15.8424    1.0000 </r>
       <r>  -15.3763    1.0000 </r>
       <r>  -15.0007    1.0000 </r>
       <r>  -14.1176    1.0000 </r>
       <r>  -14.1064    1.0000 </r>
       <r>  -14.0512    1.0000 </r>
       <r>  -13.9968    1.0000 </r>
       <r>  -13.9734    1.0000 </r>
       <r>  -13.8761    1.0000 </r>
       <r>  -13.7692    1.0000 </r>
       <r>  -13.6534    1.0000 </r>
       <r>  -13.2287    1.0000 </r>
       <r>  -12.5596    1.0000 </r>
       <r>  -12.3421    1.0000 </r>
       <r>  -12.2694    1.0000 </r>
       <r>  -12.0264    1.0000 </r>
       <r>  -11.7291    1.0000 </r>
       <r>  -11.6445    1.0000 </r>
       <r>  -11.5982    1.0000 </r>
       <r>  -11.4026    1.0000 </r>
       <r>  -11.3112    1.0000 </r>
       <r>  -10.6485    1.0000 </r>
       <r>  -10.3888    1.0000 </r>
       <r>  -10.3743    1.0000 </r>
       <r>  -10.3342    1.0000 </r>
       <r>  -10.3211    1.0000 </r>
       <r>  -10.2228    1.0000 </r>
       <r>  -10.1875    1.0000 </r>
       <r>   -9.9939    1.0000 </r>
       <r>   -9.9576    1.0000 </r>
       <r>   -9.8847    1.0000 </r>
       <r>   -9.6149    1.0000 </r>
       <r>   -9.5567    1.0000 </r>
       <r>   -9.4490    1.0000 </r>
       <r>   -9.2820    1.0000 </r>
       <r>   -9.2436    1.0000 </r>
       <r>   -9.1698    1.0000 </r>
       <r>   -9.1087    1.0000 </r>
       <r>   -8.9220    1.0000 </r>
       <r>   -8.8531    1.0000 </r>
       <r>   -8.7736    1.0000 </r>
       <r>   -8.7210    1.0000 </r>
       <r>   -8.7044    1.0000 </r>
       <r>   -8.5146    1.0000 </r>
       <r>   -8.3800    1.0000 </r>
       <r>   -8.3324    1.0000 </r>
       <r>   -8.1477    1.0000 </r>
       <r>   -8.1019    1.0000 </r>
       <r>   -8.0209    1.0000 </r>
       <r>   -7.9300    1.0000 </r>
       <r>   -7.9061    1.0000 </r>
       <r>   -7.8534    1.0000 </r>
       <r>   -7.5273    1.0000 </r>
       <r>   -7.4456    1.0000 </r>
       <r>   -7.3566    1.0000 </r>
       <r>   -6.9128    1.0000 </r>
       <r>   -6.8281    1.0000 </r>
       <r>   -6.6834    1.0000 </r>
       <r>   -6.5758    1.0000 </r>
       <r>   -6.2772    1.0000 </r>
       <r>   -6.2209    1.0000 </r>
       <r>   -6.0524    1.0000 </r>
       <r>   -6.0114    1.0000 </r>
       <r>   -5.9011    1.0000 </r>
       <r>   -5.6615    1.0000 </r>
       <r>   -5.3105    1.0000 </r>
       <r>   -5.2352    1.0000 </r>
       <r>   -5.1195    1.0000 </r>
       <r>   -5.0963    1.0000 </r>
       <r>   -4.9277    1.0000 </r>
       <r>   -4.0156    1.0000 </r>
       <r>   -2.9630    0.9999 </r>
       <r>   -2.7007    0.0001 </r>
       <r>   -2.0876    0.0000 </r>
       <r>   -1.4583    0.0000 </r>
       <r>   -1.3346    0.0000 </r>
       <r>   -1.1738    0.0000 </r>
       <r>   -0.9081    0.0000 </r>
       <r>   -0.8465    0.0000 </r>
       <r>   -0.8137    0.0000 </r>
       <r>   -0.6564    0.0000 </r>
       <r>   -0.5628    0.0000 </r>
       <r>   -0.2140    0.0000 </r>
       <r>   -0.0919    0.0000 </r>
       <r>    0.0364    0.0000 </r>
       <r>    0.1124    0.0000 </r>
       <r>    0.2508    0.0000 </r>
       <r>    0.4137    0.0000 </r>
       <r>    0.5477    0.0000 </r>
       <r>    1.0806    0.0000 </r>
       <r>    1.2216    0.0000 </r>
       <r>    1.2543    0.0000 </r>
       <r>    1.2878    0.0000 </r>
       <r>    1.3476    0.0000 </r>
       <r>    1.3992    0.0000 </r>
       <r>    1.4603    0.0000 </r>
       <r>    1.5200    0.0000 </r>
       <r>    1.5427    0.0000 </r>
       <r>    1.5676    0.0000 </r>
       <r>    1.8019    0.0000 </r>
       <r>    1.8094    0.0000 </r>
      </set>
      <set comment="kpoint 5">
       <r>  -51.3172    1.0000 </r>
       <r>  -22.3662    1.0000 </r>
       <r>  -22.0232    1.0000 </r>
       <r>  -21.7679    1.0000 </r>
       <r>  -21.5825    1.0000 </r>
       <r>  -21.1239    1.0000 </r>
       <r>  -20.9893    1.0000 </r>
       <r>  -20.6454    1.0000 </r>
       <r>  -20.4957    1.0000 </r>
       <r>  -20.2891    1.0000 </r>
       <r>  -19.7794    1.0000 </r>
       <r>  -19.5579    1.0000 </r>
       <r>  -19.4910    1.0000 </r>
       <r>  -19.1920    1.0000 </r>
       <r>  -18.9502    1.0000 </r>
       <r>  -18.6918    1.0000 </r>
       <r>  -18.4645    1.0000 </r>
       <r>  -18.0478    1.0000 </r>
       <r>  -17.8528    1.0000 </r>
       <r>  -17.5676    1.0000 </r>
       <r>  -17.4988    1.0000 </r>
       <r>  -17.3200    1.0000 </r>
       <r>  -17.2016    1.0000 </r>
       <r>  -16.8411    1.0000 </r>
       <r>  -16.3949    1.0000 </r>
       <r>  -16.0401    1.0000 </r>
       <r>  -15.6120    1.0000 </r>
       <r>  -15.4252    1.0000 </r>
       <r>  -15.3211    1.0000 </r>
       <r>  -15.0142    1.0000 </r>
       <r>  -14.9784    1.0000 </r>
       <r>  -14.7606    1.0000 </r>
       <r>  -14.5707    1.0000 </r>
       <r>  -14.4746    1.0000 </r>
       <r>  -13.8302    1.0000 </r>
       <r>  -13.2917    1.0000 </r>
       <r>  -13.1661    1.0000 </r>
       <r>  -13.0607    1.0000 </r>
       <r>  -12.9115    1.0000 </r>
       <r>  -12.8198    1.0000 </r>
       <r>  -12.6309    1.0000 </r>
       <r>  -12.3332    1.0000 </r>
       <r>  -12.2967    1.0000 </r>
       <r>  -11.7252    1.0000 </r>
       <r>  -11.4872    1.0000 </r>
       <r>  -11.3932    1.0000 </r>
       <r>  -11.1179    1.0000 </r>
       <r>  -10.9498    1.0000 </r>
       <r>  -10.7500    1.0000 </r>
       <r>  -10.6900    1.0000 </r>
       <r>  -10.5236    1.0000 </r>
       <r>  -10.4738    1.0000 </r>
       <r>  -10.4338    1.0000 </r>
       <r>  -10.1734    1.0000 </r>
       <r>  -10.0616    1.0000 </r>
       <r>   -9.9930    1.0000 </r>
       <r>   -9.8530    1.0000 </r>
       <r>   -9.7617    1.0000 </r>
       <r>   -9.7222    1.0000 </r>
       <r>   -9.5804    1.0000 </r>
       <r>   -9.4617    1.0000 </r>
       <r>   -9.4158    1.0000 </r>
       <r>   -9.3837    1.0000 </r>
       <r>   -9.2513    1.0000 </r>
       <r>   -9.1917    1.0000 </r>
       <r>   -9.0204    1.0000 </r>
       <r>   -8.9157    1.0000 </r>
       <r>   -8.8467    1.0000 </r>
       <r>   -8.7557    1.0000 </r>
       <r>   -8.5470    1.0000 </r>
       <r>   -8.4914    1.0000 </r>
       <r>   -8.4234    1.0000 </r>
       <r>   -8.2927    1.0000 </r>
       <r>   -8.2113    1.0000 </r>
       <r>   -8.1103    1.0000 </r>
       <r>   -8.0482    1.0000 </r>
       <r>   -7.8635    1.0000 </r>
       <r>   -7.7235    1.0000 </r>
       <r>   -7.4879    1.0000 </r>
       <r>   -7.3775    1.0000 </r>
       <r>   -7.2504    1.0000 </r>
       <r>   -7.1922    1.0000 </r>
       <r>   -7.1350    1.0000 </r>
       <r>   -6.9053    1.0000 </r>
       <r>   -6.8579    1.0000 </r>
       <r>   -6.6760    1.0000 </r>
       <r>   -6.5232    1.0000 </r>
       <r>   -6.3518    1.0000 </r>
       <r>   -6.2702    1.0000 </r>
       <r>   -6.0726    1.0000 </r>
       <r>   -5.7496    1.0000 </r>
       <r>   -5.6222    1.0000 </r>
       <r>   -5.3853    1.0000 </r>
       <r>   -5.1370    1.0000 </r>
       <r>   -5.0674    1.0000 </r>
       <r>   -4.9571    1.0000 </r>
       <r>   -4.5536    1.0000 </r>
       <r>   -4.0053    1.0000 </r>
       <r>   -3.3853    1.0000 </r>
       <r>   -2.1967    0.0000 </r>
       <r>   -1.9269    0.0000 </r>
       <r>   -1.8668    0.0000 </r>
       <r>   -1.3376    0.0000 </r>
       <r>   -1.1591    0.0000 </r>
       <r>   -1.0037    0.0000 </r>
       <r>   -0.9223    0.0000 </r>
       <r>   -0.8431    0.0000 </r>
       <r>   -0.8338    0.0000 </r>
       <r>   -0.7104    0.0000 </r>
       <r>   -0.5223    0.0000 </r>
       <r>    0.0288    0.0000 </r>
       <r>    0.3863    0.0000 </r>
       <r>    0.4435    0.0000 </r>
       <r>    0.5509    0.0000 </r>
       <r>    0.7737    0.0000 </r>
       <r>    0.8223    0.0000 </r>
       <r>    0.9556    0.0000 </r>
       <r>    0.9953    0.0000 </r>
       <r>    1.1472    0.0000 </r>
       <r>    1.2402    0.0000 </r>
       <r>    1.3398    0.0000 </r>
       <r>    1.3945    0.0000 </r>
       <r>    1.5126    0.0000 </r>
       <r>    1.5561    0.0000 </r>
       <r>    1.6034    0.0000 </r>
       <r>    1.6879    0.0000 </r>
       <r>    1.7495    0.0000 </r>
       <r>    1.7950    0.0000 </r>
      </set>
     </set>
    </set>
   </array>
  </eigenvalues>
  <separator name="orbital magnetization" >
   <v name="MAGDIPOLOUT">      0.00000000      0.00000000      0.00000000</v>
  </separator>
  <dos>
   <i name="efermi">     -2.83128329 </i>
   <total>
    <array>
     <dimension dim="1">gridpoints</dimension>
     <dimension dim="2">spin</dimension>
     <field>energy</field>
     <field>total</field>
     <field>integrated</field>
     <set>
      <set comment="spin 1">
       <r>   -53.9825     0.0000     0.0000 </r>
       <r>   -53.7871     0.0000     0.0000 </r>
       <r>   -53.5917     0.0000     0.0000 </r>
       <r>   -53.3963     0.0000     0.0000 </r>
       <r>   -53.2010     0.0000     0.0000 </r>
       <r>   -53.0056     0.0000     0.0000 </r>
       <r>   -52.8102     0.0000     0.0000 </r>
       <r>   -52.6148     0.0000     0.0000 </r>
       <r>   -52.4194     0.0000     0.0000 </r>
       <r>   -52.2240     0.0000     0.0000 </r>
       <r>   -52.0286     0.0000     0.0000 </r>
       <r>   -51.8332     0.0000     0.0000 </r>
       <r>   -51.6378     0.0000     0.0000 </r>
       <r>   -51.4424     0.0011     0.0002 </r>
       <r>   -51.2470     5.0030     0.9778 </r>
       <r>   -51.0517     0.1138     1.0000 </r>
       <r>   -50.8563     0.0000     1.0000 </r>
       <r>   -50.6609     0.0000     1.0000 </r>
       <r>   -50.4655     0.0000     1.0000 </r>
       <r>   -50.2701     0.0000     1.0000 </r>
       <r>   -50.0747     0.0000     1.0000 </r>
       <r>   -49.8793     0.0000     1.0000 </r>
       <r>   -49.6839     0.0000     1.0000 </r>
       <r>   -49.4885     0.0000     1.0000 </r>
       <r>   -49.2931     0.0000     1.0000 </r>
       <r>   -49.0977     0.0000     1.0000 </r>
       <r>   -48.9024     0.0000     1.0000 </r>
       <r>   -48.7070     0.0000     1.0000 </r>
       <r>   -48.5116     0.0000     1.0000 </r>
       <r>   -48.3162     0.0000     1.0000 </r>
       <r>   -48.1208     0.0000     1.0000 </r>
       <r>   -47.9254     0.0000     1.0000 </r>
       <r>   -47.7300     0.0000     1.0000 </r>
       <r>   -47.5346     0.0000     1.0000 </r>
       <r>   -47.3392     0.0000     1.0000 </r>
       <r>   -47.1438     0.0000     1.0000 </r>
       <r>   -46.9484     0.0000     1.0000 </r>
       <r>   -46.7531     0.0000     1.0000 </r>
       <r>   -46.5577     0.0000     1.0000 </r>
       <r>   -46.3623     0.0000     1.0000 </r>
       <r>   -46.1669     0.0000     1.0000 </r>
       <r>   -45.9715     0.0000     1.0000 </r>
       <r>   -45.7761     0.0000     1.0000 </r>
       <r>   -45.5807     0.0000     1.0000 </r>
       <r>   -45.3853     0.0000     1.0000 </r>
       <r>   -45.1899     0.0000     1.0000 </r>
       <r>   -44.9945     0.0000     1.0000 </r>
       <r>   -44.7991     0.0000     1.0000 </r>
       <r>   -44.6037     0.0000     1.0000 </r>
       <r>   -44.4084     0.0000     1.0000 </r>
       <r>   -44.2130     0.0000     1.0000 </r>
       <r>   -44.0176     0.0000     1.0000 </r>
       <r>   -43.8222     0.0000     1.0000 </r>
       <r>   -43.6268     0.0000     1.0000 </r>
       <r>   -43.4314     0.0000     1.0000 </r>
       <r>   -43.2360     0.0000     1.0000 </r>
       <r>   -43.0406     0.0000     1.0000 </r>
       <r>   -42.8452     0.0000     1.0000 </r>
       <r>   -42.6498     0.0000     1.0000 </r>
       <r>   -42.4544     0.0000     1.0000 </r>
       <r>   -42.2591     0.0000     1.0000 </r>
       <r>   -42.0637     0.0000     1.0000 </r>
       <r>   -41.8683     0.0000     1.0000 </r>
       <r>   -41.6729     0.0000     1.0000 </r>
       <r>   -41.4775     0.0000     1.0000 </r>
       <r>   -41.2821     0.0000     1.0000 </r>
       <r>   -41.0867     0.0000     1.0000 </r>
       <r>   -40.8913     0.0000     1.0000 </r>
       <r>   -40.6959     0.0000     1.0000 </r>
       <r>   -40.5005     0.0000     1.0000 </r>
       <r>   -40.3051     0.0000     1.0000 </r>
       <r>   -40.1098     0.0000     1.0000 </r>
       <r>   -39.9144     0.0000     1.0000 </r>
       <r>   -39.7190     0.0000     1.0000 </r>
       <r>   -39.5236     0.0000     1.0000 </r>
       <r>   -39.3282     0.0000     1.0000 </r>
       <r>   -39.1328     0.0000     1.0000 </r>
       <r>   -38.9374     0.0000     1.0000 </r>
       <r>   -38.7420     0.0000     1.0000 </r>
       <r>   -38.5466     0.0000     1.0000 </r>
       <r>   -38.3512     0.0000     1.0000 </r>
       <r>   -38.1558     0.0000     1.0000 </r>
       <r>   -37.9605     0.0000     1.0000 </r>
       <r>   -37.7651     0.0000     1.0000 </r>
       <r>   -37.5697     0.0000     1.0000 </r>
       <r>   -37.3743     0.0000     1.0000 </r>
       <r>   -37.1789     0.0000     1.0000 </r>
       <r>   -36.9835     0.0000     1.0000 </r>
       <r>   -36.7881     0.0000     1.0000 </r>
       <r>   -36.5927     0.0000     1.0000 </r>
       <r>   -36.3973     0.0000     1.0000 </r>
       <r>   -36.2019     0.0000     1.0000 </r>
       <r>   -36.0065     0.0000     1.0000 </r>
       <r>   -35.8112     0.0000     1.0000 </r>
       <r>   -35.6158     0.0000     1.0000 </r>
       <r>   -35.4204     0.0000     1.0000 </r>
       <r>   -35.2250     0.0000     1.0000 </r>
       <r>   -35.0296     0.0000     1.0000 </r>
       <r>   -34.8342     0.0000     1.0000 </r>
       <r>   -34.6388     0.0000     1.0000 </r>
       <r>   -34.4434     0.0000     1.0000 </r>
       <r>   -34.2480     0.0000     1.0000 </r>
       <r>   -34.0526     0.0000     1.0000 </r>
       <r>   -33.8572     0.0000     1.0000 </r>
       <r>   -33.6619     0.0000     1.0000 </r>
       <r>   -33.4665     0.0000     1.0000 </r>
       <r>   -33.2711     0.0000     1.0000 </r>
       <r>   -33.0757     0.0000     1.0000 </r>
       <r>   -32.8803     0.0000     1.0000 </r>
       <r>   -32.6849     0.0000     1.0000 </r>
       <r>   -32.4895     0.0000     1.0000 </r>
       <r>   -32.2941     0.0000     1.0000 </r>
       <r>   -32.0987     0.0000     1.0000 </r>
       <r>   -31.9033     0.0000     1.0000 </r>
       <r>   -31.7079     0.0000     1.0000 </r>
       <r>   -31.5126     0.0000     1.0000 </r>
       <r>   -31.3172     0.0000     1.0000 </r>
       <r>   -31.1218     0.0000     1.0000 </r>
       <r>   -30.9264     0.0000     1.0000 </r>
       <r>   -30.7310     0.0000     1.0000 </r>
       <r>   -30.5356     0.0000     1.0000 </r>
       <r>   -30.3402     0.0000     1.0000 </r>
       <r>   -30.1448     0.0000     1.0000 </r>
       <r>   -29.9494     0.0000     1.0000 </r>
       <r>   -29.7540     0.0000     1.0000 </r>
       <r>   -29.5586     0.0000     1.0000 </r>
       <r>   -29.3633     0.0000     1.0000 </r>
       <r>   -29.1679     0.0000     1.0000 </r>
       <r>   -28.9725     0.0000     1.0000 </r>
       <r>   -28.7771     0.0000     1.0000 </r>
       <r>   -28.5817     0.0000     1.0000 </r>
       <r>   -28.3863     0.0000     1.0000 </r>
       <r>   -28.1909     0.0000     1.0000 </r>
       <r>   -27.9955     0.0000     1.0000 </r>
       <r>   -27.8001     0.0000     1.0000 </r>
       <r>   -27.6047     0.0000     1.0000 </r>
       <r>   -27.4093     0.0000     1.0000 </r>
       <r>   -27.2139     0.0000     1.0000 </r>
       <r>   -27.0186     0.0000     1.0000 </r>
       <r>   -26.8232     0.0000     1.0000 </r>
       <r>   -26.6278     0.0000     1.0000 </r>
       <r>   -26.4324     0.0000     1.0000 </r>
       <r>   -26.2370     0.0000     1.0000 </r>
       <r>   -26.0416     0.0000     1.0000 </r>
       <r>   -25.8462     0.0000     1.0000 </r>
       <r>   -25.6508     0.0000     1.0000 </r>
       <r>   -25.4554     0.0000     1.0000 </r>
       <r>   -25.2600     0.0000     1.0000 </r>
       <r>   -25.0646     0.0000     1.0000 </r>
       <r>   -24.8693     0.0000     1.0000 </r>
       <r>   -24.6739     0.0000     1.0000 </r>
       <r>   -24.4785     0.0000     1.0000 </r>
       <r>   -24.2831     0.0000     1.0000 </r>
       <r>   -24.0877     0.0000     1.0000 </r>
       <r>   -23.8923     0.0000     1.0000 </r>
       <r>   -23.6969     0.0000     1.0000 </r>
       <r>   -23.5015     0.0000     1.0000 </r>
       <r>   -23.3061     0.0000     1.0000 </r>
       <r>   -23.1107     0.0000     1.0000 </r>
       <r>   -22.9153     0.0000     1.0000 </r>
       <r>   -22.7200     0.0000     1.0000 </r>
       <r>   -22.5246     0.0246     1.0048 </r>
       <r>   -22.3292     3.6081     1.7098 </r>
       <r>   -22.1338     2.6297     2.2236 </r>
       <r>   -21.9384     4.1808     3.0405 </r>
       <r>   -21.7430     2.6197     3.5524 </r>
       <r>   -21.5476     5.7551     4.6769 </r>
       <r>   -21.3522     1.6440     4.9981 </r>
       <r>   -21.1568     3.5234     5.6865 </r>
       <r>   -20.9614     6.8521     7.0254 </r>
       <r>   -20.7660     0.4676     7.1167 </r>
       <r>   -20.5707     3.5884     7.8179 </r>
       <r>   -20.3753     4.2634     8.6509 </r>
       <r>   -20.1799     7.0333    10.0252 </r>
       <r>   -19.9845     1.0085    10.2222 </r>
       <r>   -19.7891     2.1093    10.6344 </r>
       <r>   -19.5937     5.6768    11.7435 </r>
       <r>   -19.3983     6.4195    12.9979 </r>
       <r>   -19.2029     2.6301    13.5117 </r>
       <r>   -19.0075     2.7687    14.0527 </r>
       <r>   -18.8121     2.8221    14.6041 </r>
       <r>   -18.6167     5.4782    15.6745 </r>
       <r>   -18.4214     7.1725    17.0760 </r>
       <r>   -18.2260     1.8805    17.4434 </r>
       <r>   -18.0306     3.4592    18.1193 </r>
       <r>   -17.8352     4.6805    19.0338 </r>
       <r>   -17.6398     1.6020    19.3468 </r>
       <r>   -17.4444     7.8287    20.8765 </r>
       <r>   -17.2490     6.1959    22.0871 </r>
       <r>   -17.0536     3.3431    22.7403 </r>
       <r>   -16.8582     1.8183    23.0956 </r>
       <r>   -16.6628     2.9997    23.6817 </r>
       <r>   -16.4674     3.7838    24.4210 </r>
       <r>   -16.2721     2.9635    25.0001 </r>
       <r>   -16.0767     3.1983    25.6250 </r>
       <r>   -15.8813     3.3921    26.2878 </r>
       <r>   -15.6859     1.3970    26.5608 </r>
       <r>   -15.4905     5.1454    27.5661 </r>
       <r>   -15.2951     8.2085    29.1700 </r>
       <r>   -15.0997     0.4569    29.2593 </r>
       <r>   -14.9043     7.7703    30.7775 </r>
       <r>   -14.7089     3.4895    31.4593 </r>
       <r>   -14.5135     5.5737    32.5484 </r>
       <r>   -14.3181     1.9521    32.9298 </r>
       <r>   -14.1228     2.7681    33.4706 </r>
       <r>   -13.9274     5.8140    34.6066 </r>
       <r>   -13.7320     5.6836    35.7172 </r>
       <r>   -13.5366     0.8789    35.8889 </r>
       <r>   -13.3412     0.7116    36.0279 </r>
       <r>   -13.1458     7.7794    37.5479 </r>
       <r>   -12.9504     4.0185    38.3331 </r>
       <r>   -12.7550     6.0098    39.5074 </r>
       <r>   -12.5596     4.6979    40.4253 </r>
       <r>   -12.3642     2.2070    40.8565 </r>
       <r>   -12.1688     6.9853    42.2214 </r>
       <r>   -11.9735     1.5744    42.5290 </r>
       <r>   -11.7781     5.5955    43.6223 </r>
       <r>   -11.5827     5.9101    44.7771 </r>
       <r>   -11.3873     7.3686    46.2168 </r>
       <r>   -11.1919     3.5913    46.9185 </r>
       <r>   -10.9965     4.3242    47.7635 </r>
       <r>   -10.8011     3.0740    48.3641 </r>
       <r>   -10.6057     7.5869    49.8465 </r>
       <r>   -10.4103    10.4977    51.8977 </r>
       <r>   -10.2149     8.7737    53.6120 </r>
       <r>   -10.0195     8.6186    55.2960 </r>
       <r>    -9.8241     9.6268    57.1770 </r>
       <r>    -9.6288     8.8634    58.9088 </r>
       <r>    -9.4334    12.7720    61.4043 </r>
       <r>    -9.2380    10.5871    63.4729 </r>
       <r>    -9.0426    11.3047    65.6818 </r>
       <r>    -8.8472    12.1896    68.0635 </r>
       <r>    -8.6518     7.6695    69.5621 </r>
       <r>    -8.4564     9.6014    71.4381 </r>
       <r>    -8.2610     7.8170    72.9655 </r>
       <r>    -8.0656    12.3012    75.3690 </r>
       <r>    -7.8702     7.2486    76.7854 </r>
       <r>    -7.6748     3.7898    77.5259 </r>
       <r>    -7.4795     7.4419    78.9799 </r>
       <r>    -7.2841     9.5774    80.8513 </r>
       <r>    -7.0887    10.3933    82.8820 </r>
       <r>    -6.8933     6.5969    84.1710 </r>
       <r>    -6.6979     5.7848    85.3013 </r>
       <r>    -6.5025     6.9252    86.6544 </r>
       <r>    -6.3071     7.9862    88.2149 </r>
       <r>    -6.1117     6.2627    89.4385 </r>
       <r>    -5.9163     4.8903    90.3940 </r>
       <r>    -5.7209     4.1386    91.2027 </r>
       <r>    -5.5255     4.6792    92.1170 </r>
       <r>    -5.3302     4.0868    92.9155 </r>
       <r>    -5.1348     5.5076    93.9916 </r>
       <r>    -4.9394     8.9336    95.7372 </r>
       <r>    -4.7440     0.8376    95.9008 </r>
       <r>    -4.5486     2.6102    96.4108 </r>
       <r>    -4.3532     3.9626    97.1851 </r>
       <r>    -4.1578     0.7781    97.3371 </r>
       <r>    -3.9624     5.9992    98.5093 </r>
       <r>    -3.7670     1.3740    98.7778 </r>
       <r>    -3.5716     0.6246    98.8998 </r>
       <r>    -3.3762     0.5127    99.0000 </r>
       <r>    -3.1809     2.0057    99.3919 </r>
       <r>    -2.9855     2.4763    99.8757 </r>
       <r>    -2.7901     0.6359   100.0000 </r>
       <r>    -2.5947     0.4746   100.0927 </r>
       <r>    -2.3993     0.6627   100.2222 </r>
       <r>    -2.2039     0.0001   100.2222 </r>
       <r>    -2.0085     1.9569   100.6046 </r>
       <r>    -1.8131     4.0423   101.3944 </r>
       <r>    -1.6177     2.9861   101.9779 </r>
       <r>    -1.4223     3.2320   102.6094 </r>
       <r>    -1.2269     5.1330   103.6123 </r>
       <r>    -1.0316     5.6713   104.7205 </r>
       <r>    -0.8362    13.1469   107.2892 </r>
       <r>    -0.6408     7.1483   108.6859 </r>
       <r>    -0.4454     4.2637   109.5190 </r>
       <r>    -0.2500     0.6573   109.6475 </r>
       <r>    -0.0546     4.8798   110.6009 </r>
       <r>     0.1408     4.2303   111.4275 </r>
       <r>     0.3362     3.4883   112.1091 </r>
       <r>     0.5316     8.4149   113.7533 </r>
       <r>     0.7270     4.3859   114.6102 </r>
       <r>     0.9224     7.7880   116.1320 </r>
       <r>     1.1177     9.7590   118.0388 </r>
       <r>     1.3131     9.9353   119.9801 </r>
       <r>     1.5085    15.3385   122.9771 </r>
       <r>     1.7039    14.6426   125.8381 </r>
       <r>     1.8993    10.4903   127.8878 </r>
       <r>     2.0947     0.5740   128.0000 </r>
       <r>     2.2901     0.0001   128.0000 </r>
       <r>     2.4855     0.0000   128.0000 </r>
       <r>     2.6809     0.0000   128.0000 </r>
       <r>     2.8763     0.0000   128.0000 </r>
       <r>     3.0717     0.0000   128.0000 </r>
       <r>     3.2670     0.0000   128.0000 </r>
       <r>     3.4624     0.0000   128.0000 </r>
       <r>     3.6578     0.0000   128.0000 </r>
       <r>     3.8532     0.0000   128.0000 </r>
       <r>     4.0486     0.0000   128.0000 </r>
       <r>     4.2440     0.0000   128.0000 </r>
       <r>     4.4394     0.0000   128.0000 </r>
       <r>     4.6348     0.0000   128.0000 </r>
      </set>
      <set comment="spin 2">
       <r>   -53.9825     0.0000     0.0000 </r>
       <r>   -53.7871     0.0000     0.0000 </r>
       <r>   -53.5917     0.0000     0.0000 </r>
       <r>   -53.3963     0.0000     0.0000 </r>
       <r>   -53.2010     0.0000     0.0000 </r>
       <r>   -53.0056     0.0000     0.0000 </r>
       <r>   -52.8102     0.0000     0.0000 </r>
       <r>   -52.6148     0.0000     0.0000 </r>
       <r>   -52.4194     0.0000     0.0000 </r>
       <r>   -52.2240     0.0000     0.0000 </r>
       <r>   -52.0286     0.0000     0.0000 </r>
       <r>   -51.8332     0.0000     0.0000 </r>
       <r>   -51.6378     0.0000     0.0000 </r>
       <r>   -51.4424     0.0010     0.0002 </r>
       <r>   -51.2470     4.9957     0.9763 </r>
       <r>   -51.0517     0.1212     1.0000 </r>
       <r>   -50.8563     0.0000     1.0000 </r>
       <r>   -50.6609     0.0000     1.0000 </r>
       <r>   -50.4655     0.0000     1.0000 </r>
       <r>   -50.2701     0.0000     1.0000 </r>
       <r>   -50.0747     0.0000     1.0000 </r>
       <r>   -49.8793     0.0000     1.0000 </r>
       <r>   -49.6839     0.0000     1.0000 </r>
       <r>   -49.4885     0.0000     1.0000 </r>
       <r>   -49.2931     0.0000     1.0000 </r>
       <r>   -49.0977     0.0000     1.0000 </r>
       <r>   -48.9024     0.0000     1.0000 </r>
       <r>   -48.7070     0.0000     1.0000 </r>
       <r>   -48.5116     0.0000     1.0000 </r>
       <r>   -48.3162     0.0000     1.0000 </r>
       <r>   -48.1208     0.0000     1.0000 </r>
       <r>   -47.9254     0.0000     1.0000 </r>
       <r>   -47.7300     0.0000     1.0000 </r>
       <r>   -47.5346     0.0000     1.0000 </r>
       <r>   -47.3392     0.0000     1.0000 </r>
       <r>   -47.1438     0.0000     1.0000 </r>
       <r>   -46.9484     0.0000     1.0000 </r>
       <r>   -46.7531     0.0000     1.0000 </r>
       <r>   -46.5577     0.0000     1.0000 </r>
       <r>   -46.3623     0.0000     1.0000 </r>
       <r>   -46.1669     0.0000     1.0000 </r>
       <r>   -45.9715     0.0000     1.0000 </r>
       <r>   -45.7761     0.0000     1.0000 </r>
       <r>   -45.5807     0.0000     1.0000 </r>
       <r>   -45.3853     0.0000     1.0000 </r>
       <r>   -45.1899     0.0000     1.0000 </r>
       <r>   -44.9945     0.0000     1.0000 </r>
       <r>   -44.7991     0.0000     1.0000 </r>
       <r>   -44.6037     0.0000     1.0000 </r>
       <r>   -44.4084     0.0000     1.0000 </r>
       <r>   -44.2130     0.0000     1.0000 </r>
       <r>   -44.0176     0.0000     1.0000 </r>
       <r>   -43.8222     0.0000     1.0000 </r>
       <r>   -43.6268     0.0000     1.0000 </r>
       <r>   -43.4314     0.0000     1.0000 </r>
       <r>   -43.2360     0.0000     1.0000 </r>
       <r>   -43.0406     0.0000     1.0000 </r>
       <r>   -42.8452     0.0000     1.0000 </r>
       <r>   -42.6498     0.0000     1.0000 </r>
       <r>   -42.4544     0.0000     1.0000 </r>
       <r>   -42.2591     0.0000     1.0000 </r>
       <r>   -42.0637     0.0000     1.0000 </r>
       <r>   -41.8683     0.0000     1.0000 </r>
       <r>   -41.6729     0.0000     1.0000 </r>
       <r>   -41.4775     0.0000     1.0000 </r>
       <r>   -41.2821     0.0000     1.0000 </r>
       <r>   -41.0867     0.0000     1.0000 </r>
       <r>   -40.8913     0.0000     1.0000 </r>
       <r>   -40.6959     0.0000     1.0000 </r>
       <r>   -40.5005     0.0000     1.0000 </r>
       <r>   -40.3051     0.0000     1.0000 </r>
       <r>   -40.1098     0.0000     1.0000 </r>
       <r>   -39.9144     0.0000     1.0000 </r>
       <r>   -39.7190     0.0000     1.0000 </r>
       <r>   -39.5236     0.0000     1.0000 </r>
       <r>   -39.3282     0.0000     1.0000 </r>
       <r>   -39.1328     0.0000     1.0000 </r>
       <r>   -38.9374     0.0000     1.0000 </r>
       <r>   -38.7420     0.0000     1.0000 </r>
       <r>   -38.5466     0.0000     1.0000 </r>
       <r>   -38.3512     0.0000     1.0000 </r>
       <r>   -38.1558     0.0000     1.0000 </r>
       <r>   -37.9605     0.0000     1.0000 </r>
       <r>   -37.7651     0.0000     1.0000 </r>
       <r>   -37.5697     0.0000     1.0000 </r>
       <r>   -37.3743     0.0000     1.0000 </r>
       <r>   -37.1789     0.0000     1.0000 </r>
       <r>   -36.9835     0.0000     1.0000 </r>
       <r>   -36.7881     0.0000     1.0000 </r>
       <r>   -36.5927     0.0000     1.0000 </r>
       <r>   -36.3973     0.0000     1.0000 </r>
       <r>   -36.2019     0.0000     1.0000 </r>
       <r>   -36.0065     0.0000     1.0000 </r>
       <r>   -35.8112     0.0000     1.0000 </r>
       <r>   -35.6158     0.0000     1.0000 </r>
       <r>   -35.4204     0.0000     1.0000 </r>
       <r>   -35.2250     0.0000     1.0000 </r>
       <r>   -35.0296     0.0000     1.0000 </r>
       <r>   -34.8342     0.0000     1.0000 </r>
       <r>   -34.6388     0.0000     1.0000 </r>
       <r>   -34.4434     0.0000     1.0000 </r>
       <r>   -34.2480     0.0000     1.0000 </r>
       <r>   -34.0526     0.0000     1.0000 </r>
       <r>   -33.8572     0.0000     1.0000 </r>
       <r>   -33.6619     0.0000     1.0000 </r>
       <r>   -33.4665     0.0000     1.0000 </r>
       <r>   -33.2711     0.0000     1.0000 </r>
       <r>   -33.0757     0.0000     1.0000 </r>
       <r>   -32.8803     0.0000     1.0000 </r>
       <r>   -32.6849     0.0000     1.0000 </r>
       <r>   -32.4895     0.0000     1.0000 </r>
       <r>   -32.2941     0.0000     1.0000 </r>
       <r>   -32.0987     0.0000     1.0000 </r>
       <r>   -31.9033     0.0000     1.0000 </r>
       <r>   -31.7079     0.0000     1.0000 </r>
       <r>   -31.5126     0.0000     1.0000 </r>
       <r>   -31.3172     0.0000     1.0000 </r>
       <r>   -31.1218     0.0000     1.0000 </r>
       <r>   -30.9264     0.0000     1.0000 </r>
       <r>   -30.7310     0.0000     1.0000 </r>
       <r>   -30.5356     0.0000     1.0000 </r>
       <r>   -30.3402     0.0000     1.0000 </r>
       <r>   -30.1448     0.0000     1.0000 </r>
       <r>   -29.9494     0.0000     1.0000 </r>
       <r>   -29.7540     0.0000     1.0000 </r>
       <r>   -29.5586     0.0000     1.0000 </r>
       <r>   -29.3633     0.0000     1.0000 </r>
       <r>   -29.1679     0.0000     1.0000 </r>
       <r>   -28.9725     0.0000     1.0000 </r>
       <r>   -28.7771     0.0000     1.0000 </r>
       <r>   -28.5817     0.0000     1.0000 </r>
       <r>   -28.3863     0.0000     1.0000 </r>
       <r>   -28.1909     0.0000     1.0000 </r>
       <r>   -27.9955     0.0000     1.0000 </r>
       <r>   -27.8001     0.0000     1.0000 </r>
       <r>   -27.6047     0.0000     1.0000 </r>
       <r>   -27.4093     0.0000     1.0000 </r>
       <r>   -27.2139     0.0000     1.0000 </r>
       <r>   -27.0186     0.0000     1.0000 </r>
       <r>   -26.8232     0.0000     1.0000 </r>
       <r>   -26.6278     0.0000     1.0000 </r>
       <r>   -26.4324     0.0000     1.0000 </r>
       <r>   -26.2370     0.0000     1.0000 </r>
       <r>   -26.0416     0.0000     1.0000 </r>
       <r>   -25.8462     0.0000     1.0000 </r>
       <r>   -25.6508     0.0000     1.0000 </r>
       <r>   -25.4554     0.0000     1.0000 </r>
       <r>   -25.2600     0.0000     1.0000 </r>
       <r>   -25.0646     0.0000     1.0000 </r>
       <r>   -24.8693     0.0000     1.0000 </r>
       <r>   -24.6739     0.0000     1.0000 </r>
       <r>   -24.4785     0.0000     1.0000 </r>
       <r>   -24.2831     0.0000     1.0000 </r>
       <r>   -24.0877     0.0000     1.0000 </r>
       <r>   -23.8923     0.0000     1.0000 </r>
       <r>   -23.6969     0.0000     1.0000 </r>
       <r>   -23.5015     0.0000     1.0000 </r>
       <r>   -23.3061     0.0000     1.0000 </r>
       <r>   -23.1107     0.0000     1.0000 </r>
       <r>   -22.9153     0.0000     1.0000 </r>
       <r>   -22.7200     0.0000     1.0000 </r>
       <r>   -22.5246     0.0116     1.0023 </r>
       <r>   -22.3292     3.3801     1.6627 </r>
       <r>   -22.1338     2.7891     2.2077 </r>
       <r>   -21.9384     3.9946     2.9882 </r>
       <r>   -21.7430     2.6048     3.4971 </r>
       <r>   -21.5476     5.5217     4.5760 </r>
       <r>   -21.3522     2.1449     4.9951 </r>
       <r>   -21.1568     2.9251     5.5666 </r>
       <r>   -20.9614     6.9043     6.9157 </r>
       <r>   -20.7660     1.0021     7.1115 </r>
       <r>   -20.5707     3.4402     7.7837 </r>
       <r>   -20.3753     4.0867     8.5822 </r>
       <r>   -20.1799     7.0429     9.9583 </r>
       <r>   -19.9845     1.3508    10.2222 </r>
       <r>   -19.7891     1.1402    10.4450 </r>
       <r>   -19.5937     5.9359    11.6048 </r>
       <r>   -19.3983     7.1016    12.9924 </r>
       <r>   -19.2029     1.7902    13.3422 </r>
       <r>   -19.0075     3.2496    13.9771 </r>
       <r>   -18.8121     2.9988    14.5631 </r>
       <r>   -18.6167     5.3047    15.5996 </r>
       <r>   -18.4214     7.1223    16.9912 </r>
       <r>   -18.2260     2.1666    17.4145 </r>
       <r>   -18.0306     2.5510    17.9130 </r>
       <r>   -17.8352     5.2887    18.9463 </r>
       <r>   -17.6398     1.5878    19.2566 </r>
       <r>   -17.4444     7.9919    20.8181 </r>
       <r>   -17.2490     5.4903    21.8909 </r>
       <r>   -17.0536     3.9142    22.6557 </r>
       <r>   -16.8582     1.5735    22.9631 </r>
       <r>   -16.6628     3.4544    23.6381 </r>
       <r>   -16.4674     2.9407    24.2127 </r>
       <r>   -16.2721     4.0280    24.9997 </r>
       <r>   -16.0767     1.6599    25.3240 </r>
       <r>   -15.8813     4.7059    26.2435 </r>
       <r>   -15.6859     1.3514    26.5076 </r>
       <r>   -15.4905     4.9472    27.4742 </r>
       <r>   -15.2951     8.3315    29.1021 </r>
       <r>   -15.0997     0.6945    29.2378 </r>
       <r>   -14.9043     7.5544    30.7139 </r>
       <r>   -14.7089     3.2611    31.3511 </r>
       <r>   -14.5135     5.4452    32.4150 </r>
       <r>   -14.3181     2.5121    32.9058 </r>
       <r>   -14.1228     2.5132    33.3969 </r>
       <r>   -13.9274     5.7047    34.5115 </r>
       <r>   -13.7320     5.7520    35.6354 </r>
       <r>   -13.5366     1.2967    35.8888 </r>
       <r>   -13.3412     0.2344    35.9346 </r>
       <r>   -13.1458     7.1896    37.3394 </r>
       <r>   -12.9504     4.6966    38.2570 </r>
       <r>   -12.7550     6.2033    39.4691 </r>
       <r>   -12.5596     4.3349    40.3161 </r>
       <r>   -12.3642     1.5429    40.6176 </r>
       <r>   -12.1688     8.1814    42.2161 </r>
       <r>   -11.9735     1.3793    42.4857 </r>
       <r>   -11.7781     4.5734    43.3793 </r>
       <r>   -11.5827     6.8358    44.7149 </r>
       <r>   -11.3873     6.0669    45.9003 </r>
       <r>   -11.1919     4.8162    46.8414 </r>
       <r>   -10.9965     4.3257    47.6866 </r>
       <r>   -10.8011     2.7272    48.2195 </r>
       <r>   -10.6057     7.9046    49.7639 </r>
       <r>   -10.4103     9.7950    51.6778 </r>
       <r>   -10.2149     8.7271    53.3830 </r>
       <r>   -10.0195     8.9105    55.1240 </r>
       <r>    -9.8241     9.0944    56.9010 </r>
       <r>    -9.6288     9.6237    58.7814 </r>
       <r>    -9.4334    11.8254    61.0920 </r>
       <r>    -9.2380    10.8420    63.2104 </r>
       <r>    -9.0426    11.9449    65.5443 </r>
       <r>    -8.8472    11.4234    67.7764 </r>
       <r>    -8.6518     9.0072    69.5363 </r>
       <r>    -8.4564     8.0614    71.1114 </r>
       <r>    -8.2610     8.9928    72.8685 </r>
       <r>    -8.0656    11.8901    75.1918 </r>
       <r>    -7.8702     6.9206    76.5440 </r>
       <r>    -7.6748     4.2535    77.3751 </r>
       <r>    -7.4795     6.7996    78.7036 </r>
       <r>    -7.2841    10.0822    80.6736 </r>
       <r>    -7.0887    10.0429    82.6359 </r>
       <r>    -6.8933     5.8405    83.7771 </r>
       <r>    -6.6979     6.3021    85.0085 </r>
       <r>    -6.5025     7.1313    86.4018 </r>
       <r>    -6.3071     7.9627    87.9577 </r>
       <r>    -6.1117     6.9475    89.3152 </r>
       <r>    -5.9163     5.0176    90.2956 </r>
       <r>    -5.7209     3.7442    91.0271 </r>
       <r>    -5.5255     5.5402    92.1097 </r>
       <r>    -5.3302     3.5895    92.8110 </r>
       <r>    -5.1348     4.9893    93.7859 </r>
       <r>    -4.9394     8.8444    95.5140 </r>
       <r>    -4.7440     1.9187    95.8889 </r>
       <r>    -4.5486     1.1594    96.1154 </r>
       <r>    -4.3532     3.6669    96.8319 </r>
       <r>    -4.1578     1.4292    97.1112 </r>
       <r>    -3.9624     4.2497    97.9415 </r>
       <r>    -3.7670     0.2993    98.0000 </r>
       <r>    -3.5716     0.0184    98.0036 </r>
       <r>    -3.3762     3.5039    98.6882 </r>
       <r>    -3.1809     0.4584    98.7778 </r>
       <r>    -2.9855     0.2984    98.8361 </r>
       <r>    -2.7901     0.8454    99.0013 </r>
       <r>    -2.5947     1.1293    99.2219 </r>
       <r>    -2.3993     0.0015    99.2222 </r>
       <r>    -2.2039     1.1818    99.4531 </r>
       <r>    -2.0085     4.4867   100.3298 </r>
       <r>    -1.8131     4.5441   101.2177 </r>
       <r>    -1.6177     3.5320   101.9078 </r>
       <r>    -1.4223     2.1278   102.3236 </r>
       <r>    -1.2269     5.8617   103.4689 </r>
       <r>    -1.0316     5.6842   104.5795 </r>
       <r>    -0.8362    10.3600   106.6038 </r>
       <r>    -0.6408    10.1486   108.5867 </r>
       <r>    -0.4454     4.5654   109.4788 </r>
       <r>    -0.2500     0.5683   109.5898 </r>
       <r>    -0.0546     2.7533   110.1277 </r>
       <r>     0.1408     6.0944   111.3185 </r>
       <r>     0.3362     3.7479   112.0508 </r>
       <r>     0.5316     8.2572   113.6642 </r>
       <r>     0.7270     4.4140   114.5267 </r>
       <r>     0.9224     7.5481   116.0015 </r>
       <r>     1.1177    10.0288   117.9610 </r>
       <r>     1.3131     9.4106   119.7998 </r>
       <r>     1.5085    14.6949   122.6711 </r>
       <r>     1.7039    15.7351   125.7456 </r>
       <r>     1.8993    10.8672   127.8689 </r>
       <r>     2.0947     0.6709   128.0000 </r>
       <r>     2.2901     0.0000   128.0000 </r>
       <r>     2.4855     0.0000   128.0000 </r>
       <r>     2.6809     0.0000   128.0000 </r>
       <r>     2.8763     0.0000   128.0000 </r>
       <r>     3.0717     0.0000   128.0000 </r>
       <r>     3.2670     0.0000   128.0000 </r>
       <r>     3.4624     0.0000   128.0000 </r>
       <r>     3.6578     0.0000   128.0000 </r>
       <r>     3.8532     0.0000   128.0000 </r>
       <r>     4.0486     0.0000   128.0000 </r>
       <r>     4.2440     0.0000   128.0000 </r>
       <r>     4.4394     0.0000   128.0000 </r>
       <r>     4.6348     0.0000   128.0000 </r>
      </set>
     </set>
    </array>
   </total>
  </dos>
 </calculation>
 <structure name="finalpos" >
  <crystal>
   <varray name="basis" >
    <v>      12.30000000       0.00000000       0.00000000 </v>
    <v>      -6.15000000      10.65211247       0.00000000 </v>
    <v>       0.00000000       0.00000000      30.00000000 </v>
   </varray>
   <i name="volume">   3930.62950016 </i>
   <varray name="rec_basis" >
    <v>       0.08130081       0.04693905       0.00000000 </v>
    <v>       0.00000000       0.09387809       0.00000000 </v>
    <v>       0.00000000       0.00000000       0.03333333 </v>
   </varray>
  </crystal>
  <varray name="positions" >
   <v>       0.00241675       0.00483448       0.49955969 </v>
   <v>       0.00047808       0.20354369       0.49708490 </v>
   <v>       0.13463609       0.26927074       0.49721905 </v>
   <v>       0.99251997       0.40198658       0.49835808 </v>
   <v>       0.12960135       0.46710097       0.49846242 </v>
   <v>       0.99540656       0.60140123       0.50494583 </v>
   <v>       0.12931837       0.66539858       0.50116589 </v>
   <v>       0.00219701       0.80536586       0.50450399 </v>
   <v>       0.13445484       0.86909391       0.50034337 </v>
   <v>       0.20142472       0.00220199       0.49809883 </v>
   <v>       0.93629167       0.87258305       0.50349194 </v>
   <v>       0.33442020       0.06674621       0.49699704 </v>
   <v>       0.33780229       0.26891012       0.49715611 </v>
   <v>       0.20094230       0.40188479       0.49784824 </v>
   <v>       0.33749957       0.46710116       0.49846275 </v>
   <v>       0.19777702       0.59962370       0.49888439 </v>
   <v>       0.33250809       0.66501671       0.49837366 </v>
   <v>       0.19808171       0.79919043       0.50020985 </v>
   <v>       0.33124695       0.86398847       0.49815780 </v>
   <v>       0.39771561       0.99668493       0.49685870 </v>
   <v>       0.53064147       0.06128312       0.49599153 </v>
   <v>       0.40237348       0.20038227       0.49691357 </v>
   <v>       0.13594450       0.07045562       0.49801649 </v>
   <v>       0.53625545       0.26422682       0.49673049 </v>
   <v>       0.40946572       0.40198596       0.49835855 </v>
   <v>       0.54883905       0.46793449       0.50034638 </v>
   <v>       0.53607948       0.66539893       0.50116650 </v>
   <v>       0.39888492       0.79776914       0.49816137 </v>
   <v>       0.53274075       0.86398815       0.49815849 </v>
   <v>       0.59896972       0.99668492       0.49685896 </v>
   <v>       0.73232587       0.06674688       0.49699773 </v>
   <v>       0.59585928       0.19171921       0.49571791 </v>
   <v>       0.72797051       0.26422719       0.49673137 </v>
   <v>       0.61605989       0.39512436       0.49826195 </v>
   <v>       0.60599398       0.60140207       0.50494646 </v>
   <v>       0.73898476       0.67348731       0.51141615 </v>
   <v>       0.20306558       0.20354364       0.49708475 </v>
   <v>       0.60110866       0.79919002       0.50021035 </v>
   <v>       0.80077774       0.00220153       0.49809858 </v>
   <v>       0.93451202       0.07045564       0.49801598 </v>
   <v>       0.79800901       0.20038199       0.49691389 </v>
   <v>       0.93110804       0.26891088       0.49715507 </v>
   <v>       0.77906601       0.39512445       0.49826169 </v>
   <v>       0.91909509       0.46793455       0.50034557 </v>
   <v>       0.80783333       0.61566627       0.52409629 </v>
   <v>       0.93450279       0.67348741       0.51141558 </v>
   <v>       0.80316869       0.80536493       0.50450437 </v>
   <v>       0.40184557       0.59962381       0.49888479 </v>
   <v>       0.73463922       0.86909291       0.50034273 </v>
   <v>       0.50000000       0.50000000       0.55659087 </v>
  </varray>
 </structure>
</modeling>
