       N       E                     dE             d eps       ncg     rms          rms(c)
DAV:   1     0.205732795394E+04    0.20573E+04   -0.73303E+04  3352   0.109E+03
DAV:   2     0.317691986136E+02   -0.20256E+04   -0.18885E+04  4200   0.243E+02
DAV:   3    -0.482293338009E+03   -0.51406E+03   -0.50423E+03  3640   0.128E+02
DAV:   4    -0.512728657815E+03   -0.30435E+02   -0.29735E+02  3552   0.388E+01
DAV:   5    -0.514059658789E+03   -0.13310E+01   -0.13172E+01  4608   0.674E+00    0.343E+01
DAV:   6    -0.487148942278E+03    0.26911E+02   -0.75249E+01  3304   0.125E+01    0.199E+01
DAV:   7    -0.476885888037E+03    0.10263E+02   -0.14869E+01  3072   0.812E+00    0.107E+01
DAV:   8    -0.474990244972E+03    0.18956E+01   -0.60250E+00  3128   0.525E+00    0.403E+00
DAV:   9    -0.475126321328E+03   -0.13608E+00   -0.58767E-01  3592   0.163E+00    0.205E+00
DAV:  10    -0.475683421567E+03   -0.55710E+00   -0.24069E-01  3232   0.942E-01    0.109E+00
DAV:  11    -0.476229638248E+03   -0.54622E+00   -0.70593E-02  3152   0.486E-01    0.866E-01
DAV:  12    -0.476835571416E+03   -0.60593E+00   -0.75761E-02  3260   0.425E-01    0.710E-01
DAV:  13    -0.477494287972E+03   -0.65872E+00   -0.21372E-01  2976   0.678E-01    0.493E-01
DAV:  14    -0.477644941914E+03   -0.15065E+00   -0.12123E-01  2984   0.533E-01    0.345E-01
DAV:  15    -0.478269202157E+03   -0.62426E+00   -0.63463E-02  3024   0.342E-01    0.222E-01
DAV:  16    -0.478711850101E+03   -0.44265E+00   -0.20390E-02  3060   0.200E-01    0.154E-01
DAV:  17    -0.478950321890E+03   -0.23847E+00   -0.91674E-03  3168   0.139E-01    0.110E-01
DAV:  18    -0.479082867730E+03   -0.13255E+00   -0.50759E-03  3068   0.973E-02    0.799E-02
DAV:  19    -0.479137558943E+03   -0.54691E-01   -0.20869E-03  3108   0.638E-02    0.583E-02
DAV:  20    -0.479159894464E+03   -0.22336E-01   -0.12949E-03  3084   0.478E-02    0.410E-02
DAV:  21    -0.479169248191E+03   -0.93537E-02   -0.44491E-04  3160   0.344E-02    0.290E-02
DAV:  22    -0.479182989838E+03   -0.13742E-01   -0.22419E-04  3128   0.296E-02    0.173E-02
DAV:  23    -0.479198764116E+03   -0.15774E-01   -0.11107E-04  2896   0.270E-02    0.103E-02
DAV:  24    -0.479205090857E+03   -0.63267E-02   -0.55994E-05  2688   0.215E-02    0.695E-03
DAV:  25    -0.479207739960E+03   -0.26491E-02   -0.52539E-05  2516   0.201E-02    0.433E-03
DAV:  26    -0.479208952359E+03   -0.12124E-02   -0.45876E-05  2524   0.189E-02    0.262E-03
DAV:  27    -0.479209445651E+03   -0.49329E-03   -0.26191E-05  2576   0.141E-02    0.167E-03
DAV:  28    -0.479209673259E+03   -0.22761E-03   -0.10736E-05  2536   0.900E-03    0.103E-03
DAV:  29    -0.479209773897E+03   -0.10064E-03   -0.40030E-06  2576   0.521E-03    0.652E-04
DAV:  30    -0.479209829696E+03   -0.55799E-04   -0.15760E-06  2240   0.289E-03    0.412E-04
DAV:  31    -0.479209857442E+03   -0.27746E-04   -0.53625E-07  2208   0.158E-03    0.270E-04
DAV:  32    -0.479209872907E+03   -0.15465E-04   -0.16735E-07  2104   0.851E-04    0.184E-04
DAV:  33    -0.479209882360E+03   -0.94526E-05   -0.87510E-08  2024   0.509E-04    0.133E-04
DAV:  34    -0.479209886049E+03   -0.36896E-05   -0.24366E-08  2048   0.336E-04    0.108E-04
DAV:  35    -0.479209887895E+03   -0.18454E-05   -0.10202E-08  1996   0.239E-04    0.972E-05
DAV:  36    -0.479209888454E+03   -0.55955E-06    0.83324E-09  1968   0.146E-04
   1 F= -.47920989E+03 E0= -.47920291E+03  d E =-.139495E-01  mag=     0.5560
