  51  51   0   0
  0.7707117E+02  0.1230000E-08  0.1230000E-08  0.3000000E-08  0.5000000E-15
  1.000000000000000E-004
  CAR 
 Li defective graphene MACE training lab 
      4.87243672    -54.27669623  301     -1.86522689      1.00000000
    -54.277  0.0000E+00  0.0000E+00  0.0000E+00  0.0000E+00
    -54.080  0.0000E+00  0.0000E+00  0.0000E+00  0.0000E+00
    -53.882  0.0000E+00  0.0000E+00  0.0000E+00  0.0000E+00
    -53.685  0.0000E+00  0.0000E+00  0.0000E+00  0.0000E+00
    -53.488  0.0000E+00  0.0000E+00  0.0000E+00  0.0000E+00
    -53.291  0.0000E+00  0.0000E+00  0.0000E+00  0.0000E+00
    -53.094  0.0000E+00  0.0000E+00  0.0000E+00  0.0000E+00
    -52.897  0.0000E+00  0.0000E+00  0.0000E+00  0.0000E+00
    -52.699  0.0000E+00  0.0000E+00  0.0000E+00  0.0000E+00
    -52.502  0.0000E+00  0.0000E+00  0.0000E+00  0.0000E+00
    -52.305  0.0000E+00  0.0000E+00  0.0000E+00  0.0000E+00
    -52.108  0.0000E+00  0.0000E+00  0.0000E+00  0.0000E+00
    -51.911  0.0000E+00  0.0000E+00  0.0000E+00  0.0000E+00
    -51.714  0.9814E-03  0.9814E-03  0.1935E-03  0.1935E-03
    -51.516  0.4963E+01  0.4963E+01  0.9787E+00  0.9787E+00
    -51.319  0.1080E+00  0.1080E+00  0.1000E+01  0.1000E+01
    -51.122  0.0000E+00  0.0000E+00  0.1000E+01  0.1000E+01
    -50.925  0.0000E+00  0.0000E+00  0.1000E+01  0.1000E+01
    -50.728  0.0000E+00  0.0000E+00  0.1000E+01  0.1000E+01
    -50.531  0.0000E+00  0.0000E+00  0.1000E+01  0.1000E+01
    -50.333  0.0000E+00  0.0000E+00  0.1000E+01  0.1000E+01
    -50.136  0.0000E+00  0.0000E+00  0.1000E+01  0.1000E+01
    -49.939  0.0000E+00  0.0000E+00  0.1000E+01  0.1000E+01
    -49.742  0.0000E+00  0.0000E+00  0.1000E+01  0.1000E+01
    -49.545  0.0000E+00  0.0000E+00  0.1000E+01  0.1000E+01
    -49.348  0.0000E+00  0.0000E+00  0.1000E+01  0.1000E+01
    -49.150  0.0000E+00  0.0000E+00  0.1000E+01  0.1000E+01
    -48.953  0.0000E+00  0.0000E+00  0.1000E+01  0.1000E+01
    -48.756  0.0000E+00  0.0000E+00  0.1000E+01  0.1000E+01
    -48.559  0.0000E+00  0.0000E+00  0.1000E+01  0.1000E+01
    -48.362  0.0000E+00  0.0000E+00  0.1000E+01  0.1000E+01
    -48.165  0.0000E+00  0.0000E+00  0.1000E+01  0.1000E+01
    -47.967  0.0000E+00  0.0000E+00  0.1000E+01  0.1000E+01
    -47.770  0.0000E+00  0.0000E+00  0.1000E+01  0.1000E+01
    -47.573  0.0000E+00  0.0000E+00  0.1000E+01  0.1000E+01
    -47.376  0.0000E+00  0.0000E+00  0.1000E+01  0.1000E+01
    -47.179  0.0000E+00  0.0000E+00  0.1000E+01  0.1000E+01
    -46.982  0.0000E+00  0.0000E+00  0.1000E+01  0.1000E+01
    -46.784  0.0000E+00  0.0000E+00  0.1000E+01  0.1000E+01
    -46.587  0.0000E+00  0.0000E+00  0.1000E+01  0.1000E+01
    -46.390  0.0000E+00  0.0000E+00  0.1000E+01  0.1000E+01
    -46.193  0.0000E+00  0.0000E+00  0.1000E+01  0.1000E+01
    -45.996  0.0000E+00  0.0000E+00  0.1000E+01  0.1000E+01
    -45.799  0.0000E+00  0.0000E+00  0.1000E+01  0.1000E+01
    -45.601  0.0000E+00  0.0000E+00  0.1000E+01  0.1000E+01
    -45.404  0.0000E+00  0.0000E+00  0.1000E+01  0.1000E+01
    -45.207  0.0000E+00  0.0000E+00  0.1000E+01  0.1000E+01
    -45.010  0.0000E+00  0.0000E+00  0.1000E+01  0.1000E+01
    -44.813  0.0000E+00  0.0000E+00  0.1000E+01  0.1000E+01
    -44.616  0.0000E+00  0.0000E+00  0.1000E+01  0.1000E+01
    -44.419  0.0000E+00  0.0000E+00  0.1000E+01  0.1000E+01
    -44.221  0.0000E+00  0.0000E+00  0.1000E+01  0.1000E+01
    -44.024  0.0000E+00  0.0000E+00  0.1000E+01  0.1000E+01
    -43.827  0.0000E+00  0.0000E+00  0.1000E+01  0.1000E+01
    -43.630  0.0000E+00  0.0000E+00  0.1000E+01  0.1000E+01
    -43.433  0.0000E+00  0.0000E+00  0.1000E+01  0.1000E+01
    -43.236  0.0000E+00  0.0000E+00  0.1000E+01  0.1000E+01
    -43.038  0.0000E+00  0.0000E+00  0.1000E+01  0.1000E+01
    -42.841  0.0000E+00  0.0000E+00  0.1000E+01  0.1000E+01
    -42.644  0.0000E+00  0.0000E+00  0.1000E+01  0.1000E+01
    -42.447  0.0000E+00  0.0000E+00  0.1000E+01  0.1000E+01
    -42.250  0.0000E+00  0.0000E+00  0.1000E+01  0.1000E+01
    -42.053  0.0000E+00  0.0000E+00  0.1000E+01  0.1000E+01
    -41.855  0.0000E+00  0.0000E+00  0.1000E+01  0.1000E+01
    -41.658  0.0000E+00  0.0000E+00  0.1000E+01  0.1000E+01
    -41.461  0.0000E+00  0.0000E+00  0.1000E+01  0.1000E+01
    -41.264  0.0000E+00  0.0000E+00  0.1000E+01  0.1000E+01
    -41.067  0.0000E+00  0.0000E+00  0.1000E+01  0.1000E+01
    -40.870  0.0000E+00  0.0000E+00  0.1000E+01  0.1000E+01
    -40.672  0.0000E+00  0.0000E+00  0.1000E+01  0.1000E+01
    -40.475  0.0000E+00  0.0000E+00  0.1000E+01  0.1000E+01
    -40.278  0.0000E+00  0.0000E+00  0.1000E+01  0.1000E+01
    -40.081  0.0000E+00  0.0000E+00  0.1000E+01  0.1000E+01
    -39.884  0.0000E+00  0.0000E+00  0.1000E+01  0.1000E+01
    -39.687  0.0000E+00  0.0000E+00  0.1000E+01  0.1000E+01
    -39.489  0.0000E+00  0.0000E+00  0.1000E+01  0.1000E+01
    -39.292  0.0000E+00  0.0000E+00  0.1000E+01  0.1000E+01
    -39.095  0.0000E+00  0.0000E+00  0.1000E+01  0.1000E+01
    -38.898  0.0000E+00  0.0000E+00  0.1000E+01  0.1000E+01
    -38.701  0.0000E+00  0.0000E+00  0.1000E+01  0.1000E+01
    -38.504  0.0000E+00  0.0000E+00  0.1000E+01  0.1000E+01
    -38.306  0.0000E+00  0.0000E+00  0.1000E+01  0.1000E+01
    -38.109  0.0000E+00  0.0000E+00  0.1000E+01  0.1000E+01
    -37.912  0.0000E+00  0.0000E+00  0.1000E+01  0.1000E+01
    -37.715  0.0000E+00  0.0000E+00  0.1000E+01  0.1000E+01
    -37.518  0.0000E+00  0.0000E+00  0.1000E+01  0.1000E+01
    -37.321  0.0000E+00  0.0000E+00  0.1000E+01  0.1000E+01
    -37.123  0.0000E+00  0.0000E+00  0.1000E+01  0.1000E+01
    -36.926  0.0000E+00  0.0000E+00  0.1000E+01  0.1000E+01
    -36.729  0.0000E+00  0.0000E+00  0.1000E+01  0.1000E+01
    -36.532  0.0000E+00  0.0000E+00  0.1000E+01  0.1000E+01
    -36.335  0.0000E+00  0.0000E+00  0.1000E+01  0.1000E+01
    -36.138  0.0000E+00  0.0000E+00  0.1000E+01  0.1000E+01
    -35.940  0.0000E+00  0.0000E+00  0.1000E+01  0.1000E+01
    -35.743  0.0000E+00  0.0000E+00  0.1000E+01  0.1000E+01
    -35.546  0.0000E+00  0.0000E+00  0.1000E+01  0.1000E+01
    -35.349  0.0000E+00  0.0000E+00  0.1000E+01  0.1000E+01
    -35.152  0.0000E+00  0.0000E+00  0.1000E+01  0.1000E+01
    -34.955  0.0000E+00  0.0000E+00  0.1000E+01  0.1000E+01
    -34.757  0.0000E+00  0.0000E+00  0.1000E+01  0.1000E+01
    -34.560  0.0000E+00  0.0000E+00  0.1000E+01  0.1000E+01
    -34.363  0.0000E+00  0.0000E+00  0.1000E+01  0.1000E+01
    -34.166  0.0000E+00  0.0000E+00  0.1000E+01  0.1000E+01
    -33.969  0.0000E+00  0.0000E+00  0.1000E+01  0.1000E+01
    -33.772  0.0000E+00  0.0000E+00  0.1000E+01  0.1000E+01
    -33.574  0.0000E+00  0.0000E+00  0.1000E+01  0.1000E+01
    -33.377  0.0000E+00  0.0000E+00  0.1000E+01  0.1000E+01
    -33.180  0.0000E+00  0.0000E+00  0.1000E+01  0.1000E+01
    -32.983  0.0000E+00  0.0000E+00  0.1000E+01  0.1000E+01
    -32.786  0.0000E+00  0.0000E+00  0.1000E+01  0.1000E+01
    -32.589  0.0000E+00  0.0000E+00  0.1000E+01  0.1000E+01
    -32.392  0.0000E+00  0.0000E+00  0.1000E+01  0.1000E+01
    -32.194  0.0000E+00  0.0000E+00  0.1000E+01  0.1000E+01
    -31.997  0.0000E+00  0.0000E+00  0.1000E+01  0.1000E+01
    -31.800  0.0000E+00  0.0000E+00  0.1000E+01  0.1000E+01
    -31.603  0.0000E+00  0.0000E+00  0.1000E+01  0.1000E+01
    -31.406  0.0000E+00  0.0000E+00  0.1000E+01  0.1000E+01
    -31.209  0.0000E+00  0.0000E+00  0.1000E+01  0.1000E+01
    -31.011  0.0000E+00  0.0000E+00  0.1000E+01  0.1000E+01
    -30.814  0.0000E+00  0.0000E+00  0.1000E+01  0.1000E+01
    -30.617  0.0000E+00  0.0000E+00  0.1000E+01  0.1000E+01
    -30.420  0.0000E+00  0.0000E+00  0.1000E+01  0.1000E+01
    -30.223  0.0000E+00  0.0000E+00  0.1000E+01  0.1000E+01
    -30.026  0.0000E+00  0.0000E+00  0.1000E+01  0.1000E+01
    -29.828  0.0000E+00  0.0000E+00  0.1000E+01  0.1000E+01
    -29.631  0.0000E+00  0.0000E+00  0.1000E+01  0.1000E+01
    -29.434  0.0000E+00  0.0000E+00  0.1000E+01  0.1000E+01
    -29.237  0.0000E+00  0.0000E+00  0.1000E+01  0.1000E+01
    -29.040  0.0000E+00  0.0000E+00  0.1000E+01  0.1000E+01
    -28.843  0.0000E+00  0.0000E+00  0.1000E+01  0.1000E+01
    -28.645  0.0000E+00  0.0000E+00  0.1000E+01  0.1000E+01
    -28.448  0.0000E+00  0.0000E+00  0.1000E+01  0.1000E+01
    -28.251  0.0000E+00  0.0000E+00  0.1000E+01  0.1000E+01
    -28.054  0.0000E+00  0.0000E+00  0.1000E+01  0.1000E+01
    -27.857  0.0000E+00  0.0000E+00  0.1000E+01  0.1000E+01
    -27.660  0.0000E+00  0.0000E+00  0.1000E+01  0.1000E+01
    -27.462  0.0000E+00  0.0000E+00  0.1000E+01  0.1000E+01
    -27.265  0.0000E+00  0.0000E+00  0.1000E+01  0.1000E+01
    -27.068  0.0000E+00  0.0000E+00  0.1000E+01  0.1000E+01
    -26.871  0.0000E+00  0.0000E+00  0.1000E+01  0.1000E+01
    -26.674  0.0000E+00  0.0000E+00  0.1000E+01  0.1000E+01
    -26.477  0.0000E+00  0.0000E+00  0.1000E+01  0.1000E+01
    -26.279  0.0000E+00  0.0000E+00  0.1000E+01  0.1000E+01
    -26.082  0.0000E+00  0.0000E+00  0.1000E+01  0.1000E+01
    -25.885  0.0000E+00  0.0000E+00  0.1000E+01  0.1000E+01
    -25.688  0.0000E+00  0.0000E+00  0.1000E+01  0.1000E+01
    -25.491  0.0000E+00  0.0000E+00  0.1000E+01  0.1000E+01
    -25.294  0.0000E+00  0.0000E+00  0.1000E+01  0.1000E+01
    -25.096  0.0000E+00  0.0000E+00  0.1000E+01  0.1000E+01
    -24.899  0.0000E+00  0.0000E+00  0.1000E+01  0.1000E+01
    -24.702  0.0000E+00  0.0000E+00  0.1000E+01  0.1000E+01
    -24.505  0.0000E+00  0.0000E+00  0.1000E+01  0.1000E+01
    -24.308  0.0000E+00  0.0000E+00  0.1000E+01  0.1000E+01
    -24.111  0.0000E+00  0.0000E+00  0.1000E+01  0.1000E+01
    -23.913  0.0000E+00  0.0000E+00  0.1000E+01  0.1000E+01
    -23.716  0.0000E+00  0.0000E+00  0.1000E+01  0.1000E+01
    -23.519  0.0000E+00  0.0000E+00  0.1000E+01  0.1000E+01
    -23.322  0.0000E+00  0.0000E+00  0.1000E+01  0.1000E+01
    -23.125  0.0000E+00  0.0000E+00  0.1000E+01  0.1000E+01
    -22.928  0.0000E+00  0.0000E+00  0.1000E+01  0.1000E+01
    -22.730  0.0000E+00  0.0000E+00  0.1000E+01  0.1000E+01
    -22.533  0.3309E-03  0.3309E-03  0.1000E+01  0.1000E+01
    -22.336  0.1928E+01  0.1928E+01  0.1380E+01  0.1380E+01
    -22.139  0.3140E+01  0.3140E+01  0.1999E+01  0.1999E+01
    -21.942  0.4952E+01  0.4952E+01  0.2976E+01  0.2976E+01
    -21.745  0.6995E+00  0.6995E+00  0.3114E+01  0.3114E+01
    -21.548  0.7283E+01  0.7283E+01  0.4549E+01  0.4549E+01
    -21.350  0.2128E+01  0.2128E+01  0.4969E+01  0.4969E+01
    -21.153  0.1620E+01  0.1620E+01  0.5288E+01  0.5288E+01
    -20.956  0.8886E+01  0.8886E+01  0.7040E+01  0.7040E+01
    -20.759  0.4346E+00  0.4346E+00  0.7126E+01  0.7126E+01
    -20.562  0.3305E+01  0.3305E+01  0.7778E+01  0.7778E+01
    -20.365  0.5634E+01  0.5634E+01  0.8889E+01  0.8889E+01
    -20.167  0.4951E+01  0.4951E+01  0.9865E+01  0.9865E+01
    -19.970  0.2940E+01  0.2940E+01  0.1044E+02  0.1044E+02
    -19.773  0.1761E+01  0.1761E+01  0.1079E+02  0.1079E+02
    -19.576  0.3673E+01  0.3673E+01  0.1152E+02  0.1152E+02
    -19.379  0.8087E+01  0.8087E+01  0.1311E+02  0.1311E+02
    -19.182  0.2156E+01  0.2156E+01  0.1354E+02  0.1354E+02
    -18.984  0.4611E+01  0.4611E+01  0.1444E+02  0.1444E+02
    -18.787  0.1498E-01  0.1498E-01  0.1445E+02  0.1445E+02
    -18.590  0.6684E+01  0.6684E+01  0.1577E+02  0.1577E+02
    -18.393  0.6506E+01  0.6506E+01  0.1705E+02  0.1705E+02
    -18.196  0.3700E+01  0.3700E+01  0.1778E+02  0.1778E+02
    -17.999  0.3153E+01  0.3153E+01  0.1840E+02  0.1840E+02
    -17.801  0.3610E+01  0.3610E+01  0.1911E+02  0.1911E+02
    -17.604  0.1805E+00  0.1805E+00  0.1915E+02  0.1915E+02
    -17.407  0.1130E+02  0.1130E+02  0.2137E+02  0.2137E+02
    -17.210  0.3245E+01  0.3245E+01  0.2201E+02  0.2201E+02
    -17.013  0.7646E+01  0.7646E+01  0.2352E+02  0.2352E+02
    -16.816  0.1297E+01  0.1297E+01  0.2378E+02  0.2378E+02
    -16.618  0.1749E-01  0.1749E-01  0.2378E+02  0.2378E+02
    -16.421  0.3702E+01  0.3702E+01  0.2451E+02  0.2451E+02
    -16.224  0.6425E+01  0.6425E+01  0.2578E+02  0.2578E+02
    -16.027  0.1257E+01  0.1257E+01  0.2603E+02  0.2603E+02
    -15.830  0.2124E+01  0.2124E+01  0.2644E+02  0.2644E+02
    -15.633  0.2993E+01  0.2993E+01  0.2703E+02  0.2703E+02
    -15.435  0.6885E+01  0.6885E+01  0.2839E+02  0.2839E+02
    -15.238  0.5901E+01  0.5901E+01  0.2956E+02  0.2956E+02
    -15.041  0.9928E-03  0.9928E-03  0.2956E+02  0.2956E+02
    -14.844  0.1071E+02  0.1071E+02  0.3167E+02  0.3167E+02
    -14.647  0.2810E+01  0.2810E+01  0.3222E+02  0.3222E+02
    -14.450  0.4449E+01  0.4449E+01  0.3310E+02  0.3310E+02
    -14.252  0.2326E+01  0.2326E+01  0.3356E+02  0.3356E+02
    -14.055  0.3422E+01  0.3422E+01  0.3423E+02  0.3423E+02
    -13.858  0.7228E+01  0.7228E+01  0.3566E+02  0.3566E+02
    -13.661  0.2862E+01  0.2862E+01  0.3622E+02  0.3622E+02
    -13.464  0.3749E-01  0.3749E-01  0.3623E+02  0.3623E+02
    -13.267  0.4628E+01  0.4628E+01  0.3714E+02  0.3714E+02
    -13.069  0.4857E+01  0.4857E+01  0.3810E+02  0.3810E+02
    -12.872  0.5164E+01  0.5164E+01  0.3912E+02  0.3912E+02
    -12.675  0.6720E+01  0.6720E+01  0.4044E+02  0.4044E+02
    -12.478  0.6754E+00  0.6754E+00  0.4058E+02  0.4058E+02
    -12.281  0.9782E+01  0.9782E+01  0.4250E+02  0.4250E+02
    -12.084  0.3077E+01  0.3077E+01  0.4311E+02  0.4311E+02
    -11.886  0.4488E-02  0.4488E-02  0.4311E+02  0.4311E+02
    -11.689  0.4115E+01  0.4115E+01  0.4392E+02  0.4392E+02
    -11.492  0.1449E+02  0.1449E+02  0.4678E+02  0.4678E+02
    -11.295  0.1677E+01  0.1677E+01  0.4711E+02  0.4711E+02
    -11.098  0.3724E+01  0.3724E+01  0.4785E+02  0.4785E+02
    -10.901  0.3038E+01  0.3038E+01  0.4844E+02  0.4844E+02
    -10.704  0.6089E+01  0.6089E+01  0.4964E+02  0.4964E+02
    -10.506  0.6319E+01  0.6319E+01  0.5089E+02  0.5089E+02
    -10.309  0.1139E+02  0.1139E+02  0.5314E+02  0.5314E+02
    -10.112  0.8394E+01  0.8394E+01  0.5479E+02  0.5479E+02
     -9.915  0.5606E+01  0.5606E+01  0.5590E+02  0.5590E+02
     -9.718  0.1333E+02  0.1333E+02  0.5852E+02  0.5852E+02
     -9.521  0.1080E+02  0.1080E+02  0.6065E+02  0.6065E+02
     -9.323  0.1029E+02  0.1029E+02  0.6268E+02  0.6268E+02
     -9.126  0.1275E+02  0.1275E+02  0.6520E+02  0.6520E+02
     -8.929  0.1811E+02  0.1811E+02  0.6877E+02  0.6877E+02
     -8.732  0.5826E+01  0.5826E+01  0.6992E+02  0.6992E+02
     -8.535  0.1057E+02  0.1057E+02  0.7200E+02  0.7200E+02
     -8.338  0.2869E+01  0.2869E+01  0.7257E+02  0.7257E+02
     -8.140  0.1566E+02  0.1566E+02  0.7566E+02  0.7566E+02
     -7.943  0.1264E+02  0.1264E+02  0.7815E+02  0.7815E+02
     -7.746  0.5450E+01  0.5450E+01  0.7922E+02  0.7922E+02
     -7.549  0.2060E+00  0.2060E+00  0.7926E+02  0.7926E+02
     -7.352  0.8125E+01  0.8125E+01  0.8086E+02  0.8086E+02
     -7.155  0.1679E+02  0.1679E+02  0.8417E+02  0.8417E+02
     -6.957  0.4132E+01  0.4132E+01  0.8499E+02  0.8499E+02
     -6.760  0.7650E+01  0.7650E+01  0.8650E+02  0.8650E+02
     -6.563  0.3444E+01  0.3444E+01  0.8718E+02  0.8718E+02
     -6.366  0.4960E+01  0.4960E+01  0.8815E+02  0.8815E+02
     -6.169  0.1029E+02  0.1029E+02  0.9018E+02  0.9018E+02
     -5.972  0.8589E+01  0.8589E+01  0.9188E+02  0.9188E+02
     -5.774  0.4569E+01  0.4569E+01  0.9278E+02  0.9278E+02
     -5.577  0.6761E+01  0.6761E+01  0.9411E+02  0.9411E+02
     -5.380  0.2211E+01  0.2211E+01  0.9455E+02  0.9455E+02
     -5.183  0.3128E+01  0.3128E+01  0.9516E+02  0.9516E+02
     -4.986  0.8896E+01  0.8896E+01  0.9692E+02  0.9692E+02
     -4.789  0.9435E+01  0.9435E+01  0.9878E+02  0.9878E+02
     -4.591  0.1067E-02  0.1067E-02  0.9878E+02  0.9878E+02
     -4.394  0.1236E+01  0.1236E+01  0.9902E+02  0.9902E+02
     -4.197  0.2080E+01  0.2080E+01  0.9943E+02  0.9943E+02
     -4.000  0.2861E+00  0.2861E+00  0.9949E+02  0.9949E+02
     -3.803  0.6540E+01  0.6540E+01  0.1008E+03  0.1008E+03
     -3.606  0.1043E-02  0.1043E-02  0.1008E+03  0.1008E+03
     -3.408  0.0000E+00  0.0000E+00  0.1008E+03  0.1008E+03
     -3.211  0.0000E+00  0.0000E+00  0.1008E+03  0.1008E+03
     -3.014  0.1082E-04  0.1082E-04  0.1008E+03  0.1008E+03
     -2.817  0.1892E+01  0.1892E+01  0.1012E+03  0.1012E+03
     -2.620  0.3625E+00  0.3625E+00  0.1012E+03  0.1012E+03
     -2.423  0.0000E+00  0.0000E+00  0.1012E+03  0.1012E+03
     -2.225  0.0000E+00  0.0000E+00  0.1012E+03  0.1012E+03
     -2.028  0.9129E-05  0.9130E-05  0.1012E+03  0.1012E+03
     -1.831  0.3167E+01  0.3167E+01  0.1018E+03  0.1018E+03
     -1.634  0.4831E+01  0.4831E+01  0.1028E+03  0.1028E+03
     -1.437  0.1852E+01  0.1852E+01  0.1032E+03  0.1032E+03
     -1.240  0.5364E+01  0.5365E+01  0.1042E+03  0.1042E+03
     -1.042  0.9449E+01  0.9450E+01  0.1061E+03  0.1061E+03
     -0.845  0.4082E+01  0.4081E+01  0.1069E+03  0.1069E+03
     -0.648  0.8007E+01  0.8007E+01  0.1085E+03  0.1085E+03
     -0.451  0.5857E+01  0.5857E+01  0.1096E+03  0.1096E+03
     -0.254  0.3038E+01  0.3038E+01  0.1102E+03  0.1102E+03
     -0.057  0.1201E+00  0.1201E+00  0.1102E+03  0.1102E+03
      0.141  0.3181E+01  0.3182E+01  0.1109E+03  0.1109E+03
      0.338  0.7060E+01  0.7081E+01  0.1123E+03  0.1123E+03
      0.535  0.6658E+01  0.6643E+01  0.1136E+03  0.1136E+03
      0.732  0.1000E+02  0.9994E+01  0.1155E+03  0.1155E+03
      0.929  0.5225E+01  0.4946E+01  0.1166E+03  0.1165E+03
      1.126  0.9087E+01  0.8818E+01  0.1184E+03  0.1183E+03
      1.323  0.1289E+02  0.1250E+02  0.1209E+03  0.1207E+03
      1.521  0.1195E+02  0.1085E+02  0.1233E+03  0.1229E+03
      1.718  0.1152E+02  0.1307E+02  0.1255E+03  0.1254E+03
      1.915  0.2082E+02  0.2176E+02  0.1296E+03  0.1297E+03
      2.112  0.1022E+02  0.9900E+01  0.1317E+03  0.1317E+03
      2.309  0.1730E+01  0.1584E+01  0.1320E+03  0.1320E+03
      2.506  0.1595E-04  0.1093E-03  0.1320E+03  0.1320E+03
      2.704  0.0000E+00  0.0000E+00  0.1320E+03  0.1320E+03
      2.901  0.0000E+00  0.0000E+00  0.1320E+03  0.1320E+03
      3.098  0.0000E+00  0.0000E+00  0.1320E+03  0.1320E+03
      3.295  0.0000E+00  0.0000E+00  0.1320E+03  0.1320E+03
      3.492  0.0000E+00  0.0000E+00  0.1320E+03  0.1320E+03
      3.689  0.0000E+00  0.0000E+00  0.1320E+03  0.1320E+03
      3.887  0.0000E+00  0.0000E+00  0.1320E+03  0.1320E+03
      4.084  0.0000E+00  0.0000E+00  0.1320E+03  0.1320E+03
      4.281  0.0000E+00  0.0000E+00  0.1320E+03  0.1320E+03
      4.478  0.0000E+00  0.0000E+00  0.1320E+03  0.1320E+03
      4.675  0.0000E+00  0.0000E+00  0.1320E+03  0.1320E+03
      4.872  0.0000E+00  0.0000E+00  0.1320E+03  0.1320E+03
