       N       E                     dE             d eps       ncg     rms          rms(c)
DAV:   1     0.193349646984E+04    0.19335E+04   -0.68139E+04  3280   0.106E+03
DAV:   2     0.384776947635E+02   -0.18950E+04   -0.17525E+04  4080   0.235E+02
DAV:   3    -0.468374565328E+03   -0.50685E+03   -0.50092E+03  3480   0.128E+02
DAV:   4    -0.495081473856E+03   -0.26707E+02   -0.26416E+02  3388   0.384E+01
DAV:   5    -0.496063648225E+03   -0.98217E+00   -0.97399E+00  4152   0.622E+00    0.334E+01
DAV:   6    -0.470874968102E+03    0.25189E+02   -0.24379E+01  2960   0.112E+01    0.194E+01
DAV:   7    -0.458202300157E+03    0.12673E+02   -0.15975E+01  2984   0.925E+00    0.100E+01
DAV:   8    -0.457644263733E+03    0.55804E+00   -0.46451E+00  3000   0.474E+00    0.380E+00
DAV:   9    -0.458841856814E+03   -0.11976E+01   -0.60229E-01  3496   0.178E+00    0.141E+00
DAV:  10    -0.459124645803E+03   -0.28279E+00   -0.17449E-01  2936   0.852E-01    0.936E-01
DAV:  11    -0.459429930994E+03   -0.30529E+00   -0.57192E-02  3204   0.415E-01    0.782E-01
DAV:  12    -0.459865957446E+03   -0.43603E+00   -0.23863E-01  2828   0.764E-01    0.519E-01
DAV:  13    -0.459923365188E+03   -0.57408E-01   -0.63133E-02  2912   0.452E-01    0.414E-01
DAV:  14    -0.460796929950E+03   -0.87356E+00   -0.54736E-02  2900   0.333E-01    0.287E-01
DAV:  15    -0.461528089249E+03   -0.73116E+00   -0.27495E-02  2920   0.240E-01    0.195E-01
DAV:  16    -0.461779937033E+03   -0.25185E+00   -0.38456E-03  2948   0.139E-01    0.157E-01
DAV:  17    -0.462082200386E+03   -0.30226E+00   -0.72443E-03  2752   0.145E-01    0.105E-01
DAV:  18    -0.462180650888E+03   -0.98451E-01   -0.31977E-03  2940   0.906E-02    0.756E-02
DAV:  19    -0.462208550937E+03   -0.27900E-01   -0.12660E-03  3000   0.608E-02    0.572E-02
DAV:  20    -0.462236200782E+03   -0.27650E-01   -0.79015E-04  2868   0.576E-02    0.382E-02
DAV:  21    -0.462273806687E+03   -0.37606E-01   -0.33198E-04  2884   0.471E-02    0.246E-02
DAV:  22    -0.462301740884E+03   -0.27934E-01   -0.16327E-04  2932   0.352E-02    0.138E-02
DAV:  23    -0.462308239475E+03   -0.64986E-02   -0.55615E-05  2880   0.233E-02    0.856E-03
DAV:  24    -0.462310546633E+03   -0.23072E-02   -0.37074E-05  2340   0.172E-02    0.550E-03
DAV:  25    -0.462311605639E+03   -0.10590E-02   -0.36767E-05  2372   0.142E-02    0.329E-03
DAV:  26    -0.462311982512E+03   -0.37687E-03   -0.13000E-05  2368   0.103E-02    0.214E-03
DAV:  27    -0.462312176298E+03   -0.19379E-03   -0.47040E-06  2424   0.595E-03    0.146E-03
DAV:  28    -0.462312314164E+03   -0.13787E-03   -0.18319E-06  2336   0.359E-03    0.980E-04
DAV:  29    -0.462312421160E+03   -0.10700E-03   -0.10541E-06  2056   0.218E-03    0.643E-04
DAV:  30    -0.462312472608E+03   -0.51448E-04   -0.38764E-07  1980   0.135E-03    0.462E-04
DAV:  31    -0.462312505473E+03   -0.32865E-04   -0.25056E-07  1932   0.930E-04    0.304E-04
DAV:  32    -0.462312524594E+03   -0.19121E-04   -0.10969E-07  1956   0.645E-04    0.212E-04
DAV:  33    -0.462312533756E+03   -0.91622E-05   -0.16197E-08  2004   0.409E-04    0.160E-04
DAV:  34    -0.462312538055E+03   -0.42989E-05    0.78033E-09  2004   0.250E-04    0.131E-04
DAV:  35    -0.462312540201E+03   -0.21461E-05    0.12702E-08  1972   0.176E-04    0.122E-04
DAV:  36    -0.462312541738E+03   -0.15376E-05    0.17679E-08  1924   0.120E-04    0.116E-04
DAV:  37    -0.462312543955E+03   -0.22164E-05    0.18627E-08  1952   0.106E-04    0.111E-04
DAV:  38    -0.462312545233E+03   -0.12784E-05    0.18959E-08  1988   0.761E-05    0.109E-04
DAV:  39    -0.462312545771E+03   -0.53754E-06    0.19554E-08  1916   0.558E-05
   1 F= -.46231255E+03 E0= -.46230229E+03  d E =-.205094E-01  mag=    -0.0000
