ITEM: TIMESTEP
0
ITEM: NUMBER OF ATOMS
220
ITEM: BOX BOUNDS xy xz yz pp pp pp
-1.2300000000000001e+01 2.4600000000000001e+01 -1.2300000000000001e+01
0.0000000000000000e+00 2.1304224933097192e+01 0.0000000000000000e+00
0.0000000000000000e+00 2.5803753473110017e+01 0.0000000000000000e+00
ITEM: ATOMS id type element x y z vx vy vz
1 1 C -6.10672 10.6507 10.0171 -10.9578 7.60819 6.55134
2 1 C 0.0436311 8.51969 10.0266 6.36097 -2.01504 4.76624
3 1 C 1.2737 9.22936 10.0184 2.3728 -1.73406 0.904968
4 1 C 1.27385 10.6494 10.0208 4.35503 0.00470303 -2.99462
5 1 C 8.65386 0.706856 10.0247 -7.00454 -0.840257 2.49302
6 1 C 6.193 2.12624 10.0164 4.08085 0.359182 -0.854114
7 1 C 7.42347 2.83224 10.0319 -9.58222 -6.78868 5.49964
8 1 C 4.95836 4.25528 10.0006 -7.52807 -9.32665 -14.6266
9 1 C 6.18919 4.96628 10.0057 3.85697 5.3175 2.64592
10 1 C 3.73127 6.38899 10 -1.31836 2.62365 -1.1654
11 1 C 4.95778 7.10225 10.0008 3.18027 -2.49868 8.40696
12 1 C 1.27364 6.38904 10.0204 -1.38776 -8.35272 2.76732
13 1 C 2.50351 8.51986 10.0101 -3.35734 3.53077 0.0902262
14 1 C 3.73372 10.6503 10.0177 1.34552 -6.11433 -7.87518
15 1 C 11.1135 0.707661 10.0221 -2.86543 -2.21649 -11.3482
16 1 C 8.65424 2.12601 10.0353 -11.0378 7.87235 -9.71242
17 1 C 9.88484 2.83647 10.0424 0.162309 4.33969 3.05528
18 1 C 7.42313 4.2534 10.0316 -4.43504 0.302012 -2.04633
19 1 C 8.65708 4.96654 10.052 -5.9021 -7.42462 -2.40932
20 1 C 6.1887 6.3915 10.0052 6.32715 -4.45072 2.44224
21 1 C 7.42308 7.10456 10.0248 -0.597807 2.90709 5.70708
22 1 C 4.96194 8.52123 10.0039 8.81677 -4.32304 -10.6218
23 1 C 6.19285 9.23125 10.011 2.65746 1.29384 -6.59476
24 1 C 3.73269 9.23072 10.008 -0.952986 0.352552 0.493109
25 1 C 3.73159 4.96808 10.0002 13.9206 -0.889342 5.92995
26 1 C 2.50257 7.09969 10.0076 0.479618 0.917816 1.14699
27 1 C 4.96269 2.83657 10.0054 4.76151 2.00513 -2.36081
28 1 C 1.27363 0.707741 10.0203 -9.56706 -6.16021 -3.9578
29 1 C -1.18531 2.12726 10.0335 5.70532 -0.245509 -0.785473
30 1 C 0.0445454 2.83789 10.033 -2.5055 2.56532 -3.14352
31 1 C -2.41155 4.25567 10.0539 -0.018077 -1.76346 -10.839
32 1 C -1.18407 4.96842 10.0468 -4.88786 2.05258 -0.0772343
33 1 C -3.64313 6.39186 10.0476 1.7768 -10.3004 4.78653
34 1 C -2.41175 7.10211 10.0485 3.59705 -7.65094 -2.33725
35 1 C -4.87635 8.52574 10.0214 -4.82176 9.25089 -1.56184
36 1 C -3.64552 9.23149 10.0255 3.06809 1.8686 -6.53363
37 1 C 2.50264 4.25785 10.0114 -3.64241 -8.77326 -2.83093
38 1 C 3.73397 0.707638 10.0147 -2.93417 2.6045 -1.20225
39 1 C -3.64617 10.6508 10.0189 2.00784 1.64882 -7.22652
40 1 C 2.50385 2.83795 10.0144 2.95298 3.84666 -3.4263
41 1 C 0.0450992 4.25796 10.0359 -2.6881 -5.18689 7.98801
42 1 C 1.27374 4.96909 10.0231 1.71895 4.86767 7.63357
43 1 C -1.18427 6.38932 10.044 0.277807 -0.702272 -0.905454
44 1 C 0.0444619 7.09964 10.0313 3.0298 -5.86382 1.62199
45 1 C -2.41517 8.52111 10.0347 -4.79246 -4.80163 16.5265
46 1 C -1.18571 9.23034 10.0275 -5.28378 2.67319 -1.2371
47 1 C -1.18626 10.6502 10.0187 -3.95444 0.408989 -0.898928
48 1 C 6.19375 0.706883 10.0184 2.28291 -2.44433 8.97889
49 1 C 3.73313 2.12714 10.009 -4.79538 3.2748 4.82525
50 1 C 1.27414 2.12787 10.0235 -7.59695 1.21732 -4.64603
51 2 Li 7.27772 5.68668 11.988 -7.29154 1.73176 11.2047
52 3 Si 5.12352 6.2819 15.8038 5.61383 -0.244784 4.59463
53 3 Si 5.60821 4.91654 13.9538 -0.871198 -0.178766 -2.12286
54 3 Si 6.79538 6.90238 14.3589 -6.40924 3.35685 -2.43534
55 3 Si 3.90956 4.31378 15.4182 -0.650633 0.451688 7.37504
56 1 C -12.2567 21.3028 10.0171 1.7676 -1.07536 3.986
57 1 C -6.10637 19.1718 10.0266 0.825265 -1.8825 4.12716
58 1 C -4.8763 19.8815 10.0184 4.75848 -1.11247 1.79596
59 1 C -4.87615 21.3015 10.0208 9.20481 6.53597 1.43402
60 1 C 2.50386 11.359 10.0247 1.25487 9.32369 13.7882
61 1 C 0.0429983 12.7784 10.0164 6.22548 2.87011 0.859953
62 1 C 1.27347 13.4844 10.0319 -2.35008 -11.6454 4.70632
63 1 C -1.19164 14.9074 10.0006 2.42075 8.26785 -0.176468
64 1 C 0.0391938 15.6184 10.0057 -1.93951 1.47311 1.81262
65 1 C -2.41873 17.0411 10 -7.89855 -1.48945 -4.39016
66 1 C -1.19222 17.7544 10.0008 -5.47964 -4.72803 -0.97295
67 1 C -4.87636 17.0411 10.0204 0.415335 7.4686 1.44671
68 1 C -3.64649 19.172 10.0101 12.0094 -4.62812 8.31993
69 1 C -2.41628 21.3024 10.0177 0.934298 -2.89388 0.518367
70 1 C 4.96349 11.3598 10.0221 6.05374 0.245777 1.30266
71 1 C 2.50424 12.7781 10.0353 -3.08127 1.27489 0.023472
72 1 C 3.73484 13.4886 10.0424 7.76365 -8.20981 -1.40244
73 1 C 1.27313 14.9055 10.0316 3.6083 6.81395 -0.798382
74 1 C 2.50708 15.6187 10.052 2.16566 -9.51448 3.89048
75 1 C 0.0386962 17.0436 10.0052 -3.62356 9.55604 -2.87151
76 1 C 1.27308 17.7567 10.0248 -3.50289 14.3028 3.26685
77 1 C -1.18806 19.1733 10.0039 1.48837 17.3084 7.98494
78 1 C 0.0428515 19.8834 10.011 -3.65335 -5.4556 -10.296
79 1 C -2.41731 19.8828 10.008 5.68934 -2.45367 13.4982
80 1 C -2.41841 15.6202 10.0002 0.14588 3.1713 -1.26435
81 1 C -3.64743 17.7518 10.0076 1.79363 -3.03777 -5.96906
82 1 C -1.18731 13.4887 10.0054 0.841855 -0.253041 0.0133268
83 1 C -4.87637 11.3599 10.0203 6.10655 -6.08642 3.81075
84 1 C -7.33531 12.7794 10.0335 -0.323286 3.81439 3.71441
85 1 C -6.10545 13.49 10.033 2.18577 -2.1536 -1.41024
86 1 C -8.56155 14.9078 10.0539 -1.2507 13.4204 0.0720707
87 1 C -7.33407 15.6205 10.0468 -5.01399 1.57375 8.24597
88 1 C -9.79313 17.044 10.0476 9.11828 6.8832 -0.200466
89 1 C -8.56175 17.7542 10.0485 -5.29411 3.35499 -10.7273
90 1 C -11.0263 19.1778 10.0214 -7.91204 -4.5389 -2.80188
91 1 C -9.79552 19.8836 10.0255 -5.10147 1.9912 -2.19198
92 1 C -3.64736 14.91 10.0114 7.79761 0.187073 -8.69248
93 1 C -2.41603 11.3598 10.0147 -0.914045 -2.15358 -0.777107
94 1 C -9.79617 21.303 10.0189 4.33684 1.02444 -6.77055
95 1 C -3.64615 13.4901 10.0144 -0.0186808 1.50412 -1.20479
96 1 C -6.1049 14.9101 10.0359 -1.49149 -1.18821 -4.71522
97 1 C -4.87626 15.6212 10.0231 -4.17467 4.08061 -2.18891
98 1 C -7.33427 17.0414 10.044 4.64319 3.18551 -7.90041
99 1 C -6.10554 17.7518 10.0313 2.06348 -2.05565 -5.32665
100 1 C -8.56517 19.1732 10.0347 -0.882372 5.94385 -0.0517383
101 1 C -7.33571 19.8824 10.0275 4.95154 -3.0096 2.40018
102 1 C -7.33626 21.3023 10.0187 3.51188 -5.70118 1.74677
103 1 C 0.0437478 11.359 10.0184 7.0424 -1.8368 -5.25896
104 1 C -2.41687 12.7793 10.009 6.99619 -0.324559 0.444395
105 1 C -4.87586 12.78 10.0235 0.544427 -2.65355 1.78577
106 2 Li 1.12772 16.3388 11.988 1.84224 -5.8228 5.53874
107 3 Si -1.02648 16.934 15.8038 0.134898 -5.58611 -4.20691
108 3 Si -0.541793 15.5687 13.9538 -2.27544 3.30643 2.25436
109 3 Si 0.645378 17.5545 14.3589 -2.11518 -5.85382 1.12196
110 3 Si -2.24044 14.9659 15.4182 -0.566626 -1.59131 -1.27347
111 1 C 6.19328 10.6507 10.0171 -7.12862 4.13828 9.94605
112 1 C 12.3436 8.51969 10.0266 1.46039 6.2811 8.96305
113 1 C 13.5737 9.22936 10.0184 -2.96923 -6.82475 -1.10443
114 1 C 13.5739 10.6494 10.0208 -0.667415 0.933386 1.3529
115 1 C 20.9539 0.706856 10.0247 -4.73905 -3.50777 2.88725
116 1 C 18.493 2.12624 10.0164 -1.9998 -1.34029 0.545421
117 1 C 19.7235 2.83224 10.0319 2.92611 -5.36966 -2.0563
118 1 C 17.2584 4.25528 10.0006 1.01984 3.54079 -0.504816
119 1 C 18.4892 4.96628 10.0057 -1.37587 1.2987 -6.45768
120 1 C 16.0313 6.38899 10 -1.28304 -4.18131 5.42599
121 1 C 17.2578 7.10225 10.0008 1.39916 -0.626534 -2.39789
122 1 C 13.5736 6.38904 10.0204 -1.96524 -1.33941 4.46992
123 1 C 14.8035 8.51986 10.0101 3.09867 8.45789 1.04682
124 1 C 16.0337 10.6503 10.0177 -1.60162 -0.49985 -3.44942
125 1 C 23.4135 0.707661 10.0221 7.10901 2.55412 8.35709
126 1 C 20.9542 2.12601 10.0353 -3.28855 10.7951 0.635323
127 1 C 22.1848 2.83647 10.0424 -0.216164 -1.28108 -0.394677
128 1 C 19.7231 4.2534 10.0316 -1.34469 -3.11327 -2.44828
129 1 C 20.9571 4.96654 10.052 -0.0906747 -10.484 -1.71876
130 1 C 18.4887 6.3915 10.0052 -8.31341 -15.7663 5.8277
131 1 C 19.7231 7.10456 10.0248 4.68671 -7.83841 9.73976
132 1 C 17.2619 8.52123 10.0039 0.214567 -5.00885 -13.2282
133 1 C 18.4929 9.23125 10.011 -5.03061 2.87637 -4.33781
134 1 C 16.0327 9.23072 10.008 1.67848 4.30352 -2.62815
135 1 C 16.0316 4.96808 10.0002 1.17026 -0.40751 -4.45555
136 1 C 14.8026 7.09969 10.0076 0.235641 -3.57019 0.581038
137 1 C 17.2627 2.83657 10.0054 8.41973 6.48916 0.0996774
138 1 C 13.5736 0.707741 10.0203 4.63676 -5.80644 3.05463
139 1 C 11.1147 2.12726 10.0335 -1.89379 -6.01054 6.96348
140 1 C 12.3445 2.83789 10.033 1.60371 4.37429 1.80514
141 1 C 9.88845 4.25567 10.0539 -2.35349 -8.21134 -2.21352
142 1 C 11.1159 4.96842 10.0468 -0.458809 -3.56421 -4.02759
143 1 C 8.65687 6.39186 10.0476 -2.41399 -2.46849 3.35518
144 1 C 9.88825 7.10211 10.0485 -12.5373 3.95158 -0.0217625
145 1 C 7.42365 8.52574 10.0214 -8.74578 -9.73188 -1.02395
146 1 C 8.65448 9.23149 10.0255 -2.11093 -6.13381 -3.03011
147 1 C 14.8026 4.25785 10.0114 2.62458 2.29657 -6.7239
148 1 C 16.034 0.707638 10.0147 1.7834 3.41337 7.58097
149 1 C 8.65383 10.6508 10.0189 5.32753 3.81125 -2.41403
150 1 C 14.8039 2.83795 10.0144 -5.16577 -3.56671 -2.60781
151 1 C 12.3451 4.25796 10.0359 1.78788 -0.912146 9.466
152 1 C 13.5737 4.96909 10.0231 -0.16351 -5.77434 -8.35065
153 1 C 11.1157 6.38932 10.044 -5.89097 3.73866 -3.83607
154 1 C 12.3445 7.09964 10.0313 1.29173 1.00978 3.29372
155 1 C 9.88483 8.52111 10.0347 2.89731 4.32463 3.11385
156 1 C 11.1143 9.23034 10.0275 -7.79246 0.17535 0.106934
157 1 C 11.1137 10.6502 10.0187 -3.08773 0.11295 6.38081
158 1 C 18.4937 0.706883 10.0184 -0.26526 4.45717 5.38021
159 1 C 16.0331 2.12714 10.009 3.52453 9.93086 -1.55846
160 1 C 13.5741 2.12787 10.0235 3.02221 7.1806 2.76989
161 2 Li 19.5777 5.68668 11.988 -13.959 -4.40114 -1.75707
162 3 Si 17.4235 6.2819 15.8038 -2.71814 0.740583 3.8457
163 3 Si 17.9082 4.91654 13.9538 0.372425 -0.102686 -0.319476
164 3 Si 19.0954 6.90238 14.3589 -5.88862 -4.61307 -4.33125
165 3 Si 16.2096 4.31378 15.4182 -1.12085 -1.77181 3.23671
166 1 C 0.0432815 21.3028 10.0171 2.42848 3.31008 4.32159
167 1 C 6.19363 19.1718 10.0266 2.31858 1.00352 -3.23275
168 1 C 7.4237 19.8815 10.0184 -1.08695 1.7275 -1.01474
169 1 C 7.42385 21.3015 10.0208 4.84422 4.89924 -2.55116
170 1 C 14.8039 11.359 10.0247 -5.54436 7.76691 -4.3285
171 1 C 12.343 12.7784 10.0164 4.17493 10.3453 -15.2263
172 1 C 13.5735 13.4844 10.0319 9.36096 -0.442498 -3.40659
173 1 C 11.1084 14.9074 10.0006 -6.93035 -11.0178 3.64658
174 1 C 12.3392 15.6184 10.0057 4.14061 -7.63611 -10.2224
175 1 C 9.88127 17.0411 10 -3.82491 1.50097 3.03978
176 1 C 11.1078 17.7544 10.0008 1.23801 -1.41128 -9.37809
177 1 C 7.42364 17.0411 10.0204 0.110544 7.18912 -11.3997
178 1 C 8.65351 19.172 10.0101 -10.1396 -1.14398 -4.11233
179 1 C 9.88372 21.3024 10.0177 2.41939 1.7633 2.42843
180 1 C 17.2635 11.3598 10.0221 -4.67709 -6.13785 -9.27036
181 1 C 14.8042 12.7781 10.0353 -1.70818 -0.662577 -1.57559
182 1 C 16.0348 13.4886 10.0424 4.42587 -2.39696 -0.940776
183 1 C 13.5731 14.9055 10.0316 -0.475389 -9.25115 1.43668
184 1 C 14.8071 15.6187 10.052 0.660677 -4.86808 -1.2086
185 1 C 12.3387 17.0436 10.0052 8.08395 -1.87188 -1.54949
186 1 C 13.5731 17.7567 10.0248 7.22581 3.02991 -3.85546
187 1 C 11.1119 19.1733 10.0039 0.212439 11.3844 -1.49832
188 1 C 12.3429 19.8834 10.011 -11.3056 3.22593 0.826189
189 1 C 9.88269 19.8828 10.008 -1.58877 -4.50792 3.48534
190 1 C 9.88159 15.6202 10.0002 -1.35543 -1.39517 10.2554
191 1 C 8.65257 17.7518 10.0076 -6.37433 -2.39029 -8.29622
192 1 C 11.1127 13.4887 10.0054 1.05588 2.79064 -5.34949
193 1 C 7.42363 11.3599 10.0203 -1.31477 -4.17469 0.286971
194 1 C 4.96469 12.7794 10.0335 -0.358256 -3.20043 -1.50291
195 1 C 6.19455 13.49 10.033 0.788752 1.25387 -0.297007
196 1 C 3.73845 14.9078 10.0539 7.24356 5.14266 8.72628
197 1 C 4.96593 15.6205 10.0468 1.15776 0.663142 10.5435
198 1 C 2.50687 17.044 10.0476 -1.9231 -3.3258 9.33236
199 1 C 3.73825 17.7542 10.0485 -0.903403 0.000684619 2.69901
200 1 C 1.27365 19.1778 10.0214 0.653624 9.06579 2.17385
201 1 C 2.50448 19.8836 10.0255 -1.42235 -1.44091 -6.20683
202 1 C 8.65264 14.91 10.0114 -3.66067 -4.08434 1.07718
203 1 C 9.88397 11.3598 10.0147 3.22012 8.9932 4.46476
204 1 C 2.50383 21.303 10.0189 -4.43831 -6.91839 7.04581
205 1 C 8.65385 13.4901 10.0144 -0.124705 5.0038 3.41724
206 1 C 6.1951 14.9101 10.0359 2.18159 1.51558 13.1209
207 1 C 7.42374 15.6212 10.0231 3.49808 -3.71391 -0.659795
208 1 C 4.96573 17.0414 10.044 4.93396 4.40199 1.33091
209 1 C 6.19446 17.7518 10.0313 7.9742 -1.34224 -0.0916578
210 1 C 3.73483 19.1732 10.0347 -2.57553 8.62684 -6.88444
211 1 C 4.96429 19.8824 10.0275 -1.09131 -6.88058 0.976979
212 1 C 4.96374 21.3023 10.0187 4.71577 8.82224 4.68528
213 1 C 12.3437 11.359 10.0184 4.97809 -5.20422 1.37979
214 1 C 9.88313 12.7793 10.009 0.23179 4.00548 5.8948
215 1 C 7.42414 12.78 10.0235 -8.39427 1.45901 -12.2083
216 2 Li 13.4277 16.3388 11.988 8.96901 11.8129 -1.14898
217 3 Si 11.2735 16.934 15.8038 0.850568 0.323867 -0.742288
218 3 Si 11.7582 15.5687 13.9538 5.966 -2.93366 -1.10285
219 3 Si 12.9454 17.5545 14.3589 1.5091 7.8929 -0.193328
220 3 Si 10.0596 14.9659 15.4182 6.67578 1.31346 -9.19023
ITEM: TIMESTEP
1000
ITEM: NUMBER OF ATOMS
220
ITEM: BOX BOUNDS xy xz yz pp pp pp
-1.2300000000000001e+01 2.4600000000000001e+01 -1.2300000000000001e+01
0.0000000000000000e+00 2.1304224933097192e+01 0.0000000000000000e+00
0.0000000000000000e+00 2.5803753473110017e+01 0.0000000000000000e+00
ITEM: ATOMS id type element x y z vx vy vz
1 1 C 18.1042 10.9269 11.1808 0.274618 -2.08586 -4.60667
2 1 C -0.206676 8.67962 11.4301 2.42235 1.48749 -2.44596
3 1 C 1.0595 9.39313 11.1037 -0.513132 -6.76026 -8.37982
4 1 C 1.08586 10.8423 11.0074 -0.105891 -4.24879 -11.0966
5 1 C 8.40444 0.86119 8.92601 -6.05339 1.24027 -8.6334
6 1 C 5.91783 2.31361 9.15158 -2.51016 5.9593 -12.0899
7 1 C 7.1922 2.99462 9.19711 -1.51821 8.04554 4.48229
8 1 C 4.61621 4.34084 9.80484 -3.01718 3.36595 -4.45588
9 1 C 5.89216 5.03359 9.73921 -5.87549 -3.03167 1.44787
10 1 C 3.44644 6.4589 10.2657 0.258671 2.83288 -7.66515
11 1 C 4.61474 7.17157 9.91824 2.35524 3.39981 -2.06851
12 1 C 1.08072 6.47965 10.959 2.25914 4.06624 -15.1058
13 1 C 2.2391 8.70542 10.7321 -4.88322 3.18003 -5.99054
14 1 C 3.43626 10.8163 10.1371 -3.48884 -4.39532 -5.78746
15 1 C 10.8683 0.967773 9.09198 -4.03009 2.38978 -0.556943
16 1 C 8.40251 2.28222 9.11037 0.830818 7.07693 -4.99449
17 1 C 9.6047 3.04829 9.31739 -0.318554 1.07092 -1.14151
18 1 C 7.15577 4.37224 9.57383 0.937778 -4.03164 10.0321
19 1 C 8.32144 5.1055 9.68169 -7.17921 -2.42087 11.4356
20 1 C 5.87964 6.47916 9.74165 -2.02136 -5.58198 -2.65937
21 1 C 7.12808 7.2321 9.73261 -1.63508 4.55713 2.46347
22 1 C 4.61165 8.62271 9.8396 -4.97998 -0.726265 -6.19165
23 1 C 5.80484 9.31583 9.56696 3.34118 4.05879 2.78905
24 1 C 3.43896 9.39237 10.3061 -2.90536 1.33087 -12.2991
25 1 C 3.38677 5.05413 10.092 -2.95083 3.4879 -8.1462
26 1 C 2.30662 7.21859 10.7029 -1.49778 2.55935 4.75042
27 1 C 4.68092 2.95507 9.52894 -3.91015 0.523948 -2.29624
28 1 C 0.986981 0.869103 9.49109 0.210562 -1.6229 -0.551125
29 1 C 23.1506 2.23376 10.3339 -3.20179 1.26667 -3.12449
30 1 C -0.206026 2.93037 10.4272 -5.50195 -3.85108 -14.9682
31 1 C 21.9721 4.27541 11.2091 4.81006 -0.352376 -2.60412
32 1 C -1.38804 5.02536 11.3264 -0.508596 -6.39843 -3.72329
33 1 C 20.6454 6.49673 11.7892 -3.47162 -5.1407 10.4028
34 1 C -2.69127 7.22925 11.7781 1.45398 -3.11482 -3.43731
35 1 C 19.3831 8.7323 11.7575 -8.74023 1.41559 -4.3744
36 1 C -3.96405 9.47536 11.8197 -5.7993 -1.74958 -1.67691
37 1 C 2.22793 4.34874 10.2913 -6.75819 -5.91364 -5.03249
38 1 C 3.44512 0.856256 9.10761 -5.17292 9.27132 5.28802
39 1 C -3.95731 10.9504 11.5688 10.675 2.04572 -0.661896
40 1 C 2.23011 2.93806 9.92706 2.81249 3.60506 -4.01551
41 1 C -0.179182 4.35025 10.9071 -2.28945 4.52175 -10.0322
42 1 C 1.06828 5.06603 10.8138 4.16983 -4.28973 -2.98622
43 1 C -1.43988 6.48376 11.5326 -8.67173 -1.83736 1.76789
44 1 C -0.199184 7.18864 11.3348 -6.20237 -3.55411 -6.50411
45 1 C -2.67856 8.69358 11.8864 5.01258 -0.209596 -0.0992619
46 1 C -1.43955 9.4249 11.6712 0.102963 4.97372 -10.6067
47 1 C -1.37572 10.9335 11.5988 7.46245 -0.386161 8.05256
48 1 C 5.92709 0.914867 8.89197 3.26149 -1.60728 -1.76523
49 1 C 3.48206 2.22863 9.56567 1.8234 -3.38302 -1.92628
50 1 C 0.995213 2.27929 9.97642 5.52768 -2.33612 -3.52283
51 2 Li 5.5004 9.1764 11.7197 -11.2365 7.29789 13.2652
52 3 Si 6.31505 7.97142 16.3007 -2.41574 -5.68855 -8.10014
53 3 Si 6.18304 5.42243 16.168 3.45097 3.05215 -0.517902
54 3 Si 6.08602 9.31436 14.6146 5.72247 8.87377 3.03149
55 3 Si 7.169 6.46229 17.728 2.51653 6.55376 -2.33687
56 1 C 24.3156 0.172292 9.42407 -7.14951 1.81182 5.89354
57 1 C -6.33916 19.2923 8.70203 3.92134 -3.64772 2.29933
58 1 C -5.09617 19.9748 8.75577 -6.98402 -0.230575 4.06338
59 1 C 7.18498 0.121376 8.80464 3.18873 8.24037 -11.5021
60 1 C 2.28187 11.5338 10.4748 0.299467 0.962491 -6.77052
61 1 C -0.243995 13.0155 10.6685 -1.81423 4.81073 -4.57492
62 1 C 1.08084 13.6975 10.3754 0.518683 6.47032 6.06697
63 1 C -1.44415 15.1484 10.0492 0.510458 1.67638 3.93202
64 1 C -0.209902 15.8315 9.84705 0.932685 -4.64629 -2.93105
65 1 C -2.69004 17.2543 9.54047 -3.32343 3.64609 2.92839
66 1 C -1.44502 17.9911 9.46134 0.987073 8.9703 -1.97817
67 1 C -5.08666 17.0894 8.95192 1.16279 -5.43154 3.03776
68 1 C -3.81751 19.3166 8.88826 -1.21192 3.21149 -0.887358
69 1 C 9.66798 0.174831 8.94324 -0.152995 4.28896 0.566663
70 1 C 4.62897 11.4464 9.61004 2.488 1.84216 -1.02976
71 1 C 2.24626 12.974 10.224 -4.5065 0.854805 -6.49434
72 1 C 3.38982 13.6242 9.62628 6.31082 -0.746656 -8.77146
73 1 C 1.05426 15.1266 10.0676 3.80554 -4.74594 -4.51517
74 1 C 2.27166 15.7847 9.77991 -1.99714 -4.47163 -1.98076
75 1 C -0.264996 17.2705 9.58151 -0.600443 5.71479 0.765602
76 1 C 1.01385 17.9386 9.5616 -0.25034 2.96816 -5.31234
77 1 C -1.40202 19.4173 9.25185 4.82278 0.780454 -1.72351
78 1 C -0.176074 20.0893 9.2933 -2.14819 4.24831 -0.262175
79 1 C -2.63044 20.0546 8.97081 1.28971 1.89724 -1.11942
80 1 C -2.68048 15.7747 9.7784 2.48687 5.26324 3.04495
81 1 C -3.84987 17.8741 9.17154 -1.20994 3.64162 10.5588
82 1 C -1.45581 13.768 10.6456 7.70171 -0.0528685 12.4082
83 1 C -5.20748 11.6355 11.1914 -1.1973 7.38361 -5.09672
84 1 C 16.9567 12.9819 10.2033 2.69621 -2.20738 -0.255949
85 1 C -6.42832 13.656 10.2109 -2.54871 0.931971 1.7975
86 1 C 15.7569 14.9821 9.12238 -3.82317 7.04559 5.46988
87 1 C -7.58698 15.6248 9.02177 -4.40687 -6.93158 -2.04901
88 1 C 14.5638 17.1842 8.50248 1.93455 -4.73192 2.99223
89 1 C -8.80166 17.8856 8.58414 -9.31552 0.528878 6.5813
90 1 C 13.2612 19.3717 8.72895 -2.90541 0.676537 7.98804
91 1 C -10.087 20.0551 8.74567 3.69122 -6.31305 1.76283
92 1 C -3.90541 15.0558 9.91397 2.84423 -1.52908 -0.113362
93 1 C -2.68277 11.6703 11.463 6.45983 5.2175 -8.18807
94 1 C 2.23717 0.158603 9.08819 4.89194 -3.02251 6.3935
95 1 C -3.88808 13.7306 10.5858 -6.15279 -9.23891 0.817096
96 1 C -6.38259 14.9555 9.42953 0.593241 4.60394 -2.1461
97 1 C -5.0986 15.6886 9.36273 -3.14822 -2.15657 -1.85946
98 1 C -7.55941 17.1101 8.70791 -3.37775 -0.0556288 -4.46744
99 1 C -6.30796 17.8437 8.65486 0.258426 -2.31424 -1.16343
100 1 C -8.85699 19.3303 8.62356 -5.0589 6.30296 12.2684
101 1 C -7.60006 20.02 8.72121 -3.72523 -5.88807 4.15705
102 1 C 4.68885 0.155838 8.85665 0.486583 -1.16023 7.21265
103 1 C -0.145136 11.595 11.1267 0.654171 -5.23307 -6.81903
104 1 C -2.69575 13.0659 10.938 -1.98716 -0.0760697 0.294253
105 1 C -5.17891 13.0354 10.6934 -3.14525 -1.72596 12.0455
106 2 Li -0.0905824 13.5981 12.8214 -2.36132 -12.1594 8.47888
107 3 Si 0.458555 14.4858 18.1233 0.879917 -3.99621 7.67771
108 3 Si -2.3079 14.4413 15.3758 2.9161 10.4105 12.6626
109 3 Si 0.264854 14.3539 15.2422 2.8654 2.8252 5.91847
110 3 Si -1.05926 12.8525 17.3351 3.57148 -0.974039 2.54557
111 1 C 5.88481 10.7503 9.35576 0.301672 5.18685 -3.08597
112 1 C 11.9921 8.71628 10.2542 -3.48472 7.1191 3.21832
113 1 C 13.1785 9.43965 10.3991 -5.19467 -6.45825 8.51416
114 1 C 13.195 10.8728 10.0171 -2.84865 2.59124 1.09888
115 1 C 20.655 0.814197 10.1588 -2.14018 1.32479 12.1077
116 1 C 18.2338 2.20766 10.832 2.60229 -3.01639 0.386303
117 1 C 19.4647 2.91524 11.0088 -3.33577 8.57058 -2.07851
118 1 C 16.9166 4.33201 11.1658 -7.80807 -9.26758 0.808807
119 1 C 18.1703 5.07332 11.4102 -6.05323 -0.387784 -3.74036
120 1 C 15.6763 6.55643 11.0826 -5.62413 1.33573 -0.599386
121 1 C 16.906 7.25797 11.3556 -0.558254 -5.61196 -0.616769
122 1 C 13.1817 6.58382 10.5025 6.57855 7.78576 -0.578179
123 1 C 14.3903 8.74265 10.8725 -0.0419418 -5.03498 16.0693
124 1 C 15.6413 10.8991 10.6752 -0.6517 -4.24031 -0.928883
125 1 C 23.0911 0.883918 9.83448 3.7739 -9.27426 9.39845
126 1 C 20.6721 2.21065 10.6404 -6.20922 5.71795 9.8812
127 1 C 21.9121 2.90944 10.716 -2.54371 3.31474 -2.65722
128 1 C 19.465 4.32032 11.3262 -2.3481 -4.30177 -1.7091
129 1 C 20.7133 5.0206 11.462 6.02224 -7.63616 -4.01594
130 1 C 18.1298 6.52198 11.6214 -2.40544 -2.86556 -2.58894
131 1 C 19.3792 7.21923 11.8357 1.45992 0.418216 -0.0479953
132 1 C 16.8501 8.7441 11.3429 6.40103 0.68493 3.73961
133 1 C 18.0655 9.45518 11.479 5.22641 3.52221 -2.39349
134 1 C 15.637 9.49471 10.989 -1.19538 8.92923 -4.27073
135 1 C 15.6947 5.12892 11.0318 -0.423354 -1.69443 -5.40824
136 1 C 14.4311 7.25717 10.8203 -5.70421 -6.89377 6.19958
137 1 C 16.9787 2.92059 10.7936 -0.860409 -0.154384 -2.01558
138 1 C 13.3113 0.886724 9.57979 -0.0547532 0.547898 -12.0951
139 1 C 10.8678 2.38358 9.29172 -0.550709 3.87415 2.21016
140 1 C 12.106 3.03749 9.62991 -5.19929 -2.7534 -5.80439
141 1 C 9.59174 4.44353 9.6107 -6.86393 4.75537 1.55344
142 1 C 10.8666 5.16429 9.74633 -3.38558 -7.14816 3.38141
143 1 C 8.36362 6.53584 9.72707 -3.56622 -1.99403 4.4601
144 1 C 9.56944 7.26023 9.76289 -2.12119 3.66927 4.80633
145 1 C 7.05015 8.64287 9.58152 0.855381 1.81814 -2.1674
146 1 C 8.30063 9.36884 9.44961 -0.0684027 1.30459 -6.07437
147 1 C 14.4742 4.41763 10.6473 5.54575 3.3219 -5.16145
148 1 C 15.7582 0.86053 9.99036 2.58022 3.10896 1.42388
149 1 C 8.29039 10.7108 9.00882 -2.93187 4.78116 -2.26066
150 1 C 14.5151 2.97944 10.3 4.28716 -3.09003 -11.8899
151 1 C 12.0614 4.42727 9.91791 -7.00148 3.67916 1.38674
152 1 C 13.2565 5.10037 10.3274 6.6242 3.46052 -0.695307
153 1 C 10.802 6.56392 9.93345 -2.72727 8.0746 10.1468
154 1 C 11.9598 7.28878 10.2154 1.15062 -1.47191 -3.85623
155 1 C 9.56044 8.71739 9.65743 -3.842 1.99651 -7.01938
156 1 C 10.7965 9.43274 9.73564 7.74369 -4.38865 4.24682
157 1 C 10.7583 10.7856 9.30732 9.34343 5.18736 2.57916
158 1 C 18.2573 0.837055 10.2708 1.11645 -1.82535 -2.37519
159 1 C 15.7491 2.27273 10.3696 8.54584 7.03735 -10.413
160 1 C 13.3226 2.25947 9.86165 1.08289 -1.93247 -5.8175
161 2 Li 16.242 2.6376 12.7058 0.896423 -3.55517 13.3892
162 3 Si 13.8941 3.61815 15.0746 -18.8405 -5.67107 4.9103
163 3 Si 16.0994 2.3989 16.6222 -1.94857 -6.3516 -0.702551
164 3 Si 14.1527 1.06794 15.3046 0.724722 -6.00573 -6.09117
165 3 Si 17.4622 2.48261 14.8338 6.35696 -7.88056 3.15119
166 1 C 12.0938 0.236975 9.26449 5.12957 6.80571 -8.23679
167 1 C 5.88288 19.3147 9.29763 7.96689 -2.64121 3.48026
168 1 C 7.12719 20.0757 9.39775 -0.0664794 4.57919 -2.58727
169 1 C 19.4464 0.122777 9.90103 -1.56242 -4.23184 2.90986
170 1 C 14.4233 11.5767 10.1445 2.26386 4.0457 4.07813
171 1 C 12.0856 12.8792 8.97829 3.49868 -0.983981 -0.164581
172 1 C 13.3307 13.5342 8.98789 -0.182012 3.29294 0.308118
173 1 C 10.8026 14.9777 8.30965 6.60717 -4.55485 6.68176
174 1 C 12.1064 15.6853 8.3184 0.726915 -0.959208 4.24731
175 1 C 9.55829 17.2155 8.31206 2.18822 3.25267 7.90736
176 1 C 10.8351 17.9221 8.46088 -3.7579 -5.57345 2.60959
177 1 C 7.00542 17.2229 8.58298 -11.3795 -1.11337 -8.55825
178 1 C 8.32111 19.4225 8.91224 7.63621 4.36737 3.7429
179 1 C 21.8943 0.149606 9.72015 -5.23593 -1.29333 9.38763
180 1 C 16.8658 11.6334 10.7756 2.6779 -4.30999 3.30667
181 1 C 14.5397 12.9063 9.60713 0.0540439 -0.33837 5.65326
182 1 C 15.721 13.6419 9.66241 -5.78269 -5.03477 2.28661
183 1 C 13.3615 14.9399 8.57022 -3.57523 -2.15242 0.306142
184 1 C 14.6032 15.703 8.71537 -3.61912 -0.977428 6.80107
185 1 C 12.0927 17.2067 8.40047 -7.64624 1.15379 7.98462
186 1 C 13.3253 17.9032 8.53455 -0.253005 2.58968 5.55628
187 1 C 10.7648 19.4016 8.73557 -1.62111 -4.52091 0.52643
188 1 C 12.0182 20.0563 8.97996 -3.55244 -0.805695 9.14965
189 1 C 9.57022 20.0889 9.08282 -1.04963 0.657911 -1.34038
190 1 C 9.50351 15.7259 8.18812 -0.53576 0.42843 7.77524
191 1 C 8.30922 17.9487 8.55442 -2.57782 5.07051 -2.46019
192 1 C 10.7968 13.5038 8.54518 7.62414 -2.61276 8.46032
193 1 C 7.0149 11.4011 8.8489 -2.10003 -1.66815 -8.46441
194 1 C 4.61793 12.8795 9.32313 -1.33008 -5.73072 -7.75906
195 1 C 5.8401 13.5671 8.90687 -3.32113 1.08382 -4.78406
196 1 C 3.45356 15.0426 9.52183 7.38631 -4.45896 -5.35433
197 1 C 4.59033 15.7237 8.9707 1.67469 1.42033 -4.11914
198 1 C 2.2465 17.2303 9.63628 4.03559 0.690866 -1.59997
199 1 C 3.45062 17.9634 9.43385 3.62643 -1.57697 -1.36611
200 1 C 1.05337 19.3737 9.47667 -9.74131 2.39083 -5.19763
201 1 C 2.25831 20.115 9.60808 -4.90754 -0.428344 -1.91347
202 1 C 8.232 15.0396 8.26914 -0.998049 -2.44971 3.06382
203 1 C 9.52375 11.4334 8.96547 -4.57737 3.70432 8.21665
204 1 C 14.5395 0.200142 9.75497 -3.3171 -0.142392 1.8303
205 1 C 8.28356 13.5416 8.4416 -6.85093 -1.42851 1.76864
206 1 C 5.81575 14.9968 8.64048 2.98559 -0.456727 -1.78611
207 1 C 6.97663 15.7898 8.40343 -5.39732 5.65783 2.82588
208 1 C 4.62288 17.1937 9.0826 5.49681 1.96982 3.46414
209 1 C 5.8514 17.9334 9.0156 -0.068898 2.28157 -3.67434
210 1 C 3.50166 19.3991 9.5587 -1.36086 -2.22882 0.577568
211 1 C 4.75119 20.1021 9.56682 6.85119 0.629421 2.5768
212 1 C 17.0221 0.18882 9.85317 5.07422 6.47985 1.88652
213 1 C 12.0005 11.5453 9.45887 -13.1033 -5.85209 -5.38863
214 1 C 9.56605 12.8105 8.55783 0.371527 0.480602 -6.06417
215 1 C 7.07745 12.8668 8.64071 1.46212 -2.10101 -4.68487
216 2 Li -6.33246 16.6271 11.961 -1.41128 5.00781 11.2774
217 3 Si -4.14906 16.6437 15.0452 16.7938 3.53725 1.34901
218 3 Si -7.04931 18.0059 14.5157 7.67454 -16.5711 5.68317
219 3 Si -5.88589 17.8237 16.461 14.5401 -0.40108 -12.8935
220 3 Si -5.862 14.9591 14.0151 7.23924 -2.34754 3.40355
