C  Li
 1.0000000000000000
    12.3000000000000007    0.0000000000000000    0.0000000000000000
    -6.1500000000000004   10.6521124665485960    0.0000000000000000
     0.0000000000000000    0.0000000000000000   30.0000000000000000
 C   Li 
  48   1
Direct
  0.0006916778430039 -0.0045833380838241  0.4999861213579773
  0.1357075151021745  0.0652946127500644  0.5000286917742219
  0.0052868211480823  0.1957110595594164  0.5005860911735615
  0.1383351842666673  0.2656021781735162  0.5005716988784399
 -0.0028729771734973  0.3917770723058324  0.5010075445766543
  0.1302696793735544  0.4639167377132540  0.5008760404335003
 -0.0247337735248762  0.5761663594602973  0.4997405097192515
  0.1173187571918056  0.6555601703329349  0.5002583561053066
 -0.0127027355319528  0.7857994526800615  0.4997884411372476
  0.1261771640387976  0.8603422965515450  0.4999040677514829
  0.2017442022838804 -0.0006401580361323  0.4999631473080454
  0.3407684139705425  0.0749179697642508  0.4999741583728119
  0.2056490008366120  0.2002998544292534  0.5002902915992725
  0.3406562434602061  0.2720765632820661  0.5002219919918370
  0.1998445686087462  0.3993715777289136  0.5007137194794289
  0.3327971261569598  0.4698487945028889  0.5005637543698768
  0.1919920902839533  0.5971943096876072  0.5005832186333413
  0.3269796893176670  0.6689444045171111  0.5004397803526784
  0.1919614987499157  0.7944485074715835  0.5000810734846012
  0.3309886993598189  0.8700020758622948  0.5001009346090134
  0.4065575600139927  0.0090494017481289  0.4999869552976170
  0.5454040476473330  0.0836603919518076  0.4999813360446644
  0.4153771156353981  0.2137923701366131  0.4999358826013424
  0.5574494605638658  0.2932415666290180  0.4994698609793466
  0.4024299297465310  0.4053750968633066  0.5004701169273615
  0.5355921624706350  0.4776192830565657  0.5004474776172742
  0.3943044340985345  0.6036558157913828  0.5004643365793711
  0.5273622516463143  0.6736187685433054  0.5002617519455266
  0.3969544968427364  0.8039713882337676  0.5001886918626010
  0.5319672696980150  0.8739715155317459  0.5001162773843244
  0.6037481000962238  0.0089837975205283  0.5001667587214736
  0.7370538190189199  0.0707695316014106  0.5005053015408953
  0.6248876519261954  0.2257839308531685  0.4995969080747008
  0.7659957099460593  0.2912734077560351  0.5002599054418835
  0.6230177445902630  0.4344542113984819  0.4998832544153344
  0.5924061463024611  0.6086697437410140  0.5002315271624798
  0.7234720009185418  0.6655930573607525  0.5002199652112821
  0.5972719036319822  0.8066728619635448  0.5001431329113530
  0.7310672891494555  0.8682342416361446  0.5001285495059100
  0.8015625911092782  0.0011731109688777  0.5002760136812356
  0.9353671550132646  0.0626816041203592  0.5002572805032038
  0.8092460556539514  0.2039156823299845  0.5008302457402963
  0.9402767180194669  0.2607281755431873  0.5008314521533679
  0.9097583386302628  0.4350313809762173  0.5003658959424458
  0.7667657403251747  0.5782782314320356  0.4997534944774044
  0.9078737775977705  0.6437245569187957  0.4994320750587601
  0.7956402566707601  0.7987273240911912  0.5001128472539856
  0.9289261491032706  0.8604643034542466  0.4998999492598055
  0.6867346248326427  0.4345971483742835  0.5568728516125792
Cartesian
  0.0000000000000000  0.0000000000000000  0.0000000000000000
  0.0000000000000000  0.0000000000000000  0.0000000000000000
  0.0000000000000000  0.0000000000000000  0.0000000000000000
  0.0000000000000000  0.0000000000000000  0.0000000000000000
  0.0000000000000000  0.0000000000000000  0.0000000000000000
  0.0000000000000000  0.0000000000000000  0.0000000000000000
  0.0000000000000000  0.0000000000000000  0.0000000000000000
  0.0000000000000000  0.0000000000000000  0.0000000000000000
  0.0000000000000000  0.0000000000000000  0.0000000000000000
  0.0000000000000000  0.0000000000000000  0.0000000000000000
  0.0000000000000000  0.0000000000000000  0.0000000000000000
  0.0000000000000000  0.0000000000000000  0.0000000000000000
  0.0000000000000000  0.0000000000000000  0.0000000000000000
  0.0000000000000000  0.0000000000000000  0.0000000000000000
  0.0000000000000000  0.0000000000000000  0.0000000000000000
  0.0000000000000000  0.0000000000000000  0.0000000000000000
  0.0000000000000000  0.0000000000000000  0.0000000000000000
  0.0000000000000000  0.0000000000000000  0.0000000000000000
  0.0000000000000000  0.0000000000000000  0.0000000000000000
  0.0000000000000000  0.0000000000000000  0.0000000000000000
  0.0000000000000000  0.0000000000000000  0.0000000000000000
  0.0000000000000000  0.0000000000000000  0.0000000000000000
  0.0000000000000000  0.0000000000000000  0.0000000000000000
  0.0000000000000000  0.0000000000000000  0.0000000000000000
  0.0000000000000000  0.0000000000000000  0.0000000000000000
  0.0000000000000000  0.0000000000000000  0.0000000000000000
  0.0000000000000000  0.0000000000000000  0.0000000000000000
  0.0000000000000000  0.0000000000000000  0.0000000000000000
  0.0000000000000000  0.0000000000000000  0.0000000000000000
  0.0000000000000000  0.0000000000000000  0.0000000000000000
  0.0000000000000000  0.0000000000000000  0.0000000000000000
  0.0000000000000000  0.0000000000000000  0.0000000000000000
  0.0000000000000000  0.0000000000000000  0.0000000000000000
  0.0000000000000000  0.0000000000000000  0.0000000000000000
  0.0000000000000000  0.0000000000000000  0.0000000000000000
  0.0000000000000000  0.0000000000000000  0.0000000000000000
  0.0000000000000000  0.0000000000000000  0.0000000000000000
  0.0000000000000000  0.0000000000000000  0.0000000000000000
  0.0000000000000000  0.0000000000000000  0.0000000000000000
  0.0000000000000000  0.0000000000000000  0.0000000000000000
  0.0000000000000000  0.0000000000000000  0.0000000000000000
  0.0000000000000000  0.0000000000000000  0.0000000000000000
  0.0000000000000000  0.0000000000000000  0.0000000000000000
  0.0000000000000000  0.0000000000000000  0.0000000000000000
  0.0000000000000000  0.0000000000000000  0.0000000000000000
  0.0000000000000000  0.0000000000000000  0.0000000000000000
  0.0000000000000000  0.0000000000000000  0.0000000000000000
  0.0000000000000000  0.0000000000000000  0.0000000000000000
  0.0000000000000000  0.0000000000000000  0.0000000000000000
