  51  51   0   0
  0.7707117E+02  0.1230000E-08  0.1230000E-08  0.3000000E-08  0.5000000E-15
  1.000000000000000E-004
  CAR 
 Li defective graphene MACE training lab 
      4.86085230    -55.05189991  301     -2.56106733      1.00000000
    -55.052  0.0000E+00  0.0000E+00  0.0000E+00  0.0000E+00
    -54.852  0.0000E+00  0.0000E+00  0.0000E+00  0.0000E+00
    -54.652  0.0000E+00  0.0000E+00  0.0000E+00  0.0000E+00
    -54.453  0.0000E+00  0.0000E+00  0.0000E+00  0.0000E+00
    -54.253  0.0000E+00  0.0000E+00  0.0000E+00  0.0000E+00
    -54.053  0.0000E+00  0.0000E+00  0.0000E+00  0.0000E+00
    -53.854  0.0000E+00  0.0000E+00  0.0000E+00  0.0000E+00
    -53.654  0.0000E+00  0.0000E+00  0.0000E+00  0.0000E+00
    -53.454  0.0000E+00  0.0000E+00  0.0000E+00  0.0000E+00
    -53.255  0.0000E+00  0.0000E+00  0.0000E+00  0.0000E+00
    -53.055  0.0000E+00  0.0000E+00  0.0000E+00  0.0000E+00
    -52.855  0.0000E+00  0.0000E+00  0.0000E+00  0.0000E+00
    -52.655  0.0000E+00  0.0000E+00  0.0000E+00  0.0000E+00
    -52.456  0.8134E-03  0.7487E-03  0.1624E-03  0.1495E-03
    -52.256  0.4906E+01  0.4901E+01  0.9800E+00  0.9789E+00
    -52.056  0.1001E+00  0.1054E+00  0.1000E+01  0.1000E+01
    -51.857  0.0000E+00  0.0000E+00  0.1000E+01  0.1000E+01
    -51.657  0.0000E+00  0.0000E+00  0.1000E+01  0.1000E+01
    -51.457  0.0000E+00  0.0000E+00  0.1000E+01  0.1000E+01
    -51.257  0.0000E+00  0.0000E+00  0.1000E+01  0.1000E+01
    -51.058  0.0000E+00  0.0000E+00  0.1000E+01  0.1000E+01
    -50.858  0.0000E+00  0.0000E+00  0.1000E+01  0.1000E+01
    -50.658  0.0000E+00  0.0000E+00  0.1000E+01  0.1000E+01
    -50.459  0.0000E+00  0.0000E+00  0.1000E+01  0.1000E+01
    -50.259  0.0000E+00  0.0000E+00  0.1000E+01  0.1000E+01
    -50.059  0.0000E+00  0.0000E+00  0.1000E+01  0.1000E+01
    -49.859  0.0000E+00  0.0000E+00  0.1000E+01  0.1000E+01
    -49.660  0.0000E+00  0.0000E+00  0.1000E+01  0.1000E+01
    -49.460  0.0000E+00  0.0000E+00  0.1000E+01  0.1000E+01
    -49.260  0.0000E+00  0.0000E+00  0.1000E+01  0.1000E+01
    -49.061  0.0000E+00  0.0000E+00  0.1000E+01  0.1000E+01
    -48.861  0.0000E+00  0.0000E+00  0.1000E+01  0.1000E+01
    -48.661  0.0000E+00  0.0000E+00  0.1000E+01  0.1000E+01
    -48.461  0.0000E+00  0.0000E+00  0.1000E+01  0.1000E+01
    -48.262  0.0000E+00  0.0000E+00  0.1000E+01  0.1000E+01
    -48.062  0.0000E+00  0.0000E+00  0.1000E+01  0.1000E+01
    -47.862  0.0000E+00  0.0000E+00  0.1000E+01  0.1000E+01
    -47.663  0.0000E+00  0.0000E+00  0.1000E+01  0.1000E+01
    -47.463  0.0000E+00  0.0000E+00  0.1000E+01  0.1000E+01
    -47.263  0.0000E+00  0.0000E+00  0.1000E+01  0.1000E+01
    -47.064  0.0000E+00  0.0000E+00  0.1000E+01  0.1000E+01
    -46.864  0.0000E+00  0.0000E+00  0.1000E+01  0.1000E+01
    -46.664  0.0000E+00  0.0000E+00  0.1000E+01  0.1000E+01
    -46.464  0.0000E+00  0.0000E+00  0.1000E+01  0.1000E+01
    -46.265  0.0000E+00  0.0000E+00  0.1000E+01  0.1000E+01
    -46.065  0.0000E+00  0.0000E+00  0.1000E+01  0.1000E+01
    -45.865  0.0000E+00  0.0000E+00  0.1000E+01  0.1000E+01
    -45.666  0.0000E+00  0.0000E+00  0.1000E+01  0.1000E+01
    -45.466  0.0000E+00  0.0000E+00  0.1000E+01  0.1000E+01
    -45.266  0.0000E+00  0.0000E+00  0.1000E+01  0.1000E+01
    -45.066  0.0000E+00  0.0000E+00  0.1000E+01  0.1000E+01
    -44.867  0.0000E+00  0.0000E+00  0.1000E+01  0.1000E+01
    -44.667  0.0000E+00  0.0000E+00  0.1000E+01  0.1000E+01
    -44.467  0.0000E+00  0.0000E+00  0.1000E+01  0.1000E+01
    -44.268  0.0000E+00  0.0000E+00  0.1000E+01  0.1000E+01
    -44.068  0.0000E+00  0.0000E+00  0.1000E+01  0.1000E+01
    -43.868  0.0000E+00  0.0000E+00  0.1000E+01  0.1000E+01
    -43.668  0.0000E+00  0.0000E+00  0.1000E+01  0.1000E+01
    -43.469  0.0000E+00  0.0000E+00  0.1000E+01  0.1000E+01
    -43.269  0.0000E+00  0.0000E+00  0.1000E+01  0.1000E+01
    -43.069  0.0000E+00  0.0000E+00  0.1000E+01  0.1000E+01
    -42.870  0.0000E+00  0.0000E+00  0.1000E+01  0.1000E+01
    -42.670  0.0000E+00  0.0000E+00  0.1000E+01  0.1000E+01
    -42.470  0.0000E+00  0.0000E+00  0.1000E+01  0.1000E+01
    -42.271  0.0000E+00  0.0000E+00  0.1000E+01  0.1000E+01
    -42.071  0.0000E+00  0.0000E+00  0.1000E+01  0.1000E+01
    -41.871  0.0000E+00  0.0000E+00  0.1000E+01  0.1000E+01
    -41.671  0.0000E+00  0.0000E+00  0.1000E+01  0.1000E+01
    -41.472  0.0000E+00  0.0000E+00  0.1000E+01  0.1000E+01
    -41.272  0.0000E+00  0.0000E+00  0.1000E+01  0.1000E+01
    -41.072  0.0000E+00  0.0000E+00  0.1000E+01  0.1000E+01
    -40.873  0.0000E+00  0.0000E+00  0.1000E+01  0.1000E+01
    -40.673  0.0000E+00  0.0000E+00  0.1000E+01  0.1000E+01
    -40.473  0.0000E+00  0.0000E+00  0.1000E+01  0.1000E+01
    -40.273  0.0000E+00  0.0000E+00  0.1000E+01  0.1000E+01
    -40.074  0.0000E+00  0.0000E+00  0.1000E+01  0.1000E+01
    -39.874  0.0000E+00  0.0000E+00  0.1000E+01  0.1000E+01
    -39.674  0.0000E+00  0.0000E+00  0.1000E+01  0.1000E+01
    -39.475  0.0000E+00  0.0000E+00  0.1000E+01  0.1000E+01
    -39.275  0.0000E+00  0.0000E+00  0.1000E+01  0.1000E+01
    -39.075  0.0000E+00  0.0000E+00  0.1000E+01  0.1000E+01
    -38.875  0.0000E+00  0.0000E+00  0.1000E+01  0.1000E+01
    -38.676  0.0000E+00  0.0000E+00  0.1000E+01  0.1000E+01
    -38.476  0.0000E+00  0.0000E+00  0.1000E+01  0.1000E+01
    -38.276  0.0000E+00  0.0000E+00  0.1000E+01  0.1000E+01
    -38.077  0.0000E+00  0.0000E+00  0.1000E+01  0.1000E+01
    -37.877  0.0000E+00  0.0000E+00  0.1000E+01  0.1000E+01
    -37.677  0.0000E+00  0.0000E+00  0.1000E+01  0.1000E+01
    -37.477  0.0000E+00  0.0000E+00  0.1000E+01  0.1000E+01
    -37.278  0.0000E+00  0.0000E+00  0.1000E+01  0.1000E+01
    -37.078  0.0000E+00  0.0000E+00  0.1000E+01  0.1000E+01
    -36.878  0.0000E+00  0.0000E+00  0.1000E+01  0.1000E+01
    -36.679  0.0000E+00  0.0000E+00  0.1000E+01  0.1000E+01
    -36.479  0.0000E+00  0.0000E+00  0.1000E+01  0.1000E+01
    -36.279  0.0000E+00  0.0000E+00  0.1000E+01  0.1000E+01
    -36.080  0.0000E+00  0.0000E+00  0.1000E+01  0.1000E+01
    -35.880  0.0000E+00  0.0000E+00  0.1000E+01  0.1000E+01
    -35.680  0.0000E+00  0.0000E+00  0.1000E+01  0.1000E+01
    -35.480  0.0000E+00  0.0000E+00  0.1000E+01  0.1000E+01
    -35.281  0.0000E+00  0.0000E+00  0.1000E+01  0.1000E+01
    -35.081  0.0000E+00  0.0000E+00  0.1000E+01  0.1000E+01
    -34.881  0.0000E+00  0.0000E+00  0.1000E+01  0.1000E+01
    -34.682  0.0000E+00  0.0000E+00  0.1000E+01  0.1000E+01
    -34.482  0.0000E+00  0.0000E+00  0.1000E+01  0.1000E+01
    -34.282  0.0000E+00  0.0000E+00  0.1000E+01  0.1000E+01
    -34.082  0.0000E+00  0.0000E+00  0.1000E+01  0.1000E+01
    -33.883  0.0000E+00  0.0000E+00  0.1000E+01  0.1000E+01
    -33.683  0.0000E+00  0.0000E+00  0.1000E+01  0.1000E+01
    -33.483  0.0000E+00  0.0000E+00  0.1000E+01  0.1000E+01
    -33.284  0.0000E+00  0.0000E+00  0.1000E+01  0.1000E+01
    -33.084  0.0000E+00  0.0000E+00  0.1000E+01  0.1000E+01
    -32.884  0.0000E+00  0.0000E+00  0.1000E+01  0.1000E+01
    -32.684  0.0000E+00  0.0000E+00  0.1000E+01  0.1000E+01
    -32.485  0.0000E+00  0.0000E+00  0.1000E+01  0.1000E+01
    -32.285  0.0000E+00  0.0000E+00  0.1000E+01  0.1000E+01
    -32.085  0.0000E+00  0.0000E+00  0.1000E+01  0.1000E+01
    -31.886  0.0000E+00  0.0000E+00  0.1000E+01  0.1000E+01
    -31.686  0.0000E+00  0.0000E+00  0.1000E+01  0.1000E+01
    -31.486  0.0000E+00  0.0000E+00  0.1000E+01  0.1000E+01
    -31.287  0.0000E+00  0.0000E+00  0.1000E+01  0.1000E+01
    -31.087  0.0000E+00  0.0000E+00  0.1000E+01  0.1000E+01
    -30.887  0.0000E+00  0.0000E+00  0.1000E+01  0.1000E+01
    -30.687  0.0000E+00  0.0000E+00  0.1000E+01  0.1000E+01
    -30.488  0.0000E+00  0.0000E+00  0.1000E+01  0.1000E+01
    -30.288  0.0000E+00  0.0000E+00  0.1000E+01  0.1000E+01
    -30.088  0.0000E+00  0.0000E+00  0.1000E+01  0.1000E+01
    -29.889  0.0000E+00  0.0000E+00  0.1000E+01  0.1000E+01
    -29.689  0.0000E+00  0.0000E+00  0.1000E+01  0.1000E+01
    -29.489  0.0000E+00  0.0000E+00  0.1000E+01  0.1000E+01
    -29.289  0.0000E+00  0.0000E+00  0.1000E+01  0.1000E+01
    -29.090  0.0000E+00  0.0000E+00  0.1000E+01  0.1000E+01
    -28.890  0.0000E+00  0.0000E+00  0.1000E+01  0.1000E+01
    -28.690  0.0000E+00  0.0000E+00  0.1000E+01  0.1000E+01
    -28.491  0.0000E+00  0.0000E+00  0.1000E+01  0.1000E+01
    -28.291  0.0000E+00  0.0000E+00  0.1000E+01  0.1000E+01
    -28.091  0.0000E+00  0.0000E+00  0.1000E+01  0.1000E+01
    -27.891  0.0000E+00  0.0000E+00  0.1000E+01  0.1000E+01
    -27.692  0.0000E+00  0.0000E+00  0.1000E+01  0.1000E+01
    -27.492  0.0000E+00  0.0000E+00  0.1000E+01  0.1000E+01
    -27.292  0.0000E+00  0.0000E+00  0.1000E+01  0.1000E+01
    -27.093  0.0000E+00  0.0000E+00  0.1000E+01  0.1000E+01
    -26.893  0.0000E+00  0.0000E+00  0.1000E+01  0.1000E+01
    -26.693  0.0000E+00  0.0000E+00  0.1000E+01  0.1000E+01
    -26.493  0.0000E+00  0.0000E+00  0.1000E+01  0.1000E+01
    -26.294  0.0000E+00  0.0000E+00  0.1000E+01  0.1000E+01
    -26.094  0.0000E+00  0.0000E+00  0.1000E+01  0.1000E+01
    -25.894  0.0000E+00  0.0000E+00  0.1000E+01  0.1000E+01
    -25.695  0.0000E+00  0.0000E+00  0.1000E+01  0.1000E+01
    -25.495  0.0000E+00  0.0000E+00  0.1000E+01  0.1000E+01
    -25.295  0.0000E+00  0.0000E+00  0.1000E+01  0.1000E+01
    -25.096  0.0000E+00  0.0000E+00  0.1000E+01  0.1000E+01
    -24.896  0.0000E+00  0.0000E+00  0.1000E+01  0.1000E+01
    -24.696  0.0000E+00  0.0000E+00  0.1000E+01  0.1000E+01
    -24.496  0.0000E+00  0.0000E+00  0.1000E+01  0.1000E+01
    -24.297  0.0000E+00  0.0000E+00  0.1000E+01  0.1000E+01
    -24.097  0.0000E+00  0.0000E+00  0.1000E+01  0.1000E+01
    -23.897  0.0000E+00  0.0000E+00  0.1000E+01  0.1000E+01
    -23.698  0.0000E+00  0.0000E+00  0.1000E+01  0.1000E+01
    -23.498  0.0000E+00  0.0000E+00  0.1000E+01  0.1000E+01
    -23.298  0.0000E+00  0.0000E+00  0.1000E+01  0.1000E+01
    -23.098  0.0000E+00  0.0000E+00  0.1000E+01  0.1000E+01
    -22.899  0.0000E+00  0.0000E+00  0.1000E+01  0.1000E+01
    -22.699  0.0000E+00  0.0000E+00  0.1000E+01  0.1000E+01
    -22.499  0.3007E-03  0.1014E-03  0.1000E+01  0.1000E+01
    -22.300  0.2504E+01  0.2076E+01  0.1500E+01  0.1415E+01
    -22.100  0.2600E+01  0.2979E+01  0.2020E+01  0.2010E+01
    -21.900  0.3521E+01  0.3506E+01  0.2723E+01  0.2710E+01
    -21.700  0.3632E+01  0.3665E+01  0.3448E+01  0.3442E+01
    -21.501  0.4220E+01  0.3903E+01  0.4291E+01  0.4221E+01
    -21.301  0.2966E+01  0.3242E+01  0.4883E+01  0.4869E+01
    -21.101  0.3536E+01  0.3209E+01  0.5589E+01  0.5510E+01
    -20.902  0.5570E+01  0.5745E+01  0.6702E+01  0.6657E+01
    -20.702  0.2135E+01  0.2334E+01  0.7128E+01  0.7123E+01
    -20.502  0.3341E+01  0.3303E+01  0.7795E+01  0.7783E+01
    -20.303  0.4386E+01  0.4438E+01  0.8671E+01  0.8669E+01
    -20.103  0.5669E+01  0.5579E+01  0.9804E+01  0.9783E+01
    -19.903  0.2608E+01  0.2678E+01  0.1032E+02  0.1032E+02
    -19.703  0.3983E+01  0.3719E+01  0.1112E+02  0.1106E+02
    -19.504  0.3090E+01  0.3276E+01  0.1174E+02  0.1171E+02
    -19.304  0.5169E+01  0.5093E+01  0.1277E+02  0.1273E+02
    -19.104  0.4244E+01  0.4280E+01  0.1362E+02  0.1359E+02
    -18.905  0.4106E+01  0.4233E+01  0.1444E+02  0.1443E+02
    -18.705  0.7113E+00  0.6993E+00  0.1458E+02  0.1457E+02
    -18.505  0.5974E+01  0.5726E+01  0.1577E+02  0.1572E+02
    -18.305  0.6679E+01  0.6805E+01  0.1711E+02  0.1707E+02
    -18.106  0.2115E+01  0.2234E+01  0.1753E+02  0.1752E+02
    -17.906  0.4779E+01  0.4714E+01  0.1848E+02  0.1846E+02
    -17.706  0.3148E+01  0.3251E+01  0.1911E+02  0.1911E+02
    -17.507  0.2411E+01  0.2078E+01  0.1959E+02  0.1953E+02
    -17.307  0.9140E+01  0.9312E+01  0.2142E+02  0.2139E+02
    -17.107  0.3747E+01  0.3725E+01  0.2217E+02  0.2213E+02
    -16.907  0.5129E+01  0.5155E+01  0.2319E+02  0.2316E+02
    -16.708  0.2829E+01  0.2930E+01  0.2376E+02  0.2374E+02
    -16.508  0.1391E+01  0.1417E+01  0.2403E+02  0.2403E+02
    -16.308  0.4345E+01  0.4032E+01  0.2490E+02  0.2483E+02
    -16.109  0.5685E+01  0.5944E+01  0.2604E+02  0.2602E+02
    -15.909  0.3747E+00  0.4590E+00  0.2611E+02  0.2611E+02
    -15.709  0.3455E+01  0.3391E+01  0.2680E+02  0.2679E+02
    -15.509  0.3202E+01  0.3174E+01  0.2744E+02  0.2742E+02
    -15.310  0.4128E+01  0.4005E+01  0.2827E+02  0.2822E+02
    -15.110  0.6029E+01  0.6194E+01  0.2947E+02  0.2946E+02
    -14.910  0.4105E+01  0.4090E+01  0.3029E+02  0.3028E+02
    -14.711  0.5666E+01  0.5615E+01  0.3142E+02  0.3140E+02
    -14.511  0.2939E+01  0.3042E+01  0.3201E+02  0.3201E+02
    -14.311  0.5579E+01  0.5401E+01  0.3312E+02  0.3308E+02
    -14.112  0.3183E+01  0.3001E+01  0.3376E+02  0.3368E+02
    -13.912  0.4817E+01  0.5057E+01  0.3472E+02  0.3469E+02
    -13.712  0.4287E+01  0.4337E+01  0.3558E+02  0.3556E+02
    -13.512  0.1567E+01  0.1651E+01  0.3589E+02  0.3589E+02
    -13.313  0.2864E+01  0.2628E+01  0.3646E+02  0.3641E+02
    -13.113  0.7162E+01  0.7256E+01  0.3789E+02  0.3786E+02
    -12.913  0.5104E+01  0.5147E+01  0.3891E+02  0.3889E+02
    -12.714  0.4294E+01  0.4378E+01  0.3977E+02  0.3976E+02
    -12.514  0.2997E+01  0.2834E+01  0.4037E+02  0.4033E+02
    -12.314  0.3582E+01  0.3522E+01  0.4108E+02  0.4103E+02
    -12.114  0.5278E+01  0.5305E+01  0.4214E+02  0.4209E+02
    -11.915  0.5987E+01  0.6186E+01  0.4333E+02  0.4333E+02
    -11.715  0.1909E+01  0.1818E+01  0.4371E+02  0.4369E+02
    -11.515  0.8135E+01  0.7920E+01  0.4534E+02  0.4527E+02
    -11.316  0.5604E+01  0.5855E+01  0.4646E+02  0.4644E+02
    -11.116  0.4688E+01  0.4702E+01  0.4739E+02  0.4738E+02
    -10.916  0.3956E+01  0.3881E+01  0.4818E+02  0.4816E+02
    -10.716  0.2863E+01  0.2764E+01  0.4875E+02  0.4871E+02
    -10.517  0.9359E+01  0.9217E+01  0.5062E+02  0.5055E+02
    -10.317  0.9820E+01  0.9730E+01  0.5258E+02  0.5249E+02
    -10.117  0.7761E+01  0.8063E+01  0.5413E+02  0.5410E+02
     -9.918  0.9584E+01  0.9480E+01  0.5605E+02  0.5600E+02
     -9.718  0.8257E+01  0.8054E+01  0.5770E+02  0.5761E+02
     -9.518  0.9615E+01  0.9640E+01  0.5962E+02  0.5953E+02
     -9.318  0.1049E+02  0.1058E+02  0.6171E+02  0.6164E+02
     -9.119  0.1369E+02  0.1368E+02  0.6445E+02  0.6437E+02
     -8.919  0.1200E+02  0.1155E+02  0.6684E+02  0.6668E+02
     -8.719  0.1163E+02  0.1214E+02  0.6917E+02  0.6910E+02
     -8.520  0.6776E+01  0.6880E+01  0.7052E+02  0.7048E+02
     -8.320  0.8975E+01  0.9010E+01  0.7231E+02  0.7228E+02
     -8.120  0.9756E+01  0.9403E+01  0.7426E+02  0.7416E+02
     -7.921  0.1327E+02  0.1317E+02  0.7691E+02  0.7679E+02
     -7.721  0.6944E+01  0.7504E+01  0.7830E+02  0.7828E+02
     -7.521  0.3229E+01  0.2897E+01  0.7894E+02  0.7886E+02
     -7.321  0.9350E+01  0.9230E+01  0.8081E+02  0.8071E+02
     -7.122  0.9225E+01  0.9300E+01  0.8265E+02  0.8256E+02
     -6.922  0.9564E+01  0.9800E+01  0.8456E+02  0.8452E+02
     -6.722  0.9087E+01  0.8950E+01  0.8638E+02  0.8631E+02
     -6.523  0.4560E+01  0.4872E+01  0.8729E+02  0.8728E+02
     -6.323  0.6532E+01  0.6357E+01  0.8859E+02  0.8855E+02
     -6.123  0.5847E+01  0.4931E+01  0.8976E+02  0.8954E+02
     -5.923  0.1103E+02  0.1189E+02  0.9196E+02  0.9191E+02
     -5.724  0.3199E+01  0.3108E+01  0.9260E+02  0.9253E+02
     -5.524  0.6927E+01  0.6906E+01  0.9399E+02  0.9391E+02
     -5.324  0.1746E+01  0.2109E+01  0.9433E+02  0.9433E+02
     -5.125  0.3360E+01  0.3122E+01  0.9501E+02  0.9495E+02
     -4.925  0.8115E+01  0.7444E+01  0.9663E+02  0.9644E+02
     -4.725  0.7037E+01  0.7588E+01  0.9803E+02  0.9796E+02
     -4.525  0.1733E+01  0.1988E+01  0.9838E+02  0.9835E+02
     -4.326  0.2775E+01  0.2758E+01  0.9893E+02  0.9890E+02
     -4.126  0.1912E+01  0.2004E+01  0.9931E+02  0.9930E+02
     -3.926  0.2632E+01  0.1967E+01  0.9984E+02  0.9970E+02
     -3.727  0.2446E+01  0.3092E+01  0.1003E+03  0.1003E+03
     -3.527  0.2225E+01  0.2256E+01  0.1008E+03  0.1008E+03
     -3.327  0.2740E-01  0.6055E-01  0.1008E+03  0.1008E+03
     -3.128  0.5375E-09  0.1441E-12  0.1008E+03  0.1008E+03
     -2.928  0.3566E+00  0.5331E-01  0.1008E+03  0.1008E+03
     -2.728  0.2093E+01  0.1924E+01  0.1013E+03  0.1012E+03
     -2.528  0.2414E+01  0.1287E+01  0.1017E+03  0.1014E+03
     -2.329  0.2171E+01  0.3093E+01  0.1022E+03  0.1020E+03
     -2.129  0.1981E+00  0.8755E+00  0.1022E+03  0.1022E+03
     -1.929  0.3105E-01  0.4406E-02  0.1022E+03  0.1022E+03
     -1.730  0.3682E+01  0.3553E+01  0.1030E+03  0.1029E+03
     -1.530  0.4193E+01  0.4074E+01  0.1038E+03  0.1037E+03
     -1.330  0.3459E+01  0.2019E+01  0.1045E+03  0.1041E+03
     -1.130  0.3877E+01  0.5406E+01  0.1053E+03  0.1052E+03
     -0.931  0.6926E+01  0.6974E+01  0.1066E+03  0.1066E+03
     -0.731  0.7744E+01  0.7501E+01  0.1082E+03  0.1081E+03
     -0.531  0.5421E+01  0.5189E+01  0.1093E+03  0.1092E+03
     -0.332  0.3056E+01  0.3670E+01  0.1099E+03  0.1099E+03
     -0.132  0.1553E+00  0.6669E-01  0.1099E+03  0.1099E+03
      0.068  0.4592E+01  0.4429E+01  0.1108E+03  0.1108E+03
      0.268  0.8187E+01  0.7987E+01  0.1125E+03  0.1124E+03
      0.467  0.8656E+01  0.8634E+01  0.1142E+03  0.1141E+03
      0.667  0.5675E+01  0.6133E+01  0.1153E+03  0.1153E+03
      0.867  0.5877E+01  0.5303E+01  0.1165E+03  0.1164E+03
      1.066  0.7346E+01  0.7563E+01  0.1180E+03  0.1179E+03
      1.266  0.1180E+02  0.1115E+02  0.1203E+03  0.1201E+03
      1.466  0.1257E+02  0.1185E+02  0.1228E+03  0.1225E+03
      1.666  0.1713E+02  0.1739E+02  0.1263E+03  0.1260E+03
      1.865  0.1899E+02  0.1842E+02  0.1301E+03  0.1296E+03
      2.065  0.8343E+01  0.9569E+01  0.1317E+03  0.1316E+03
      2.265  0.1396E+01  0.2225E+01  0.1320E+03  0.1320E+03
      2.464  0.2124E-04  0.9102E-04  0.1320E+03  0.1320E+03
      2.664  0.0000E+00  0.0000E+00  0.1320E+03  0.1320E+03
      2.864  0.0000E+00  0.0000E+00  0.1320E+03  0.1320E+03
      3.063  0.0000E+00  0.0000E+00  0.1320E+03  0.1320E+03
      3.263  0.0000E+00  0.0000E+00  0.1320E+03  0.1320E+03
      3.463  0.0000E+00  0.0000E+00  0.1320E+03  0.1320E+03
      3.663  0.0000E+00  0.0000E+00  0.1320E+03  0.1320E+03
      3.862  0.0000E+00  0.0000E+00  0.1320E+03  0.1320E+03
      4.062  0.0000E+00  0.0000E+00  0.1320E+03  0.1320E+03
      4.262  0.0000E+00  0.0000E+00  0.1320E+03  0.1320E+03
      4.461  0.0000E+00  0.0000E+00  0.1320E+03  0.1320E+03
      4.661  0.0000E+00  0.0000E+00  0.1320E+03  0.1320E+03
      4.861  0.0000E+00  0.0000E+00  0.1320E+03  0.1320E+03
