       N       E                     dE             d eps       ncg     rms          rms(c)
DAV:   1     0.192947828195E+04    0.19295E+04   -0.67770E+04  3248   0.106E+03
DAV:   2     0.405062262924E+02   -0.18890E+04   -0.17460E+04  4080   0.236E+02
DAV:   3    -0.462807554180E+03   -0.50331E+03   -0.49920E+03  3480   0.128E+02
DAV:   4    -0.489565830556E+03   -0.26758E+02   -0.26466E+02  3396   0.387E+01
DAV:   5    -0.490491722417E+03   -0.92589E+00   -0.91948E+00  3800   0.613E+00    0.330E+01
DAV:   6    -0.465390782100E+03    0.25101E+02   -0.25181E+01  2956   0.126E+01    0.190E+01
DAV:   7    -0.453380002010E+03    0.12011E+02   -0.17099E+01  3028   0.999E+00    0.100E+01
DAV:   8    -0.452769050683E+03    0.61095E+00   -0.44907E+00  3096   0.476E+00    0.389E+00
DAV:   9    -0.453816146844E+03   -0.10471E+01   -0.58548E-01  3432   0.200E+00    0.144E+00
DAV:  10    -0.454163278725E+03   -0.34713E+00   -0.18734E-01  2824   0.103E+00    0.984E-01
DAV:  11    -0.454470575509E+03   -0.30730E+00   -0.49897E-02  3488   0.487E-01    0.838E-01
DAV:  12    -0.455184155235E+03   -0.71358E+00   -0.19913E-01  2896   0.797E-01    0.598E-01
DAV:  13    -0.455194915866E+03   -0.10761E-01   -0.12308E-01  2820   0.637E-01    0.434E-01
DAV:  14    -0.455754081974E+03   -0.55917E+00   -0.57938E-02  2948   0.417E-01    0.298E-01
DAV:  15    -0.456498456503E+03   -0.74437E+00   -0.34854E-02  2936   0.286E-01    0.202E-01
DAV:  16    -0.456899839969E+03   -0.40138E+00   -0.81236E-03  2992   0.176E-01    0.152E-01
DAV:  17    -0.457241130935E+03   -0.34129E+00   -0.67652E-03  2896   0.155E-01    0.100E-01
DAV:  18    -0.457358386681E+03   -0.11726E+00   -0.25070E-03  2948   0.940E-02    0.745E-02
DAV:  19    -0.457398275614E+03   -0.39889E-01   -0.12081E-03  3032   0.690E-02    0.551E-02
DAV:  20    -0.457413064034E+03   -0.14788E-01   -0.74112E-04  3004   0.570E-02    0.380E-02
DAV:  21    -0.457428554924E+03   -0.15491E-01   -0.29707E-04  2952   0.458E-02    0.258E-02
DAV:  22    -0.457457702380E+03   -0.29147E-01   -0.15860E-04  2912   0.392E-02    0.152E-02
DAV:  23    -0.457471789749E+03   -0.14087E-01   -0.72202E-05  2940   0.317E-02    0.940E-03
DAV:  24    -0.457475951542E+03   -0.41618E-02   -0.44531E-05  2448   0.228E-02    0.622E-03
DAV:  25    -0.457478050898E+03   -0.20994E-02   -0.38106E-05  2416   0.195E-02    0.371E-03
DAV:  26    -0.457478941855E+03   -0.89096E-03   -0.13889E-05  2488   0.122E-02    0.244E-03
DAV:  27    -0.457479341206E+03   -0.39935E-03   -0.38391E-06  2396   0.618E-03    0.151E-03
DAV:  28    -0.457479571237E+03   -0.23003E-03   -0.17035E-06  2284   0.348E-03    0.101E-03
DAV:  29    -0.457479687375E+03   -0.11614E-03   -0.69643E-07  2064   0.194E-03    0.669E-04
DAV:  30    -0.457479759584E+03   -0.72209E-04   -0.48347E-07  2008   0.135E-03    0.422E-04
DAV:  31    -0.457479799852E+03   -0.40268E-04   -0.23280E-07  2016   0.971E-04    0.289E-04
DAV:  32    -0.457479819782E+03   -0.19930E-04   -0.91272E-08  2036   0.671E-04    0.187E-04
DAV:  33    -0.457479827058E+03   -0.72762E-05   -0.26189E-08  1984   0.423E-04    0.152E-04
DAV:  34    -0.457479829633E+03   -0.25749E-05    0.13467E-09  1936   0.250E-04    0.136E-04
DAV:  35    -0.457479830788E+03   -0.11555E-05    0.10538E-08  1900   0.161E-04    0.130E-04
DAV:  36    -0.457479831283E+03   -0.49457E-06    0.14956E-08  1848   0.104E-04
   1 F= -.45747983E+03 E0= -.45747641E+03  d E =-.684897E-02  mag=     0.2931
