<?xml version="1.0" encoding="ISO-8859-1"?>
<modeling>
 <generator>
  <i name="program" type="string">vasp </i>
  <i name="version" type="string">5.4.1  </i>
  <i name="subversion" type="string">24Jun15 (build Jul 23 2024 06:15:33) complex                          parallel </i>
  <i name="platform" type="string">IFC91_ompi </i>
  <i name="date" type="string">2026 05 05 </i>
  <i name="time" type="string">16:56:20 </i>
 </generator>
 <incar>
  <i type="string" name="SYSTEM"> Li defective graphene MACE training lab</i>
  <i type="int" name="ISTART">     0</i>
  <i type="string" name="PREC">accurate</i>
  <i type="string" name="ALGO"> Normal</i>
  <i type="logical" name="ADDGRID"> T  </i>
  <i type="int" name="ISPIN">     2</i>
  <i type="int" name="ICHARG">     2</i>
  <i type="int" name="NELM">   120</i>
  <i type="int" name="IBRION">    -1</i>
  <i name="EDIFF">      0.00000100</i>
  <i type="int" name="NSW">     0</i>
  <i type="int" name="ISIF">     2</i>
  <i type="int" name="ISYM">     0</i>
  <i name="ENCUT">    520.00000000</i>
  <v name="MAGMOM">      0.10000000      0.10000000      0.10000000      0.10000000      0.10000000      0.10000000      0.10000000      0.10000000      0.10000000      0.10000000      0.10000000      0.10000000      0.10000000      0.10000000      0.10000000      0.10000000      0.10000000      0.10000000      0.10000000      0.10000000
      0.10000000      0.10000000      0.10000000      0.10000000      0.10000000      0.10000000      0.10000000      0.10000000      0.10000000      0.10000000      0.10000000      0.10000000      0.10000000      0.10000000      0.10000000      0.10000000      0.10000000      0.10000000      0.10000000      0.10000000
      0.10000000      0.10000000      0.10000000      0.10000000      0.10000000      0.10000000      0.10000000      0.10000000      0.10000000      0.10000000      1.00000000</v>
  <i type="string" name="LREAL"> Auto</i>
  <i type="int" name="ISMEAR">     0</i>
  <i name="SIGMA">      0.05000000</i>
  <i type="logical" name="LWAVE"> F  </i>
  <i type="logical" name="LCHARG"> F  </i>
  <i type="logical" name="LASPH"> T  </i>
  <v type="int" name="KPOINT_BSE">    -1     0     0     0</v>
  <i type="int" name="NELM">   120</i>
  <i type="logical" name="LASPH"> T  </i>
 </incar>
 <kpoints>
  <generation param="Gamma">
   <v type="int" name="divisions">       3        3        1 </v>
   <v name="usershift">      0.00000000       0.00000000       0.00000000 </v>
   <v name="genvec1">      0.33333333       0.00000000       0.00000000 </v>
   <v name="genvec2">      0.00000000       0.33333333       0.00000000 </v>
   <v name="genvec3">      0.00000000       0.00000000       1.00000000 </v>
   <v name="shift">      0.00000000       0.00000000       0.00000000 </v>
  </generation>
  <varray name="kpointlist" >
   <v>       0.00000000       0.00000000       0.00000000 </v>
   <v>       0.33333333      -0.00000000       0.00000000 </v>
   <v>       0.00000000       0.33333333       0.00000000 </v>
   <v>       0.33333333       0.33333333       0.00000000 </v>
   <v>      -0.33333333       0.33333333       0.00000000 </v>
  </varray>
  <varray name="weights" >
   <v>       0.11111111 </v>
   <v>       0.22222222 </v>
   <v>       0.22222222 </v>
   <v>       0.22222222 </v>
   <v>       0.22222222 </v>
  </varray>
 </kpoints>
 <parameters>
  <separator name="general" >
   <i type="string" name="SYSTEM">Li defective graphene MACE training lab</i>
   <i type="logical" name="LCOMPAT"> F  </i>
  </separator>
  <separator name="electronic" >
   <i type="string" name="PREC">accura</i>
   <i name="ENMAX">    520.00000000</i>
   <i name="ENAUG">    644.87300000</i>
   <i name="EDIFF">      0.00000100</i>
   <i type="int" name="IALGO">    38</i>
   <i type="int" name="IWAVPR">    10</i>
   <i type="int" name="NBANDS">   132</i>
   <i name="NELECT">    203.00000000</i>
   <i type="int" name="TURBO">     0</i>
   <i type="int" name="IRESTART">     0</i>
   <i type="int" name="NREBOOT">     0</i>
   <i type="int" name="NMIN">     0</i>
   <i name="EREF">      0.00000000</i>
   <separator name="electronic smearing" >
    <i type="int" name="ISMEAR">     0</i>
    <i name="SIGMA">      0.05000000</i>
    <i name="KSPACING">      0.50000000</i>
    <i type="logical" name="KGAMMA"> T  </i>
   </separator>
   <separator name="electronic projectors" >
    <i type="logical" name="LREAL"> T  </i>
    <v name="ROPT">     -0.00025000     -0.00025000</v>
    <i type="int" name="LMAXPAW">  -100</i>
    <i type="int" name="LMAXMIX">     2</i>
    <i type="logical" name="NLSPLINE"> F  </i>
   </separator>
   <separator name="electronic startup" >
    <i type="int" name="ISTART">     0</i>
    <i type="int" name="ICHARG">     2</i>
    <i type="int" name="INIWAV">     1</i>
   </separator>
   <separator name="electronic spin" >
    <i type="int" name="ISPIN">     2</i>
    <i type="logical" name="LNONCOLLINEAR"> F  </i>
    <v name="MAGMOM">      0.10000000      0.10000000      0.10000000      0.10000000      0.10000000      0.10000000      0.10000000      0.10000000      0.10000000      0.10000000      0.10000000      0.10000000      0.10000000      0.10000000      0.10000000      0.10000000      0.10000000      0.10000000      0.10000000      0.10000000
      0.10000000      0.10000000      0.10000000      0.10000000      0.10000000      0.10000000      0.10000000      0.10000000      0.10000000      0.10000000      0.10000000      0.10000000      0.10000000      0.10000000      0.10000000      0.10000000      0.10000000      0.10000000      0.10000000      0.10000000
      0.10000000      0.10000000      0.10000000      0.10000000      0.10000000      0.10000000      0.10000000      0.10000000      0.10000000      0.10000000      1.00000000</v>
    <i name="NUPDOWN">     -1.00000000</i>
    <i type="logical" name="LSORBIT"> F  </i>
    <v name="SAXIS">      0.00000000      0.00000000      1.00000000</v>
    <i type="logical" name="LSPIRAL"> F  </i>
    <v name="QSPIRAL">      0.00000000      0.00000000      0.00000000</v>
    <i type="logical" name="LZEROZ"> F  </i>
   </separator>
   <separator name="electronic exchange-correlation" >
    <i type="logical" name="LASPH"> T  </i>
    <i type="logical" name="LMETAGGA"> F  </i>
   </separator>
   <separator name="electronic convergence" >
    <i type="int" name="NELM">   120</i>
    <i type="int" name="NELMDL">    -5</i>
    <i type="int" name="NELMIN">     2</i>
    <i name="ENINI">    520.00000000</i>
    <separator name="electronic convergence detail" >
     <i type="logical" name="LDIAG"> T  </i>
     <i type="logical" name="LSUBROT"> F  </i>
     <i name="WEIMIN">      0.00000000</i>
     <i name="EBREAK">      0.00000000</i>
     <i name="DEPER">      0.30000000</i>
     <i type="int" name="NRMM">     4</i>
     <i name="TIME">      0.40000000</i>
    </separator>
   </separator>
   <separator name="electronic mixer" >
    <i name="AMIX">      0.40000000</i>
    <i name="BMIX">      1.00000000</i>
    <i name="AMIN">      0.10000000</i>
    <i name="AMIX_MAG">      1.60000000</i>
    <i name="BMIX_MAG">      1.00000000</i>
    <separator name="electronic mixer details" >
     <i type="int" name="IMIX">     4</i>
     <i type="logical" name="MIXFIRST"> F  </i>
     <i type="int" name="MAXMIX">   -45</i>
     <i name="WC">    100.00000000</i>
     <i type="int" name="INIMIX">     1</i>
     <i type="int" name="MIXPRE">     1</i>
     <i type="int" name="MREMOVE">     5</i>
    </separator>
   </separator>
   <separator name="electronic dipolcorrection" >
    <i type="logical" name="LDIPOL"> F  </i>
    <i type="logical" name="LMONO"> F  </i>
    <i type="int" name="IDIPOL">     0</i>
    <i name="EPSILON">      1.00000000</i>
    <v name="DIPOL">   -100.00000000   -100.00000000   -100.00000000</v>
    <i name="EFIELD">      0.00000000</i>
   </separator>
  </separator>
  <separator name="grids" >
   <i type="int" name="NGX">    96</i>
   <i type="int" name="NGY">    96</i>
   <i type="int" name="NGZ">   224</i>
   <i type="int" name="NGXF">   192</i>
   <i type="int" name="NGYF">   192</i>
   <i type="int" name="NGZF">   448</i>
   <i type="logical" name="ADDGRID"> T  </i>
  </separator>
  <separator name="ionic" >
   <i type="int" name="NSW">     0</i>
   <i type="int" name="IBRION">    -1</i>
   <i type="int" name="ISIF">     2</i>
   <i name="PSTRESS">      0.00000000</i>
   <i name="EDIFFG">      0.00001000</i>
   <i type="int" name="NFREE">     0</i>
   <i name="POTIM">      0.50000000</i>
   <i name="SMASS">     -3.00000000</i>
   <i name="SCALEE">      1.00000000</i>
  </separator>
  <separator name="ionic md" >
   <i name="TEBEG">      0.00010000</i>
   <i name="TEEND">      0.00010000</i>
   <i type="int" name="NBLOCK">     1</i>
   <i type="int" name="KBLOCK">     1</i>
   <i type="int" name="NPACO">   256</i>
   <i name="APACO">     16.00000000</i>
  </separator>
  <separator name="symmetry" >
   <i type="int" name="ISYM">     0</i>
   <i name="SYMPREC">      0.00001000</i>
  </separator>
  <separator name="dos" >
   <i type="logical" name="LORBIT"> F  </i>
   <v name="RWIGS">     -1.00000000     -1.00000000</v>
   <i type="int" name="NEDOS">   301</i>
   <i name="EMIN">     10.00000000</i>
   <i name="EMAX">    -10.00000000</i>
   <i name="EFERMI">      0.00000000</i>
  </separator>
  <separator name="writing" >
   <i type="int" name="NWRITE">     2</i>
   <i type="logical" name="LWAVE"> F  </i>
   <i type="logical" name="LCHARG"> F  </i>
   <i type="logical" name="LPARD"> F  </i>
   <i type="logical" name="LVTOT"> F  </i>
   <i type="logical" name="LVHAR"> F  </i>
   <i type="logical" name="LELF"> F  </i>
   <i type="logical" name="LOPTICS"> F  </i>
   <v name="STM">      0.00000000      0.00000000      0.00000000      0.00000000      0.00000000      0.00000000      0.00000000</v>
  </separator>
  <separator name="performance" >
   <i type="int" name="NPAR">     4</i>
   <i type="int" name="NSIM">     4</i>
   <i type="int" name="NBLK">    -1</i>
   <i type="logical" name="LPLANE"> T  </i>
   <i type="logical" name="LSCALAPACK"> T  </i>
   <i type="logical" name="LSCAAWARE"> F  </i>
   <i type="logical" name="LSCALU"> F  </i>
   <i type="logical" name="LASYNC"> F  </i>
   <i type="logical" name="LORBITALREAL"> F  </i>
  </separator>
  <separator name="miscellaneous" >
   <i type="int" name="IDIOT">     3</i>
   <i type="logical" name="LMUSIC"> F  </i>
   <v name="POMASS">     12.01100000      7.01000000</v>
   <v name="DARWINR">      0.00000000      0.00000000</v>
   <v name="DARWINV">      1.00000000      1.00000000</v>
   <i type="logical" name="LCORR"> T  </i>
  </separator>
  <i type="logical" name="GGA_COMPAT"> T  </i>
  <i type="logical" name="LBERRY"> F  </i>
  <i type="int" name="ICORELEVEL">     0</i>
  <i type="logical" name="LDAU"> F  </i>
  <i type="int" name="I_CONSTRAINED_M">     0</i>
  <separator name="electronic exchange-correlation" >
   <i type="string" name="GGA">--</i>
   <i type="int" name="VOSKOWN">     0</i>
   <i type="logical" name="LHFCALC"> F  </i>
   <i type="string" name="PRECFOCK"></i>
   <i type="logical" name="LSYMGRAD"> F  </i>
   <i type="logical" name="LHFONE"> F  </i>
   <i type="logical" name="LRHFCALC"> F  </i>
   <i type="logical" name="LTHOMAS"> F  </i>
   <i type="logical" name="LMODELHF"> F  </i>
   <i name="ENCUT4O">     -1.00000000</i>
   <i type="int" name="EXXOEP">     0</i>
   <i type="int" name="FOURORBIT">     0</i>
   <i name="AEXX">      0.00000000</i>
   <i name="HFALPHA">      0.00000000</i>
   <i name="MCALPHA">      0.00000000</i>
   <i name="ALDAX">      1.00000000</i>
   <i name="AGGAX">      1.00000000</i>
   <i name="ALDAC">      1.00000000</i>
   <i name="AGGAC">      1.00000000</i>
   <i type="int" name="NKREDX">     1</i>
   <i type="int" name="NKREDY">     1</i>
   <i type="int" name="NKREDZ">     1</i>
   <i type="logical" name="SHIFTRED"> F  </i>
   <i type="logical" name="ODDONLY"> F  </i>
   <i type="logical" name="EVENONLY"> F  </i>
   <i type="int" name="LMAXFOCK">     0</i>
   <i type="int" name="NMAXFOCKAE">     0</i>
   <i type="logical" name="LFOCKAEDFT"> F  </i>
   <i name="HFSCREEN">      0.00000000</i>
   <i name="HFSCREENC">      0.00000000</i>
   <i type="int" name="NBANDSGWLOW">     0</i>
  </separator>
  <separator name="vdW DFT" >
   <i type="logical" name="LUSE_VDW"> F  </i>
   <i name="Zab_VDW">     -0.84910000</i>
   <i name="PARAM1">      0.12340000</i>
   <i name="PARAM2">      1.00000000</i>
   <i name="PARAM3">      0.00000000</i>
  </separator>
  <separator name="model GW" >
   <i type="int" name="MODEL_GW">     0</i>
   <i name="MODEL_EPS0">     46.24270000</i>
   <i name="MODEL_ALPHA">      1.00000000</i>
  </separator>
  <separator name="linear response parameters" >
   <i type="logical" name="LEPSILON"> F  </i>
   <i type="logical" name="LRPA"> F  </i>
   <i type="logical" name="LNABLA"> F  </i>
   <i type="logical" name="LVEL"> F  </i>
   <i type="int" name="KINTER">     0</i>
   <i name="CSHIFT">      0.10000000</i>
   <i name="OMEGAMAX">     -1.00000000</i>
   <i name="DEG_THRESHOLD">      0.00200000</i>
  </separator>
  <separator name="orbital magnetization" >
   <i type="logical" name="NUCIND"> F  </i>
   <v name="MAGPOS">      0.00000000      0.00000000      0.00000000</v>
   <i type="logical" name="LNICSALL"> T  </i>
   <i type="logical" name="ORBITALMAG"> F  </i>
   <i type="logical" name="LMAGBLOCH"> F  </i>
   <i type="logical" name="LCHIMAG"> F  </i>
   <i type="logical" name="LGAUGE"> T  </i>
   <i type="int" name="MAGATOM">     0</i>
   <v name="MAGDIPOL">      0.00000000      0.00000000      0.00000000</v>
   <v name="AVECCONST">      0.00000000      0.00000000      0.00000000</v>
  </separator>
  <separator name="response functions" >
   <i type="logical" name="LADDER"> F  </i>
   <i type="logical" name="LFXC"> F  </i>
   <i type="logical" name="LHARTREE"> T  </i>
   <i type="int" name="IBSE">     0</i>
   <v type="int" name="KPOINT">    -1     0     0     0</v>
   <i type="logical" name="LTCTE"> F  </i>
   <i type="logical" name="LTETE"> F  </i>
   <i type="logical" name="LTRIPLET"> F  </i>
   <i type="logical" name="LFXCEPS"> F  </i>
   <i type="logical" name="LFXHEG"> F  </i>
   <i type="int" name="NATURALO">     0</i>
   <i type="logical" name="L2ORDER"> F  </i>
   <i type="logical" name="LUSEW"> F  </i>
   <i name="ENCUTGW">     -2.00000000</i>
   <i name="ENCUTGWSOFT">     -2.00000000</i>
   <i name="ENCUTLF">     -1.00000000</i>
   <i type="int" name="LMAXMP2">    -1</i>
   <i name="SCISSOR">      0.00000000</i>
   <i type="int" name="NOMEGA">     0</i>
   <i type="int" name="NOMEGAR">     0</i>
   <i type="int" name="NBANDSGW">    -1</i>
   <i type="int" name="NBANDSO">    -1</i>
   <i type="int" name="NBANDSV">    -1</i>
   <i type="int" name="NELM">   120</i>
   <i type="int" name="NELMHF">     1</i>
   <i type="int" name="DIM">     3</i>
   <i type="int" name="ANTIRES">     0</i>
   <i name="OMEGAMAX">    -30.00000000</i>
   <i name="OMEGAMIN">    -30.00000000</i>
   <i name="OMEGATL">   -200.00000000</i>
   <i type="int" name="OMEGAGRID">     0</i>
   <i name="CSHIFT">     -0.10000000</i>
   <i type="logical" name="SELFENERGY"> F  </i>
   <i type="logical" name="LSPECTRAL"> F  </i>
   <i type="logical" name="LSPECTRALGW"> F  </i>
   <i type="logical" name="LSINGLES"> F  </i>
   <i type="logical" name="LFERMIGW"> F  </i>
   <i type="logical" name="ODDONLYGW"> F  </i>
   <i type="logical" name="EVENONLYGW"> F  </i>
   <i type="int" name="NKREDLFX">     1</i>
   <i type="int" name="NKREDLFY">     1</i>
   <i type="int" name="NKREDLFZ">     1</i>
   <i type="int" name="MAXMEM">  1800</i>
   <i type="int" name="TELESCOPE">     0</i>
   <i type="int" name="TAUPAR">     1</i>
   <i type="int" name="OMEGAPAR">    -1</i>
   <i name="LAMBDA">      1.00000000</i>
  </separator>
  <separator name="External order field" >
   <i name="OFIELD_KAPPA">      0.00000000</i>
   <v name="OFIELD_K">      0.00000000      0.00000000      0.00000000</v>
   <i name="OFIELD_Q6_NEAR">      0.00000000</i>
   <i name="OFIELD_Q6_FAR">      0.00000000</i>
   <i name="OFIELD_A">      0.00000000</i>
  </separator>
 </parameters>
 <atominfo>
  <atoms>      51 </atoms>
  <types>       2 </types>
  <array name="atoms" >
   <dimension dim="1">ion</dimension>
   <field type="string">element</field>
   <field type="int">atomtype</field>
   <set>
    <rc><c>C </c><c>   1</c></rc>
    <rc><c>C </c><c>   1</c></rc>
    <rc><c>C </c><c>   1</c></rc>
    <rc><c>C </c><c>   1</c></rc>
    <rc><c>C </c><c>   1</c></rc>
    <rc><c>C </c><c>   1</c></rc>
    <rc><c>C </c><c>   1</c></rc>
    <rc><c>C </c><c>   1</c></rc>
    <rc><c>C </c><c>   1</c></rc>
    <rc><c>C </c><c>   1</c></rc>
    <rc><c>C </c><c>   1</c></rc>
    <rc><c>C </c><c>   1</c></rc>
    <rc><c>C </c><c>   1</c></rc>
    <rc><c>C </c><c>   1</c></rc>
    <rc><c>C </c><c>   1</c></rc>
    <rc><c>C </c><c>   1</c></rc>
    <rc><c>C </c><c>   1</c></rc>
    <rc><c>C </c><c>   1</c></rc>
    <rc><c>C </c><c>   1</c></rc>
    <rc><c>C </c><c>   1</c></rc>
    <rc><c>C </c><c>   1</c></rc>
    <rc><c>C </c><c>   1</c></rc>
    <rc><c>C </c><c>   1</c></rc>
    <rc><c>C </c><c>   1</c></rc>
    <rc><c>C </c><c>   1</c></rc>
    <rc><c>C </c><c>   1</c></rc>
    <rc><c>C </c><c>   1</c></rc>
    <rc><c>C </c><c>   1</c></rc>
    <rc><c>C </c><c>   1</c></rc>
    <rc><c>C </c><c>   1</c></rc>
    <rc><c>C </c><c>   1</c></rc>
    <rc><c>C </c><c>   1</c></rc>
    <rc><c>C </c><c>   1</c></rc>
    <rc><c>C </c><c>   1</c></rc>
    <rc><c>C </c><c>   1</c></rc>
    <rc><c>C </c><c>   1</c></rc>
    <rc><c>C </c><c>   1</c></rc>
    <rc><c>C </c><c>   1</c></rc>
    <rc><c>C </c><c>   1</c></rc>
    <rc><c>C </c><c>   1</c></rc>
    <rc><c>C </c><c>   1</c></rc>
    <rc><c>C </c><c>   1</c></rc>
    <rc><c>C </c><c>   1</c></rc>
    <rc><c>C </c><c>   1</c></rc>
    <rc><c>C </c><c>   1</c></rc>
    <rc><c>C </c><c>   1</c></rc>
    <rc><c>C </c><c>   1</c></rc>
    <rc><c>C </c><c>   1</c></rc>
    <rc><c>C </c><c>   1</c></rc>
    <rc><c>C </c><c>   1</c></rc>
    <rc><c>Li</c><c>   2</c></rc>
   </set>
  </array>
  <array name="atomtypes" >
   <dimension dim="1">type</dimension>
   <field type="int">atomspertype</field>
   <field type="string">element</field>
   <field>mass</field>
   <field>valence</field>
   <field type="string">pseudopotential</field>
   <set>
    <rc><c>  50</c><c>C </c><c>     12.01100000</c><c>      4.00000000</c><c>  PAW_PBE C 08Apr2002                   </c></rc>
    <rc><c>   1</c><c>Li</c><c>      7.01000000</c><c>      3.00000000</c><c>  PAW_PBE Li_sv 10Sep2004               </c></rc>
   </set>
  </array>
 </atominfo>
 <structure name="initialpos" >
  <crystal>
   <varray name="basis" >
    <v>      12.30000000       0.00000000       0.00000000 </v>
    <v>      -6.15000000      10.65211247       0.00000000 </v>
    <v>       0.00000000       0.00000000      30.00000000 </v>
   </varray>
   <i name="volume">   3930.62950016 </i>
   <varray name="rec_basis" >
    <v>       0.08130081       0.04693905       0.00000000 </v>
    <v>       0.00000000       0.09387809       0.00000000 </v>
    <v>       0.00000000       0.00000000       0.03333333 </v>
   </varray>
  </crystal>
  <varray name="positions" >
   <v>       0.99824632       0.00451485       0.50456974 </v>
   <v>       0.13064214       0.06937547       0.51014723 </v>
   <v>       0.99450334       0.20543693       0.49533941 </v>
   <v>       0.12874344       0.26897822       0.49821997 </v>
   <v>       0.99549924       0.40924387       0.48997498 </v>
   <v>       0.13111623       0.47011518       0.49608251 </v>
   <v>       0.01694627       0.61707021       0.50086202 </v>
   <v>       0.14368459       0.67346735       0.50906859 </v>
   <v>       0.00680056       0.81035110       0.50906906 </v>
   <v>       0.13634663       0.87093284       0.51710703 </v>
   <v>       0.19769422       0.00223603       0.51731135 </v>
   <v>       0.51663516       0.24987308       0.50229483 </v>
   <v>       0.40218667       0.39650253       0.49661258 </v>
   <v>       0.32847798       0.26460571       0.50429262 </v>
   <v>       0.19857260       0.40161433       0.49668863 </v>
   <v>       0.33464895       0.46494607       0.49678961 </v>
   <v>       0.20488481       0.60214560       0.50352156 </v>
   <v>       0.33784857       0.66491353       0.50456968 </v>
   <v>       0.20426646       0.80301336       0.51710687 </v>
   <v>       0.33556953       0.86436090       0.51731135 </v>
   <v>       0.39697042       0.99568090       0.51793013 </v>
   <v>       0.52677657       0.05640753       0.51029899 </v>
   <v>       0.38974075       0.19344334       0.51029902 </v>
   <v>       0.32901416       0.06363699       0.51793012 </v>
   <v>       0.19546749       0.20182835       0.50490773 </v>
   <v>       0.53776641       0.45732263       0.49044788 </v>
   <v>       0.60231162       0.79541019       0.49821990 </v>
   <v>       0.53877040       0.66117011       0.49533946 </v>
   <v>       0.40270914       0.79730880       0.51014714 </v>
   <v>       0.53516185       0.86213429       0.50490773 </v>
   <v>       0.59793910       0.99514473       0.50429256 </v>
   <v>       0.72983580       0.06885333       0.49661244 </v>
   <v>       0.58320626       0.18330190       0.50229480 </v>
   <v>       0.70782687       0.25920486       0.48900840 </v>
   <v>       0.59253813       0.37449369       0.48900842 </v>
   <v>       0.71088039       0.37754721       0.47886008 </v>
   <v>       0.60677497       0.59312172       0.48985965 </v>
   <v>       0.93547874       0.87155144       0.50352185 </v>
   <v>       0.40452511       0.59760148       0.49815080 </v>
   <v>       0.73494768       0.86523935       0.49668863 </v>
   <v>       0.79827934       0.00131561       0.49678948 </v>
   <v>       0.93093470       0.07119166       0.49815081 </v>
   <v>       0.79065586       0.20443305       0.49044784 </v>
   <v>       0.92645497       0.27344147       0.48985966 </v>
   <v>       0.82194826       0.48861487       0.47841955 </v>
   <v>       0.94070656       0.49201793       0.48816656 </v>
   <v>       0.82535155       0.60737341       0.48816659 </v>
   <v>       0.95040365       0.68361294       0.50086218 </v>
   <v>       0.80344850       0.79778282       0.49608286 </v>
   <v>       0.74257744       0.66216589       0.48997508 </v>
   <v>       0.66900817       0.41253408       0.55691839 </v>
  </varray>
 </structure>
 <calculation>
  <scstep>
   <time name="dav">   45.24   45.25</time>
   <time name="total">   48.04   48.05</time>
   <energy>
    <i name="alphaZ">     53.42782116 </i>
    <i name="ewald">  56430.34094798 </i>
    <i name="hartreedc"> -61696.98950541 </i>
    <i name="XCdc">    670.84194523 </i>
    <i name="pawpsdc">   5505.55773403 </i>
    <i name="pawaedc">  -5549.36347127 </i>
    <i name="eentropy">     -0.02883713 </i>
    <i name="bandstr">  -1044.52586519 </i>
    <i name="atom">   7560.21751256 </i>
    <i name="e_fr_energy">   1929.47828195 </i>
    <i name="e_wo_entrp">   1929.50711908 </i>
    <i name="e_0_energy">   1929.49270051 </i>
   </energy>
  </scstep>
  <scstep>
   <time name="dav">   54.49   54.50</time>
   <time name="total">   54.49   54.51</time>
   <energy>
    <i name="e_fr_energy">     40.50622629 </i>
    <i name="e_wo_entrp">     40.51068980 </i>
    <i name="e_0_energy">     40.50845804 </i>
   </energy>
  </scstep>
  <scstep>
   <time name="dav">   48.03   48.03</time>
   <time name="total">   48.03   48.04</time>
   <energy>
    <i name="e_fr_energy">   -462.80755418 </i>
    <i name="e_wo_entrp">   -462.80262537 </i>
    <i name="e_0_energy">   -462.80508978 </i>
   </energy>
  </scstep>
  <scstep>
   <time name="dav">   46.93   46.93</time>
   <time name="total">   46.93   46.94</time>
   <energy>
    <i name="e_fr_energy">   -489.56583056 </i>
    <i name="e_wo_entrp">   -489.56119392 </i>
    <i name="e_0_energy">   -489.56351224 </i>
   </energy>
  </scstep>
  <scstep>
   <time name="dav">   51.62   51.62</time>
   <time name="total">   56.10   56.11</time>
   <energy>
    <i name="e_fr_energy">   -490.49172242 </i>
    <i name="e_wo_entrp">   -490.48724150 </i>
    <i name="e_0_energy">   -490.48948196 </i>
   </energy>
  </scstep>
  <scstep>
   <time name="dav">   42.04   42.04</time>
   <time name="total">   49.21   49.22</time>
   <energy>
    <i name="e_fr_energy">   -465.39078210 </i>
    <i name="e_wo_entrp">   -465.38590912 </i>
    <i name="e_0_energy">   -465.38834561 </i>
   </energy>
  </scstep>
  <scstep>
   <time name="dav">   42.77   42.77</time>
   <time name="total">   49.96   49.97</time>
   <energy>
    <i name="e_fr_energy">   -453.38000201 </i>
    <i name="e_wo_entrp">   -453.37414017 </i>
    <i name="e_0_energy">   -453.37707109 </i>
   </energy>
  </scstep>
  <scstep>
   <time name="dav">   43.47   43.48</time>
   <time name="total">   50.64   50.64</time>
   <energy>
    <i name="e_fr_energy">   -452.76905068 </i>
    <i name="e_wo_entrp">   -452.76345455 </i>
    <i name="e_0_energy">   -452.76625262 </i>
   </energy>
  </scstep>
  <scstep>
   <time name="dav">   47.11   47.12</time>
   <time name="total">   54.26   54.27</time>
   <energy>
    <i name="e_fr_energy">   -453.81614684 </i>
    <i name="e_wo_entrp">   -453.81066824 </i>
    <i name="e_0_energy">   -453.81340754 </i>
   </energy>
  </scstep>
  <scstep>
   <time name="dav">   40.41   40.41</time>
   <time name="total">   47.69   47.70</time>
   <energy>
    <i name="e_fr_energy">   -454.16327872 </i>
    <i name="e_wo_entrp">   -454.15784525 </i>
    <i name="e_0_energy">   -454.16056199 </i>
   </energy>
  </scstep>
  <scstep>
   <time name="dav">   47.70   47.71</time>
   <time name="total">   55.02   55.03</time>
   <energy>
    <i name="e_fr_energy">   -454.47057551 </i>
    <i name="e_wo_entrp">   -454.46522520 </i>
    <i name="e_0_energy">   -454.46790035 </i>
   </energy>
  </scstep>
  <scstep>
   <time name="dav">   41.21   41.21</time>
   <time name="total">   48.51   48.52</time>
   <energy>
    <i name="e_fr_energy">   -455.18415524 </i>
    <i name="e_wo_entrp">   -455.17891880 </i>
    <i name="e_0_energy">   -455.18153702 </i>
   </energy>
  </scstep>
  <scstep>
   <time name="dav">   40.41   40.42</time>
   <time name="total">   47.64   47.65</time>
   <energy>
    <i name="e_fr_energy">   -455.19491587 </i>
    <i name="e_wo_entrp">   -455.18955843 </i>
    <i name="e_0_energy">   -455.19223715 </i>
   </energy>
  </scstep>
  <scstep>
   <time name="dav">   41.84   41.84</time>
   <time name="total">   49.07   49.08</time>
   <energy>
    <i name="e_fr_energy">   -455.75408197 </i>
    <i name="e_wo_entrp">   -455.74850342 </i>
    <i name="e_0_energy">   -455.75129270 </i>
   </energy>
  </scstep>
  <scstep>
   <time name="dav">   41.70   41.71</time>
   <time name="total">   48.87   48.87</time>
   <energy>
    <i name="e_fr_energy">   -456.49845650 </i>
    <i name="e_wo_entrp">   -456.49256083 </i>
    <i name="e_0_energy">   -456.49550867 </i>
   </energy>
  </scstep>
  <scstep>
   <time name="dav">   42.29   42.29</time>
   <time name="total">   49.48   49.49</time>
   <energy>
    <i name="e_fr_energy">   -456.89983997 </i>
    <i name="e_wo_entrp">   -456.89372182 </i>
    <i name="e_0_energy">   -456.89678089 </i>
   </energy>
  </scstep>
  <scstep>
   <time name="dav">   41.25   41.25</time>
   <time name="total">   48.41   48.42</time>
   <energy>
    <i name="e_fr_energy">   -457.24113094 </i>
    <i name="e_wo_entrp">   -457.23480819 </i>
    <i name="e_0_energy">   -457.23796956 </i>
   </energy>
  </scstep>
  <scstep>
   <time name="dav">   41.75   41.76</time>
   <time name="total">   48.91   48.92</time>
   <energy>
    <i name="e_fr_energy">   -457.35838668 </i>
    <i name="e_wo_entrp">   -457.35191330 </i>
    <i name="e_0_energy">   -457.35514999 </i>
   </energy>
  </scstep>
  <scstep>
   <time name="dav">   42.66   42.67</time>
   <time name="total">   49.90   49.90</time>
   <energy>
    <i name="e_fr_energy">   -457.39827561 </i>
    <i name="e_wo_entrp">   -457.39168727 </i>
    <i name="e_0_energy">   -457.39498144 </i>
   </energy>
  </scstep>
  <scstep>
   <time name="dav">   42.32   42.33</time>
   <time name="total">   49.62   49.63</time>
   <energy>
    <i name="e_fr_energy">   -457.41306403 </i>
    <i name="e_wo_entrp">   -457.40635686 </i>
    <i name="e_0_energy">   -457.40971045 </i>
   </energy>
  </scstep>
  <scstep>
   <time name="dav">   41.78   41.78</time>
   <time name="total">   49.07   49.08</time>
   <energy>
    <i name="e_fr_energy">   -457.42855492 </i>
    <i name="e_wo_entrp">   -457.42176654 </i>
    <i name="e_0_energy">   -457.42516073 </i>
   </energy>
  </scstep>
  <scstep>
   <time name="dav">   41.31   41.32</time>
   <time name="total">   48.68   48.68</time>
   <energy>
    <i name="e_fr_energy">   -457.45770238 </i>
    <i name="e_wo_entrp">   -457.45085359 </i>
    <i name="e_0_energy">   -457.45427799 </i>
   </energy>
  </scstep>
  <scstep>
   <time name="dav">   41.56   41.57</time>
   <time name="total">   48.95   48.96</time>
   <energy>
    <i name="e_fr_energy">   -457.47178975 </i>
    <i name="e_wo_entrp">   -457.46491400 </i>
    <i name="e_0_energy">   -457.46835187 </i>
   </energy>
  </scstep>
  <scstep>
   <time name="dav">   36.20   36.21</time>
   <time name="total">   43.57   43.57</time>
   <energy>
    <i name="e_fr_energy">   -457.47595154 </i>
    <i name="e_wo_entrp">   -457.46907230 </i>
    <i name="e_0_energy">   -457.47251192 </i>
   </energy>
  </scstep>
  <scstep>
   <time name="dav">   35.81   35.81</time>
   <time name="total">   43.19   43.21</time>
   <energy>
    <i name="e_fr_energy">   -457.47805090 </i>
    <i name="e_wo_entrp">   -457.47117671 </i>
    <i name="e_0_energy">   -457.47461380 </i>
   </energy>
  </scstep>
  <scstep>
   <time name="dav">   36.61   36.61</time>
   <time name="total">   43.97   43.98</time>
   <energy>
    <i name="e_fr_energy">   -457.47894186 </i>
    <i name="e_wo_entrp">   -457.47207439 </i>
    <i name="e_0_energy">   -457.47550812 </i>
   </energy>
  </scstep>
  <scstep>
   <time name="dav">   35.62   35.62</time>
   <time name="total">   43.00   43.01</time>
   <energy>
    <i name="e_fr_energy">   -457.47934121 </i>
    <i name="e_wo_entrp">   -457.47248084 </i>
    <i name="e_0_energy">   -457.47591102 </i>
   </energy>
  </scstep>
  <scstep>
   <time name="dav">   34.35   34.36</time>
   <time name="total">   41.73   41.74</time>
   <energy>
    <i name="e_fr_energy">   -457.47957124 </i>
    <i name="e_wo_entrp">   -457.47271584 </i>
    <i name="e_0_energy">   -457.47614354 </i>
   </energy>
  </scstep>
  <scstep>
   <time name="dav">   31.94   31.94</time>
   <time name="total">   39.34   39.34</time>
   <energy>
    <i name="e_fr_energy">   -457.47968737 </i>
    <i name="e_wo_entrp">   -457.47283407 </i>
    <i name="e_0_energy">   -457.47626072 </i>
   </energy>
  </scstep>
  <scstep>
   <time name="dav">   31.36   31.36</time>
   <time name="total">   38.76   38.77</time>
   <energy>
    <i name="e_fr_energy">   -457.47975958 </i>
    <i name="e_wo_entrp">   -457.47290803 </i>
    <i name="e_0_energy">   -457.47633381 </i>
   </energy>
  </scstep>
  <scstep>
   <time name="dav">   31.47   31.48</time>
   <time name="total">   38.89   38.90</time>
   <energy>
    <i name="e_fr_energy">   -457.47979985 </i>
    <i name="e_wo_entrp">   -457.47294964 </i>
    <i name="e_0_energy">   -457.47637474 </i>
   </energy>
  </scstep>
  <scstep>
   <time name="dav">   31.62   31.62</time>
   <time name="total">   39.04   39.05</time>
   <energy>
    <i name="e_fr_energy">   -457.47981978 </i>
    <i name="e_wo_entrp">   -457.47297032 </i>
    <i name="e_0_energy">   -457.47639505 </i>
   </energy>
  </scstep>
  <scstep>
   <time name="dav">   31.07   31.07</time>
   <time name="total">   38.49   38.50</time>
   <energy>
    <i name="e_fr_energy">   -457.47982706 </i>
    <i name="e_wo_entrp">   -457.47297777 </i>
    <i name="e_0_energy">   -457.47640241 </i>
   </energy>
  </scstep>
  <scstep>
   <time name="dav">   30.52   30.52</time>
   <time name="total">   37.95   37.95</time>
   <energy>
    <i name="e_fr_energy">   -457.47982963 </i>
    <i name="e_wo_entrp">   -457.47298043 </i>
    <i name="e_0_energy">   -457.47640503 </i>
   </energy>
  </scstep>
  <scstep>
   <time name="dav">   30.14   30.14</time>
   <time name="total">   37.56   37.57</time>
   <energy>
    <i name="e_fr_energy">   -457.47983079 </i>
    <i name="e_wo_entrp">   -457.47298172 </i>
    <i name="e_0_energy">   -457.47640625 </i>
   </energy>
  </scstep>
  <scstep>
   <time name="dav">   29.57   29.57</time>
   <time name="total">   32.47   32.48</time>
   <energy>
    <i name="alphaZ">     53.42782116 </i>
    <i name="ewald">  56430.34094798 </i>
    <i name="hartreedc"> -62666.56171331 </i>
    <i name="XCdc">    700.39698614 </i>
    <i name="pawpsdc">  20712.58377107 </i>
    <i name="pawaedc"> -20762.74076308 </i>
    <i name="eentropy">     -0.00684897 </i>
    <i name="bandstr">  -2485.13754483 </i>
    <i name="atom">   7560.21751256 </i>
    <i name="e_fr_energy">   -457.47983128 </i>
    <i name="e_wo_entrp">   -457.47298231 </i>
    <i name="e_0_energy">   -457.47640680 </i>
   </energy>
  </scstep>
  <structure>
   <crystal>
    <varray name="basis" >
     <v>      12.30000000       0.00000000       0.00000000 </v>
     <v>      -6.15000000      10.65211247       0.00000000 </v>
     <v>       0.00000000       0.00000000      30.00000000 </v>
    </varray>
    <i name="volume">   3930.62950016 </i>
    <varray name="rec_basis" >
     <v>       0.08130081       0.04693905       0.00000000 </v>
     <v>       0.00000000       0.09387809       0.00000000 </v>
     <v>       0.00000000       0.00000000       0.03333333 </v>
    </varray>
   </crystal>
   <varray name="positions" >
    <v>       0.99824632       0.00451485       0.50456974 </v>
    <v>       0.13064214       0.06937547       0.51014723 </v>
    <v>       0.99450334       0.20543693       0.49533941 </v>
    <v>       0.12874344       0.26897822       0.49821997 </v>
    <v>       0.99549924       0.40924387       0.48997498 </v>
    <v>       0.13111623       0.47011518       0.49608251 </v>
    <v>       0.01694627       0.61707021       0.50086202 </v>
    <v>       0.14368459       0.67346735       0.50906859 </v>
    <v>       0.00680056       0.81035110       0.50906906 </v>
    <v>       0.13634663       0.87093284       0.51710703 </v>
    <v>       0.19769422       0.00223603       0.51731135 </v>
    <v>       0.51663516       0.24987308       0.50229483 </v>
    <v>       0.40218667       0.39650253       0.49661258 </v>
    <v>       0.32847798       0.26460571       0.50429262 </v>
    <v>       0.19857260       0.40161433       0.49668863 </v>
    <v>       0.33464895       0.46494607       0.49678961 </v>
    <v>       0.20488481       0.60214560       0.50352156 </v>
    <v>       0.33784857       0.66491353       0.50456968 </v>
    <v>       0.20426646       0.80301336       0.51710687 </v>
    <v>       0.33556953       0.86436090       0.51731135 </v>
    <v>       0.39697042       0.99568090       0.51793013 </v>
    <v>       0.52677657       0.05640753       0.51029899 </v>
    <v>       0.38974075       0.19344334       0.51029902 </v>
    <v>       0.32901416       0.06363699       0.51793012 </v>
    <v>       0.19546749       0.20182835       0.50490773 </v>
    <v>       0.53776641       0.45732263       0.49044788 </v>
    <v>       0.60231162       0.79541019       0.49821990 </v>
    <v>       0.53877040       0.66117011       0.49533946 </v>
    <v>       0.40270914       0.79730880       0.51014714 </v>
    <v>       0.53516185       0.86213429       0.50490773 </v>
    <v>       0.59793910       0.99514473       0.50429256 </v>
    <v>       0.72983580       0.06885333       0.49661244 </v>
    <v>       0.58320626       0.18330190       0.50229480 </v>
    <v>       0.70782687       0.25920486       0.48900840 </v>
    <v>       0.59253813       0.37449369       0.48900842 </v>
    <v>       0.71088039       0.37754721       0.47886008 </v>
    <v>       0.60677497       0.59312172       0.48985965 </v>
    <v>       0.93547874       0.87155144       0.50352185 </v>
    <v>       0.40452511       0.59760148       0.49815080 </v>
    <v>       0.73494768       0.86523935       0.49668863 </v>
    <v>       0.79827934       0.00131561       0.49678948 </v>
    <v>       0.93093470       0.07119166       0.49815081 </v>
    <v>       0.79065586       0.20443305       0.49044784 </v>
    <v>       0.92645497       0.27344147       0.48985966 </v>
    <v>       0.82194826       0.48861487       0.47841955 </v>
    <v>       0.94070656       0.49201793       0.48816656 </v>
    <v>       0.82535155       0.60737341       0.48816659 </v>
    <v>       0.95040365       0.68361294       0.50086218 </v>
    <v>       0.80344850       0.79778282       0.49608286 </v>
    <v>       0.74257744       0.66216589       0.48997508 </v>
    <v>       0.66900817       0.41253408       0.55691839 </v>
   </varray>
  </structure>
  <varray name="forces" >
   <v>      -0.03606692       0.00982269       0.00075648 </v>
   <v>       0.00651075      -0.00979414       0.00891435 </v>
   <v>      -0.00435680      -0.00389088      -0.01140477 </v>
   <v>       0.01355383      -0.01191963       0.00554983 </v>
   <v>      -0.19689306       0.11758269       0.00165028 </v>
   <v>       0.04753993       0.02688977       0.01614402 </v>
   <v>      -0.02392249      -0.17031496      -0.10798926 </v>
   <v>      -0.02503395      -0.03174210       0.00995823 </v>
   <v>      -0.02396077      -0.04098695       0.00188526 </v>
   <v>       0.03193157       0.01191772       0.00992654 </v>
   <v>      -0.03837385      -0.01560500       0.00166852 </v>
   <v>       0.02555586      -0.09306419       0.23657399 </v>
   <v>      -0.07974835      -0.00235635       0.02357981 </v>
   <v>      -0.02961056      -0.02904362      -0.01880150 </v>
   <v>      -0.02039755       0.02349965      -0.00611790 </v>
   <v>       0.00026599      -0.01803377      -0.00877315 </v>
   <v>      -0.00259325      -0.01938767       0.01459124 </v>
   <v>       0.01905531      -0.02166324       0.00330744 </v>
   <v>       0.00023861       0.01760092       0.00458044 </v>
   <v>      -0.00141854      -0.02970270       0.00865962 </v>
   <v>       0.02615085       0.00659131      -0.01674218 </v>
   <v>       0.01050405      -0.11608682       0.03283748 </v>
   <v>      -0.13240337      -0.09875712       0.04330996 </v>
   <v>       0.01367103       0.00505233       0.00070183 </v>
   <v>      -0.01526622      -0.00038702       0.00810130 </v>
   <v>      -0.10534843       0.09517461       0.05383118 </v>
   <v>      -0.03303416       0.01297716       0.00765529 </v>
   <v>      -0.02548750       0.00442672      -0.00897897 </v>
   <v>       0.01066820       0.01064440       0.00779692 </v>
   <v>      -0.00939479      -0.03973696       0.00734502 </v>
   <v>      -0.02457431       0.03711105       0.00617741 </v>
   <v>       0.00361896       0.01008775      -0.00077138 </v>
   <v>       0.16405641       0.08755106       0.02026268 </v>
   <v>      -0.06138134      -0.02117822      -0.17240777 </v>
   <v>       0.05736339       0.12229905      -0.22056909 </v>
   <v>       0.33079523       0.21363171       0.49975483 </v>
   <v>      -0.05673840       0.02919725       0.01423097 </v>
   <v>       0.00708769       0.00169045       0.01021791 </v>
   <v>      -0.03373219       0.03601213       0.01081485 </v>
   <v>       0.03602733       0.01696129      -0.00656347 </v>
   <v>      -0.01917403      -0.00793149      -0.00963413 </v>
   <v>       0.03560022      -0.01419480       0.01330048 </v>
   <v>      -0.08109651       0.05027861       0.02717958 </v>
   <v>      -0.02667017       0.01263608      -0.00430542 </v>
   <v>       0.01652115      -0.22322590       0.60507755 </v>
   <v>       0.07433123       0.11314901      -0.22998514 </v>
   <v>      -0.01410640       0.08868183      -0.07851923 </v>
   <v>      -0.06248540      -0.06227993      -0.02347019 </v>
   <v>      -0.02012923       0.04800862       0.01759328 </v>
   <v>       0.20389140      -0.00724104      -0.01359629 </v>
   <v>       0.06845957      -0.12095133      -0.79530473 </v>
  </varray>
  <varray name="stress" >
   <v>      -7.62028867      15.15674962      -0.02887755 </v>
   <v>      15.15674961       9.78593175      -0.20868147 </v>
   <v>      -0.02887752      -0.20868133      -0.86266923 </v>
  </varray>
  <energy>
   <i name="e_fr_energy">   -457.47983128 </i>
   <i name="e_wo_entrp">   -457.47640680 </i>
   <i name="e_0_energy">     -0.00684897 </i>
  </energy>
  <time name="totalsc"> 1744.55 1744.88</time>
  <eigenvalues>
   <array>
    <dimension dim="1">band</dimension>
    <dimension dim="2">kpoint</dimension>
    <dimension dim="3">spin</dimension>
    <field>eigene</field>
    <field>occ</field>
    <set>
     <set comment="spin 1">
      <set comment="kpoint 1">
       <r>  -52.3286    1.0000 </r>
       <r>  -22.3837    1.0000 </r>
       <r>  -21.7712    1.0000 </r>
       <r>  -21.5239    1.0000 </r>
       <r>  -21.3537    1.0000 </r>
       <r>  -21.3291    1.0000 </r>
       <r>  -21.2561    1.0000 </r>
       <r>  -21.0355    1.0000 </r>
       <r>  -19.9609    1.0000 </r>
       <r>  -19.5837    1.0000 </r>
       <r>  -19.5557    1.0000 </r>
       <r>  -19.4538    1.0000 </r>
       <r>  -19.3638    1.0000 </r>
       <r>  -19.2993    1.0000 </r>
       <r>  -18.8051    1.0000 </r>
       <r>  -18.6680    1.0000 </r>
       <r>  -18.6415    1.0000 </r>
       <r>  -18.5422    1.0000 </r>
       <r>  -18.5048    1.0000 </r>
       <r>  -18.1426    1.0000 </r>
       <r>  -16.5934    1.0000 </r>
       <r>  -16.5783    1.0000 </r>
       <r>  -16.4926    1.0000 </r>
       <r>  -16.3451    1.0000 </r>
       <r>  -16.2809    1.0000 </r>
       <r>  -16.2168    1.0000 </r>
       <r>  -16.0942    1.0000 </r>
       <r>  -15.5707    1.0000 </r>
       <r>  -15.4248    1.0000 </r>
       <r>  -15.3566    1.0000 </r>
       <r>  -15.1816    1.0000 </r>
       <r>  -15.0063    1.0000 </r>
       <r>  -14.3264    1.0000 </r>
       <r>  -14.2853    1.0000 </r>
       <r>  -14.0877    1.0000 </r>
       <r>  -14.0230    1.0000 </r>
       <r>  -13.9431    1.0000 </r>
       <r>  -13.3748    1.0000 </r>
       <r>  -12.1625    1.0000 </r>
       <r>  -11.9937    1.0000 </r>
       <r>  -11.8193    1.0000 </r>
       <r>  -11.8042    1.0000 </r>
       <r>  -11.7194    1.0000 </r>
       <r>  -11.6635    1.0000 </r>
       <r>  -11.6442    1.0000 </r>
       <r>  -11.6160    1.0000 </r>
       <r>  -11.4844    1.0000 </r>
       <r>  -11.4542    1.0000 </r>
       <r>  -11.1455    1.0000 </r>
       <r>  -11.0668    1.0000 </r>
       <r>  -10.6699    1.0000 </r>
       <r>  -10.5158    1.0000 </r>
       <r>  -10.4234    1.0000 </r>
       <r>  -10.2346    1.0000 </r>
       <r>  -10.1808    1.0000 </r>
       <r>  -10.1341    1.0000 </r>
       <r>   -9.9053    1.0000 </r>
       <r>   -9.6917    1.0000 </r>
       <r>   -9.4778    1.0000 </r>
       <r>   -9.3246    1.0000 </r>
       <r>   -9.3042    1.0000 </r>
       <r>   -9.2298    1.0000 </r>
       <r>   -9.1327    1.0000 </r>
       <r>   -9.0877    1.0000 </r>
       <r>   -9.0770    1.0000 </r>
       <r>   -9.0306    1.0000 </r>
       <r>   -9.0156    1.0000 </r>
       <r>   -8.9489    1.0000 </r>
       <r>   -8.8988    1.0000 </r>
       <r>   -8.8498    1.0000 </r>
       <r>   -8.7464    1.0000 </r>
       <r>   -8.6444    1.0000 </r>
       <r>   -8.6330    1.0000 </r>
       <r>   -8.6130    1.0000 </r>
       <r>   -8.0058    1.0000 </r>
       <r>   -7.4832    1.0000 </r>
       <r>   -7.4424    1.0000 </r>
       <r>   -7.3842    1.0000 </r>
       <r>   -7.3350    1.0000 </r>
       <r>   -7.3147    1.0000 </r>
       <r>   -7.2807    1.0000 </r>
       <r>   -7.2564    1.0000 </r>
       <r>   -7.1969    1.0000 </r>
       <r>   -7.0820    1.0000 </r>
       <r>   -7.0082    1.0000 </r>
       <r>   -6.9949    1.0000 </r>
       <r>   -6.9689    1.0000 </r>
       <r>   -6.3780    1.0000 </r>
       <r>   -6.3670    1.0000 </r>
       <r>   -6.2921    1.0000 </r>
       <r>   -6.2134    1.0000 </r>
       <r>   -6.2037    1.0000 </r>
       <r>   -6.1216    1.0000 </r>
       <r>   -5.9642    1.0000 </r>
       <r>   -5.6954    1.0000 </r>
       <r>   -4.4177    1.0000 </r>
       <r>   -4.3061    1.0000 </r>
       <r>   -4.2748    1.0000 </r>
       <r>   -4.2602    1.0000 </r>
       <r>   -4.1592    1.0000 </r>
       <r>   -3.8882    1.0000 </r>
       <r>   -2.7453    1.0000 </r>
       <r>   -1.7107    0.0000 </r>
       <r>   -1.6799    0.0000 </r>
       <r>   -1.5465    0.0000 </r>
       <r>   -1.3956    0.0000 </r>
       <r>   -1.3026    0.0000 </r>
       <r>   -0.9944    0.0000 </r>
       <r>   -0.5903    0.0000 </r>
       <r>    0.0841    0.0000 </r>
       <r>    0.2067    0.0000 </r>
       <r>    0.2882    0.0000 </r>
       <r>    0.3451    0.0000 </r>
       <r>    0.4520    0.0000 </r>
       <r>    0.4987    0.0000 </r>
       <r>    0.5494    0.0000 </r>
       <r>    0.7853    0.0000 </r>
       <r>    0.9558    0.0000 </r>
       <r>    1.0261    0.0000 </r>
       <r>    1.3569    0.0000 </r>
       <r>    1.4221    0.0000 </r>
       <r>    1.4289    0.0000 </r>
       <r>    1.5107    0.0000 </r>
       <r>    1.5305    0.0000 </r>
       <r>    1.6297    0.0000 </r>
       <r>    1.6996    0.0000 </r>
       <r>    1.7252    0.0000 </r>
       <r>    1.8153    0.0000 </r>
       <r>    1.9356    0.0000 </r>
       <r>    2.0688    0.0000 </r>
       <r>    2.0694    0.0000 </r>
       <r>    2.1248    0.0000 </r>
      </set>
      <set comment="kpoint 2">
       <r>  -52.3286    1.0000 </r>
       <r>  -22.3006    1.0000 </r>
       <r>  -22.0058    1.0000 </r>
       <r>  -21.6241    1.0000 </r>
       <r>  -21.4918    1.0000 </r>
       <r>  -21.1206    1.0000 </r>
       <r>  -20.9000    1.0000 </r>
       <r>  -20.5906    1.0000 </r>
       <r>  -20.4423    1.0000 </r>
       <r>  -20.2068    1.0000 </r>
       <r>  -19.7323    1.0000 </r>
       <r>  -19.4694    1.0000 </r>
       <r>  -19.3438    1.0000 </r>
       <r>  -19.1409    1.0000 </r>
       <r>  -19.0032    1.0000 </r>
       <r>  -18.5565    1.0000 </r>
       <r>  -18.4307    1.0000 </r>
       <r>  -17.9768    1.0000 </r>
       <r>  -17.8432    1.0000 </r>
       <r>  -17.4831    1.0000 </r>
       <r>  -17.3891    1.0000 </r>
       <r>  -17.3198    1.0000 </r>
       <r>  -17.1005    1.0000 </r>
       <r>  -16.9651    1.0000 </r>
       <r>  -16.3394    1.0000 </r>
       <r>  -16.2087    1.0000 </r>
       <r>  -15.7881    1.0000 </r>
       <r>  -15.2835    1.0000 </r>
       <r>  -15.2484    1.0000 </r>
       <r>  -15.0067    1.0000 </r>
       <r>  -14.8624    1.0000 </r>
       <r>  -14.7291    1.0000 </r>
       <r>  -14.6244    1.0000 </r>
       <r>  -14.3968    1.0000 </r>
       <r>  -14.1089    1.0000 </r>
       <r>  -13.3102    1.0000 </r>
       <r>  -13.2263    1.0000 </r>
       <r>  -13.1436    1.0000 </r>
       <r>  -13.0133    1.0000 </r>
       <r>  -12.7852    1.0000 </r>
       <r>  -12.5241    1.0000 </r>
       <r>  -12.3010    1.0000 </r>
       <r>  -12.1356    1.0000 </r>
       <r>  -12.0482    1.0000 </r>
       <r>  -11.5355    1.0000 </r>
       <r>  -11.4299    1.0000 </r>
       <r>  -11.2219    1.0000 </r>
       <r>  -10.9125    1.0000 </r>
       <r>  -10.7024    1.0000 </r>
       <r>  -10.6142    1.0000 </r>
       <r>  -10.5811    1.0000 </r>
       <r>  -10.4696    1.0000 </r>
       <r>  -10.3789    1.0000 </r>
       <r>  -10.2624    1.0000 </r>
       <r>  -10.0117    1.0000 </r>
       <r>   -9.9282    1.0000 </r>
       <r>   -9.7734    1.0000 </r>
       <r>   -9.7164    1.0000 </r>
       <r>   -9.6817    1.0000 </r>
       <r>   -9.6078    1.0000 </r>
       <r>   -9.4629    1.0000 </r>
       <r>   -9.3461    1.0000 </r>
       <r>   -9.2704    1.0000 </r>
       <r>   -9.2157    1.0000 </r>
       <r>   -9.1321    1.0000 </r>
       <r>   -9.0665    1.0000 </r>
       <r>   -8.9805    1.0000 </r>
       <r>   -8.9085    1.0000 </r>
       <r>   -8.7827    1.0000 </r>
       <r>   -8.7231    1.0000 </r>
       <r>   -8.4632    1.0000 </r>
       <r>   -8.4062    1.0000 </r>
       <r>   -8.2718    1.0000 </r>
       <r>   -8.2092    1.0000 </r>
       <r>   -8.1008    1.0000 </r>
       <r>   -8.0193    1.0000 </r>
       <r>   -8.0002    1.0000 </r>
       <r>   -7.9253    1.0000 </r>
       <r>   -7.5349    1.0000 </r>
       <r>   -7.4289    1.0000 </r>
       <r>   -7.3232    1.0000 </r>
       <r>   -7.2034    1.0000 </r>
       <r>   -7.1076    1.0000 </r>
       <r>   -7.0319    1.0000 </r>
       <r>   -6.8416    1.0000 </r>
       <r>   -6.7880    1.0000 </r>
       <r>   -6.7769    1.0000 </r>
       <r>   -6.6409    1.0000 </r>
       <r>   -6.3444    1.0000 </r>
       <r>   -6.1476    1.0000 </r>
       <r>   -6.0800    1.0000 </r>
       <r>   -6.0060    1.0000 </r>
       <r>   -5.6873    1.0000 </r>
       <r>   -5.5482    1.0000 </r>
       <r>   -5.2353    1.0000 </r>
       <r>   -5.0099    1.0000 </r>
       <r>   -4.9625    1.0000 </r>
       <r>   -4.8052    1.0000 </r>
       <r>   -4.7177    1.0000 </r>
       <r>   -3.9352    1.0000 </r>
       <r>   -3.6170    1.0000 </r>
       <r>   -2.5735    0.6370 </r>
       <r>   -1.8367    0.0000 </r>
       <r>   -1.5885    0.0000 </r>
       <r>   -1.3315    0.0000 </r>
       <r>   -1.0707    0.0000 </r>
       <r>   -0.9800    0.0000 </r>
       <r>   -0.8308    0.0000 </r>
       <r>   -0.8082    0.0000 </r>
       <r>   -0.5023    0.0000 </r>
       <r>   -0.0816    0.0000 </r>
       <r>    0.1872    0.0000 </r>
       <r>    0.3604    0.0000 </r>
       <r>    0.4360    0.0000 </r>
       <r>    0.5407    0.0000 </r>
       <r>    0.7674    0.0000 </r>
       <r>    0.8813    0.0000 </r>
       <r>    0.9593    0.0000 </r>
       <r>    1.1084    0.0000 </r>
       <r>    1.2003    0.0000 </r>
       <r>    1.3040    0.0000 </r>
       <r>    1.3612    0.0000 </r>
       <r>    1.4649    0.0000 </r>
       <r>    1.5055    0.0000 </r>
       <r>    1.5778    0.0000 </r>
       <r>    1.6070    0.0000 </r>
       <r>    1.6649    0.0000 </r>
       <r>    1.7010    0.0000 </r>
       <r>    1.7970    0.0000 </r>
       <r>    1.8281    0.0000 </r>
       <r>    1.8341    0.0000 </r>
       <r>    2.0054    0.0000 </r>
      </set>
      <set comment="kpoint 3">
       <r>  -52.3286    1.0000 </r>
       <r>  -22.2989    1.0000 </r>
       <r>  -22.0102    1.0000 </r>
       <r>  -21.6259    1.0000 </r>
       <r>  -21.4866    1.0000 </r>
       <r>  -21.1100    1.0000 </r>
       <r>  -20.9135    1.0000 </r>
       <r>  -20.5842    1.0000 </r>
       <r>  -20.4376    1.0000 </r>
       <r>  -20.2246    1.0000 </r>
       <r>  -19.7326    1.0000 </r>
       <r>  -19.4672    1.0000 </r>
       <r>  -19.3288    1.0000 </r>
       <r>  -19.1455    1.0000 </r>
       <r>  -19.0021    1.0000 </r>
       <r>  -18.5410    1.0000 </r>
       <r>  -18.4481    1.0000 </r>
       <r>  -17.9793    1.0000 </r>
       <r>  -17.8430    1.0000 </r>
       <r>  -17.4757    1.0000 </r>
       <r>  -17.3908    1.0000 </r>
       <r>  -17.3310    1.0000 </r>
       <r>  -17.1038    1.0000 </r>
       <r>  -16.9635    1.0000 </r>
       <r>  -16.3371    1.0000 </r>
       <r>  -16.2050    1.0000 </r>
       <r>  -15.7848    1.0000 </r>
       <r>  -15.2881    1.0000 </r>
       <r>  -15.2445    1.0000 </r>
       <r>  -14.9976    1.0000 </r>
       <r>  -14.8579    1.0000 </r>
       <r>  -14.7270    1.0000 </r>
       <r>  -14.6356    1.0000 </r>
       <r>  -14.4049    1.0000 </r>
       <r>  -14.1081    1.0000 </r>
       <r>  -13.3141    1.0000 </r>
       <r>  -13.2165    1.0000 </r>
       <r>  -13.1428    1.0000 </r>
       <r>  -13.0218    1.0000 </r>
       <r>  -12.7864    1.0000 </r>
       <r>  -12.5252    1.0000 </r>
       <r>  -12.2989    1.0000 </r>
       <r>  -12.1370    1.0000 </r>
       <r>  -12.0475    1.0000 </r>
       <r>  -11.5408    1.0000 </r>
       <r>  -11.4173    1.0000 </r>
       <r>  -11.2181    1.0000 </r>
       <r>  -10.9110    1.0000 </r>
       <r>  -10.7126    1.0000 </r>
       <r>  -10.6171    1.0000 </r>
       <r>  -10.5840    1.0000 </r>
       <r>  -10.4580    1.0000 </r>
       <r>  -10.3704    1.0000 </r>
       <r>  -10.2672    1.0000 </r>
       <r>  -10.0226    1.0000 </r>
       <r>   -9.9290    1.0000 </r>
       <r>   -9.7780    1.0000 </r>
       <r>   -9.7186    1.0000 </r>
       <r>   -9.6774    1.0000 </r>
       <r>   -9.6005    1.0000 </r>
       <r>   -9.4599    1.0000 </r>
       <r>   -9.3548    1.0000 </r>
       <r>   -9.2773    1.0000 </r>
       <r>   -9.2101    1.0000 </r>
       <r>   -9.1287    1.0000 </r>
       <r>   -9.0576    1.0000 </r>
       <r>   -8.9813    1.0000 </r>
       <r>   -8.9018    1.0000 </r>
       <r>   -8.8040    1.0000 </r>
       <r>   -8.7232    1.0000 </r>
       <r>   -8.4560    1.0000 </r>
       <r>   -8.3999    1.0000 </r>
       <r>   -8.2686    1.0000 </r>
       <r>   -8.1976    1.0000 </r>
       <r>   -8.1081    1.0000 </r>
       <r>   -8.0371    1.0000 </r>
       <r>   -7.9923    1.0000 </r>
       <r>   -7.9288    1.0000 </r>
       <r>   -7.5339    1.0000 </r>
       <r>   -7.4471    1.0000 </r>
       <r>   -7.3218    1.0000 </r>
       <r>   -7.1980    1.0000 </r>
       <r>   -7.1017    1.0000 </r>
       <r>   -7.0195    1.0000 </r>
       <r>   -6.8360    1.0000 </r>
       <r>   -6.7965    1.0000 </r>
       <r>   -6.7773    1.0000 </r>
       <r>   -6.6443    1.0000 </r>
       <r>   -6.3456    1.0000 </r>
       <r>   -6.1266    1.0000 </r>
       <r>   -6.0785    1.0000 </r>
       <r>   -6.0236    1.0000 </r>
       <r>   -5.6869    1.0000 </r>
       <r>   -5.5502    1.0000 </r>
       <r>   -5.2337    1.0000 </r>
       <r>   -5.0204    1.0000 </r>
       <r>   -4.9590    1.0000 </r>
       <r>   -4.8166    1.0000 </r>
       <r>   -4.7007    1.0000 </r>
       <r>   -3.9507    1.0000 </r>
       <r>   -3.6001    1.0000 </r>
       <r>   -2.5873    0.7711 </r>
       <r>   -1.8324    0.0000 </r>
       <r>   -1.5612    0.0000 </r>
       <r>   -1.3210    0.0000 </r>
       <r>   -1.0947    0.0000 </r>
       <r>   -0.9878    0.0000 </r>
       <r>   -0.8374    0.0000 </r>
       <r>   -0.8142    0.0000 </r>
       <r>   -0.5026    0.0000 </r>
       <r>   -0.0712    0.0000 </r>
       <r>    0.2231    0.0000 </r>
       <r>    0.3394    0.0000 </r>
       <r>    0.4030    0.0000 </r>
       <r>    0.5471    0.0000 </r>
       <r>    0.7717    0.0000 </r>
       <r>    0.8735    0.0000 </r>
       <r>    0.9617    0.0000 </r>
       <r>    1.1299    0.0000 </r>
       <r>    1.2032    0.0000 </r>
       <r>    1.3122    0.0000 </r>
       <r>    1.3587    0.0000 </r>
       <r>    1.4697    0.0000 </r>
       <r>    1.5123    0.0000 </r>
       <r>    1.5835    0.0000 </r>
       <r>    1.6265    0.0000 </r>
       <r>    1.6605    0.0000 </r>
       <r>    1.6756    0.0000 </r>
       <r>    1.7992    0.0000 </r>
       <r>    1.8210    0.0000 </r>
       <r>    1.8374    0.0000 </r>
       <r>    2.0059    0.0000 </r>
      </set>
      <set comment="kpoint 4">
       <r>  -52.3286    1.0000 </r>
       <r>  -22.2369    1.0000 </r>
       <r>  -22.0498    1.0000 </r>
       <r>  -21.8515    1.0000 </r>
       <r>  -21.2473    1.0000 </r>
       <r>  -21.0851    1.0000 </r>
       <r>  -20.9340    1.0000 </r>
       <r>  -20.4076    1.0000 </r>
       <r>  -20.2131    1.0000 </r>
       <r>  -20.1613    1.0000 </r>
       <r>  -20.0775    1.0000 </r>
       <r>  -19.9802    1.0000 </r>
       <r>  -19.7593    1.0000 </r>
       <r>  -18.6259    1.0000 </r>
       <r>  -18.4119    1.0000 </r>
       <r>  -18.3677    1.0000 </r>
       <r>  -18.3075    1.0000 </r>
       <r>  -18.1617    1.0000 </r>
       <r>  -18.0168    1.0000 </r>
       <r>  -17.5248    1.0000 </r>
       <r>  -17.4482    1.0000 </r>
       <r>  -17.4337    1.0000 </r>
       <r>  -16.9414    1.0000 </r>
       <r>  -16.9195    1.0000 </r>
       <r>  -16.7912    1.0000 </r>
       <r>  -16.2868    1.0000 </r>
       <r>  -15.8003    1.0000 </r>
       <r>  -15.6711    1.0000 </r>
       <r>  -15.3192    1.0000 </r>
       <r>  -15.2581    1.0000 </r>
       <r>  -14.3324    1.0000 </r>
       <r>  -14.1057    1.0000 </r>
       <r>  -13.9178    1.0000 </r>
       <r>  -13.8866    1.0000 </r>
       <r>  -13.8433    1.0000 </r>
       <r>  -13.8078    1.0000 </r>
       <r>  -13.7171    1.0000 </r>
       <r>  -13.6497    1.0000 </r>
       <r>  -13.2816    1.0000 </r>
       <r>  -13.0320    1.0000 </r>
       <r>  -12.5517    1.0000 </r>
       <r>  -12.1077    1.0000 </r>
       <r>  -12.0854    1.0000 </r>
       <r>  -11.7049    1.0000 </r>
       <r>  -11.5677    1.0000 </r>
       <r>  -11.5227    1.0000 </r>
       <r>  -11.3599    1.0000 </r>
       <r>  -11.2799    1.0000 </r>
       <r>  -11.0063    1.0000 </r>
       <r>  -10.4646    1.0000 </r>
       <r>  -10.3034    1.0000 </r>
       <r>  -10.2851    1.0000 </r>
       <r>  -10.2779    1.0000 </r>
       <r>  -10.1208    1.0000 </r>
       <r>  -10.0862    1.0000 </r>
       <r>  -10.0597    1.0000 </r>
       <r>   -9.9801    1.0000 </r>
       <r>   -9.9497    1.0000 </r>
       <r>   -9.5441    1.0000 </r>
       <r>   -9.4231    1.0000 </r>
       <r>   -9.3888    1.0000 </r>
       <r>   -9.2514    1.0000 </r>
       <r>   -9.1892    1.0000 </r>
       <r>   -9.1787    1.0000 </r>
       <r>   -9.0936    1.0000 </r>
       <r>   -8.9771    1.0000 </r>
       <r>   -8.8857    1.0000 </r>
       <r>   -8.7549    1.0000 </r>
       <r>   -8.6630    1.0000 </r>
       <r>   -8.6087    1.0000 </r>
       <r>   -8.5879    1.0000 </r>
       <r>   -8.4596    1.0000 </r>
       <r>   -8.3398    1.0000 </r>
       <r>   -8.2098    1.0000 </r>
       <r>   -8.0903    1.0000 </r>
       <r>   -8.0420    1.0000 </r>
       <r>   -7.9649    1.0000 </r>
       <r>   -7.9073    1.0000 </r>
       <r>   -7.8505    1.0000 </r>
       <r>   -7.8008    1.0000 </r>
       <r>   -7.6167    1.0000 </r>
       <r>   -7.3810    1.0000 </r>
       <r>   -7.1016    1.0000 </r>
       <r>   -6.9682    1.0000 </r>
       <r>   -6.8916    1.0000 </r>
       <r>   -6.7309    1.0000 </r>
       <r>   -6.4210    1.0000 </r>
       <r>   -6.3402    1.0000 </r>
       <r>   -6.1168    1.0000 </r>
       <r>   -6.0329    1.0000 </r>
       <r>   -5.9875    1.0000 </r>
       <r>   -5.8884    1.0000 </r>
       <r>   -5.7882    1.0000 </r>
       <r>   -5.7091    1.0000 </r>
       <r>   -5.1586    1.0000 </r>
       <r>   -5.0936    1.0000 </r>
       <r>   -4.9825    1.0000 </r>
       <r>   -4.9238    1.0000 </r>
       <r>   -4.8604    1.0000 </r>
       <r>   -4.4943    1.0000 </r>
       <r>   -2.9113    1.0000 </r>
       <r>   -2.7659    1.0000 </r>
       <r>   -2.3613    0.0000 </r>
       <r>   -1.3417    0.0000 </r>
       <r>   -1.1988    0.0000 </r>
       <r>   -1.0573    0.0000 </r>
       <r>   -0.7028    0.0000 </r>
       <r>   -0.6867    0.0000 </r>
       <r>   -0.5572    0.0000 </r>
       <r>   -0.4850    0.0000 </r>
       <r>    0.0084    0.0000 </r>
       <r>    0.1056    0.0000 </r>
       <r>    0.1521    0.0000 </r>
       <r>    0.1918    0.0000 </r>
       <r>    0.2603    0.0000 </r>
       <r>    0.3295    0.0000 </r>
       <r>    0.9829    0.0000 </r>
       <r>    1.1040    0.0000 </r>
       <r>    1.1450    0.0000 </r>
       <r>    1.1787    0.0000 </r>
       <r>    1.2597    0.0000 </r>
       <r>    1.2790    0.0000 </r>
       <r>    1.2917    0.0000 </r>
       <r>    1.4750    0.0000 </r>
       <r>    1.4793    0.0000 </r>
       <r>    1.5009    0.0000 </r>
       <r>    1.7237    0.0000 </r>
       <r>    1.7926    0.0000 </r>
       <r>    1.8110    0.0000 </r>
       <r>    1.8188    0.0000 </r>
       <r>    1.8827    0.0000 </r>
       <r>    2.0188    0.0000 </r>
      </set>
      <set comment="kpoint 5">
       <r>  -52.3286    1.0000 </r>
       <r>  -22.3196    1.0000 </r>
       <r>  -21.8663    1.0000 </r>
       <r>  -21.7918    1.0000 </r>
       <r>  -21.5186    1.0000 </r>
       <r>  -21.0177    1.0000 </r>
       <r>  -20.8750    1.0000 </r>
       <r>  -20.6511    1.0000 </r>
       <r>  -20.4239    1.0000 </r>
       <r>  -20.1549    1.0000 </r>
       <r>  -19.7265    1.0000 </r>
       <r>  -19.6810    1.0000 </r>
       <r>  -19.2643    1.0000 </r>
       <r>  -19.1080    1.0000 </r>
       <r>  -18.9708    1.0000 </r>
       <r>  -18.5637    1.0000 </r>
       <r>  -18.3924    1.0000 </r>
       <r>  -17.9919    1.0000 </r>
       <r>  -17.8688    1.0000 </r>
       <r>  -17.5607    1.0000 </r>
       <r>  -17.4332    1.0000 </r>
       <r>  -17.2156    1.0000 </r>
       <r>  -17.1457    1.0000 </r>
       <r>  -16.7550    1.0000 </r>
       <r>  -16.3950    1.0000 </r>
       <r>  -16.2714    1.0000 </r>
       <r>  -15.5702    1.0000 </r>
       <r>  -15.5133    1.0000 </r>
       <r>  -15.3944    1.0000 </r>
       <r>  -15.0685    1.0000 </r>
       <r>  -14.8746    1.0000 </r>
       <r>  -14.7945    1.0000 </r>
       <r>  -14.4463    1.0000 </r>
       <r>  -14.3540    1.0000 </r>
       <r>  -14.1039    1.0000 </r>
       <r>  -13.3590    1.0000 </r>
       <r>  -13.1557    1.0000 </r>
       <r>  -12.9371    1.0000 </r>
       <r>  -12.8996    1.0000 </r>
       <r>  -12.8095    1.0000 </r>
       <r>  -12.5184    1.0000 </r>
       <r>  -12.3406    1.0000 </r>
       <r>  -12.3059    1.0000 </r>
       <r>  -12.0123    1.0000 </r>
       <r>  -11.6099    1.0000 </r>
       <r>  -11.5612    1.0000 </r>
       <r>  -11.1496    1.0000 </r>
       <r>  -10.9682    1.0000 </r>
       <r>  -10.7203    1.0000 </r>
       <r>  -10.5648    1.0000 </r>
       <r>  -10.5593    1.0000 </r>
       <r>  -10.4737    1.0000 </r>
       <r>  -10.4329    1.0000 </r>
       <r>  -10.3105    1.0000 </r>
       <r>   -9.9862    1.0000 </r>
       <r>   -9.8545    1.0000 </r>
       <r>   -9.8354    1.0000 </r>
       <r>   -9.7547    1.0000 </r>
       <r>   -9.6324    1.0000 </r>
       <r>   -9.5687    1.0000 </r>
       <r>   -9.5096    1.0000 </r>
       <r>   -9.4503    1.0000 </r>
       <r>   -9.3382    1.0000 </r>
       <r>   -9.2876    1.0000 </r>
       <r>   -9.2147    1.0000 </r>
       <r>   -8.9455    1.0000 </r>
       <r>   -8.8932    1.0000 </r>
       <r>   -8.8262    1.0000 </r>
       <r>   -8.7676    1.0000 </r>
       <r>   -8.4947    1.0000 </r>
       <r>   -8.3786    1.0000 </r>
       <r>   -8.3268    1.0000 </r>
       <r>   -8.2503    1.0000 </r>
       <r>   -8.1986    1.0000 </r>
       <r>   -8.1051    1.0000 </r>
       <r>   -7.9945    1.0000 </r>
       <r>   -7.8959    1.0000 </r>
       <r>   -7.7858    1.0000 </r>
       <r>   -7.7636    1.0000 </r>
       <r>   -7.5066    1.0000 </r>
       <r>   -7.4438    1.0000 </r>
       <r>   -7.2664    1.0000 </r>
       <r>   -7.2437    1.0000 </r>
       <r>   -7.1202    1.0000 </r>
       <r>   -6.9933    1.0000 </r>
       <r>   -6.7408    1.0000 </r>
       <r>   -6.6639    1.0000 </r>
       <r>   -6.4986    1.0000 </r>
       <r>   -6.4634    1.0000 </r>
       <r>   -6.1459    1.0000 </r>
       <r>   -6.0302    1.0000 </r>
       <r>   -5.9516    1.0000 </r>
       <r>   -5.6091    1.0000 </r>
       <r>   -5.5739    1.0000 </r>
       <r>   -5.4164    1.0000 </r>
       <r>   -5.0292    1.0000 </r>
       <r>   -4.8883    1.0000 </r>
       <r>   -4.8534    1.0000 </r>
       <r>   -4.4447    1.0000 </r>
       <r>   -3.9636    1.0000 </r>
       <r>   -3.7959    1.0000 </r>
       <r>   -2.4554    0.0014 </r>
       <r>   -1.8569    0.0000 </r>
       <r>   -1.6931    0.0000 </r>
       <r>   -1.3372    0.0000 </r>
       <r>   -1.0336    0.0000 </r>
       <r>   -0.8762    0.0000 </r>
       <r>   -0.8447    0.0000 </r>
       <r>   -0.7370    0.0000 </r>
       <r>   -0.6610    0.0000 </r>
       <r>   -0.0586    0.0000 </r>
       <r>    0.1959    0.0000 </r>
       <r>    0.3584    0.0000 </r>
       <r>    0.5023    0.0000 </r>
       <r>    0.5594    0.0000 </r>
       <r>    0.7813    0.0000 </r>
       <r>    0.8113    0.0000 </r>
       <r>    0.9145    0.0000 </r>
       <r>    1.1029    0.0000 </r>
       <r>    1.1879    0.0000 </r>
       <r>    1.2514    0.0000 </r>
       <r>    1.3556    0.0000 </r>
       <r>    1.4638    0.0000 </r>
       <r>    1.4921    0.0000 </r>
       <r>    1.5758    0.0000 </r>
       <r>    1.6284    0.0000 </r>
       <r>    1.6792    0.0000 </r>
       <r>    1.7733    0.0000 </r>
       <r>    1.8179    0.0000 </r>
       <r>    1.8272    0.0000 </r>
       <r>    1.9118    0.0000 </r>
       <r>    2.0033    0.0000 </r>
      </set>
     </set>
     <set comment="spin 2">
      <set comment="kpoint 1">
       <r>  -52.3278    1.0000 </r>
       <r>  -22.3733    1.0000 </r>
       <r>  -21.7598    1.0000 </r>
       <r>  -21.5085    1.0000 </r>
       <r>  -21.3494    1.0000 </r>
       <r>  -21.3238    1.0000 </r>
       <r>  -21.2525    1.0000 </r>
       <r>  -21.0307    1.0000 </r>
       <r>  -19.9485    1.0000 </r>
       <r>  -19.5727    1.0000 </r>
       <r>  -19.5525    1.0000 </r>
       <r>  -19.4483    1.0000 </r>
       <r>  -19.3547    1.0000 </r>
       <r>  -19.2962    1.0000 </r>
       <r>  -18.8009    1.0000 </r>
       <r>  -18.6610    1.0000 </r>
       <r>  -18.6373    1.0000 </r>
       <r>  -18.5329    1.0000 </r>
       <r>  -18.4974    1.0000 </r>
       <r>  -18.1368    1.0000 </r>
       <r>  -16.5811    1.0000 </r>
       <r>  -16.5727    1.0000 </r>
       <r>  -16.4893    1.0000 </r>
       <r>  -16.3362    1.0000 </r>
       <r>  -16.2775    1.0000 </r>
       <r>  -16.2131    1.0000 </r>
       <r>  -16.0782    1.0000 </r>
       <r>  -15.5674    1.0000 </r>
       <r>  -15.4184    1.0000 </r>
       <r>  -15.3524    1.0000 </r>
       <r>  -15.1788    1.0000 </r>
       <r>  -15.0012    1.0000 </r>
       <r>  -14.3203    1.0000 </r>
       <r>  -14.2766    1.0000 </r>
       <r>  -14.0828    1.0000 </r>
       <r>  -14.0195    1.0000 </r>
       <r>  -13.9397    1.0000 </r>
       <r>  -13.3678    1.0000 </r>
       <r>  -12.1551    1.0000 </r>
       <r>  -11.9803    1.0000 </r>
       <r>  -11.8146    1.0000 </r>
       <r>  -11.8009    1.0000 </r>
       <r>  -11.7145    1.0000 </r>
       <r>  -11.6590    1.0000 </r>
       <r>  -11.6412    1.0000 </r>
       <r>  -11.6094    1.0000 </r>
       <r>  -11.4805    1.0000 </r>
       <r>  -11.4504    1.0000 </r>
       <r>  -11.1425    1.0000 </r>
       <r>  -11.0574    1.0000 </r>
       <r>  -10.6648    1.0000 </r>
       <r>  -10.4964    1.0000 </r>
       <r>  -10.4164    1.0000 </r>
       <r>  -10.2315    1.0000 </r>
       <r>  -10.1779    1.0000 </r>
       <r>  -10.1286    1.0000 </r>
       <r>   -9.9025    1.0000 </r>
       <r>   -9.6702    1.0000 </r>
       <r>   -9.4510    1.0000 </r>
       <r>   -9.3096    1.0000 </r>
       <r>   -9.2899    1.0000 </r>
       <r>   -9.2212    1.0000 </r>
       <r>   -9.1262    1.0000 </r>
       <r>   -9.0814    1.0000 </r>
       <r>   -9.0697    1.0000 </r>
       <r>   -9.0275    1.0000 </r>
       <r>   -9.0135    1.0000 </r>
       <r>   -8.9460    1.0000 </r>
       <r>   -8.8944    1.0000 </r>
       <r>   -8.8450    1.0000 </r>
       <r>   -8.7435    1.0000 </r>
       <r>   -8.6385    1.0000 </r>
       <r>   -8.6285    1.0000 </r>
       <r>   -8.6063    1.0000 </r>
       <r>   -8.0019    1.0000 </r>
       <r>   -7.4610    1.0000 </r>
       <r>   -7.4232    1.0000 </r>
       <r>   -7.3785    1.0000 </r>
       <r>   -7.3271    1.0000 </r>
       <r>   -7.3025    1.0000 </r>
       <r>   -7.2609    1.0000 </r>
       <r>   -7.2530    1.0000 </r>
       <r>   -7.1892    1.0000 </r>
       <r>   -7.0586    1.0000 </r>
       <r>   -7.0018    1.0000 </r>
       <r>   -6.9874    1.0000 </r>
       <r>   -6.9604    1.0000 </r>
       <r>   -6.3616    1.0000 </r>
       <r>   -6.3572    1.0000 </r>
       <r>   -6.2809    1.0000 </r>
       <r>   -6.1947    1.0000 </r>
       <r>   -6.1850    1.0000 </r>
       <r>   -6.1175    1.0000 </r>
       <r>   -5.9512    1.0000 </r>
       <r>   -5.6899    1.0000 </r>
       <r>   -4.4024    1.0000 </r>
       <r>   -4.2813    1.0000 </r>
       <r>   -4.2687    1.0000 </r>
       <r>   -4.2276    1.0000 </r>
       <r>   -4.1494    1.0000 </r>
       <r>   -3.8756    1.0000 </r>
       <r>   -2.6715    0.9991 </r>
       <r>   -1.6964    0.0000 </r>
       <r>   -1.6563    0.0000 </r>
       <r>   -1.5380    0.0000 </r>
       <r>   -1.3816    0.0000 </r>
       <r>   -1.2686    0.0000 </r>
       <r>   -0.9777    0.0000 </r>
       <r>   -0.5661    0.0000 </r>
       <r>    0.1035    0.0000 </r>
       <r>    0.2241    0.0000 </r>
       <r>    0.3021    0.0000 </r>
       <r>    0.3563    0.0000 </r>
       <r>    0.4673    0.0000 </r>
       <r>    0.5090    0.0000 </r>
       <r>    0.5639    0.0000 </r>
       <r>    0.8068    0.0000 </r>
       <r>    0.9670    0.0000 </r>
       <r>    1.0449    0.0000 </r>
       <r>    1.3826    0.0000 </r>
       <r>    1.4275    0.0000 </r>
       <r>    1.4338    0.0000 </r>
       <r>    1.5337    0.0000 </r>
       <r>    1.5347    0.0000 </r>
       <r>    1.6480    0.0000 </r>
       <r>    1.7182    0.0000 </r>
       <r>    1.7499    0.0000 </r>
       <r>    1.8292    0.0000 </r>
       <r>    1.9618    0.0000 </r>
       <r>    2.0907    0.0000 </r>
       <r>    2.0940    0.0000 </r>
       <r>    2.1375    0.0000 </r>
      </set>
      <set comment="kpoint 2">
       <r>  -52.3278    1.0000 </r>
       <r>  -22.2900    1.0000 </r>
       <r>  -21.9934    1.0000 </r>
       <r>  -21.6186    1.0000 </r>
       <r>  -21.4869    1.0000 </r>
       <r>  -21.1085    1.0000 </r>
       <r>  -20.8949    1.0000 </r>
       <r>  -20.5862    1.0000 </r>
       <r>  -20.4296    1.0000 </r>
       <r>  -20.2015    1.0000 </r>
       <r>  -19.7266    1.0000 </r>
       <r>  -19.4635    1.0000 </r>
       <r>  -19.3389    1.0000 </r>
       <r>  -19.1347    1.0000 </r>
       <r>  -18.9955    1.0000 </r>
       <r>  -18.5449    1.0000 </r>
       <r>  -18.4265    1.0000 </r>
       <r>  -17.9717    1.0000 </r>
       <r>  -17.8377    1.0000 </r>
       <r>  -17.4695    1.0000 </r>
       <r>  -17.3844    1.0000 </r>
       <r>  -17.3137    1.0000 </r>
       <r>  -17.0949    1.0000 </r>
       <r>  -16.9594    1.0000 </r>
       <r>  -16.3339    1.0000 </r>
       <r>  -16.2040    1.0000 </r>
       <r>  -15.7763    1.0000 </r>
       <r>  -15.2793    1.0000 </r>
       <r>  -15.2445    1.0000 </r>
       <r>  -15.0003    1.0000 </r>
       <r>  -14.8573    1.0000 </r>
       <r>  -14.7246    1.0000 </r>
       <r>  -14.6186    1.0000 </r>
       <r>  -14.3919    1.0000 </r>
       <r>  -14.1025    1.0000 </r>
       <r>  -13.3045    1.0000 </r>
       <r>  -13.2126    1.0000 </r>
       <r>  -13.1389    1.0000 </r>
       <r>  -13.0087    1.0000 </r>
       <r>  -12.7815    1.0000 </r>
       <r>  -12.5203    1.0000 </r>
       <r>  -12.2949    1.0000 </r>
       <r>  -12.1312    1.0000 </r>
       <r>  -12.0421    1.0000 </r>
       <r>  -11.5306    1.0000 </r>
       <r>  -11.4271    1.0000 </r>
       <r>  -11.2187    1.0000 </r>
       <r>  -10.9083    1.0000 </r>
       <r>  -10.6959    1.0000 </r>
       <r>  -10.6079    1.0000 </r>
       <r>  -10.5766    1.0000 </r>
       <r>  -10.4555    1.0000 </r>
       <r>  -10.3620    1.0000 </r>
       <r>  -10.2578    1.0000 </r>
       <r>   -9.9902    1.0000 </r>
       <r>   -9.9242    1.0000 </r>
       <r>   -9.7686    1.0000 </r>
       <r>   -9.7098    1.0000 </r>
       <r>   -9.6753    1.0000 </r>
       <r>   -9.5955    1.0000 </r>
       <r>   -9.4549    1.0000 </r>
       <r>   -9.3424    1.0000 </r>
       <r>   -9.2653    1.0000 </r>
       <r>   -9.2115    1.0000 </r>
       <r>   -9.1279    1.0000 </r>
       <r>   -9.0609    1.0000 </r>
       <r>   -8.9714    1.0000 </r>
       <r>   -8.8896    1.0000 </r>
       <r>   -8.7715    1.0000 </r>
       <r>   -8.7197    1.0000 </r>
       <r>   -8.4525    1.0000 </r>
       <r>   -8.4007    1.0000 </r>
       <r>   -8.2683    1.0000 </r>
       <r>   -8.1813    1.0000 </r>
       <r>   -8.0928    1.0000 </r>
       <r>   -8.0104    1.0000 </r>
       <r>   -7.9953    1.0000 </r>
       <r>   -7.9204    1.0000 </r>
       <r>   -7.5235    1.0000 </r>
       <r>   -7.4191    1.0000 </r>
       <r>   -7.3120    1.0000 </r>
       <r>   -7.1960    1.0000 </r>
       <r>   -7.0977    1.0000 </r>
       <r>   -7.0209    1.0000 </r>
       <r>   -6.8325    1.0000 </r>
       <r>   -6.7745    1.0000 </r>
       <r>   -6.7707    1.0000 </r>
       <r>   -6.6252    1.0000 </r>
       <r>   -6.3417    1.0000 </r>
       <r>   -6.1184    1.0000 </r>
       <r>   -6.0746    1.0000 </r>
       <r>   -5.9962    1.0000 </r>
       <r>   -5.6730    1.0000 </r>
       <r>   -5.5358    1.0000 </r>
       <r>   -5.2182    1.0000 </r>
       <r>   -4.9857    1.0000 </r>
       <r>   -4.9433    1.0000 </r>
       <r>   -4.7975    1.0000 </r>
       <r>   -4.6981    1.0000 </r>
       <r>   -3.9182    1.0000 </r>
       <r>   -3.6051    1.0000 </r>
       <r>   -2.4931    0.0273 </r>
       <r>   -1.8169    0.0000 </r>
       <r>   -1.5731    0.0000 </r>
       <r>   -1.2946    0.0000 </r>
       <r>   -1.0540    0.0000 </r>
       <r>   -0.9752    0.0000 </r>
       <r>   -0.8197    0.0000 </r>
       <r>   -0.7945    0.0000 </r>
       <r>   -0.4866    0.0000 </r>
       <r>   -0.0685    0.0000 </r>
       <r>    0.2009    0.0000 </r>
       <r>    0.3770    0.0000 </r>
       <r>    0.4498    0.0000 </r>
       <r>    0.5648    0.0000 </r>
       <r>    0.7827    0.0000 </r>
       <r>    0.9005    0.0000 </r>
       <r>    0.9810    0.0000 </r>
       <r>    1.1208    0.0000 </r>
       <r>    1.2165    0.0000 </r>
       <r>    1.3201    0.0000 </r>
       <r>    1.3838    0.0000 </r>
       <r>    1.4877    0.0000 </r>
       <r>    1.5280    0.0000 </r>
       <r>    1.5967    0.0000 </r>
       <r>    1.6196    0.0000 </r>
       <r>    1.6880    0.0000 </r>
       <r>    1.7127    0.0000 </r>
       <r>    1.8149    0.0000 </r>
       <r>    1.8481    0.0000 </r>
       <r>    1.8543    0.0000 </r>
       <r>    2.0271    0.0000 </r>
      </set>
      <set comment="kpoint 3">
       <r>  -52.3278    1.0000 </r>
       <r>  -22.2882    1.0000 </r>
       <r>  -21.9983    1.0000 </r>
       <r>  -21.6198    1.0000 </r>
       <r>  -21.4815    1.0000 </r>
       <r>  -21.0984    1.0000 </r>
       <r>  -20.9084    1.0000 </r>
       <r>  -20.5798    1.0000 </r>
       <r>  -20.4251    1.0000 </r>
       <r>  -20.2191    1.0000 </r>
       <r>  -19.7270    1.0000 </r>
       <r>  -19.4610    1.0000 </r>
       <r>  -19.3239    1.0000 </r>
       <r>  -19.1393    1.0000 </r>
       <r>  -18.9943    1.0000 </r>
       <r>  -18.5298    1.0000 </r>
       <r>  -18.4437    1.0000 </r>
       <r>  -17.9740    1.0000 </r>
       <r>  -17.8377    1.0000 </r>
       <r>  -17.4628    1.0000 </r>
       <r>  -17.3864    1.0000 </r>
       <r>  -17.3238    1.0000 </r>
       <r>  -17.0983    1.0000 </r>
       <r>  -16.9579    1.0000 </r>
       <r>  -16.3315    1.0000 </r>
       <r>  -16.2000    1.0000 </r>
       <r>  -15.7733    1.0000 </r>
       <r>  -15.2838    1.0000 </r>
       <r>  -15.2407    1.0000 </r>
       <r>  -14.9915    1.0000 </r>
       <r>  -14.8526    1.0000 </r>
       <r>  -14.7226    1.0000 </r>
       <r>  -14.6297    1.0000 </r>
       <r>  -14.3999    1.0000 </r>
       <r>  -14.1018    1.0000 </r>
       <r>  -13.3082    1.0000 </r>
       <r>  -13.2030    1.0000 </r>
       <r>  -13.1379    1.0000 </r>
       <r>  -13.0173    1.0000 </r>
       <r>  -12.7827    1.0000 </r>
       <r>  -12.5214    1.0000 </r>
       <r>  -12.2930    1.0000 </r>
       <r>  -12.1324    1.0000 </r>
       <r>  -12.0413    1.0000 </r>
       <r>  -11.5357    1.0000 </r>
       <r>  -11.4146    1.0000 </r>
       <r>  -11.2150    1.0000 </r>
       <r>  -10.9065    1.0000 </r>
       <r>  -10.7059    1.0000 </r>
       <r>  -10.6107    1.0000 </r>
       <r>  -10.5800    1.0000 </r>
       <r>  -10.4433    1.0000 </r>
       <r>  -10.3542    1.0000 </r>
       <r>  -10.2625    1.0000 </r>
       <r>  -10.0029    1.0000 </r>
       <r>   -9.9249    1.0000 </r>
       <r>   -9.7733    1.0000 </r>
       <r>   -9.7115    1.0000 </r>
       <r>   -9.6710    1.0000 </r>
       <r>   -9.5867    1.0000 </r>
       <r>   -9.4511    1.0000 </r>
       <r>   -9.3515    1.0000 </r>
       <r>   -9.2718    1.0000 </r>
       <r>   -9.2059    1.0000 </r>
       <r>   -9.1245    1.0000 </r>
       <r>   -9.0524    1.0000 </r>
       <r>   -8.9738    1.0000 </r>
       <r>   -8.8831    1.0000 </r>
       <r>   -8.7914    1.0000 </r>
       <r>   -8.7197    1.0000 </r>
       <r>   -8.4454    1.0000 </r>
       <r>   -8.3942    1.0000 </r>
       <r>   -8.2648    1.0000 </r>
       <r>   -8.1731    1.0000 </r>
       <r>   -8.0983    1.0000 </r>
       <r>   -8.0267    1.0000 </r>
       <r>   -7.9889    1.0000 </r>
       <r>   -7.9234    1.0000 </r>
       <r>   -7.5227    1.0000 </r>
       <r>   -7.4365    1.0000 </r>
       <r>   -7.3115    1.0000 </r>
       <r>   -7.1908    1.0000 </r>
       <r>   -7.0899    1.0000 </r>
       <r>   -7.0087    1.0000 </r>
       <r>   -6.8264    1.0000 </r>
       <r>   -6.7839    1.0000 </r>
       <r>   -6.7700    1.0000 </r>
       <r>   -6.6292    1.0000 </r>
       <r>   -6.3428    1.0000 </r>
       <r>   -6.1059    1.0000 </r>
       <r>   -6.0669    1.0000 </r>
       <r>   -6.0133    1.0000 </r>
       <r>   -5.6715    1.0000 </r>
       <r>   -5.5383    1.0000 </r>
       <r>   -5.2178    1.0000 </r>
       <r>   -5.0016    1.0000 </r>
       <r>   -4.9318    1.0000 </r>
       <r>   -4.8087    1.0000 </r>
       <r>   -4.6824    1.0000 </r>
       <r>   -3.9340    1.0000 </r>
       <r>   -3.5885    1.0000 </r>
       <r>   -2.5072    0.0636 </r>
       <r>   -1.8119    0.0000 </r>
       <r>   -1.5457    0.0000 </r>
       <r>   -1.2839    0.0000 </r>
       <r>   -1.0791    0.0000 </r>
       <r>   -0.9817    0.0000 </r>
       <r>   -0.8276    0.0000 </r>
       <r>   -0.8007    0.0000 </r>
       <r>   -0.4862    0.0000 </r>
       <r>   -0.0578    0.0000 </r>
       <r>    0.2347    0.0000 </r>
       <r>    0.3568    0.0000 </r>
       <r>    0.4184    0.0000 </r>
       <r>    0.5733    0.0000 </r>
       <r>    0.7852    0.0000 </r>
       <r>    0.8915    0.0000 </r>
       <r>    0.9832    0.0000 </r>
       <r>    1.1436    0.0000 </r>
       <r>    1.2189    0.0000 </r>
       <r>    1.3284    0.0000 </r>
       <r>    1.3806    0.0000 </r>
       <r>    1.4939    0.0000 </r>
       <r>    1.5339    0.0000 </r>
       <r>    1.6027    0.0000 </r>
       <r>    1.6398    0.0000 </r>
       <r>    1.6744    0.0000 </r>
       <r>    1.6949    0.0000 </r>
       <r>    1.8172    0.0000 </r>
       <r>    1.8407    0.0000 </r>
       <r>    1.8576    0.0000 </r>
       <r>    2.0273    0.0000 </r>
      </set>
      <set comment="kpoint 4">
       <r>  -52.3278    1.0000 </r>
       <r>  -22.2249    1.0000 </r>
       <r>  -22.0381    1.0000 </r>
       <r>  -21.8481    1.0000 </r>
       <r>  -21.2390    1.0000 </r>
       <r>  -21.0750    1.0000 </r>
       <r>  -20.9283    1.0000 </r>
       <r>  -20.3995    1.0000 </r>
       <r>  -20.2026    1.0000 </r>
       <r>  -20.1577    1.0000 </r>
       <r>  -20.0707    1.0000 </r>
       <r>  -19.9759    1.0000 </r>
       <r>  -19.7536    1.0000 </r>
       <r>  -18.6154    1.0000 </r>
       <r>  -18.4090    1.0000 </r>
       <r>  -18.3570    1.0000 </r>
       <r>  -18.2981    1.0000 </r>
       <r>  -18.1583    1.0000 </r>
       <r>  -18.0118    1.0000 </r>
       <r>  -17.5190    1.0000 </r>
       <r>  -17.4397    1.0000 </r>
       <r>  -17.4282    1.0000 </r>
       <r>  -16.9366    1.0000 </r>
       <r>  -16.9136    1.0000 </r>
       <r>  -16.7838    1.0000 </r>
       <r>  -16.2748    1.0000 </r>
       <r>  -15.7972    1.0000 </r>
       <r>  -15.6674    1.0000 </r>
       <r>  -15.3125    1.0000 </r>
       <r>  -15.2531    1.0000 </r>
       <r>  -14.3253    1.0000 </r>
       <r>  -14.0968    1.0000 </r>
       <r>  -13.9130    1.0000 </r>
       <r>  -13.8813    1.0000 </r>
       <r>  -13.8373    1.0000 </r>
       <r>  -13.8045    1.0000 </r>
       <r>  -13.7118    1.0000 </r>
       <r>  -13.6423    1.0000 </r>
       <r>  -13.2780    1.0000 </r>
       <r>  -13.0234    1.0000 </r>
       <r>  -12.5454    1.0000 </r>
       <r>  -12.1047    1.0000 </r>
       <r>  -12.0813    1.0000 </r>
       <r>  -11.6998    1.0000 </r>
       <r>  -11.5610    1.0000 </r>
       <r>  -11.5188    1.0000 </r>
       <r>  -11.3553    1.0000 </r>
       <r>  -11.2745    1.0000 </r>
       <r>  -11.0009    1.0000 </r>
       <r>  -10.4480    1.0000 </r>
       <r>  -10.2959    1.0000 </r>
       <r>  -10.2792    1.0000 </r>
       <r>  -10.2616    1.0000 </r>
       <r>  -10.1168    1.0000 </r>
       <r>  -10.0828    1.0000 </r>
       <r>  -10.0406    1.0000 </r>
       <r>   -9.9762    1.0000 </r>
       <r>   -9.9426    1.0000 </r>
       <r>   -9.5409    1.0000 </r>
       <r>   -9.4171    1.0000 </r>
       <r>   -9.3826    1.0000 </r>
       <r>   -9.2474    1.0000 </r>
       <r>   -9.1849    1.0000 </r>
       <r>   -9.1725    1.0000 </r>
       <r>   -9.0810    1.0000 </r>
       <r>   -8.9545    1.0000 </r>
       <r>   -8.8740    1.0000 </r>
       <r>   -8.7503    1.0000 </r>
       <r>   -8.6594    1.0000 </r>
       <r>   -8.6026    1.0000 </r>
       <r>   -8.5849    1.0000 </r>
       <r>   -8.4540    1.0000 </r>
       <r>   -8.3355    1.0000 </r>
       <r>   -8.2046    1.0000 </r>
       <r>   -8.0726    1.0000 </r>
       <r>   -8.0366    1.0000 </r>
       <r>   -7.9342    1.0000 </r>
       <r>   -7.8979    1.0000 </r>
       <r>   -7.8368    1.0000 </r>
       <r>   -7.7895    1.0000 </r>
       <r>   -7.6044    1.0000 </r>
       <r>   -7.3738    1.0000 </r>
       <r>   -7.0943    1.0000 </r>
       <r>   -6.9663    1.0000 </r>
       <r>   -6.8856    1.0000 </r>
       <r>   -6.7270    1.0000 </r>
       <r>   -6.4154    1.0000 </r>
       <r>   -6.3372    1.0000 </r>
       <r>   -6.0948    1.0000 </r>
       <r>   -6.0052    1.0000 </r>
       <r>   -5.9752    1.0000 </r>
       <r>   -5.8697    1.0000 </r>
       <r>   -5.7805    1.0000 </r>
       <r>   -5.6954    1.0000 </r>
       <r>   -5.1494    1.0000 </r>
       <r>   -5.0643    1.0000 </r>
       <r>   -4.9667    1.0000 </r>
       <r>   -4.9042    1.0000 </r>
       <r>   -4.8525    1.0000 </r>
       <r>   -4.4779    1.0000 </r>
       <r>   -2.8689    1.0000 </r>
       <r>   -2.7519    1.0000 </r>
       <r>   -2.3056    0.0000 </r>
       <r>   -1.3054    0.0000 </r>
       <r>   -1.1814    0.0000 </r>
       <r>   -1.0543    0.0000 </r>
       <r>   -0.6864    0.0000 </r>
       <r>   -0.6743    0.0000 </r>
       <r>   -0.5355    0.0000 </r>
       <r>   -0.4657    0.0000 </r>
       <r>    0.0222    0.0000 </r>
       <r>    0.1232    0.0000 </r>
       <r>    0.1646    0.0000 </r>
       <r>    0.2048    0.0000 </r>
       <r>    0.2720    0.0000 </r>
       <r>    0.3385    0.0000 </r>
       <r>    1.0011    0.0000 </r>
       <r>    1.1181    0.0000 </r>
       <r>    1.1659    0.0000 </r>
       <r>    1.1962    0.0000 </r>
       <r>    1.2796    0.0000 </r>
       <r>    1.2944    0.0000 </r>
       <r>    1.3100    0.0000 </r>
       <r>    1.4930    0.0000 </r>
       <r>    1.4966    0.0000 </r>
       <r>    1.5198    0.0000 </r>
       <r>    1.7635    0.0000 </r>
       <r>    1.8186    0.0000 </r>
       <r>    1.8368    0.0000 </r>
       <r>    1.8456    0.0000 </r>
       <r>    1.9097    0.0000 </r>
       <r>    2.0378    0.0000 </r>
      </set>
      <set comment="kpoint 5">
       <r>  -52.3278    1.0000 </r>
       <r>  -22.3078    1.0000 </r>
       <r>  -21.8604    1.0000 </r>
       <r>  -21.7825    1.0000 </r>
       <r>  -21.5063    1.0000 </r>
       <r>  -21.0125    1.0000 </r>
       <r>  -20.8695    1.0000 </r>
       <r>  -20.6445    1.0000 </r>
       <r>  -20.4170    1.0000 </r>
       <r>  -20.1495    1.0000 </r>
       <r>  -19.7171    1.0000 </r>
       <r>  -19.6745    1.0000 </r>
       <r>  -19.2524    1.0000 </r>
       <r>  -19.1036    1.0000 </r>
       <r>  -18.9639    1.0000 </r>
       <r>  -18.5587    1.0000 </r>
       <r>  -18.3879    1.0000 </r>
       <r>  -17.9852    1.0000 </r>
       <r>  -17.8601    1.0000 </r>
       <r>  -17.5559    1.0000 </r>
       <r>  -17.4279    1.0000 </r>
       <r>  -17.2099    1.0000 </r>
       <r>  -17.1395    1.0000 </r>
       <r>  -16.7468    1.0000 </r>
       <r>  -16.3888    1.0000 </r>
       <r>  -16.2597    1.0000 </r>
       <r>  -15.5605    1.0000 </r>
       <r>  -15.5093    1.0000 </r>
       <r>  -15.3906    1.0000 </r>
       <r>  -15.0600    1.0000 </r>
       <r>  -14.8728    1.0000 </r>
       <r>  -14.7910    1.0000 </r>
       <r>  -14.4406    1.0000 </r>
       <r>  -14.3489    1.0000 </r>
       <r>  -14.0968    1.0000 </r>
       <r>  -13.3520    1.0000 </r>
       <r>  -13.1499    1.0000 </r>
       <r>  -12.9328    1.0000 </r>
       <r>  -12.8950    1.0000 </r>
       <r>  -12.8043    1.0000 </r>
       <r>  -12.5155    1.0000 </r>
       <r>  -12.3350    1.0000 </r>
       <r>  -12.3017    1.0000 </r>
       <r>  -12.0062    1.0000 </r>
       <r>  -11.6026    1.0000 </r>
       <r>  -11.5460    1.0000 </r>
       <r>  -11.1471    1.0000 </r>
       <r>  -10.9639    1.0000 </r>
       <r>  -10.7155    1.0000 </r>
       <r>  -10.5598    1.0000 </r>
       <r>  -10.5539    1.0000 </r>
       <r>  -10.4702    1.0000 </r>
       <r>  -10.4095    1.0000 </r>
       <r>  -10.3067    1.0000 </r>
       <r>   -9.9751    1.0000 </r>
       <r>   -9.8475    1.0000 </r>
       <r>   -9.8296    1.0000 </r>
       <r>   -9.7435    1.0000 </r>
       <r>   -9.6239    1.0000 </r>
       <r>   -9.5646    1.0000 </r>
       <r>   -9.4857    1.0000 </r>
       <r>   -9.4469    1.0000 </r>
       <r>   -9.3361    1.0000 </r>
       <r>   -9.2848    1.0000 </r>
       <r>   -9.2120    1.0000 </r>
       <r>   -8.9400    1.0000 </r>
       <r>   -8.8828    1.0000 </r>
       <r>   -8.8211    1.0000 </r>
       <r>   -8.7513    1.0000 </r>
       <r>   -8.4783    1.0000 </r>
       <r>   -8.3725    1.0000 </r>
       <r>   -8.3226    1.0000 </r>
       <r>   -8.2447    1.0000 </r>
       <r>   -8.1888    1.0000 </r>
       <r>   -8.0970    1.0000 </r>
       <r>   -7.9795    1.0000 </r>
       <r>   -7.8889    1.0000 </r>
       <r>   -7.7820    1.0000 </r>
       <r>   -7.7568    1.0000 </r>
       <r>   -7.5033    1.0000 </r>
       <r>   -7.4272    1.0000 </r>
       <r>   -7.2507    1.0000 </r>
       <r>   -7.2305    1.0000 </r>
       <r>   -7.1144    1.0000 </r>
       <r>   -6.9647    1.0000 </r>
       <r>   -6.7306    1.0000 </r>
       <r>   -6.6479    1.0000 </r>
       <r>   -6.4963    1.0000 </r>
       <r>   -6.4595    1.0000 </r>
       <r>   -6.1327    1.0000 </r>
       <r>   -6.0153    1.0000 </r>
       <r>   -5.9474    1.0000 </r>
       <r>   -5.5880    1.0000 </r>
       <r>   -5.5593    1.0000 </r>
       <r>   -5.4029    1.0000 </r>
       <r>   -5.0139    1.0000 </r>
       <r>   -4.8762    1.0000 </r>
       <r>   -4.8390    1.0000 </r>
       <r>   -4.4251    1.0000 </r>
       <r>   -3.9360    1.0000 </r>
       <r>   -3.7758    1.0000 </r>
       <r>   -2.3892    0.0000 </r>
       <r>   -1.8312    0.0000 </r>
       <r>   -1.6878    0.0000 </r>
       <r>   -1.2995    0.0000 </r>
       <r>   -1.0122    0.0000 </r>
       <r>   -0.8628    0.0000 </r>
       <r>   -0.8330    0.0000 </r>
       <r>   -0.7260    0.0000 </r>
       <r>   -0.6471    0.0000 </r>
       <r>   -0.0416    0.0000 </r>
       <r>    0.2080    0.0000 </r>
       <r>    0.3763    0.0000 </r>
       <r>    0.5202    0.0000 </r>
       <r>    0.5756    0.0000 </r>
       <r>    0.7934    0.0000 </r>
       <r>    0.8254    0.0000 </r>
       <r>    0.9360    0.0000 </r>
       <r>    1.1142    0.0000 </r>
       <r>    1.2043    0.0000 </r>
       <r>    1.2633    0.0000 </r>
       <r>    1.3751    0.0000 </r>
       <r>    1.4866    0.0000 </r>
       <r>    1.5166    0.0000 </r>
       <r>    1.5952    0.0000 </r>
       <r>    1.6399    0.0000 </r>
       <r>    1.7010    0.0000 </r>
       <r>    1.7894    0.0000 </r>
       <r>    1.8363    0.0000 </r>
       <r>    1.8493    0.0000 </r>
       <r>    1.9297    0.0000 </r>
       <r>    2.0377    0.0000 </r>
      </set>
     </set>
    </set>
   </array>
  </eigenvalues>
  <separator name="orbital magnetization" >
   <v name="MAGDIPOLOUT">      0.00000000      0.00000000      0.00000000</v>
  </separator>
  <dos>
   <i name="efermi">     -2.56106733 </i>
   <total>
    <array>
     <dimension dim="1">gridpoints</dimension>
     <dimension dim="2">spin</dimension>
     <field>energy</field>
     <field>total</field>
     <field>integrated</field>
     <set>
      <set comment="spin 1">
       <r>   -55.0519     0.0000     0.0000 </r>
       <r>   -54.8522     0.0000     0.0000 </r>
       <r>   -54.6525     0.0000     0.0000 </r>
       <r>   -54.4528     0.0000     0.0000 </r>
       <r>   -54.2531     0.0000     0.0000 </r>
       <r>   -54.0534     0.0000     0.0000 </r>
       <r>   -53.8536     0.0000     0.0000 </r>
       <r>   -53.6539     0.0000     0.0000 </r>
       <r>   -53.4542     0.0000     0.0000 </r>
       <r>   -53.2545     0.0000     0.0000 </r>
       <r>   -53.0548     0.0000     0.0000 </r>
       <r>   -52.8551     0.0000     0.0000 </r>
       <r>   -52.6554     0.0000     0.0000 </r>
       <r>   -52.4557     0.0008     0.0002 </r>
       <r>   -52.2560     4.9064     0.9800 </r>
       <r>   -52.0563     0.1001     1.0000 </r>
       <r>   -51.8566     0.0000     1.0000 </r>
       <r>   -51.6568     0.0000     1.0000 </r>
       <r>   -51.4571     0.0000     1.0000 </r>
       <r>   -51.2574     0.0000     1.0000 </r>
       <r>   -51.0577     0.0000     1.0000 </r>
       <r>   -50.8580     0.0000     1.0000 </r>
       <r>   -50.6583     0.0000     1.0000 </r>
       <r>   -50.4586     0.0000     1.0000 </r>
       <r>   -50.2589     0.0000     1.0000 </r>
       <r>   -50.0592     0.0000     1.0000 </r>
       <r>   -49.8595     0.0000     1.0000 </r>
       <r>   -49.6598     0.0000     1.0000 </r>
       <r>   -49.4600     0.0000     1.0000 </r>
       <r>   -49.2603     0.0000     1.0000 </r>
       <r>   -49.0606     0.0000     1.0000 </r>
       <r>   -48.8609     0.0000     1.0000 </r>
       <r>   -48.6612     0.0000     1.0000 </r>
       <r>   -48.4615     0.0000     1.0000 </r>
       <r>   -48.2618     0.0000     1.0000 </r>
       <r>   -48.0621     0.0000     1.0000 </r>
       <r>   -47.8624     0.0000     1.0000 </r>
       <r>   -47.6627     0.0000     1.0000 </r>
       <r>   -47.4630     0.0000     1.0000 </r>
       <r>   -47.2632     0.0000     1.0000 </r>
       <r>   -47.0635     0.0000     1.0000 </r>
       <r>   -46.8638     0.0000     1.0000 </r>
       <r>   -46.6641     0.0000     1.0000 </r>
       <r>   -46.4644     0.0000     1.0000 </r>
       <r>   -46.2647     0.0000     1.0000 </r>
       <r>   -46.0650     0.0000     1.0000 </r>
       <r>   -45.8653     0.0000     1.0000 </r>
       <r>   -45.6656     0.0000     1.0000 </r>
       <r>   -45.4659     0.0000     1.0000 </r>
       <r>   -45.2662     0.0000     1.0000 </r>
       <r>   -45.0664     0.0000     1.0000 </r>
       <r>   -44.8667     0.0000     1.0000 </r>
       <r>   -44.6670     0.0000     1.0000 </r>
       <r>   -44.4673     0.0000     1.0000 </r>
       <r>   -44.2676     0.0000     1.0000 </r>
       <r>   -44.0679     0.0000     1.0000 </r>
       <r>   -43.8682     0.0000     1.0000 </r>
       <r>   -43.6685     0.0000     1.0000 </r>
       <r>   -43.4688     0.0000     1.0000 </r>
       <r>   -43.2691     0.0000     1.0000 </r>
       <r>   -43.0693     0.0000     1.0000 </r>
       <r>   -42.8696     0.0000     1.0000 </r>
       <r>   -42.6699     0.0000     1.0000 </r>
       <r>   -42.4702     0.0000     1.0000 </r>
       <r>   -42.2705     0.0000     1.0000 </r>
       <r>   -42.0708     0.0000     1.0000 </r>
       <r>   -41.8711     0.0000     1.0000 </r>
       <r>   -41.6714     0.0000     1.0000 </r>
       <r>   -41.4717     0.0000     1.0000 </r>
       <r>   -41.2720     0.0000     1.0000 </r>
       <r>   -41.0723     0.0000     1.0000 </r>
       <r>   -40.8725     0.0000     1.0000 </r>
       <r>   -40.6728     0.0000     1.0000 </r>
       <r>   -40.4731     0.0000     1.0000 </r>
       <r>   -40.2734     0.0000     1.0000 </r>
       <r>   -40.0737     0.0000     1.0000 </r>
       <r>   -39.8740     0.0000     1.0000 </r>
       <r>   -39.6743     0.0000     1.0000 </r>
       <r>   -39.4746     0.0000     1.0000 </r>
       <r>   -39.2749     0.0000     1.0000 </r>
       <r>   -39.0752     0.0000     1.0000 </r>
       <r>   -38.8755     0.0000     1.0000 </r>
       <r>   -38.6757     0.0000     1.0000 </r>
       <r>   -38.4760     0.0000     1.0000 </r>
       <r>   -38.2763     0.0000     1.0000 </r>
       <r>   -38.0766     0.0000     1.0000 </r>
       <r>   -37.8769     0.0000     1.0000 </r>
       <r>   -37.6772     0.0000     1.0000 </r>
       <r>   -37.4775     0.0000     1.0000 </r>
       <r>   -37.2778     0.0000     1.0000 </r>
       <r>   -37.0781     0.0000     1.0000 </r>
       <r>   -36.8784     0.0000     1.0000 </r>
       <r>   -36.6787     0.0000     1.0000 </r>
       <r>   -36.4789     0.0000     1.0000 </r>
       <r>   -36.2792     0.0000     1.0000 </r>
       <r>   -36.0795     0.0000     1.0000 </r>
       <r>   -35.8798     0.0000     1.0000 </r>
       <r>   -35.6801     0.0000     1.0000 </r>
       <r>   -35.4804     0.0000     1.0000 </r>
       <r>   -35.2807     0.0000     1.0000 </r>
       <r>   -35.0810     0.0000     1.0000 </r>
       <r>   -34.8813     0.0000     1.0000 </r>
       <r>   -34.6816     0.0000     1.0000 </r>
       <r>   -34.4819     0.0000     1.0000 </r>
       <r>   -34.2821     0.0000     1.0000 </r>
       <r>   -34.0824     0.0000     1.0000 </r>
       <r>   -33.8827     0.0000     1.0000 </r>
       <r>   -33.6830     0.0000     1.0000 </r>
       <r>   -33.4833     0.0000     1.0000 </r>
       <r>   -33.2836     0.0000     1.0000 </r>
       <r>   -33.0839     0.0000     1.0000 </r>
       <r>   -32.8842     0.0000     1.0000 </r>
       <r>   -32.6845     0.0000     1.0000 </r>
       <r>   -32.4848     0.0000     1.0000 </r>
       <r>   -32.2851     0.0000     1.0000 </r>
       <r>   -32.0853     0.0000     1.0000 </r>
       <r>   -31.8856     0.0000     1.0000 </r>
       <r>   -31.6859     0.0000     1.0000 </r>
       <r>   -31.4862     0.0000     1.0000 </r>
       <r>   -31.2865     0.0000     1.0000 </r>
       <r>   -31.0868     0.0000     1.0000 </r>
       <r>   -30.8871     0.0000     1.0000 </r>
       <r>   -30.6874     0.0000     1.0000 </r>
       <r>   -30.4877     0.0000     1.0000 </r>
       <r>   -30.2880     0.0000     1.0000 </r>
       <r>   -30.0883     0.0000     1.0000 </r>
       <r>   -29.8885     0.0000     1.0000 </r>
       <r>   -29.6888     0.0000     1.0000 </r>
       <r>   -29.4891     0.0000     1.0000 </r>
       <r>   -29.2894     0.0000     1.0000 </r>
       <r>   -29.0897     0.0000     1.0000 </r>
       <r>   -28.8900     0.0000     1.0000 </r>
       <r>   -28.6903     0.0000     1.0000 </r>
       <r>   -28.4906     0.0000     1.0000 </r>
       <r>   -28.2909     0.0000     1.0000 </r>
       <r>   -28.0912     0.0000     1.0000 </r>
       <r>   -27.8915     0.0000     1.0000 </r>
       <r>   -27.6917     0.0000     1.0000 </r>
       <r>   -27.4920     0.0000     1.0000 </r>
       <r>   -27.2923     0.0000     1.0000 </r>
       <r>   -27.0926     0.0000     1.0000 </r>
       <r>   -26.8929     0.0000     1.0000 </r>
       <r>   -26.6932     0.0000     1.0000 </r>
       <r>   -26.4935     0.0000     1.0000 </r>
       <r>   -26.2938     0.0000     1.0000 </r>
       <r>   -26.0941     0.0000     1.0000 </r>
       <r>   -25.8944     0.0000     1.0000 </r>
       <r>   -25.6947     0.0000     1.0000 </r>
       <r>   -25.4949     0.0000     1.0000 </r>
       <r>   -25.2952     0.0000     1.0000 </r>
       <r>   -25.0955     0.0000     1.0000 </r>
       <r>   -24.8958     0.0000     1.0000 </r>
       <r>   -24.6961     0.0000     1.0000 </r>
       <r>   -24.4964     0.0000     1.0000 </r>
       <r>   -24.2967     0.0000     1.0000 </r>
       <r>   -24.0970     0.0000     1.0000 </r>
       <r>   -23.8973     0.0000     1.0000 </r>
       <r>   -23.6976     0.0000     1.0000 </r>
       <r>   -23.4979     0.0000     1.0000 </r>
       <r>   -23.2981     0.0000     1.0000 </r>
       <r>   -23.0984     0.0000     1.0000 </r>
       <r>   -22.8987     0.0000     1.0000 </r>
       <r>   -22.6990     0.0000     1.0000 </r>
       <r>   -22.4993     0.0003     1.0001 </r>
       <r>   -22.2996     2.5045     1.5002 </r>
       <r>   -22.0999     2.6002     2.0195 </r>
       <r>   -21.9002     3.5210     2.7227 </r>
       <r>   -21.7005     3.6325     3.4481 </r>
       <r>   -21.5008     4.2195     4.2908 </r>
       <r>   -21.3010     2.9658     4.8831 </r>
       <r>   -21.1013     3.5361     5.5893 </r>
       <r>   -20.9016     5.5702     6.7017 </r>
       <r>   -20.7019     2.1353     7.1282 </r>
       <r>   -20.5022     3.3412     7.7954 </r>
       <r>   -20.3025     4.3860     8.6714 </r>
       <r>   -20.1028     5.6690     9.8035 </r>
       <r>   -19.9031     2.6084    10.3244 </r>
       <r>   -19.7034     3.9827    11.1198 </r>
       <r>   -19.5037     3.0897    11.7368 </r>
       <r>   -19.3040     5.1692    12.7692 </r>
       <r>   -19.1042     4.2437    13.6167 </r>
       <r>   -18.9045     4.1061    14.4367 </r>
       <r>   -18.7048     0.7113    14.5788 </r>
       <r>   -18.5051     5.9741    15.7719 </r>
       <r>   -18.3054     6.6788    17.1057 </r>
       <r>   -18.1057     2.1148    17.5280 </r>
       <r>   -17.9060     4.7792    18.4825 </r>
       <r>   -17.7063     3.1476    19.1111 </r>
       <r>   -17.5066     2.4114    19.5927 </r>
       <r>   -17.3069     9.1399    21.4180 </r>
       <r>   -17.1072     3.7472    22.1663 </r>
       <r>   -16.9074     5.1293    23.1907 </r>
       <r>   -16.7077     2.8289    23.7557 </r>
       <r>   -16.5080     1.3914    24.0335 </r>
       <r>   -16.3083     4.3452    24.9013 </r>
       <r>   -16.1086     5.6849    26.0366 </r>
       <r>   -15.9089     0.3747    26.1115 </r>
       <r>   -15.7092     3.4551    26.8015 </r>
       <r>   -15.5095     3.2018    27.4409 </r>
       <r>   -15.3098     4.1284    28.2654 </r>
       <r>   -15.1101     6.0289    29.4694 </r>
       <r>   -14.9104     4.1047    30.2892 </r>
       <r>   -14.7106     5.6662    31.4208 </r>
       <r>   -14.5109     2.9393    32.0078 </r>
       <r>   -14.3112     5.5791    33.1220 </r>
       <r>   -14.1115     3.1831    33.7577 </r>
       <r>   -13.9118     4.8172    34.7197 </r>
       <r>   -13.7121     4.2869    35.5758 </r>
       <r>   -13.5124     1.5675    35.8889 </r>
       <r>   -13.3127     2.8642    36.4609 </r>
       <r>   -13.1130     7.1615    37.8911 </r>
       <r>   -12.9133     5.1038    38.9104 </r>
       <r>   -12.7136     4.2939    39.7679 </r>
       <r>   -12.5138     2.9973    40.3665 </r>
       <r>   -12.3141     3.5822    41.0819 </r>
       <r>   -12.1144     5.2782    42.1360 </r>
       <r>   -11.9147     5.9872    43.3317 </r>
       <r>   -11.7150     1.9092    43.7130 </r>
       <r>   -11.5153     8.1348    45.3376 </r>
       <r>   -11.3156     5.6040    46.4568 </r>
       <r>   -11.1159     4.6878    47.3930 </r>
       <r>   -10.9162     3.9558    48.1830 </r>
       <r>   -10.7165     2.8629    48.7547 </r>
       <r>   -10.5168     9.3586    50.6237 </r>
       <r>   -10.3170     9.8204    52.5850 </r>
       <r>   -10.1173     7.7610    54.1349 </r>
       <r>    -9.9176     9.5836    56.0488 </r>
       <r>    -9.7179     8.2572    57.6979 </r>
       <r>    -9.5182     9.6151    59.6181 </r>
       <r>    -9.3185    10.4893    61.7129 </r>
       <r>    -9.1188    13.6902    64.4470 </r>
       <r>    -8.9191    12.0024    66.8439 </r>
       <r>    -8.7194    11.6333    69.1672 </r>
       <r>    -8.5197     6.7757    70.5204 </r>
       <r>    -8.3200     8.9753    72.3129 </r>
       <r>    -8.1202     9.7559    74.2612 </r>
       <r>    -7.9205    13.2720    76.9117 </r>
       <r>    -7.7208     6.9443    78.2986 </r>
       <r>    -7.5211     3.2287    78.9434 </r>
       <r>    -7.3214     9.3499    80.8107 </r>
       <r>    -7.1217     9.2251    82.6530 </r>
       <r>    -6.9220     9.5637    84.5629 </r>
       <r>    -6.7223     9.0869    86.3777 </r>
       <r>    -6.5226     4.5599    87.2883 </r>
       <r>    -6.3229     6.5320    88.5928 </r>
       <r>    -6.1232     5.8467    89.7605 </r>
       <r>    -5.9234    11.0322    91.9637 </r>
       <r>    -5.7237     3.1994    92.6026 </r>
       <r>    -5.5240     6.9271    93.9860 </r>
       <r>    -5.3243     1.7463    94.3348 </r>
       <r>    -5.1246     3.3601    95.0058 </r>
       <r>    -4.9249     8.1152    96.6265 </r>
       <r>    -4.7252     7.0372    98.0319 </r>
       <r>    -4.5255     1.7329    98.3780 </r>
       <r>    -4.3258     2.7752    98.9322 </r>
       <r>    -4.1261     1.9116    99.3139 </r>
       <r>    -3.9264     2.6316    99.8395 </r>
       <r>    -3.7266     2.4462   100.3280 </r>
       <r>    -3.5269     2.2247   100.7723 </r>
       <r>    -3.3272     0.0274   100.7778 </r>
       <r>    -3.1275     0.0000   100.7778 </r>
       <r>    -2.9278     0.3566   100.8490 </r>
       <r>    -2.7281     2.0926   101.2669 </r>
       <r>    -2.5284     2.4140   101.7490 </r>
       <r>    -2.3287     2.1715   102.1827 </r>
       <r>    -2.1290     0.1981   102.2222 </r>
       <r>    -1.9293     0.0310   102.2284 </r>
       <r>    -1.7296     3.6820   102.9637 </r>
       <r>    -1.5298     4.1930   103.8011 </r>
       <r>    -1.3301     3.4587   104.4919 </r>
       <r>    -1.1304     3.8766   105.2661 </r>
       <r>    -0.9307     6.9256   106.6492 </r>
       <r>    -0.7310     7.7443   108.1958 </r>
       <r>    -0.5313     5.4214   109.2785 </r>
       <r>    -0.3316     3.0564   109.8889 </r>
       <r>    -0.1319     0.1553   109.9199 </r>
       <r>     0.0678     4.5921   110.8370 </r>
       <r>     0.2675     8.1868   112.4720 </r>
       <r>     0.4673     8.6557   114.2006 </r>
       <r>     0.6670     5.6750   115.3339 </r>
       <r>     0.8667     5.8773   116.5077 </r>
       <r>     1.0664     7.3464   117.9748 </r>
       <r>     1.2661    11.7986   120.3311 </r>
       <r>     1.4658    12.5729   122.8420 </r>
       <r>     1.6655    17.1310   126.2633 </r>
       <r>     1.8652    18.9862   130.0550 </r>
       <r>     2.0649     8.3429   131.7211 </r>
       <r>     2.2646     1.3963   132.0000 </r>
       <r>     2.4643     0.0000   132.0000 </r>
       <r>     2.6641     0.0000   132.0000 </r>
       <r>     2.8638     0.0000   132.0000 </r>
       <r>     3.0635     0.0000   132.0000 </r>
       <r>     3.2632     0.0000   132.0000 </r>
       <r>     3.4629     0.0000   132.0000 </r>
       <r>     3.6626     0.0000   132.0000 </r>
       <r>     3.8623     0.0000   132.0000 </r>
       <r>     4.0620     0.0000   132.0000 </r>
       <r>     4.2617     0.0000   132.0000 </r>
       <r>     4.4614     0.0000   132.0000 </r>
       <r>     4.6611     0.0000   132.0000 </r>
       <r>     4.8609     0.0000   132.0000 </r>
      </set>
      <set comment="spin 2">
       <r>   -55.0519     0.0000     0.0000 </r>
       <r>   -54.8522     0.0000     0.0000 </r>
       <r>   -54.6525     0.0000     0.0000 </r>
       <r>   -54.4528     0.0000     0.0000 </r>
       <r>   -54.2531     0.0000     0.0000 </r>
       <r>   -54.0534     0.0000     0.0000 </r>
       <r>   -53.8536     0.0000     0.0000 </r>
       <r>   -53.6539     0.0000     0.0000 </r>
       <r>   -53.4542     0.0000     0.0000 </r>
       <r>   -53.2545     0.0000     0.0000 </r>
       <r>   -53.0548     0.0000     0.0000 </r>
       <r>   -52.8551     0.0000     0.0000 </r>
       <r>   -52.6554     0.0000     0.0000 </r>
       <r>   -52.4557     0.0007     0.0001 </r>
       <r>   -52.2560     4.9011     0.9789 </r>
       <r>   -52.0563     0.1054     1.0000 </r>
       <r>   -51.8566     0.0000     1.0000 </r>
       <r>   -51.6568     0.0000     1.0000 </r>
       <r>   -51.4571     0.0000     1.0000 </r>
       <r>   -51.2574     0.0000     1.0000 </r>
       <r>   -51.0577     0.0000     1.0000 </r>
       <r>   -50.8580     0.0000     1.0000 </r>
       <r>   -50.6583     0.0000     1.0000 </r>
       <r>   -50.4586     0.0000     1.0000 </r>
       <r>   -50.2589     0.0000     1.0000 </r>
       <r>   -50.0592     0.0000     1.0000 </r>
       <r>   -49.8595     0.0000     1.0000 </r>
       <r>   -49.6598     0.0000     1.0000 </r>
       <r>   -49.4600     0.0000     1.0000 </r>
       <r>   -49.2603     0.0000     1.0000 </r>
       <r>   -49.0606     0.0000     1.0000 </r>
       <r>   -48.8609     0.0000     1.0000 </r>
       <r>   -48.6612     0.0000     1.0000 </r>
       <r>   -48.4615     0.0000     1.0000 </r>
       <r>   -48.2618     0.0000     1.0000 </r>
       <r>   -48.0621     0.0000     1.0000 </r>
       <r>   -47.8624     0.0000     1.0000 </r>
       <r>   -47.6627     0.0000     1.0000 </r>
       <r>   -47.4630     0.0000     1.0000 </r>
       <r>   -47.2632     0.0000     1.0000 </r>
       <r>   -47.0635     0.0000     1.0000 </r>
       <r>   -46.8638     0.0000     1.0000 </r>
       <r>   -46.6641     0.0000     1.0000 </r>
       <r>   -46.4644     0.0000     1.0000 </r>
       <r>   -46.2647     0.0000     1.0000 </r>
       <r>   -46.0650     0.0000     1.0000 </r>
       <r>   -45.8653     0.0000     1.0000 </r>
       <r>   -45.6656     0.0000     1.0000 </r>
       <r>   -45.4659     0.0000     1.0000 </r>
       <r>   -45.2662     0.0000     1.0000 </r>
       <r>   -45.0664     0.0000     1.0000 </r>
       <r>   -44.8667     0.0000     1.0000 </r>
       <r>   -44.6670     0.0000     1.0000 </r>
       <r>   -44.4673     0.0000     1.0000 </r>
       <r>   -44.2676     0.0000     1.0000 </r>
       <r>   -44.0679     0.0000     1.0000 </r>
       <r>   -43.8682     0.0000     1.0000 </r>
       <r>   -43.6685     0.0000     1.0000 </r>
       <r>   -43.4688     0.0000     1.0000 </r>
       <r>   -43.2691     0.0000     1.0000 </r>
       <r>   -43.0693     0.0000     1.0000 </r>
       <r>   -42.8696     0.0000     1.0000 </r>
       <r>   -42.6699     0.0000     1.0000 </r>
       <r>   -42.4702     0.0000     1.0000 </r>
       <r>   -42.2705     0.0000     1.0000 </r>
       <r>   -42.0708     0.0000     1.0000 </r>
       <r>   -41.8711     0.0000     1.0000 </r>
       <r>   -41.6714     0.0000     1.0000 </r>
       <r>   -41.4717     0.0000     1.0000 </r>
       <r>   -41.2720     0.0000     1.0000 </r>
       <r>   -41.0723     0.0000     1.0000 </r>
       <r>   -40.8725     0.0000     1.0000 </r>
       <r>   -40.6728     0.0000     1.0000 </r>
       <r>   -40.4731     0.0000     1.0000 </r>
       <r>   -40.2734     0.0000     1.0000 </r>
       <r>   -40.0737     0.0000     1.0000 </r>
       <r>   -39.8740     0.0000     1.0000 </r>
       <r>   -39.6743     0.0000     1.0000 </r>
       <r>   -39.4746     0.0000     1.0000 </r>
       <r>   -39.2749     0.0000     1.0000 </r>
       <r>   -39.0752     0.0000     1.0000 </r>
       <r>   -38.8755     0.0000     1.0000 </r>
       <r>   -38.6757     0.0000     1.0000 </r>
       <r>   -38.4760     0.0000     1.0000 </r>
       <r>   -38.2763     0.0000     1.0000 </r>
       <r>   -38.0766     0.0000     1.0000 </r>
       <r>   -37.8769     0.0000     1.0000 </r>
       <r>   -37.6772     0.0000     1.0000 </r>
       <r>   -37.4775     0.0000     1.0000 </r>
       <r>   -37.2778     0.0000     1.0000 </r>
       <r>   -37.0781     0.0000     1.0000 </r>
       <r>   -36.8784     0.0000     1.0000 </r>
       <r>   -36.6787     0.0000     1.0000 </r>
       <r>   -36.4789     0.0000     1.0000 </r>
       <r>   -36.2792     0.0000     1.0000 </r>
       <r>   -36.0795     0.0000     1.0000 </r>
       <r>   -35.8798     0.0000     1.0000 </r>
       <r>   -35.6801     0.0000     1.0000 </r>
       <r>   -35.4804     0.0000     1.0000 </r>
       <r>   -35.2807     0.0000     1.0000 </r>
       <r>   -35.0810     0.0000     1.0000 </r>
       <r>   -34.8813     0.0000     1.0000 </r>
       <r>   -34.6816     0.0000     1.0000 </r>
       <r>   -34.4819     0.0000     1.0000 </r>
       <r>   -34.2821     0.0000     1.0000 </r>
       <r>   -34.0824     0.0000     1.0000 </r>
       <r>   -33.8827     0.0000     1.0000 </r>
       <r>   -33.6830     0.0000     1.0000 </r>
       <r>   -33.4833     0.0000     1.0000 </r>
       <r>   -33.2836     0.0000     1.0000 </r>
       <r>   -33.0839     0.0000     1.0000 </r>
       <r>   -32.8842     0.0000     1.0000 </r>
       <r>   -32.6845     0.0000     1.0000 </r>
       <r>   -32.4848     0.0000     1.0000 </r>
       <r>   -32.2851     0.0000     1.0000 </r>
       <r>   -32.0853     0.0000     1.0000 </r>
       <r>   -31.8856     0.0000     1.0000 </r>
       <r>   -31.6859     0.0000     1.0000 </r>
       <r>   -31.4862     0.0000     1.0000 </r>
       <r>   -31.2865     0.0000     1.0000 </r>
       <r>   -31.0868     0.0000     1.0000 </r>
       <r>   -30.8871     0.0000     1.0000 </r>
       <r>   -30.6874     0.0000     1.0000 </r>
       <r>   -30.4877     0.0000     1.0000 </r>
       <r>   -30.2880     0.0000     1.0000 </r>
       <r>   -30.0883     0.0000     1.0000 </r>
       <r>   -29.8885     0.0000     1.0000 </r>
       <r>   -29.6888     0.0000     1.0000 </r>
       <r>   -29.4891     0.0000     1.0000 </r>
       <r>   -29.2894     0.0000     1.0000 </r>
       <r>   -29.0897     0.0000     1.0000 </r>
       <r>   -28.8900     0.0000     1.0000 </r>
       <r>   -28.6903     0.0000     1.0000 </r>
       <r>   -28.4906     0.0000     1.0000 </r>
       <r>   -28.2909     0.0000     1.0000 </r>
       <r>   -28.0912     0.0000     1.0000 </r>
       <r>   -27.8915     0.0000     1.0000 </r>
       <r>   -27.6917     0.0000     1.0000 </r>
       <r>   -27.4920     0.0000     1.0000 </r>
       <r>   -27.2923     0.0000     1.0000 </r>
       <r>   -27.0926     0.0000     1.0000 </r>
       <r>   -26.8929     0.0000     1.0000 </r>
       <r>   -26.6932     0.0000     1.0000 </r>
       <r>   -26.4935     0.0000     1.0000 </r>
       <r>   -26.2938     0.0000     1.0000 </r>
       <r>   -26.0941     0.0000     1.0000 </r>
       <r>   -25.8944     0.0000     1.0000 </r>
       <r>   -25.6947     0.0000     1.0000 </r>
       <r>   -25.4949     0.0000     1.0000 </r>
       <r>   -25.2952     0.0000     1.0000 </r>
       <r>   -25.0955     0.0000     1.0000 </r>
       <r>   -24.8958     0.0000     1.0000 </r>
       <r>   -24.6961     0.0000     1.0000 </r>
       <r>   -24.4964     0.0000     1.0000 </r>
       <r>   -24.2967     0.0000     1.0000 </r>
       <r>   -24.0970     0.0000     1.0000 </r>
       <r>   -23.8973     0.0000     1.0000 </r>
       <r>   -23.6976     0.0000     1.0000 </r>
       <r>   -23.4979     0.0000     1.0000 </r>
       <r>   -23.2981     0.0000     1.0000 </r>
       <r>   -23.0984     0.0000     1.0000 </r>
       <r>   -22.8987     0.0000     1.0000 </r>
       <r>   -22.6990     0.0000     1.0000 </r>
       <r>   -22.4993     0.0001     1.0000 </r>
       <r>   -22.2996     2.0765     1.4147 </r>
       <r>   -22.0999     2.9791     2.0097 </r>
       <r>   -21.9002     3.5058     2.7098 </r>
       <r>   -21.7005     3.6652     3.4418 </r>
       <r>   -21.5008     3.9033     4.2213 </r>
       <r>   -21.3010     3.2415     4.8687 </r>
       <r>   -21.1013     3.2093     5.5096 </r>
       <r>   -20.9016     5.7446     6.6568 </r>
       <r>   -20.7019     2.3337     7.1229 </r>
       <r>   -20.5022     3.3030     7.7825 </r>
       <r>   -20.3025     4.4378     8.6688 </r>
       <r>   -20.1028     5.5790     9.7830 </r>
       <r>   -19.9031     2.6784    10.3179 </r>
       <r>   -19.7034     3.7186    11.0605 </r>
       <r>   -19.5037     3.2761    11.7148 </r>
       <r>   -19.3040     5.0927    12.7318 </r>
       <r>   -19.1042     4.2797    13.5865 </r>
       <r>   -18.9045     4.2330    14.4319 </r>
       <r>   -18.7048     0.6993    14.5716 </r>
       <r>   -18.5051     5.7262    15.7152 </r>
       <r>   -18.3054     6.8050    17.0742 </r>
       <r>   -18.1057     2.2337    17.5203 </r>
       <r>   -17.9060     4.7141    18.4617 </r>
       <r>   -17.7063     3.2515    19.1111 </r>
       <r>   -17.5066     2.0778    19.5260 </r>
       <r>   -17.3069     9.3122    21.3858 </r>
       <r>   -17.1072     3.7248    22.1296 </r>
       <r>   -16.9074     5.1553    23.1592 </r>
       <r>   -16.7077     2.9302    23.7444 </r>
       <r>   -16.5080     1.4166    24.0273 </r>
       <r>   -16.3083     4.0322    24.8326 </r>
       <r>   -16.1086     5.9441    26.0196 </r>
       <r>   -15.9089     0.4590    26.1113 </r>
       <r>   -15.7092     3.3910    26.7885 </r>
       <r>   -15.5095     3.1744    27.4225 </r>
       <r>   -15.3098     4.0051    28.2224 </r>
       <r>   -15.1101     6.1939    29.4593 </r>
       <r>   -14.9104     4.0903    30.2762 </r>
       <r>   -14.7106     5.6149    31.3976 </r>
       <r>   -14.5109     3.0421    32.0051 </r>
       <r>   -14.3112     5.4011    33.0838 </r>
       <r>   -14.1115     3.0009    33.6831 </r>
       <r>   -13.9118     5.0569    34.6930 </r>
       <r>   -13.7121     4.3370    35.5591 </r>
       <r>   -13.5124     1.6512    35.8889 </r>
       <r>   -13.3127     2.6277    36.4136 </r>
       <r>   -13.1130     7.2558    37.8627 </r>
       <r>   -12.9133     5.1472    38.8906 </r>
       <r>   -12.7136     4.3780    39.7650 </r>
       <r>   -12.5138     2.8335    40.3308 </r>
       <r>   -12.3141     3.5217    41.0342 </r>
       <r>   -12.1144     5.3047    42.0936 </r>
       <r>   -11.9147     6.1861    43.3290 </r>
       <r>   -11.7150     1.8185    43.6922 </r>
       <r>   -11.5153     7.9199    45.2738 </r>
       <r>   -11.3156     5.8548    46.4431 </r>
       <r>   -11.1159     4.7018    47.3821 </r>
       <r>   -10.9162     3.8807    48.1571 </r>
       <r>   -10.7165     2.7638    48.7090 </r>
       <r>   -10.5168     9.2172    50.5498 </r>
       <r>   -10.3170     9.7302    52.4930 </r>
       <r>   -10.1173     8.0629    54.1032 </r>
       <r>    -9.9176     9.4800    55.9965 </r>
       <r>    -9.7179     8.0544    57.6050 </r>
       <r>    -9.5182     9.6398    59.5302 </r>
       <r>    -9.3185    10.5756    61.6422 </r>
       <r>    -9.1188    13.6819    64.3746 </r>
       <r>    -8.9191    11.5477    66.6808 </r>
       <r>    -8.7194    12.1360    69.1044 </r>
       <r>    -8.5197     6.8803    70.4785 </r>
       <r>    -8.3200     9.0103    72.2779 </r>
       <r>    -8.1202     9.4028    74.1558 </r>
       <r>    -7.9205    13.1669    76.7853 </r>
       <r>    -7.7208     7.5038    78.2839 </r>
       <r>    -7.5211     2.8972    78.8625 </r>
       <r>    -7.3214     9.2303    80.7059 </r>
       <r>    -7.1217     9.2998    82.5631 </r>
       <r>    -6.9220     9.8003    84.5203 </r>
       <r>    -6.7223     8.9505    86.3078 </r>
       <r>    -6.5226     4.8720    87.2808 </r>
       <r>    -6.3229     6.3573    88.5504 </r>
       <r>    -6.1232     4.9307    89.5351 </r>
       <r>    -5.9234    11.8913    91.9099 </r>
       <r>    -5.7237     3.1076    92.5305 </r>
       <r>    -5.5240     6.9060    93.9097 </r>
       <r>    -5.3243     2.1095    94.3310 </r>
       <r>    -5.1246     3.1221    94.9545 </r>
       <r>    -4.9249     7.4445    96.4412 </r>
       <r>    -4.7252     7.5877    97.9566 </r>
       <r>    -4.5255     1.9885    98.3537 </r>
       <r>    -4.3258     2.7579    98.9045 </r>
       <r>    -4.1261     2.0045    99.3048 </r>
       <r>    -3.9264     1.9672    99.6976 </r>
       <r>    -3.7266     3.0921   100.3152 </r>
       <r>    -3.5269     2.2559   100.7657 </r>
       <r>    -3.3272     0.0606   100.7778 </r>
       <r>    -3.1275     0.0000   100.7778 </r>
       <r>    -2.9278     0.0533   100.7884 </r>
       <r>    -2.7281     1.9236   101.1726 </r>
       <r>    -2.5284     1.2870   101.4296 </r>
       <r>    -2.3287     3.0933   102.0474 </r>
       <r>    -2.1290     0.8755   102.2222 </r>
       <r>    -1.9293     0.0044   102.2231 </r>
       <r>    -1.7296     3.5527   102.9326 </r>
       <r>    -1.5298     4.0738   103.7462 </r>
       <r>    -1.3301     2.0187   104.1493 </r>
       <r>    -1.1304     5.4057   105.2289 </r>
       <r>    -0.9307     6.9737   106.6216 </r>
       <r>    -0.7310     7.5014   108.1197 </r>
       <r>    -0.5313     5.1887   109.1560 </r>
       <r>    -0.3316     3.6698   109.8889 </r>
       <r>    -0.1319     0.0667   109.9022 </r>
       <r>     0.0678     4.4292   110.7867 </r>
       <r>     0.2675     7.9866   112.3817 </r>
       <r>     0.4673     8.6342   114.1061 </r>
       <r>     0.6670     6.1334   115.3310 </r>
       <r>     0.8667     5.3030   116.3900 </r>
       <r>     1.0664     7.5628   117.9004 </r>
       <r>     1.2661    11.1451   120.1262 </r>
       <r>     1.4658    11.8476   122.4922 </r>
       <r>     1.6655    17.3949   125.9662 </r>
       <r>     1.8652    18.4192   129.6447 </r>
       <r>     2.0649     9.5689   131.5556 </r>
       <r>     2.2646     2.2249   132.0000 </r>
       <r>     2.4643     0.0001   132.0000 </r>
       <r>     2.6641     0.0000   132.0000 </r>
       <r>     2.8638     0.0000   132.0000 </r>
       <r>     3.0635     0.0000   132.0000 </r>
       <r>     3.2632     0.0000   132.0000 </r>
       <r>     3.4629     0.0000   132.0000 </r>
       <r>     3.6626     0.0000   132.0000 </r>
       <r>     3.8623     0.0000   132.0000 </r>
       <r>     4.0620     0.0000   132.0000 </r>
       <r>     4.2617     0.0000   132.0000 </r>
       <r>     4.4614     0.0000   132.0000 </r>
       <r>     4.6611     0.0000   132.0000 </r>
       <r>     4.8609     0.0000   132.0000 </r>
      </set>
     </set>
    </array>
   </total>
  </dos>
 </calculation>
 <structure name="finalpos" >
  <crystal>
   <varray name="basis" >
    <v>      12.30000000       0.00000000       0.00000000 </v>
    <v>      -6.15000000      10.65211247       0.00000000 </v>
    <v>       0.00000000       0.00000000      30.00000000 </v>
   </varray>
   <i name="volume">   3930.62950016 </i>
   <varray name="rec_basis" >
    <v>       0.08130081       0.04693905       0.00000000 </v>
    <v>       0.00000000       0.09387809       0.00000000 </v>
    <v>       0.00000000       0.00000000       0.03333333 </v>
   </varray>
  </crystal>
  <varray name="positions" >
   <v>       0.99824632       0.00451485       0.50456974 </v>
   <v>       0.13064214       0.06937547       0.51014723 </v>
   <v>       0.99450334       0.20543693       0.49533941 </v>
   <v>       0.12874344       0.26897822       0.49821997 </v>
   <v>       0.99549924       0.40924387       0.48997498 </v>
   <v>       0.13111623       0.47011518       0.49608251 </v>
   <v>       0.01694627       0.61707021       0.50086202 </v>
   <v>       0.14368459       0.67346735       0.50906859 </v>
   <v>       0.00680056       0.81035110       0.50906906 </v>
   <v>       0.13634663       0.87093284       0.51710703 </v>
   <v>       0.19769422       0.00223603       0.51731135 </v>
   <v>       0.51663516       0.24987308       0.50229483 </v>
   <v>       0.40218667       0.39650253       0.49661258 </v>
   <v>       0.32847798       0.26460571       0.50429262 </v>
   <v>       0.19857260       0.40161433       0.49668863 </v>
   <v>       0.33464895       0.46494607       0.49678961 </v>
   <v>       0.20488481       0.60214560       0.50352156 </v>
   <v>       0.33784857       0.66491353       0.50456968 </v>
   <v>       0.20426646       0.80301336       0.51710687 </v>
   <v>       0.33556953       0.86436090       0.51731135 </v>
   <v>       0.39697042       0.99568090       0.51793013 </v>
   <v>       0.52677657       0.05640753       0.51029899 </v>
   <v>       0.38974075       0.19344334       0.51029902 </v>
   <v>       0.32901416       0.06363699       0.51793012 </v>
   <v>       0.19546749       0.20182835       0.50490773 </v>
   <v>       0.53776641       0.45732263       0.49044788 </v>
   <v>       0.60231162       0.79541019       0.49821990 </v>
   <v>       0.53877040       0.66117011       0.49533946 </v>
   <v>       0.40270914       0.79730880       0.51014714 </v>
   <v>       0.53516185       0.86213429       0.50490773 </v>
   <v>       0.59793910       0.99514473       0.50429256 </v>
   <v>       0.72983580       0.06885333       0.49661244 </v>
   <v>       0.58320626       0.18330190       0.50229480 </v>
   <v>       0.70782687       0.25920486       0.48900840 </v>
   <v>       0.59253813       0.37449369       0.48900842 </v>
   <v>       0.71088039       0.37754721       0.47886008 </v>
   <v>       0.60677497       0.59312172       0.48985965 </v>
   <v>       0.93547874       0.87155144       0.50352185 </v>
   <v>       0.40452511       0.59760148       0.49815080 </v>
   <v>       0.73494768       0.86523935       0.49668863 </v>
   <v>       0.79827934       0.00131561       0.49678948 </v>
   <v>       0.93093470       0.07119166       0.49815081 </v>
   <v>       0.79065586       0.20443305       0.49044784 </v>
   <v>       0.92645497       0.27344147       0.48985966 </v>
   <v>       0.82194826       0.48861487       0.47841955 </v>
   <v>       0.94070656       0.49201793       0.48816656 </v>
   <v>       0.82535155       0.60737341       0.48816659 </v>
   <v>       0.95040365       0.68361294       0.50086218 </v>
   <v>       0.80344850       0.79778282       0.49608286 </v>
   <v>       0.74257744       0.66216589       0.48997508 </v>
   <v>       0.66900817       0.41253408       0.55691839 </v>
  </varray>
 </structure>
</modeling>
