  55  55   0   0
  0.7146599E+02  0.1230000E-08  0.1230000E-08  0.3000000E-08  0.5000000E-15
  1.000000000000000E-004
  CAR 
 Li defective graphene MACE training lab 
      4.37901472    -52.66342552  301     -3.10765500      1.00000000
    -52.663  0.0000E+00  0.0000E+00  0.0000E+00  0.0000E+00
    -52.473  0.0000E+00  0.0000E+00  0.0000E+00  0.0000E+00
    -52.283  0.0000E+00  0.0000E+00  0.0000E+00  0.0000E+00
    -52.093  0.0000E+00  0.0000E+00  0.0000E+00  0.0000E+00
    -51.903  0.0000E+00  0.0000E+00  0.0000E+00  0.0000E+00
    -51.713  0.0000E+00  0.0000E+00  0.0000E+00  0.0000E+00
    -51.523  0.0000E+00  0.0000E+00  0.0000E+00  0.0000E+00
    -51.332  0.0000E+00  0.0000E+00  0.0000E+00  0.0000E+00
    -51.142  0.0000E+00  0.0000E+00  0.0000E+00  0.0000E+00
    -50.952  0.0000E+00  0.0000E+00  0.0000E+00  0.0000E+00
    -50.762  0.0000E+00  0.0000E+00  0.0000E+00  0.0000E+00
    -50.572  0.0000E+00  0.0000E+00  0.0000E+00  0.0000E+00
    -50.382  0.0000E+00  0.0000E+00  0.0000E+00  0.0000E+00
    -50.192  0.1632E-02  0.1040E-02  0.3104E-03  0.1978E-03
    -50.001  0.5125E+01  0.5083E+01  0.9747E+00  0.9668E+00
    -49.811  0.1328E+00  0.1749E+00  0.1000E+01  0.1000E+01
    -49.621  0.0000E+00  0.0000E+00  0.1000E+01  0.1000E+01
    -49.431  0.0000E+00  0.0000E+00  0.1000E+01  0.1000E+01
    -49.241  0.0000E+00  0.0000E+00  0.1000E+01  0.1000E+01
    -49.051  0.0000E+00  0.0000E+00  0.1000E+01  0.1000E+01
    -48.861  0.0000E+00  0.0000E+00  0.1000E+01  0.1000E+01
    -48.670  0.0000E+00  0.0000E+00  0.1000E+01  0.1000E+01
    -48.480  0.0000E+00  0.0000E+00  0.1000E+01  0.1000E+01
    -48.290  0.0000E+00  0.0000E+00  0.1000E+01  0.1000E+01
    -48.100  0.0000E+00  0.0000E+00  0.1000E+01  0.1000E+01
    -47.910  0.0000E+00  0.0000E+00  0.1000E+01  0.1000E+01
    -47.720  0.0000E+00  0.0000E+00  0.1000E+01  0.1000E+01
    -47.530  0.0000E+00  0.0000E+00  0.1000E+01  0.1000E+01
    -47.339  0.0000E+00  0.0000E+00  0.1000E+01  0.1000E+01
    -47.149  0.0000E+00  0.0000E+00  0.1000E+01  0.1000E+01
    -46.959  0.0000E+00  0.0000E+00  0.1000E+01  0.1000E+01
    -46.769  0.0000E+00  0.0000E+00  0.1000E+01  0.1000E+01
    -46.579  0.0000E+00  0.0000E+00  0.1000E+01  0.1000E+01
    -46.389  0.0000E+00  0.0000E+00  0.1000E+01  0.1000E+01
    -46.199  0.0000E+00  0.0000E+00  0.1000E+01  0.1000E+01
    -46.008  0.0000E+00  0.0000E+00  0.1000E+01  0.1000E+01
    -45.818  0.0000E+00  0.0000E+00  0.1000E+01  0.1000E+01
    -45.628  0.0000E+00  0.0000E+00  0.1000E+01  0.1000E+01
    -45.438  0.0000E+00  0.0000E+00  0.1000E+01  0.1000E+01
    -45.248  0.0000E+00  0.0000E+00  0.1000E+01  0.1000E+01
    -45.058  0.0000E+00  0.0000E+00  0.1000E+01  0.1000E+01
    -44.868  0.0000E+00  0.0000E+00  0.1000E+01  0.1000E+01
    -44.677  0.0000E+00  0.0000E+00  0.1000E+01  0.1000E+01
    -44.487  0.0000E+00  0.0000E+00  0.1000E+01  0.1000E+01
    -44.297  0.0000E+00  0.0000E+00  0.1000E+01  0.1000E+01
    -44.107  0.0000E+00  0.0000E+00  0.1000E+01  0.1000E+01
    -43.917  0.0000E+00  0.0000E+00  0.1000E+01  0.1000E+01
    -43.727  0.0000E+00  0.0000E+00  0.1000E+01  0.1000E+01
    -43.537  0.0000E+00  0.0000E+00  0.1000E+01  0.1000E+01
    -43.346  0.0000E+00  0.0000E+00  0.1000E+01  0.1000E+01
    -43.156  0.0000E+00  0.0000E+00  0.1000E+01  0.1000E+01
    -42.966  0.0000E+00  0.0000E+00  0.1000E+01  0.1000E+01
    -42.776  0.0000E+00  0.0000E+00  0.1000E+01  0.1000E+01
    -42.586  0.0000E+00  0.0000E+00  0.1000E+01  0.1000E+01
    -42.396  0.0000E+00  0.0000E+00  0.1000E+01  0.1000E+01
    -42.206  0.0000E+00  0.0000E+00  0.1000E+01  0.1000E+01
    -42.016  0.0000E+00  0.0000E+00  0.1000E+01  0.1000E+01
    -41.825  0.0000E+00  0.0000E+00  0.1000E+01  0.1000E+01
    -41.635  0.0000E+00  0.0000E+00  0.1000E+01  0.1000E+01
    -41.445  0.0000E+00  0.0000E+00  0.1000E+01  0.1000E+01
    -41.255  0.0000E+00  0.0000E+00  0.1000E+01  0.1000E+01
    -41.065  0.0000E+00  0.0000E+00  0.1000E+01  0.1000E+01
    -40.875  0.0000E+00  0.0000E+00  0.1000E+01  0.1000E+01
    -40.685  0.0000E+00  0.0000E+00  0.1000E+01  0.1000E+01
    -40.494  0.0000E+00  0.0000E+00  0.1000E+01  0.1000E+01
    -40.304  0.0000E+00  0.0000E+00  0.1000E+01  0.1000E+01
    -40.114  0.0000E+00  0.0000E+00  0.1000E+01  0.1000E+01
    -39.924  0.0000E+00  0.0000E+00  0.1000E+01  0.1000E+01
    -39.734  0.0000E+00  0.0000E+00  0.1000E+01  0.1000E+01
    -39.544  0.0000E+00  0.0000E+00  0.1000E+01  0.1000E+01
    -39.354  0.0000E+00  0.0000E+00  0.1000E+01  0.1000E+01
    -39.163  0.0000E+00  0.0000E+00  0.1000E+01  0.1000E+01
    -38.973  0.0000E+00  0.0000E+00  0.1000E+01  0.1000E+01
    -38.783  0.0000E+00  0.0000E+00  0.1000E+01  0.1000E+01
    -38.593  0.0000E+00  0.0000E+00  0.1000E+01  0.1000E+01
    -38.403  0.0000E+00  0.0000E+00  0.1000E+01  0.1000E+01
    -38.213  0.0000E+00  0.0000E+00  0.1000E+01  0.1000E+01
    -38.023  0.0000E+00  0.0000E+00  0.1000E+01  0.1000E+01
    -37.832  0.0000E+00  0.0000E+00  0.1000E+01  0.1000E+01
    -37.642  0.0000E+00  0.0000E+00  0.1000E+01  0.1000E+01
    -37.452  0.0000E+00  0.0000E+00  0.1000E+01  0.1000E+01
    -37.262  0.0000E+00  0.0000E+00  0.1000E+01  0.1000E+01
    -37.072  0.0000E+00  0.0000E+00  0.1000E+01  0.1000E+01
    -36.882  0.0000E+00  0.0000E+00  0.1000E+01  0.1000E+01
    -36.692  0.0000E+00  0.0000E+00  0.1000E+01  0.1000E+01
    -36.501  0.0000E+00  0.0000E+00  0.1000E+01  0.1000E+01
    -36.311  0.0000E+00  0.0000E+00  0.1000E+01  0.1000E+01
    -36.121  0.0000E+00  0.0000E+00  0.1000E+01  0.1000E+01
    -35.931  0.0000E+00  0.0000E+00  0.1000E+01  0.1000E+01
    -35.741  0.0000E+00  0.0000E+00  0.1000E+01  0.1000E+01
    -35.551  0.0000E+00  0.0000E+00  0.1000E+01  0.1000E+01
    -35.361  0.0000E+00  0.0000E+00  0.1000E+01  0.1000E+01
    -35.170  0.0000E+00  0.0000E+00  0.1000E+01  0.1000E+01
    -34.980  0.0000E+00  0.0000E+00  0.1000E+01  0.1000E+01
    -34.790  0.0000E+00  0.0000E+00  0.1000E+01  0.1000E+01
    -34.600  0.0000E+00  0.0000E+00  0.1000E+01  0.1000E+01
    -34.410  0.0000E+00  0.0000E+00  0.1000E+01  0.1000E+01
    -34.220  0.0000E+00  0.0000E+00  0.1000E+01  0.1000E+01
    -34.030  0.0000E+00  0.0000E+00  0.1000E+01  0.1000E+01
    -33.839  0.0000E+00  0.0000E+00  0.1000E+01  0.1000E+01
    -33.649  0.0000E+00  0.0000E+00  0.1000E+01  0.1000E+01
    -33.459  0.0000E+00  0.0000E+00  0.1000E+01  0.1000E+01
    -33.269  0.0000E+00  0.0000E+00  0.1000E+01  0.1000E+01
    -33.079  0.0000E+00  0.0000E+00  0.1000E+01  0.1000E+01
    -32.889  0.0000E+00  0.0000E+00  0.1000E+01  0.1000E+01
    -32.699  0.0000E+00  0.0000E+00  0.1000E+01  0.1000E+01
    -32.508  0.0000E+00  0.0000E+00  0.1000E+01  0.1000E+01
    -32.318  0.0000E+00  0.0000E+00  0.1000E+01  0.1000E+01
    -32.128  0.0000E+00  0.0000E+00  0.1000E+01  0.1000E+01
    -31.938  0.0000E+00  0.0000E+00  0.1000E+01  0.1000E+01
    -31.748  0.0000E+00  0.0000E+00  0.1000E+01  0.1000E+01
    -31.558  0.0000E+00  0.0000E+00  0.1000E+01  0.1000E+01
    -31.368  0.0000E+00  0.0000E+00  0.1000E+01  0.1000E+01
    -31.177  0.0000E+00  0.0000E+00  0.1000E+01  0.1000E+01
    -30.987  0.0000E+00  0.0000E+00  0.1000E+01  0.1000E+01
    -30.797  0.0000E+00  0.0000E+00  0.1000E+01  0.1000E+01
    -30.607  0.0000E+00  0.0000E+00  0.1000E+01  0.1000E+01
    -30.417  0.0000E+00  0.0000E+00  0.1000E+01  0.1000E+01
    -30.227  0.0000E+00  0.0000E+00  0.1000E+01  0.1000E+01
    -30.037  0.0000E+00  0.0000E+00  0.1000E+01  0.1000E+01
    -29.846  0.0000E+00  0.0000E+00  0.1000E+01  0.1000E+01
    -29.656  0.0000E+00  0.0000E+00  0.1000E+01  0.1000E+01
    -29.466  0.0000E+00  0.0000E+00  0.1000E+01  0.1000E+01
    -29.276  0.0000E+00  0.0000E+00  0.1000E+01  0.1000E+01
    -29.086  0.0000E+00  0.0000E+00  0.1000E+01  0.1000E+01
    -28.896  0.0000E+00  0.0000E+00  0.1000E+01  0.1000E+01
    -28.706  0.0000E+00  0.0000E+00  0.1000E+01  0.1000E+01
    -28.515  0.0000E+00  0.0000E+00  0.1000E+01  0.1000E+01
    -28.325  0.0000E+00  0.0000E+00  0.1000E+01  0.1000E+01
    -28.135  0.0000E+00  0.0000E+00  0.1000E+01  0.1000E+01
    -27.945  0.0000E+00  0.0000E+00  0.1000E+01  0.1000E+01
    -27.755  0.0000E+00  0.0000E+00  0.1000E+01  0.1000E+01
    -27.565  0.0000E+00  0.0000E+00  0.1000E+01  0.1000E+01
    -27.375  0.0000E+00  0.0000E+00  0.1000E+01  0.1000E+01
    -27.184  0.0000E+00  0.0000E+00  0.1000E+01  0.1000E+01
    -26.994  0.0000E+00  0.0000E+00  0.1000E+01  0.1000E+01
    -26.804  0.0000E+00  0.0000E+00  0.1000E+01  0.1000E+01
    -26.614  0.0000E+00  0.0000E+00  0.1000E+01  0.1000E+01
    -26.424  0.0000E+00  0.0000E+00  0.1000E+01  0.1000E+01
    -26.234  0.0000E+00  0.0000E+00  0.1000E+01  0.1000E+01
    -26.044  0.0000E+00  0.0000E+00  0.1000E+01  0.1000E+01
    -25.853  0.0000E+00  0.0000E+00  0.1000E+01  0.1000E+01
    -25.663  0.0000E+00  0.0000E+00  0.1000E+01  0.1000E+01
    -25.473  0.0000E+00  0.0000E+00  0.1000E+01  0.1000E+01
    -25.283  0.0000E+00  0.0000E+00  0.1000E+01  0.1000E+01
    -25.093  0.0000E+00  0.0000E+00  0.1000E+01  0.1000E+01
    -24.903  0.0000E+00  0.0000E+00  0.1000E+01  0.1000E+01
    -24.713  0.0000E+00  0.0000E+00  0.1000E+01  0.1000E+01
    -24.522  0.0000E+00  0.0000E+00  0.1000E+01  0.1000E+01
    -24.332  0.0000E+00  0.0000E+00  0.1000E+01  0.1000E+01
    -24.142  0.0000E+00  0.0000E+00  0.1000E+01  0.1000E+01
    -23.952  0.0000E+00  0.0000E+00  0.1000E+01  0.1000E+01
    -23.762  0.0000E+00  0.0000E+00  0.1000E+01  0.1000E+01
    -23.572  0.0000E+00  0.0000E+00  0.1000E+01  0.1000E+01
    -23.382  0.0000E+00  0.0000E+00  0.1000E+01  0.1000E+01
    -23.191  0.0000E+00  0.0000E+00  0.1000E+01  0.1000E+01
    -23.001  0.2534E-05  0.2523E-05  0.1000E+01  0.1000E+01
    -22.811  0.6354E+00  0.6349E+00  0.1121E+01  0.1121E+01
    -22.621  0.4380E+01  0.4380E+01  0.1954E+01  0.1954E+01
    -22.431  0.2559E+01  0.2560E+01  0.2440E+01  0.2440E+01
    -22.241  0.3528E+01  0.3529E+01  0.3111E+01  0.3111E+01
    -22.051  0.5376E+01  0.5375E+01  0.4133E+01  0.4133E+01
    -21.861  0.3233E+01  0.3234E+01  0.4748E+01  0.4748E+01
    -21.670  0.1927E+01  0.1928E+01  0.5115E+01  0.5115E+01
    -21.480  0.5724E+01  0.5723E+01  0.6203E+01  0.6203E+01
    -21.290  0.4776E+01  0.4777E+01  0.7111E+01  0.7111E+01
    -21.100  0.2656E+01  0.2656E+01  0.7616E+01  0.7616E+01
    -20.910  0.1216E+01  0.1216E+01  0.7847E+01  0.7847E+01
    -20.720  0.7314E+01  0.7314E+01  0.9238E+01  0.9238E+01
    -20.530  0.5870E+01  0.5871E+01  0.1035E+02  0.1035E+02
    -20.339  0.4746E+00  0.4745E+00  0.1044E+02  0.1044E+02
    -20.149  0.3405E+01  0.3404E+01  0.1109E+02  0.1109E+02
    -19.959  0.4411E+01  0.4410E+01  0.1193E+02  0.1193E+02
    -19.769  0.6209E+01  0.6210E+01  0.1311E+02  0.1311E+02
    -19.579  0.5132E+01  0.5132E+01  0.1409E+02  0.1409E+02
    -19.389  0.1880E+01  0.1881E+01  0.1444E+02  0.1444E+02
    -19.199  0.7697E-01  0.7688E-01  0.1446E+02  0.1446E+02
    -19.008  0.7766E+01  0.7765E+01  0.1594E+02  0.1594E+02
    -18.818  0.6074E+01  0.6075E+01  0.1709E+02  0.1709E+02
    -18.628  0.3614E+01  0.3614E+01  0.1778E+02  0.1778E+02
    -18.438  0.3006E+01  0.3006E+01  0.1835E+02  0.1835E+02
    -18.248  0.4006E+01  0.4007E+01  0.1911E+02  0.1911E+02
    -18.058  0.4099E-01  0.4091E-01  0.1912E+02  0.1912E+02
    -17.868  0.9704E+01  0.9704E+01  0.2096E+02  0.2096E+02
    -17.677  0.4556E+01  0.4556E+01  0.2183E+02  0.2183E+02
    -17.487  0.7537E+01  0.7537E+01  0.2326E+02  0.2326E+02
    -17.297  0.2705E+01  0.2705E+01  0.2378E+02  0.2378E+02
    -17.107  0.5739E-03  0.5707E-03  0.2378E+02  0.2378E+02
    -16.917  0.2093E+01  0.2093E+01  0.2418E+02  0.2418E+02
    -16.727  0.8373E+01  0.8373E+01  0.2577E+02  0.2577E+02
    -16.537  0.8253E-01  0.8254E-01  0.2578E+02  0.2578E+02
    -16.346  0.3470E+01  0.3470E+01  0.2644E+02  0.2644E+02
    -16.156  0.3627E+00  0.3625E+00  0.2651E+02  0.2651E+02
    -15.966  0.4566E+01  0.4565E+01  0.2738E+02  0.2738E+02
    -15.776  0.1135E+02  0.1135E+02  0.2954E+02  0.2954E+02
    -15.586  0.9036E-01  0.9044E-01  0.2956E+02  0.2956E+02
    -15.396  0.6578E+00  0.6571E+00  0.2968E+02  0.2968E+02
    -15.206  0.1331E+02  0.1332E+02  0.3221E+02  0.3221E+02
    -15.015  0.7066E-01  0.7064E-01  0.3223E+02  0.3223E+02
    -14.825  0.6808E+01  0.6808E+01  0.3352E+02  0.3352E+02
    -14.635  0.6202E+00  0.6200E+00  0.3364E+02  0.3364E+02
    -14.445  0.3976E+01  0.3975E+01  0.3439E+02  0.3439E+02
    -14.255  0.7857E+01  0.7857E+01  0.3589E+02  0.3589E+02
    -14.065  0.1758E+01  0.1759E+01  0.3622E+02  0.3622E+02
    -13.875  0.1686E+00  0.1685E+00  0.3625E+02  0.3625E+02
    -13.684  0.6203E+01  0.6195E+01  0.3743E+02  0.3743E+02
    -13.494  0.9626E+01  0.7838E+01  0.3926E+02  0.3892E+02
    -13.304  0.4515E+01  0.6310E+01  0.4012E+02  0.4012E+02
    -13.114  0.6942E+01  0.6942E+01  0.4144E+02  0.4144E+02
    -12.924  0.5250E+00  0.5247E+00  0.4154E+02  0.4154E+02
    -12.734  0.9597E+01  0.9597E+01  0.4337E+02  0.4337E+02
    -12.544  0.3906E+01  0.3907E+01  0.4411E+02  0.4411E+02
    -12.353  0.8057E-02  0.8057E-02  0.4411E+02  0.4411E+02
    -12.163  0.3178E+01  0.3178E+01  0.4472E+02  0.4472E+02
    -11.973  0.1192E+02  0.1192E+02  0.4698E+02  0.4698E+02
    -11.783  0.5939E+01  0.5941E+01  0.4811E+02  0.4811E+02
    -11.593  0.6294E+00  0.6291E+00  0.4823E+02  0.4823E+02
    -11.403  0.6382E+01  0.6383E+01  0.4944E+02  0.4944E+02
    -11.213  0.9569E+00  0.9563E+00  0.4963E+02  0.4963E+02
    -11.022  0.9575E+01  0.9575E+01  0.5145E+02  0.5145E+02
    -10.832  0.9893E+01  0.9870E+01  0.5333E+02  0.5332E+02
    -10.642  0.1042E+02  0.1009E+02  0.5531E+02  0.5524E+02
    -10.452  0.1030E+02  0.5655E+01  0.5727E+02  0.5632E+02
    -10.262  0.7849E+01  0.1283E+02  0.5876E+02  0.5876E+02
    -10.072  0.1098E+02  0.1098E+02  0.6085E+02  0.6085E+02
     -9.882  0.1471E+02  0.1471E+02  0.6364E+02  0.6364E+02
     -9.691  0.7950E+01  0.7951E+01  0.6516E+02  0.6516E+02
     -9.501  0.1648E+02  0.1648E+02  0.6829E+02  0.6829E+02
     -9.311  0.1531E+02  0.1531E+02  0.7120E+02  0.7120E+02
     -9.121  0.5206E+01  0.5206E+01  0.7219E+02  0.7219E+02
     -8.931  0.1044E+02  0.1044E+02  0.7417E+02  0.7417E+02
     -8.741  0.2779E+01  0.2720E+01  0.7470E+02  0.7469E+02
     -8.551  0.2013E+02  0.2016E+02  0.7853E+02  0.7852E+02
     -8.360  0.1499E+02  0.1501E+02  0.8138E+02  0.8138E+02
     -8.170  0.4430E+01  0.4435E+01  0.8222E+02  0.8222E+02
     -7.980  0.3856E-01  0.3829E-01  0.8223E+02  0.8223E+02
     -7.790  0.8124E+01  0.8121E+01  0.8377E+02  0.8377E+02
     -7.600  0.1361E+02  0.1358E+02  0.8636E+02  0.8636E+02
     -7.410  0.8400E+01  0.8424E+01  0.8796E+02  0.8796E+02
     -7.220  0.5629E+01  0.5595E+01  0.8903E+02  0.8902E+02
     -7.029  0.5887E+01  0.5468E+01  0.9015E+02  0.9006E+02
     -6.839  0.9357E+01  0.5957E+01  0.9193E+02  0.9119E+02
     -6.649  0.6950E+01  0.1071E+02  0.9325E+02  0.9323E+02
     -6.459  0.1174E+02  0.1183E+02  0.9548E+02  0.9548E+02
     -6.269  0.5760E+01  0.5767E+01  0.9658E+02  0.9658E+02
     -6.079  0.6818E+01  0.6813E+01  0.9787E+02  0.9787E+02
     -5.889  0.1281E+01  0.1286E+01  0.9812E+02  0.9812E+02
     -5.698  0.3492E+01  0.3492E+01  0.9878E+02  0.9878E+02
     -5.508  0.4565E+01  0.4487E+01  0.9965E+02  0.9963E+02
     -5.318  0.1840E+02  0.1428E+02  0.1031E+03  0.1023E+03
     -5.128  0.3321E+01  0.6820E+01  0.1038E+03  0.1036E+03
     -4.938  0.4039E+01  0.1257E+01  0.1045E+03  0.1039E+03
     -4.748  0.3145E+01  0.6617E+01  0.1051E+03  0.1051E+03
     -4.558  0.1583E+01  0.1591E+01  0.1054E+03  0.1054E+03
     -4.367  0.6211E+01  0.6245E+01  0.1066E+03  0.1066E+03
     -4.177  0.6172E+01  0.6026E+01  0.1078E+03  0.1078E+03
     -3.987  0.5145E+01  0.4442E+01  0.1088E+03  0.1086E+03
     -3.797  0.2183E-02  0.8176E+00  0.1088E+03  0.1088E+03
     -3.607  0.0000E+00  0.0000E+00  0.1088E+03  0.1088E+03
     -3.417  0.1030E-04  0.9288E-05  0.1088E+03  0.1088E+03
     -3.227  0.1893E+01  0.1872E+01  0.1091E+03  0.1091E+03
     -3.037  0.5621E+01  0.4659E+00  0.1102E+03  0.1092E+03
     -2.846  0.8273E-01  0.5331E-11  0.1102E+03  0.1092E+03
     -2.656  0.0000E+00  0.2569E+00  0.1102E+03  0.1093E+03
     -2.466  0.1198E-08  0.5002E+01  0.1102E+03  0.1102E+03
     -2.276  0.7013E+00  0.6777E+00  0.1104E+03  0.1104E+03
     -2.086  0.6742E+01  0.6746E+01  0.1116E+03  0.1116E+03
     -1.896  0.2243E+01  0.2256E+01  0.1121E+03  0.1121E+03
     -1.706  0.5904E+01  0.5562E+01  0.1132E+03  0.1131E+03
     -1.515  0.1182E+02  0.1070E+02  0.1154E+03  0.1152E+03
     -1.325  0.7599E+01  0.9036E+01  0.1169E+03  0.1169E+03
     -1.135  0.6020E+01  0.6040E+01  0.1180E+03  0.1180E+03
     -0.945  0.4453E+01  0.4451E+01  0.1189E+03  0.1189E+03
     -0.755  0.7089E+01  0.7096E+01  0.1202E+03  0.1202E+03
     -0.565  0.5107E+01  0.2589E-01  0.1212E+03  0.1202E+03
     -0.375  0.1320E+01  0.1978E+01  0.1214E+03  0.1206E+03
     -0.184  0.4021E+01  0.8202E+01  0.1222E+03  0.1222E+03
      0.006  0.5105E+01  0.5240E+01  0.1232E+03  0.1232E+03
      0.196  0.7643E+01  0.7413E+01  0.1246E+03  0.1246E+03
      0.386  0.8013E+01  0.7055E+01  0.1262E+03  0.1259E+03
      0.576  0.5257E+01  0.5611E+01  0.1272E+03  0.1270E+03
      0.766  0.1162E+02  0.1201E+02  0.1294E+03  0.1293E+03
      0.956  0.8255E+01  0.7080E+01  0.1309E+03  0.1306E+03
      1.147  0.7293E+01  0.7695E+01  0.1323E+03  0.1321E+03
      1.337  0.9640E+01  0.9965E+01  0.1342E+03  0.1340E+03
      1.527  0.1679E+02  0.1595E+02  0.1373E+03  0.1370E+03
      1.717  0.1139E+02  0.1213E+02  0.1395E+03  0.1393E+03
      1.907  0.2584E+01  0.3697E+01  0.1400E+03  0.1400E+03
      2.097  0.1610E-03  0.4088E-03  0.1400E+03  0.1400E+03
      2.287  0.0000E+00  0.0000E+00  0.1400E+03  0.1400E+03
      2.478  0.0000E+00  0.0000E+00  0.1400E+03  0.1400E+03
      2.668  0.0000E+00  0.0000E+00  0.1400E+03  0.1400E+03
      2.858  0.0000E+00  0.0000E+00  0.1400E+03  0.1400E+03
      3.048  0.0000E+00  0.0000E+00  0.1400E+03  0.1400E+03
      3.238  0.0000E+00  0.0000E+00  0.1400E+03  0.1400E+03
      3.428  0.0000E+00  0.0000E+00  0.1400E+03  0.1400E+03
      3.618  0.0000E+00  0.0000E+00  0.1400E+03  0.1400E+03
      3.809  0.0000E+00  0.0000E+00  0.1400E+03  0.1400E+03
      3.999  0.0000E+00  0.0000E+00  0.1400E+03  0.1400E+03
      4.189  0.0000E+00  0.0000E+00  0.1400E+03  0.1400E+03
      4.379  0.0000E+00  0.0000E+00  0.1400E+03  0.1400E+03
