       N       E                     dE             d eps       ncg     rms          rms(c)
DAV:   1     0.207062335267E+04    0.20706E+04   -0.73151E+04  3336   0.109E+03
DAV:   2     0.349241854232E+02   -0.20357E+04   -0.18966E+04  4192   0.244E+02
DAV:   3    -0.482136584231E+03   -0.51706E+03   -0.50644E+03  3640   0.128E+02
DAV:   4    -0.512818514059E+03   -0.30682E+02   -0.30009E+02  3536   0.390E+01
DAV:   5    -0.514146442157E+03   -0.13279E+01   -0.13153E+01  4632   0.678E+00    0.343E+01
DAV:   6    -0.487274982279E+03    0.26871E+02   -0.74727E+01  3280   0.124E+01    0.199E+01
DAV:   7    -0.477141647749E+03    0.10133E+02   -0.14023E+01  3064   0.814E+00    0.107E+01
DAV:   8    -0.475217801791E+03    0.19238E+01   -0.58626E+00  3144   0.519E+00    0.403E+00
DAV:   9    -0.475200321507E+03    0.17480E-01   -0.63422E-01  3588   0.167E+00    0.202E+00
DAV:  10    -0.475755600890E+03   -0.55528E+00   -0.23587E-01  3212   0.931E-01    0.109E+00
DAV:  11    -0.476335233700E+03   -0.57963E+00   -0.74126E-02  3172   0.493E-01    0.868E-01
DAV:  12    -0.476962571118E+03   -0.62734E+00   -0.79083E-02  3204   0.430E-01    0.712E-01
DAV:  13    -0.477624356033E+03   -0.66178E+00   -0.24189E-01  2988   0.714E-01    0.485E-01
DAV:  14    -0.477778228695E+03   -0.15387E+00   -0.11036E-01  3016   0.517E-01    0.343E-01
DAV:  15    -0.478415259109E+03   -0.63703E+00   -0.62066E-02  3020   0.342E-01    0.221E-01
DAV:  16    -0.478837957450E+03   -0.42270E+00   -0.18908E-02  3072   0.195E-01    0.156E-01
DAV:  17    -0.479084845324E+03   -0.24689E+00   -0.97516E-03  3156   0.143E-01    0.111E-01
DAV:  18    -0.479221802307E+03   -0.13696E+00   -0.53838E-03  3104   0.989E-02    0.798E-02
DAV:  19    -0.479274241182E+03   -0.52439E-01   -0.17898E-03  3144   0.602E-02    0.601E-02
DAV:  20    -0.479300105355E+03   -0.25864E-01   -0.14239E-03  3128   0.483E-02    0.411E-02
DAV:  21    -0.479309359582E+03   -0.92542E-02   -0.42669E-04  3192   0.319E-02    0.292E-02
DAV:  22    -0.479321381209E+03   -0.12022E-01   -0.16568E-04  3120   0.258E-02    0.182E-02
DAV:  23    -0.479336971116E+03   -0.15590E-01   -0.84487E-05  3008   0.220E-02    0.107E-02
DAV:  24    -0.479344337300E+03   -0.73662E-02   -0.44200E-05  2744   0.177E-02    0.708E-03
DAV:  25    -0.479346988192E+03   -0.26509E-02   -0.36586E-05  2560   0.155E-02    0.452E-03
DAV:  26    -0.479348251205E+03   -0.12630E-02   -0.36052E-05  2532   0.154E-02    0.270E-03
DAV:  27    -0.479348822362E+03   -0.57116E-03   -0.22695E-05  2608   0.127E-02    0.164E-03
DAV:  28    -0.479349036098E+03   -0.21374E-03   -0.99795E-06  2496   0.882E-03    0.104E-03
DAV:  29    -0.479349136245E+03   -0.10015E-03   -0.43039E-06  2600   0.562E-03    0.652E-04
DAV:  30    -0.479349194641E+03   -0.58397E-04   -0.20914E-06  2304   0.363E-03    0.404E-04
DAV:  31    -0.479349222010E+03   -0.27368E-04   -0.68311E-07  2224   0.200E-03    0.277E-04
DAV:  32    -0.479349237254E+03   -0.15244E-04   -0.18778E-07  2104   0.940E-04    0.184E-04
DAV:  33    -0.479349247025E+03   -0.97708E-05   -0.96375E-08  2040   0.520E-04    0.132E-04
DAV:  34    -0.479349250271E+03   -0.32459E-05   -0.21152E-08  2032   0.332E-04    0.110E-04
DAV:  35    -0.479349251849E+03   -0.15779E-05   -0.52229E-09  2008   0.229E-04    0.993E-05
DAV:  36    -0.479349252402E+03   -0.55378E-06    0.84768E-09  1960   0.146E-04
   1 F= -.47934925E+03 E0= -.47934227E+03  d E =-.139624E-01  mag=     0.5556
