Li defective graphene MACE training lab 
           1
    12.300000    0.000000    0.000000
    -6.150000   10.652112    0.000000
     0.000000    0.000000   30.000000
   C    Li   Si
  50   1   4
Direct configuration=     1
   0.00345074  0.99986383  0.49609670
   0.00348460  0.19970334  0.49664178
   0.13682954  0.26641593  0.49662475
   0.00369603  0.39951385  0.49732348
   0.13694708  0.46642552  0.49708584
   0.00383788  0.60005532  0.49711179
   0.13728880  0.66673225  0.49714247
   0.00373898  0.80037993  0.49623857
   0.13693361  0.86663486  0.49637633
   0.40332590  0.39971860  0.49590635
   0.33679058  0.06643168  0.49601494
   0.53661624  0.26629152  0.49570410
   0.20350352  0.99988078  0.49615422
   0.20353132  0.39972944  0.49672267
   0.33680059  0.46648876  0.49629492
   0.20362647  0.59981745  0.49699182
   0.33686522  0.66650087  0.49656844
   0.20361733  0.79994590  0.49668328
   0.33686383  0.86652635  0.49644123
   0.40346456  0.99981634  0.49614744
   0.53673714  0.06636083  0.49614030
   0.40335236  0.19969184  0.49582630
   0.20346847  0.19976015  0.49630817
   0.33677594  0.26642160  0.49600636
   0.53671381  0.66650573  0.49577726
   0.13676778  0.06644140  0.49620324
   0.73675221  0.86656239  0.49579090
   0.40345319  0.79981189  0.49641146
   0.53677031  0.86643479  0.49613927
   0.60343762  0.99974474  0.49621758
   0.73674534  0.06635827  0.49634866
   0.60329964  0.19960770  0.49607178
   0.73647718  0.26588547  0.49658746
   0.60285721  0.39947764  0.49554387
   0.73629875  0.46622453  0.49571691
   0.60324845  0.59978617  0.49552552
   0.53657849  0.46639432  0.49553343
   0.40344283  0.59979045  0.49620483
   0.73644477  0.66674569  0.49555307
   0.80346948  0.99983073  0.49611591
   0.93675302  0.06643387  0.49626334
   0.80338933  0.19958592  0.49670218
   0.93678703  0.26628266  0.49693830
   0.80315717  0.39930135  0.49657820
   0.93695234  0.46624950  0.49725907
   0.80315673  0.60002138  0.49569846
   0.93698371  0.66696228  0.49635207
   0.80338826  0.79995657  0.49565506
   0.93678992  0.86661211  0.49589353
   0.60345197  0.79982850  0.49586192
   0.82175923  0.58145028  0.55293658
   0.52033525  0.40496966  0.67613139
   0.71141259  0.58973245  0.68898397
   0.68672958  0.46155567  0.62731800
   0.87646093  0.64798229  0.64082278
