  55  55   0   0
  0.7146599E+02  0.1230000E-08  0.1230000E-08  0.3000000E-08  0.5000000E-15
  1.000000000000000E-004
  CAR 
 Li defective graphene MACE training lab 
      4.40247970    -52.87541995  301     -2.91829004      1.00000000
    -52.875  0.0000E+00  0.0000E+00  0.0000E+00  0.0000E+00
    -52.684  0.0000E+00  0.0000E+00  0.0000E+00  0.0000E+00
    -52.494  0.0000E+00  0.0000E+00  0.0000E+00  0.0000E+00
    -52.303  0.0000E+00  0.0000E+00  0.0000E+00  0.0000E+00
    -52.112  0.0000E+00  0.0000E+00  0.0000E+00  0.0000E+00
    -51.921  0.0000E+00  0.0000E+00  0.0000E+00  0.0000E+00
    -51.730  0.0000E+00  0.0000E+00  0.0000E+00  0.0000E+00
    -51.539  0.0000E+00  0.0000E+00  0.0000E+00  0.0000E+00
    -51.348  0.0000E+00  0.0000E+00  0.0000E+00  0.0000E+00
    -51.157  0.0000E+00  0.0000E+00  0.0000E+00  0.0000E+00
    -50.966  0.0000E+00  0.0000E+00  0.0000E+00  0.0000E+00
    -50.775  0.0000E+00  0.0000E+00  0.0000E+00  0.0000E+00
    -50.584  0.0000E+00  0.0000E+00  0.0000E+00  0.0000E+00
    -50.393  0.1543E-02  0.1523E-02  0.2946E-03  0.2908E-03
    -50.202  0.5106E+01  0.5105E+01  0.9752E+00  0.9750E+00
    -50.012  0.1298E+00  0.1309E+00  0.1000E+01  0.1000E+01
    -49.821  0.0000E+00  0.0000E+00  0.1000E+01  0.1000E+01
    -49.630  0.0000E+00  0.0000E+00  0.1000E+01  0.1000E+01
    -49.439  0.0000E+00  0.0000E+00  0.1000E+01  0.1000E+01
    -49.248  0.0000E+00  0.0000E+00  0.1000E+01  0.1000E+01
    -49.057  0.0000E+00  0.0000E+00  0.1000E+01  0.1000E+01
    -48.866  0.0000E+00  0.0000E+00  0.1000E+01  0.1000E+01
    -48.675  0.0000E+00  0.0000E+00  0.1000E+01  0.1000E+01
    -48.484  0.0000E+00  0.0000E+00  0.1000E+01  0.1000E+01
    -48.293  0.0000E+00  0.0000E+00  0.1000E+01  0.1000E+01
    -48.102  0.0000E+00  0.0000E+00  0.1000E+01  0.1000E+01
    -47.911  0.0000E+00  0.0000E+00  0.1000E+01  0.1000E+01
    -47.720  0.0000E+00  0.0000E+00  0.1000E+01  0.1000E+01
    -47.529  0.0000E+00  0.0000E+00  0.1000E+01  0.1000E+01
    -47.339  0.0000E+00  0.0000E+00  0.1000E+01  0.1000E+01
    -47.148  0.0000E+00  0.0000E+00  0.1000E+01  0.1000E+01
    -46.957  0.0000E+00  0.0000E+00  0.1000E+01  0.1000E+01
    -46.766  0.0000E+00  0.0000E+00  0.1000E+01  0.1000E+01
    -46.575  0.0000E+00  0.0000E+00  0.1000E+01  0.1000E+01
    -46.384  0.0000E+00  0.0000E+00  0.1000E+01  0.1000E+01
    -46.193  0.0000E+00  0.0000E+00  0.1000E+01  0.1000E+01
    -46.002  0.0000E+00  0.0000E+00  0.1000E+01  0.1000E+01
    -45.811  0.0000E+00  0.0000E+00  0.1000E+01  0.1000E+01
    -45.620  0.0000E+00  0.0000E+00  0.1000E+01  0.1000E+01
    -45.429  0.0000E+00  0.0000E+00  0.1000E+01  0.1000E+01
    -45.238  0.0000E+00  0.0000E+00  0.1000E+01  0.1000E+01
    -45.047  0.0000E+00  0.0000E+00  0.1000E+01  0.1000E+01
    -44.857  0.0000E+00  0.0000E+00  0.1000E+01  0.1000E+01
    -44.666  0.0000E+00  0.0000E+00  0.1000E+01  0.1000E+01
    -44.475  0.0000E+00  0.0000E+00  0.1000E+01  0.1000E+01
    -44.284  0.0000E+00  0.0000E+00  0.1000E+01  0.1000E+01
    -44.093  0.0000E+00  0.0000E+00  0.1000E+01  0.1000E+01
    -43.902  0.0000E+00  0.0000E+00  0.1000E+01  0.1000E+01
    -43.711  0.0000E+00  0.0000E+00  0.1000E+01  0.1000E+01
    -43.520  0.0000E+00  0.0000E+00  0.1000E+01  0.1000E+01
    -43.329  0.0000E+00  0.0000E+00  0.1000E+01  0.1000E+01
    -43.138  0.0000E+00  0.0000E+00  0.1000E+01  0.1000E+01
    -42.947  0.0000E+00  0.0000E+00  0.1000E+01  0.1000E+01
    -42.756  0.0000E+00  0.0000E+00  0.1000E+01  0.1000E+01
    -42.565  0.0000E+00  0.0000E+00  0.1000E+01  0.1000E+01
    -42.374  0.0000E+00  0.0000E+00  0.1000E+01  0.1000E+01
    -42.184  0.0000E+00  0.0000E+00  0.1000E+01  0.1000E+01
    -41.993  0.0000E+00  0.0000E+00  0.1000E+01  0.1000E+01
    -41.802  0.0000E+00  0.0000E+00  0.1000E+01  0.1000E+01
    -41.611  0.0000E+00  0.0000E+00  0.1000E+01  0.1000E+01
    -41.420  0.0000E+00  0.0000E+00  0.1000E+01  0.1000E+01
    -41.229  0.0000E+00  0.0000E+00  0.1000E+01  0.1000E+01
    -41.038  0.0000E+00  0.0000E+00  0.1000E+01  0.1000E+01
    -40.847  0.0000E+00  0.0000E+00  0.1000E+01  0.1000E+01
    -40.656  0.0000E+00  0.0000E+00  0.1000E+01  0.1000E+01
    -40.465  0.0000E+00  0.0000E+00  0.1000E+01  0.1000E+01
    -40.274  0.0000E+00  0.0000E+00  0.1000E+01  0.1000E+01
    -40.083  0.0000E+00  0.0000E+00  0.1000E+01  0.1000E+01
    -39.892  0.0000E+00  0.0000E+00  0.1000E+01  0.1000E+01
    -39.702  0.0000E+00  0.0000E+00  0.1000E+01  0.1000E+01
    -39.511  0.0000E+00  0.0000E+00  0.1000E+01  0.1000E+01
    -39.320  0.0000E+00  0.0000E+00  0.1000E+01  0.1000E+01
    -39.129  0.0000E+00  0.0000E+00  0.1000E+01  0.1000E+01
    -38.938  0.0000E+00  0.0000E+00  0.1000E+01  0.1000E+01
    -38.747  0.0000E+00  0.0000E+00  0.1000E+01  0.1000E+01
    -38.556  0.0000E+00  0.0000E+00  0.1000E+01  0.1000E+01
    -38.365  0.0000E+00  0.0000E+00  0.1000E+01  0.1000E+01
    -38.174  0.0000E+00  0.0000E+00  0.1000E+01  0.1000E+01
    -37.983  0.0000E+00  0.0000E+00  0.1000E+01  0.1000E+01
    -37.792  0.0000E+00  0.0000E+00  0.1000E+01  0.1000E+01
    -37.601  0.0000E+00  0.0000E+00  0.1000E+01  0.1000E+01
    -37.410  0.0000E+00  0.0000E+00  0.1000E+01  0.1000E+01
    -37.219  0.0000E+00  0.0000E+00  0.1000E+01  0.1000E+01
    -37.029  0.0000E+00  0.0000E+00  0.1000E+01  0.1000E+01
    -36.838  0.0000E+00  0.0000E+00  0.1000E+01  0.1000E+01
    -36.647  0.0000E+00  0.0000E+00  0.1000E+01  0.1000E+01
    -36.456  0.0000E+00  0.0000E+00  0.1000E+01  0.1000E+01
    -36.265  0.0000E+00  0.0000E+00  0.1000E+01  0.1000E+01
    -36.074  0.0000E+00  0.0000E+00  0.1000E+01  0.1000E+01
    -35.883  0.0000E+00  0.0000E+00  0.1000E+01  0.1000E+01
    -35.692  0.0000E+00  0.0000E+00  0.1000E+01  0.1000E+01
    -35.501  0.0000E+00  0.0000E+00  0.1000E+01  0.1000E+01
    -35.310  0.0000E+00  0.0000E+00  0.1000E+01  0.1000E+01
    -35.119  0.0000E+00  0.0000E+00  0.1000E+01  0.1000E+01
    -34.928  0.0000E+00  0.0000E+00  0.1000E+01  0.1000E+01
    -34.737  0.0000E+00  0.0000E+00  0.1000E+01  0.1000E+01
    -34.546  0.0000E+00  0.0000E+00  0.1000E+01  0.1000E+01
    -34.356  0.0000E+00  0.0000E+00  0.1000E+01  0.1000E+01
    -34.165  0.0000E+00  0.0000E+00  0.1000E+01  0.1000E+01
    -33.974  0.0000E+00  0.0000E+00  0.1000E+01  0.1000E+01
    -33.783  0.0000E+00  0.0000E+00  0.1000E+01  0.1000E+01
    -33.592  0.0000E+00  0.0000E+00  0.1000E+01  0.1000E+01
    -33.401  0.0000E+00  0.0000E+00  0.1000E+01  0.1000E+01
    -33.210  0.0000E+00  0.0000E+00  0.1000E+01  0.1000E+01
    -33.019  0.0000E+00  0.0000E+00  0.1000E+01  0.1000E+01
    -32.828  0.0000E+00  0.0000E+00  0.1000E+01  0.1000E+01
    -32.637  0.0000E+00  0.0000E+00  0.1000E+01  0.1000E+01
    -32.446  0.0000E+00  0.0000E+00  0.1000E+01  0.1000E+01
    -32.255  0.0000E+00  0.0000E+00  0.1000E+01  0.1000E+01
    -32.064  0.0000E+00  0.0000E+00  0.1000E+01  0.1000E+01
    -31.874  0.0000E+00  0.0000E+00  0.1000E+01  0.1000E+01
    -31.683  0.0000E+00  0.0000E+00  0.1000E+01  0.1000E+01
    -31.492  0.0000E+00  0.0000E+00  0.1000E+01  0.1000E+01
    -31.301  0.0000E+00  0.0000E+00  0.1000E+01  0.1000E+01
    -31.110  0.0000E+00  0.0000E+00  0.1000E+01  0.1000E+01
    -30.919  0.0000E+00  0.0000E+00  0.1000E+01  0.1000E+01
    -30.728  0.0000E+00  0.0000E+00  0.1000E+01  0.1000E+01
    -30.537  0.0000E+00  0.0000E+00  0.1000E+01  0.1000E+01
    -30.346  0.0000E+00  0.0000E+00  0.1000E+01  0.1000E+01
    -30.155  0.0000E+00  0.0000E+00  0.1000E+01  0.1000E+01
    -29.964  0.0000E+00  0.0000E+00  0.1000E+01  0.1000E+01
    -29.773  0.0000E+00  0.0000E+00  0.1000E+01  0.1000E+01
    -29.582  0.0000E+00  0.0000E+00  0.1000E+01  0.1000E+01
    -29.391  0.0000E+00  0.0000E+00  0.1000E+01  0.1000E+01
    -29.201  0.0000E+00  0.0000E+00  0.1000E+01  0.1000E+01
    -29.010  0.0000E+00  0.0000E+00  0.1000E+01  0.1000E+01
    -28.819  0.0000E+00  0.0000E+00  0.1000E+01  0.1000E+01
    -28.628  0.0000E+00  0.0000E+00  0.1000E+01  0.1000E+01
    -28.437  0.0000E+00  0.0000E+00  0.1000E+01  0.1000E+01
    -28.246  0.0000E+00  0.0000E+00  0.1000E+01  0.1000E+01
    -28.055  0.0000E+00  0.0000E+00  0.1000E+01  0.1000E+01
    -27.864  0.0000E+00  0.0000E+00  0.1000E+01  0.1000E+01
    -27.673  0.0000E+00  0.0000E+00  0.1000E+01  0.1000E+01
    -27.482  0.0000E+00  0.0000E+00  0.1000E+01  0.1000E+01
    -27.291  0.0000E+00  0.0000E+00  0.1000E+01  0.1000E+01
    -27.100  0.0000E+00  0.0000E+00  0.1000E+01  0.1000E+01
    -26.909  0.0000E+00  0.0000E+00  0.1000E+01  0.1000E+01
    -26.719  0.0000E+00  0.0000E+00  0.1000E+01  0.1000E+01
    -26.528  0.0000E+00  0.0000E+00  0.1000E+01  0.1000E+01
    -26.337  0.0000E+00  0.0000E+00  0.1000E+01  0.1000E+01
    -26.146  0.0000E+00  0.0000E+00  0.1000E+01  0.1000E+01
    -25.955  0.0000E+00  0.0000E+00  0.1000E+01  0.1000E+01
    -25.764  0.0000E+00  0.0000E+00  0.1000E+01  0.1000E+01
    -25.573  0.0000E+00  0.0000E+00  0.1000E+01  0.1000E+01
    -25.382  0.0000E+00  0.0000E+00  0.1000E+01  0.1000E+01
    -25.191  0.0000E+00  0.0000E+00  0.1000E+01  0.1000E+01
    -25.000  0.0000E+00  0.0000E+00  0.1000E+01  0.1000E+01
    -24.809  0.0000E+00  0.0000E+00  0.1000E+01  0.1000E+01
    -24.618  0.0000E+00  0.0000E+00  0.1000E+01  0.1000E+01
    -24.427  0.0000E+00  0.0000E+00  0.1000E+01  0.1000E+01
    -24.236  0.0000E+00  0.0000E+00  0.1000E+01  0.1000E+01
    -24.046  0.0000E+00  0.0000E+00  0.1000E+01  0.1000E+01
    -23.855  0.0000E+00  0.0000E+00  0.1000E+01  0.1000E+01
    -23.664  0.0000E+00  0.0000E+00  0.1000E+01  0.1000E+01
    -23.473  0.0000E+00  0.0000E+00  0.1000E+01  0.1000E+01
    -23.282  0.0000E+00  0.0000E+00  0.1000E+01  0.1000E+01
    -23.091  0.2953E-06  0.2928E-06  0.1000E+01  0.1000E+01
    -22.900  0.4750E+00  0.4743E+00  0.1091E+01  0.1091E+01
    -22.709  0.4486E+01  0.4485E+01  0.1947E+01  0.1947E+01
    -22.518  0.1501E+01  0.1500E+01  0.2234E+01  0.2233E+01
    -22.327  0.4596E+01  0.4598E+01  0.3111E+01  0.3111E+01
    -22.136  0.4009E+01  0.4006E+01  0.3877E+01  0.3876E+01
    -21.945  0.4378E+01  0.4380E+01  0.4712E+01  0.4712E+01
    -21.754  0.2089E+01  0.2089E+01  0.5111E+01  0.5111E+01
    -21.564  0.4931E+01  0.4929E+01  0.6053E+01  0.6052E+01
    -21.373  0.5543E+01  0.5545E+01  0.7111E+01  0.7111E+01
    -21.182  0.2030E+01  0.2029E+01  0.7498E+01  0.7498E+01
    -20.991  0.1666E+01  0.1666E+01  0.7816E+01  0.7816E+01
    -20.800  0.7182E+01  0.7182E+01  0.9188E+01  0.9188E+01
    -20.609  0.5633E+01  0.5634E+01  0.1026E+02  0.1026E+02
    -20.418  0.9488E+00  0.9495E+00  0.1044E+02  0.1044E+02
    -20.227  0.3217E+01  0.3216E+01  0.1106E+02  0.1106E+02
    -20.036  0.4034E+01  0.4032E+01  0.1183E+02  0.1183E+02
    -19.845  0.6716E+01  0.6718E+01  0.1311E+02  0.1311E+02
    -19.654  0.4431E+01  0.4429E+01  0.1396E+02  0.1396E+02
    -19.463  0.2553E+01  0.2555E+01  0.1444E+02  0.1444E+02
    -19.272  0.3902E-01  0.3891E-01  0.1445E+02  0.1445E+02
    -19.081  0.7500E+01  0.7498E+01  0.1588E+02  0.1588E+02
    -18.891  0.6348E+01  0.6350E+01  0.1710E+02  0.1710E+02
    -18.700  0.3570E+01  0.3571E+01  0.1778E+02  0.1778E+02
    -18.509  0.2689E+01  0.2686E+01  0.1829E+02  0.1829E+02
    -18.318  0.4296E+01  0.4299E+01  0.1911E+02  0.1911E+02
    -18.127  0.4101E-01  0.4085E-01  0.1912E+02  0.1912E+02
    -17.936  0.9589E+01  0.9586E+01  0.2095E+02  0.2095E+02
    -17.745  0.4583E+01  0.4585E+01  0.2182E+02  0.2182E+02
    -17.554  0.7529E+01  0.7528E+01  0.2326E+02  0.2326E+02
    -17.363  0.2701E+01  0.2702E+01  0.2378E+02  0.2378E+02
    -17.172  0.1344E-02  0.1337E-02  0.2378E+02  0.2378E+02
    -16.981  0.2076E+01  0.2076E+01  0.2417E+02  0.2417E+02
    -16.790  0.8356E+01  0.8356E+01  0.2577E+02  0.2577E+02
    -16.599  0.9684E-01  0.9687E-01  0.2579E+02  0.2579E+02
    -16.408  0.3432E+01  0.3432E+01  0.2644E+02  0.2644E+02
    -16.218  0.4830E+00  0.4823E+00  0.2654E+02  0.2654E+02
    -16.027  0.4581E+01  0.4580E+01  0.2741E+02  0.2741E+02
    -15.836  0.1119E+02  0.1119E+02  0.2955E+02  0.2955E+02
    -15.645  0.4978E-01  0.4992E-01  0.2956E+02  0.2956E+02
    -15.454  0.9901E+00  0.9882E+00  0.2974E+02  0.2974E+02
    -15.263  0.1295E+02  0.1295E+02  0.3222E+02  0.3222E+02
    -15.072  0.6379E-01  0.6377E-01  0.3223E+02  0.3223E+02
    -14.881  0.6873E+01  0.6873E+01  0.3354E+02  0.3354E+02
    -14.690  0.7383E+00  0.7376E+00  0.3368E+02  0.3368E+02
    -14.499  0.4079E+01  0.4079E+01  0.3446E+02  0.3446E+02
    -14.308  0.7839E+01  0.7840E+01  0.3596E+02  0.3596E+02
    -14.117  0.1389E+01  0.1390E+01  0.3622E+02  0.3622E+02
    -13.926  0.3097E+00  0.3095E+00  0.3628E+02  0.3628E+02
    -13.736  0.6902E+01  0.6900E+01  0.3760E+02  0.3760E+02
    -13.545  0.4742E+01  0.4735E+01  0.3850E+02  0.3850E+02
    -13.354  0.8599E+01  0.6893E+01  0.4015E+02  0.3982E+02
    -13.163  0.6797E+01  0.8513E+01  0.4144E+02  0.4144E+02
    -12.972  0.1110E+01  0.1108E+01  0.4166E+02  0.4166E+02
    -12.781  0.9965E+01  0.9965E+01  0.4356E+02  0.4356E+02
    -12.590  0.2893E+01  0.2894E+01  0.4411E+02  0.4411E+02
    -12.399  0.6333E-02  0.6315E-02  0.4411E+02  0.4411E+02
    -12.208  0.4017E+01  0.4016E+01  0.4488E+02  0.4488E+02
    -12.017  0.1385E+02  0.1384E+02  0.4752E+02  0.4752E+02
    -11.826  0.3083E+01  0.3085E+01  0.4811E+02  0.4811E+02
    -11.635  0.1769E+01  0.1768E+01  0.4845E+02  0.4845E+02
    -11.444  0.5214E+01  0.5216E+01  0.4944E+02  0.4944E+02
    -11.253  0.2555E+01  0.2552E+01  0.4993E+02  0.4993E+02
    -11.063  0.8057E+01  0.8058E+01  0.5147E+02  0.5147E+02
    -10.872  0.1096E+02  0.1095E+02  0.5356E+02  0.5356E+02
    -10.681  0.9787E+01  0.9801E+01  0.5543E+02  0.5543E+02
    -10.490  0.6533E+01  0.5950E+01  0.5668E+02  0.5657E+02
    -10.299  0.1470E+02  0.1027E+02  0.5949E+02  0.5853E+02
    -10.108  0.9317E+01  0.1424E+02  0.6126E+02  0.6125E+02
     -9.917  0.1435E+02  0.1444E+02  0.6400E+02  0.6400E+02
     -9.726  0.7995E+01  0.7999E+01  0.6553E+02  0.6553E+02
     -9.535  0.1722E+02  0.1722E+02  0.6882E+02  0.6882E+02
     -9.344  0.1414E+02  0.1415E+02  0.7152E+02  0.7152E+02
     -9.153  0.5693E+01  0.5696E+01  0.7261E+02  0.7261E+02
     -8.962  0.9369E+01  0.9368E+01  0.7440E+02  0.7439E+02
     -8.771  0.3008E+01  0.3005E+01  0.7497E+02  0.7497E+02
     -8.581  0.1633E+02  0.1627E+02  0.7809E+02  0.7808E+02
     -8.390  0.1826E+02  0.1831E+02  0.8157E+02  0.8157E+02
     -8.199  0.3402E+01  0.3408E+01  0.8222E+02  0.8222E+02
     -8.008  0.3707E+00  0.3682E+00  0.8229E+02  0.8229E+02
     -7.817  0.9525E+01  0.9522E+01  0.8411E+02  0.8411E+02
     -7.626  0.1543E+02  0.1542E+02  0.8706E+02  0.8706E+02
     -7.435  0.5321E+01  0.5333E+01  0.8807E+02  0.8807E+02
     -7.244  0.7189E+01  0.7183E+01  0.8945E+02  0.8944E+02
     -7.053  0.4306E+01  0.4311E+01  0.9027E+02  0.9027E+02
     -6.862  0.5980E+01  0.4317E+01  0.9141E+02  0.9109E+02
     -6.671  0.1267E+02  0.1182E+02  0.9383E+02  0.9335E+02
     -6.480  0.9891E+01  0.1240E+02  0.9572E+02  0.9572E+02
     -6.289  0.5354E+01  0.5355E+01  0.9674E+02  0.9674E+02
     -6.098  0.7094E+01  0.7093E+01  0.9809E+02  0.9809E+02
     -5.908  0.6601E+00  0.6564E+00  0.9822E+02  0.9822E+02
     -5.717  0.3582E+01  0.3579E+01  0.9890E+02  0.9890E+02
     -5.526  0.7551E+01  0.7538E+01  0.1003E+03  0.1003E+03
     -5.335  0.1246E+02  0.1248E+02  0.1027E+03  0.1027E+03
     -5.144  0.3203E+01  0.2869E+00  0.1033E+03  0.1028E+03
     -4.953  0.2754E+01  0.3316E+01  0.1039E+03  0.1034E+03
     -4.762  0.7349E+01  0.9000E+01  0.1053E+03  0.1051E+03
     -4.571  0.9463E+00  0.1651E+01  0.1054E+03  0.1054E+03
     -4.380  0.5678E+01  0.5716E+01  0.1065E+03  0.1065E+03
     -4.189  0.6543E+01  0.6505E+01  0.1078E+03  0.1078E+03
     -3.998  0.1549E+01  0.1071E-01  0.1081E+03  0.1078E+03
     -3.807  0.3690E+01  0.5196E+01  0.1088E+03  0.1088E+03
     -3.616  0.3091E-05  0.3184E-01  0.1088E+03  0.1088E+03
     -3.425  0.4679E-02  0.4551E-02  0.1088E+03  0.1088E+03
     -3.235  0.2310E+01  0.2309E+01  0.1092E+03  0.1092E+03
     -3.044  0.1527E-01  0.1387E-01  0.1092E+03  0.1092E+03
     -2.853  0.5115E+01  0.0000E+00  0.1102E+03  0.1092E+03
     -2.662  0.1209E+00  0.8710E-12  0.1102E+03  0.1092E+03
     -2.471  0.4649E-06  0.1557E+00  0.1102E+03  0.1093E+03
     -2.280  0.3675E+01  0.8671E+01  0.1109E+03  0.1109E+03
     -2.089  0.4007E+01  0.4079E+01  0.1117E+03  0.1117E+03
     -1.898  0.2596E+01  0.2609E+01  0.1122E+03  0.1122E+03
     -1.707  0.1701E+01  0.1651E+01  0.1125E+03  0.1125E+03
     -1.516  0.1293E+02  0.1211E+02  0.1150E+03  0.1148E+03
     -1.325  0.1005E+02  0.1087E+02  0.1169E+03  0.1169E+03
     -1.134  0.8445E+01  0.8483E+01  0.1185E+03  0.1185E+03
     -0.943  0.3071E+01  0.3052E+01  0.1191E+03  0.1191E+03
     -0.753  0.5905E+01  0.5935E+01  0.1202E+03  0.1202E+03
     -0.562  0.2377E-01  0.3293E-03  0.1202E+03  0.1202E+03
     -0.371  0.7315E+01  0.2223E+01  0.1216E+03  0.1206E+03
     -0.180  0.5378E+01  0.6093E+01  0.1227E+03  0.1218E+03
      0.011  0.5288E+01  0.9088E+01  0.1237E+03  0.1235E+03
      0.202  0.9586E+01  0.1017E+02  0.1255E+03  0.1255E+03
      0.393  0.4458E+01  0.3552E+01  0.1263E+03  0.1262E+03
      0.584  0.4205E+01  0.4081E+01  0.1271E+03  0.1269E+03
      0.775  0.1299E+02  0.1344E+02  0.1296E+03  0.1295E+03
      0.966  0.6736E+01  0.5924E+01  0.1309E+03  0.1306E+03
      1.157  0.7220E+01  0.6961E+01  0.1323E+03  0.1320E+03
      1.348  0.1334E+02  0.1391E+02  0.1348E+03  0.1346E+03
      1.539  0.1411E+02  0.1325E+02  0.1375E+03  0.1372E+03
      1.730  0.1074E+02  0.1243E+02  0.1396E+03  0.1395E+03
      1.920  0.2192E+01  0.2464E+01  0.1400E+03  0.1400E+03
      2.111  0.7490E-04  0.3512E-03  0.1400E+03  0.1400E+03
      2.302  0.0000E+00  0.0000E+00  0.1400E+03  0.1400E+03
      2.493  0.0000E+00  0.0000E+00  0.1400E+03  0.1400E+03
      2.684  0.0000E+00  0.0000E+00  0.1400E+03  0.1400E+03
      2.875  0.0000E+00  0.0000E+00  0.1400E+03  0.1400E+03
      3.066  0.0000E+00  0.0000E+00  0.1400E+03  0.1400E+03
      3.257  0.0000E+00  0.0000E+00  0.1400E+03  0.1400E+03
      3.448  0.0000E+00  0.0000E+00  0.1400E+03  0.1400E+03
      3.639  0.0000E+00  0.0000E+00  0.1400E+03  0.1400E+03
      3.830  0.0000E+00  0.0000E+00  0.1400E+03  0.1400E+03
      4.021  0.0000E+00  0.0000E+00  0.1400E+03  0.1400E+03
      4.212  0.0000E+00  0.0000E+00  0.1400E+03  0.1400E+03
      4.402  0.0000E+00  0.0000E+00  0.1400E+03  0.1400E+03
