  50  50   0   0
  0.7861259E+02  0.1230000E-08  0.1230000E-08  0.3000000E-08  0.5000000E-15
  1.000000000000000E-004
  CAR 
 Li defective graphene MACE training lab 
      4.55523915    -52.44673740  301     -2.93801107      1.00000000
    -52.447  0.0000E+00  0.0000E+00  0.0000E+00  0.0000E+00
    -52.257  0.0000E+00  0.0000E+00  0.0000E+00  0.0000E+00
    -52.067  0.0000E+00  0.0000E+00  0.0000E+00  0.0000E+00
    -51.877  0.0000E+00  0.0000E+00  0.0000E+00  0.0000E+00
    -51.687  0.0000E+00  0.0000E+00  0.0000E+00  0.0000E+00
    -51.497  0.0000E+00  0.0000E+00  0.0000E+00  0.0000E+00
    -51.307  0.0000E+00  0.0000E+00  0.0000E+00  0.0000E+00
    -51.117  0.0000E+00  0.0000E+00  0.0000E+00  0.0000E+00
    -50.927  0.0000E+00  0.0000E+00  0.0000E+00  0.0000E+00
    -50.737  0.0000E+00  0.0000E+00  0.0000E+00  0.0000E+00
    -50.547  0.0000E+00  0.0000E+00  0.0000E+00  0.0000E+00
    -50.357  0.0000E+00  0.0000E+00  0.0000E+00  0.0000E+00
    -50.167  0.0000E+00  0.0000E+00  0.0000E+00  0.0000E+00
    -49.977  0.1648E-04  0.8814E-05  0.3131E-05  0.1675E-05
    -49.787  0.5128E-01  0.5068E-01  0.9747E-02  0.9631E-02
    -49.597  0.1333E-02  0.1943E-02  0.1000E-01  0.1000E-01
    -49.407  0.0000E+00  0.0000E+00  0.1000E-01  0.1000E-01
    -49.217  0.0000E+00  0.0000E+00  0.1000E-01  0.1000E-01
    -49.027  0.0000E+00  0.0000E+00  0.1000E-01  0.1000E-01
    -48.837  0.0000E+00  0.0000E+00  0.1000E-01  0.1000E-01
    -48.647  0.0000E+00  0.0000E+00  0.1000E-01  0.1000E-01
    -48.457  0.0000E+00  0.0000E+00  0.1000E-01  0.1000E-01
    -48.267  0.0000E+00  0.0000E+00  0.1000E-01  0.1000E-01
    -48.077  0.0000E+00  0.0000E+00  0.1000E-01  0.1000E-01
    -47.887  0.0000E+00  0.0000E+00  0.1000E-01  0.1000E-01
    -47.697  0.0000E+00  0.0000E+00  0.1000E-01  0.1000E-01
    -47.507  0.0000E+00  0.0000E+00  0.1000E-01  0.1000E-01
    -47.317  0.0000E+00  0.0000E+00  0.1000E-01  0.1000E-01
    -47.127  0.0000E+00  0.0000E+00  0.1000E-01  0.1000E-01
    -46.937  0.0000E+00  0.0000E+00  0.1000E-01  0.1000E-01
    -46.747  0.0000E+00  0.0000E+00  0.1000E-01  0.1000E-01
    -46.557  0.0000E+00  0.0000E+00  0.1000E-01  0.1000E-01
    -46.367  0.0000E+00  0.0000E+00  0.1000E-01  0.1000E-01
    -46.177  0.0000E+00  0.0000E+00  0.1000E-01  0.1000E-01
    -45.987  0.0000E+00  0.0000E+00  0.1000E-01  0.1000E-01
    -45.797  0.0000E+00  0.0000E+00  0.1000E-01  0.1000E-01
    -45.607  0.0000E+00  0.0000E+00  0.1000E-01  0.1000E-01
    -45.416  0.0000E+00  0.0000E+00  0.1000E-01  0.1000E-01
    -45.226  0.0000E+00  0.0000E+00  0.1000E-01  0.1000E-01
    -45.036  0.0000E+00  0.0000E+00  0.1000E-01  0.1000E-01
    -44.846  0.0000E+00  0.0000E+00  0.1000E-01  0.1000E-01
    -44.656  0.0000E+00  0.0000E+00  0.1000E-01  0.1000E-01
    -44.466  0.0000E+00  0.0000E+00  0.1000E-01  0.1000E-01
    -44.276  0.0000E+00  0.0000E+00  0.1000E-01  0.1000E-01
    -44.086  0.0000E+00  0.0000E+00  0.1000E-01  0.1000E-01
    -43.896  0.0000E+00  0.0000E+00  0.1000E-01  0.1000E-01
    -43.706  0.0000E+00  0.0000E+00  0.1000E-01  0.1000E-01
    -43.516  0.0000E+00  0.0000E+00  0.1000E-01  0.1000E-01
    -43.326  0.0000E+00  0.0000E+00  0.1000E-01  0.1000E-01
    -43.136  0.0000E+00  0.0000E+00  0.1000E-01  0.1000E-01
    -42.946  0.0000E+00  0.0000E+00  0.1000E-01  0.1000E-01
    -42.756  0.0000E+00  0.0000E+00  0.1000E-01  0.1000E-01
    -42.566  0.0000E+00  0.0000E+00  0.1000E-01  0.1000E-01
    -42.376  0.0000E+00  0.0000E+00  0.1000E-01  0.1000E-01
    -42.186  0.0000E+00  0.0000E+00  0.1000E-01  0.1000E-01
    -41.996  0.0000E+00  0.0000E+00  0.1000E-01  0.1000E-01
    -41.806  0.0000E+00  0.0000E+00  0.1000E-01  0.1000E-01
    -41.616  0.0000E+00  0.0000E+00  0.1000E-01  0.1000E-01
    -41.426  0.0000E+00  0.0000E+00  0.1000E-01  0.1000E-01
    -41.236  0.0000E+00  0.0000E+00  0.1000E-01  0.1000E-01
    -41.046  0.0000E+00  0.0000E+00  0.1000E-01  0.1000E-01
    -40.856  0.0000E+00  0.0000E+00  0.1000E-01  0.1000E-01
    -40.666  0.0000E+00  0.0000E+00  0.1000E-01  0.1000E-01
    -40.476  0.0000E+00  0.0000E+00  0.1000E-01  0.1000E-01
    -40.286  0.0000E+00  0.0000E+00  0.1000E-01  0.1000E-01
    -40.096  0.0000E+00  0.0000E+00  0.1000E-01  0.1000E-01
    -39.906  0.0000E+00  0.0000E+00  0.1000E-01  0.1000E-01
    -39.716  0.0000E+00  0.0000E+00  0.1000E-01  0.1000E-01
    -39.526  0.0000E+00  0.0000E+00  0.1000E-01  0.1000E-01
    -39.336  0.0000E+00  0.0000E+00  0.1000E-01  0.1000E-01
    -39.146  0.0000E+00  0.0000E+00  0.1000E-01  0.1000E-01
    -38.956  0.0000E+00  0.0000E+00  0.1000E-01  0.1000E-01
    -38.766  0.0000E+00  0.0000E+00  0.1000E-01  0.1000E-01
    -38.576  0.0000E+00  0.0000E+00  0.1000E-01  0.1000E-01
    -38.386  0.0000E+00  0.0000E+00  0.1000E-01  0.1000E-01
    -38.196  0.0000E+00  0.0000E+00  0.1000E-01  0.1000E-01
    -38.006  0.0000E+00  0.0000E+00  0.1000E-01  0.1000E-01
    -37.816  0.0000E+00  0.0000E+00  0.1000E-01  0.1000E-01
    -37.626  0.0000E+00  0.0000E+00  0.1000E-01  0.1000E-01
    -37.436  0.0000E+00  0.0000E+00  0.1000E-01  0.1000E-01
    -37.246  0.0000E+00  0.0000E+00  0.1000E-01  0.1000E-01
    -37.056  0.0000E+00  0.0000E+00  0.1000E-01  0.1000E-01
    -36.866  0.0000E+00  0.0000E+00  0.1000E-01  0.1000E-01
    -36.676  0.0000E+00  0.0000E+00  0.1000E-01  0.1000E-01
    -36.486  0.0000E+00  0.0000E+00  0.1000E-01  0.1000E-01
    -36.296  0.0000E+00  0.0000E+00  0.1000E-01  0.1000E-01
    -36.106  0.0000E+00  0.0000E+00  0.1000E-01  0.1000E-01
    -35.916  0.0000E+00  0.0000E+00  0.1000E-01  0.1000E-01
    -35.726  0.0000E+00  0.0000E+00  0.1000E-01  0.1000E-01
    -35.536  0.0000E+00  0.0000E+00  0.1000E-01  0.1000E-01
    -35.346  0.0000E+00  0.0000E+00  0.1000E-01  0.1000E-01
    -35.156  0.0000E+00  0.0000E+00  0.1000E-01  0.1000E-01
    -34.966  0.0000E+00  0.0000E+00  0.1000E-01  0.1000E-01
    -34.776  0.0000E+00  0.0000E+00  0.1000E-01  0.1000E-01
    -34.586  0.0000E+00  0.0000E+00  0.1000E-01  0.1000E-01
    -34.396  0.0000E+00  0.0000E+00  0.1000E-01  0.1000E-01
    -34.206  0.0000E+00  0.0000E+00  0.1000E-01  0.1000E-01
    -34.016  0.0000E+00  0.0000E+00  0.1000E-01  0.1000E-01
    -33.826  0.0000E+00  0.0000E+00  0.1000E-01  0.1000E-01
    -33.636  0.0000E+00  0.0000E+00  0.1000E-01  0.1000E-01
    -33.446  0.0000E+00  0.0000E+00  0.1000E-01  0.1000E-01
    -33.256  0.0000E+00  0.0000E+00  0.1000E-01  0.1000E-01
    -33.066  0.0000E+00  0.0000E+00  0.1000E-01  0.1000E-01
    -32.876  0.0000E+00  0.0000E+00  0.1000E-01  0.1000E-01
    -32.686  0.0000E+00  0.0000E+00  0.1000E-01  0.1000E-01
    -32.496  0.0000E+00  0.0000E+00  0.1000E-01  0.1000E-01
    -32.306  0.0000E+00  0.0000E+00  0.1000E-01  0.1000E-01
    -32.116  0.0000E+00  0.0000E+00  0.1000E-01  0.1000E-01
    -31.926  0.0000E+00  0.0000E+00  0.1000E-01  0.1000E-01
    -31.736  0.0000E+00  0.0000E+00  0.1000E-01  0.1000E-01
    -31.546  0.0000E+00  0.0000E+00  0.1000E-01  0.1000E-01
    -31.356  0.0000E+00  0.0000E+00  0.1000E-01  0.1000E-01
    -31.166  0.0000E+00  0.0000E+00  0.1000E-01  0.1000E-01
    -30.976  0.0000E+00  0.0000E+00  0.1000E-01  0.1000E-01
    -30.786  0.0000E+00  0.0000E+00  0.1000E-01  0.1000E-01
    -30.596  0.0000E+00  0.0000E+00  0.1000E-01  0.1000E-01
    -30.406  0.0000E+00  0.0000E+00  0.1000E-01  0.1000E-01
    -30.216  0.0000E+00  0.0000E+00  0.1000E-01  0.1000E-01
    -30.026  0.0000E+00  0.0000E+00  0.1000E-01  0.1000E-01
    -29.836  0.0000E+00  0.0000E+00  0.1000E-01  0.1000E-01
    -29.646  0.0000E+00  0.0000E+00  0.1000E-01  0.1000E-01
    -29.456  0.0000E+00  0.0000E+00  0.1000E-01  0.1000E-01
    -29.266  0.0000E+00  0.0000E+00  0.1000E-01  0.1000E-01
    -29.076  0.0000E+00  0.0000E+00  0.1000E-01  0.1000E-01
    -28.886  0.0000E+00  0.0000E+00  0.1000E-01  0.1000E-01
    -28.696  0.0000E+00  0.0000E+00  0.1000E-01  0.1000E-01
    -28.506  0.0000E+00  0.0000E+00  0.1000E-01  0.1000E-01
    -28.316  0.0000E+00  0.0000E+00  0.1000E-01  0.1000E-01
    -28.126  0.0000E+00  0.0000E+00  0.1000E-01  0.1000E-01
    -27.936  0.0000E+00  0.0000E+00  0.1000E-01  0.1000E-01
    -27.746  0.0000E+00  0.0000E+00  0.1000E-01  0.1000E-01
    -27.556  0.0000E+00  0.0000E+00  0.1000E-01  0.1000E-01
    -27.366  0.0000E+00  0.0000E+00  0.1000E-01  0.1000E-01
    -27.176  0.0000E+00  0.0000E+00  0.1000E-01  0.1000E-01
    -26.986  0.0000E+00  0.0000E+00  0.1000E-01  0.1000E-01
    -26.796  0.0000E+00  0.0000E+00  0.1000E-01  0.1000E-01
    -26.606  0.0000E+00  0.0000E+00  0.1000E-01  0.1000E-01
    -26.416  0.0000E+00  0.0000E+00  0.1000E-01  0.1000E-01
    -26.226  0.0000E+00  0.0000E+00  0.1000E-01  0.1000E-01
    -26.036  0.0000E+00  0.0000E+00  0.1000E-01  0.1000E-01
    -25.846  0.0000E+00  0.0000E+00  0.1000E-01  0.1000E-01
    -25.656  0.0000E+00  0.0000E+00  0.1000E-01  0.1000E-01
    -25.466  0.0000E+00  0.0000E+00  0.1000E-01  0.1000E-01
    -25.276  0.0000E+00  0.0000E+00  0.1000E-01  0.1000E-01
    -25.086  0.0000E+00  0.0000E+00  0.1000E-01  0.1000E-01
    -24.896  0.0000E+00  0.0000E+00  0.1000E-01  0.1000E-01
    -24.706  0.0000E+00  0.0000E+00  0.1000E-01  0.1000E-01
    -24.516  0.0000E+00  0.0000E+00  0.1000E-01  0.1000E-01
    -24.326  0.0000E+00  0.0000E+00  0.1000E-01  0.1000E-01
    -24.136  0.0000E+00  0.0000E+00  0.1000E-01  0.1000E-01
    -23.946  0.0000E+00  0.0000E+00  0.1000E-01  0.1000E-01
    -23.756  0.0000E+00  0.0000E+00  0.1000E-01  0.1000E-01
    -23.566  0.0000E+00  0.0000E+00  0.1000E-01  0.1000E-01
    -23.376  0.0000E+00  0.0000E+00  0.1000E-01  0.1000E-01
    -23.186  0.0000E+00  0.0000E+00  0.1000E-01  0.1000E-01
    -22.996  0.0000E+00  0.0000E+00  0.1000E-01  0.1000E-01
    -22.806  0.0000E+00  0.0000E+00  0.1000E-01  0.1000E-01
    -22.616  0.1324E-09  0.1719E-10  0.1000E-01  0.1000E-01
    -22.426  0.2871E-02  0.1979E-02  0.1055E-01  0.1038E-01
    -22.236  0.4187E-01  0.4125E-01  0.1850E-01  0.1821E-01
    -22.046  0.2617E-01  0.2505E-01  0.2347E-01  0.2297E-01
    -21.856  0.4001E-01  0.4214E-01  0.3107E-01  0.3098E-01
    -21.666  0.3895E-01  0.3401E-01  0.3848E-01  0.3744E-01
    -21.476  0.5036E-01  0.5355E-01  0.4804E-01  0.4762E-01
    -21.286  0.1129E-01  0.1286E-01  0.5019E-01  0.5006E-01
    -21.096  0.4086E-01  0.3732E-01  0.5795E-01  0.5715E-01
    -20.906  0.6835E-01  0.7126E-01  0.7094E-01  0.7069E-01
    -20.716  0.5672E-02  0.3667E-02  0.7202E-01  0.7139E-01
    -20.526  0.3403E-01  0.3558E-01  0.7848E-01  0.7815E-01
    -20.336  0.4522E-01  0.4180E-01  0.8707E-01  0.8609E-01
    -20.146  0.7058E-01  0.7327E-01  0.1005E+00  0.1000E+00
    -19.956  0.9142E-02  0.1164E-01  0.1022E+00  0.1022E+00
    -19.766  0.2131E-01  0.1351E-01  0.1063E+00  0.1048E+00
    -19.576  0.5321E-01  0.5721E-01  0.1164E+00  0.1157E+00
    -19.386  0.6824E-01  0.7011E-01  0.1293E+00  0.1290E+00
    -19.196  0.2742E-01  0.2198E-01  0.1346E+00  0.1332E+00
    -19.006  0.3024E-01  0.3493E-01  0.1403E+00  0.1398E+00
    -18.816  0.2658E-01  0.2743E-01  0.1454E+00  0.1450E+00
    -18.626  0.4474E-01  0.4090E-01  0.1539E+00  0.1528E+00
    -18.436  0.7447E-01  0.7214E-01  0.1680E+00  0.1665E+00
    -18.246  0.3368E-01  0.3999E-01  0.1744E+00  0.1741E+00
    -18.056  0.1404E-01  0.8218E-02  0.1771E+00  0.1756E+00
    -17.866  0.5946E-01  0.5812E-01  0.1884E+00  0.1867E+00
    -17.676  0.1547E-01  0.2384E-01  0.1913E+00  0.1912E+00
    -17.486  0.6682E-01  0.6077E-01  0.2040E+00  0.2028E+00
    -17.296  0.7177E-01  0.7416E-01  0.2176E+00  0.2169E+00
    -17.106  0.4532E-01  0.4752E-01  0.2263E+00  0.2259E+00
    -16.916  0.1392E-01  0.1524E-01  0.2289E+00  0.2288E+00
    -16.725  0.3488E-01  0.3366E-01  0.2355E+00  0.2352E+00
    -16.535  0.2326E-01  0.1964E-01  0.2399E+00  0.2389E+00
    -16.345  0.4763E-01  0.4762E-01  0.2490E+00  0.2480E+00
    -16.155  0.9218E-02  0.1115E-01  0.2507E+00  0.2501E+00
    -15.965  0.4933E-01  0.5199E-01  0.2601E+00  0.2600E+00
    -15.775  0.2209E-01  0.2220E-01  0.2643E+00  0.2642E+00
    -15.585  0.3931E-01  0.3182E-01  0.2718E+00  0.2702E+00
    -15.395  0.5192E-01  0.4756E-01  0.2816E+00  0.2793E+00
    -15.205  0.5564E-01  0.6823E-01  0.2922E+00  0.2922E+00
    -15.015  0.1859E-01  0.1260E-01  0.2958E+00  0.2946E+00
    -14.825  0.7078E-01  0.7295E-01  0.3092E+00  0.3085E+00
    -14.635  0.3712E-01  0.3686E-01  0.3163E+00  0.3155E+00
    -14.445  0.6197E-01  0.5988E-01  0.3280E+00  0.3269E+00
    -14.255  0.1203E-01  0.1576E-01  0.3303E+00  0.3298E+00
    -14.065  0.2984E-01  0.2735E-01  0.3360E+00  0.3350E+00
    -13.875  0.7514E-01  0.6617E-01  0.3503E+00  0.3476E+00
    -13.685  0.4160E-01  0.4955E-01  0.3582E+00  0.3570E+00
    -13.495  0.3786E-02  0.9775E-02  0.3589E+00  0.3589E+00
    -13.305  0.1040E-01  0.4913E-02  0.3609E+00  0.3598E+00
    -13.115  0.7666E-01  0.7291E-01  0.3754E+00  0.3737E+00
    -12.925  0.4440E-01  0.4972E-01  0.3839E+00  0.3831E+00
    -12.735  0.5416E-01  0.5625E-01  0.3942E+00  0.3938E+00
    -12.545  0.5373E-01  0.5380E-01  0.4044E+00  0.4040E+00
    -12.355  0.1024E-01  0.5708E-02  0.4063E+00  0.4051E+00
    -12.165  0.8352E-01  0.8934E-01  0.4222E+00  0.4221E+00
    -11.975  0.1160E-01  0.1108E-01  0.4244E+00  0.4242E+00
    -11.785  0.4463E-01  0.3382E-01  0.4329E+00  0.4306E+00
    -11.595  0.7381E-01  0.8168E-01  0.4469E+00  0.4461E+00
    -11.405  0.5543E-01  0.4874E-01  0.4574E+00  0.4554E+00
    -11.215  0.5508E-01  0.6439E-01  0.4679E+00  0.4676E+00
    -11.025  0.4224E-01  0.4068E-01  0.4759E+00  0.4754E+00
    -10.835  0.2749E-01  0.3023E-01  0.4811E+00  0.4811E+00
    -10.645  0.7760E-01  0.6736E-01  0.4959E+00  0.4939E+00
    -10.455  0.5739E-01  0.5878E-01  0.5068E+00  0.5051E+00
    -10.265  0.1181E+00  0.1216E+00  0.5292E+00  0.5282E+00
    -10.075  0.7693E-01  0.7743E-01  0.5438E+00  0.5429E+00
     -9.885  0.1116E+00  0.1071E+00  0.5651E+00  0.5632E+00
     -9.695  0.8830E-01  0.8830E-01  0.5818E+00  0.5800E+00
     -9.505  0.8908E-01  0.8642E-01  0.5988E+00  0.5964E+00
     -9.315  0.1299E+00  0.1375E+00  0.6234E+00  0.6226E+00
     -9.125  0.1191E+00  0.1151E+00  0.6461E+00  0.6444E+00
     -8.935  0.1056E+00  0.9961E-01  0.6661E+00  0.6634E+00
     -8.745  0.1338E+00  0.1432E+00  0.6916E+00  0.6906E+00
     -8.555  0.4991E-01  0.4184E-01  0.7010E+00  0.6985E+00
     -8.365  0.1050E+00  0.1098E+00  0.7210E+00  0.7194E+00
     -8.175  0.7482E-01  0.7394E-01  0.7352E+00  0.7334E+00
     -7.985  0.1328E+00  0.1312E+00  0.7604E+00  0.7584E+00
     -7.795  0.5501E-01  0.5950E-01  0.7709E+00  0.7697E+00
     -7.605  0.5018E-01  0.4828E-01  0.7804E+00  0.7789E+00
     -7.415  0.8539E-01  0.7376E-01  0.7967E+00  0.7929E+00
     -7.225  0.9341E-01  0.9855E-01  0.8144E+00  0.8116E+00
     -7.035  0.9094E-01  0.9914E-01  0.8317E+00  0.8304E+00
     -6.845  0.7431E-01  0.7097E-01  0.8458E+00  0.8439E+00
     -6.655  0.5146E-01  0.5217E-01  0.8556E+00  0.8538E+00
     -6.465  0.6089E-01  0.6584E-01  0.8672E+00  0.8663E+00
     -6.275  0.5817E-01  0.5987E-01  0.8782E+00  0.8777E+00
     -6.085  0.8914E-01  0.7459E-01  0.8951E+00  0.8919E+00
     -5.895  0.4888E-01  0.6540E-01  0.9044E+00  0.9043E+00
     -5.705  0.4544E-01  0.3439E-01  0.9131E+00  0.9108E+00
     -5.515  0.4242E-01  0.5399E-01  0.9211E+00  0.9211E+00
     -5.325  0.3374E-01  0.3000E-01  0.9275E+00  0.9268E+00
     -5.135  0.5486E-01  0.4315E-01  0.9380E+00  0.9350E+00
     -4.945  0.1095E+00  0.1218E+00  0.9588E+00  0.9581E+00
     -4.755  0.6807E-03  0.3917E-02  0.9589E+00  0.9589E+00
     -4.565  0.3269E-01  0.5870E-02  0.9651E+00  0.9600E+00
     -4.375  0.3546E-01  0.4935E-01  0.9718E+00  0.9694E+00
     -4.185  0.7940E-02  0.2016E-01  0.9733E+00  0.9732E+00
     -3.995  0.5024E-01  0.2823E-01  0.9829E+00  0.9786E+00
     -3.805  0.2558E-01  0.1235E-01  0.9878E+00  0.9809E+00
     -3.615  0.8577E-02  0.3351E-01  0.9894E+00  0.9873E+00
     -3.425  0.3240E-02  0.2573E-02  0.9900E+00  0.9878E+00
     -3.235  0.3059E-01  0.6232E-02  0.9958E+00  0.9890E+00
     -3.045  0.1037E-01  0.5464E-02  0.9978E+00  0.9900E+00
     -2.855  0.1160E-01  0.2773E-01  0.1000E+01  0.9953E+00
     -2.665  0.5707E-03  0.2488E-01  0.1000E+01  0.1000E+01
     -2.475  0.1119E-01  0.9251E-02  0.1002E+01  0.1002E+01
     -2.285  0.1467E-05  0.2461E-02  0.1002E+01  0.1002E+01
     -2.095  0.2046E-04  0.2357E-07  0.1002E+01  0.1002E+01
     -1.905  0.2373E-01  0.1724E-01  0.1007E+01  0.1005E+01
     -1.715  0.5539E-01  0.4415E-01  0.1017E+01  0.1014E+01
     -1.525  0.2015E-01  0.3687E-01  0.1021E+01  0.1021E+01
     -1.335  0.4918E-01  0.1103E-01  0.1030E+01  0.1023E+01
     -1.145  0.7717E-01  0.1064E+00  0.1045E+01  0.1043E+01
     -0.955  0.8005E-01  0.8243E-01  0.1060E+01  0.1059E+01
     -0.765  0.7490E-01  0.6285E-01  0.1075E+01  0.1071E+01
     -0.575  0.3447E-01  0.4315E-01  0.1081E+01  0.1079E+01
     -0.385  0.7554E-01  0.8309E-01  0.1095E+01  0.1095E+01
     -0.195  0.9630E-03  0.4051E-02  0.1096E+01  0.1096E+01
     -0.005  0.4932E-01  0.2230E-01  0.1105E+01  0.1100E+01
      0.185  0.5992E-01  0.8231E-01  0.1116E+01  0.1115E+01
      0.375  0.3594E-01  0.2898E-01  0.1123E+01  0.1121E+01
      0.565  0.7554E-01  0.8365E-01  0.1138E+01  0.1137E+01
      0.755  0.4217E-01  0.3728E-01  0.1146E+01  0.1144E+01
      0.945  0.8030E-01  0.7940E-01  0.1161E+01  0.1159E+01
      1.135  0.1008E+00  0.1101E+00  0.1180E+01  0.1180E+01
      1.325  0.8676E-01  0.6776E-01  0.1196E+01  0.1193E+01
      1.515  0.1637E+00  0.1724E+00  0.1228E+01  0.1226E+01
      1.705  0.1594E+00  0.1479E+00  0.1258E+01  0.1254E+01
      1.895  0.1109E+00  0.1306E+00  0.1279E+01  0.1278E+01
      2.085  0.5595E-02  0.7979E-02  0.1280E+01  0.1280E+01
      2.275  0.5659E-07  0.1831E-05  0.1280E+01  0.1280E+01
      2.465  0.0000E+00  0.0000E+00  0.1280E+01  0.1280E+01
      2.655  0.0000E+00  0.0000E+00  0.1280E+01  0.1280E+01
      2.845  0.0000E+00  0.0000E+00  0.1280E+01  0.1280E+01
      3.035  0.0000E+00  0.0000E+00  0.1280E+01  0.1280E+01
      3.225  0.0000E+00  0.0000E+00  0.1280E+01  0.1280E+01
      3.415  0.0000E+00  0.0000E+00  0.1280E+01  0.1280E+01
      3.605  0.0000E+00  0.0000E+00  0.1280E+01  0.1280E+01
      3.795  0.0000E+00  0.0000E+00  0.1280E+01  0.1280E+01
      3.985  0.0000E+00  0.0000E+00  0.1280E+01  0.1280E+01
      4.175  0.0000E+00  0.0000E+00  0.1280E+01  0.1280E+01
      4.365  0.0000E+00  0.0000E+00  0.1280E+01  0.1280E+01
      4.555  0.0000E+00  0.0000E+00  0.1280E+01  0.1280E+01
