C  Li                                   
   1.00000000000000     
    12.3000000000000007    0.0000000000000000    0.0000000000000000
    -6.1500000000000004   10.6521124665485960    0.0000000000000000
     0.0000000000000000    0.0000000000000000   30.0000000000000000
   C    Li
    49     1
Direct
  0.0023988828181381  0.0047988647364270  0.4995272275583600
  0.5360984260668434  0.6653835001606541  0.5011710273781901
  0.3988840675307173  0.7977676052209070  0.4981494085170640
  0.5327563049770081  0.8640373233619262  0.4981549570466591
  0.5989626047653562 -0.0032554977493502  0.4968472889460828
  0.7322894825216500  0.0667399658651422  0.4970054768092522
  0.5958652238415058  0.1917280656132655  0.4957518223144257
  0.7279456056746310  0.2642007480042303  0.4967669459214803
  0.6161077063372437  0.3950869999479739  0.4982895514843895
  0.6060433258080229  0.6014104471690371  0.5049157400919759
  0.7390193994930416  0.6735269340008950  0.5114046280658163
  0.6011326547696212  0.7992118882038982  0.5002167026847445
  0.7346745538890357  0.8691043790574966  0.5003694987079229
  0.8007520500686082  0.0022099971201444  0.4981025275085911
  0.9344952599249279  0.0704453344332959  0.4980057215946090
  0.7979518191828133  0.2003400126899073  0.4969381551470378
  0.9310453169154432  0.2688843551486917  0.4971742243147004
  0.7789766279416841  0.3950859857176533  0.4982894556913497
  0.9190683479599032  0.4679420417155656  0.5003192688043793
  0.8078802360693087  0.6157625757972429  0.5241260376976385
  0.9345061993500167  0.6735253940628909  0.5114044092971746
  0.8032006523339827  0.8053808017709070  0.5044992700021838
  0.4018354710243563  0.5995850912908489  0.4988710333494581
  0.5488727039317123  0.4679405644186607  0.5003200037463854
  0.4094797110578856  0.4019740858487548  0.4983253119890215
  0.5362549922209976  0.2642010897650759  0.4967670834693682
  0.1359519963526968  0.0704458843723723  0.4980050077309220
  0.0004644621643826  0.2035463430741396  0.4971040146976763
  0.1346322370907269  0.2692638138365999  0.4972155051330137
 -0.0075050701013654  0.4019733845046850  0.4983246043487105
  0.1296153709592527  0.4670631096782333  0.4984358843464452
 -0.0046336276401700  0.6014099626385193  0.5049145611807097
  0.1292856800581873  0.6653836387796234  0.5011705987461855
  0.0021790716669958  0.8053805596600637  0.5044994986966295
  0.1344303139933156  0.8691059421699576  0.5003687848334311
  0.2014581233277742  0.0022087028324598  0.4981021873321903
  0.9362819153612821  0.8725638574594625  0.5034635535894940
  0.3344498195944998  0.0667398531708706  0.4970050495422285
  0.3378404947890292  0.2688854097332262  0.4971738725699559
  0.2009261171004846  0.4018539601589131  0.4978077481937264
  0.3374476031983490  0.4670628389363806  0.4984362695910731
  0.1977492610124917  0.5995853158169454  0.4988709627818973
  0.3324909141929665  0.6649816315425559  0.4983250655378565
  0.1980787082363447  0.7992120920820224  0.5002164434809441
  0.3312796519410370  0.8640382346263374  0.4981548313048015
  0.3977834181801607 -0.0032556058110493  0.4968459214304451
  0.5306819258628321  0.0613638924649651  0.4959890086973317
  0.4023913500527774  0.2003420576114326  0.4969382949129699
  0.2030819710368151  0.2035479046653496  0.4971036292283981
  0.7271406650946662  0.4542786626238031  0.5604825906213657
 
  0.00000000E+00  0.00000000E+00  0.00000000E+00
  0.00000000E+00  0.00000000E+00  0.00000000E+00
  0.00000000E+00  0.00000000E+00  0.00000000E+00
  0.00000000E+00  0.00000000E+00  0.00000000E+00
  0.00000000E+00  0.00000000E+00  0.00000000E+00
  0.00000000E+00  0.00000000E+00  0.00000000E+00
  0.00000000E+00  0.00000000E+00  0.00000000E+00
  0.00000000E+00  0.00000000E+00  0.00000000E+00
  0.00000000E+00  0.00000000E+00  0.00000000E+00
  0.00000000E+00  0.00000000E+00  0.00000000E+00
  0.00000000E+00  0.00000000E+00  0.00000000E+00
  0.00000000E+00  0.00000000E+00  0.00000000E+00
  0.00000000E+00  0.00000000E+00  0.00000000E+00
  0.00000000E+00  0.00000000E+00  0.00000000E+00
  0.00000000E+00  0.00000000E+00  0.00000000E+00
  0.00000000E+00  0.00000000E+00  0.00000000E+00
  0.00000000E+00  0.00000000E+00  0.00000000E+00
  0.00000000E+00  0.00000000E+00  0.00000000E+00
  0.00000000E+00  0.00000000E+00  0.00000000E+00
  0.00000000E+00  0.00000000E+00  0.00000000E+00
  0.00000000E+00  0.00000000E+00  0.00000000E+00
  0.00000000E+00  0.00000000E+00  0.00000000E+00
  0.00000000E+00  0.00000000E+00  0.00000000E+00
  0.00000000E+00  0.00000000E+00  0.00000000E+00
  0.00000000E+00  0.00000000E+00  0.00000000E+00
  0.00000000E+00  0.00000000E+00  0.00000000E+00
  0.00000000E+00  0.00000000E+00  0.00000000E+00
  0.00000000E+00  0.00000000E+00  0.00000000E+00
  0.00000000E+00  0.00000000E+00  0.00000000E+00
  0.00000000E+00  0.00000000E+00  0.00000000E+00
  0.00000000E+00  0.00000000E+00  0.00000000E+00
  0.00000000E+00  0.00000000E+00  0.00000000E+00
  0.00000000E+00  0.00000000E+00  0.00000000E+00
  0.00000000E+00  0.00000000E+00  0.00000000E+00
  0.00000000E+00  0.00000000E+00  0.00000000E+00
  0.00000000E+00  0.00000000E+00  0.00000000E+00
  0.00000000E+00  0.00000000E+00  0.00000000E+00
  0.00000000E+00  0.00000000E+00  0.00000000E+00
  0.00000000E+00  0.00000000E+00  0.00000000E+00
  0.00000000E+00  0.00000000E+00  0.00000000E+00
  0.00000000E+00  0.00000000E+00  0.00000000E+00
  0.00000000E+00  0.00000000E+00  0.00000000E+00
  0.00000000E+00  0.00000000E+00  0.00000000E+00
  0.00000000E+00  0.00000000E+00  0.00000000E+00
  0.00000000E+00  0.00000000E+00  0.00000000E+00
  0.00000000E+00  0.00000000E+00  0.00000000E+00
  0.00000000E+00  0.00000000E+00  0.00000000E+00
  0.00000000E+00  0.00000000E+00  0.00000000E+00
  0.00000000E+00  0.00000000E+00  0.00000000E+00
  0.00000000E+00  0.00000000E+00  0.00000000E+00
