  55  55   0   0
  0.7146599E+02  0.1230000E-08  0.1230000E-08  0.3000000E-08  0.5000000E-15
  1.000000000000000E-004
  CAR 
 Li defective graphene MACE training lab 
      4.37871435    -52.61854976  301     -3.00933688      1.00000000
    -52.619  0.0000E+00  0.0000E+00  0.0000E+00  0.0000E+00
    -52.429  0.0000E+00  0.0000E+00  0.0000E+00  0.0000E+00
    -52.239  0.0000E+00  0.0000E+00  0.0000E+00  0.0000E+00
    -52.049  0.0000E+00  0.0000E+00  0.0000E+00  0.0000E+00
    -51.859  0.0000E+00  0.0000E+00  0.0000E+00  0.0000E+00
    -51.669  0.0000E+00  0.0000E+00  0.0000E+00  0.0000E+00
    -51.479  0.0000E+00  0.0000E+00  0.0000E+00  0.0000E+00
    -51.289  0.0000E+00  0.0000E+00  0.0000E+00  0.0000E+00
    -51.099  0.0000E+00  0.0000E+00  0.0000E+00  0.0000E+00
    -50.909  0.0000E+00  0.0000E+00  0.0000E+00  0.0000E+00
    -50.719  0.0000E+00  0.0000E+00  0.0000E+00  0.0000E+00
    -50.529  0.0000E+00  0.0000E+00  0.0000E+00  0.0000E+00
    -50.339  0.0000E+00  0.0000E+00  0.0000E+00  0.0000E+00
    -50.149  0.1650E-02  0.1465E-02  0.3135E-03  0.2783E-03
    -49.959  0.5128E+01  0.5118E+01  0.9747E+00  0.9727E+00
    -49.769  0.1334E+00  0.1438E+00  0.1000E+01  0.1000E+01
    -49.579  0.0000E+00  0.0000E+00  0.1000E+01  0.1000E+01
    -49.389  0.0000E+00  0.0000E+00  0.1000E+01  0.1000E+01
    -49.199  0.0000E+00  0.0000E+00  0.1000E+01  0.1000E+01
    -49.009  0.0000E+00  0.0000E+00  0.1000E+01  0.1000E+01
    -48.819  0.0000E+00  0.0000E+00  0.1000E+01  0.1000E+01
    -48.629  0.0000E+00  0.0000E+00  0.1000E+01  0.1000E+01
    -48.439  0.0000E+00  0.0000E+00  0.1000E+01  0.1000E+01
    -48.249  0.0000E+00  0.0000E+00  0.1000E+01  0.1000E+01
    -48.059  0.0000E+00  0.0000E+00  0.1000E+01  0.1000E+01
    -47.869  0.0000E+00  0.0000E+00  0.1000E+01  0.1000E+01
    -47.679  0.0000E+00  0.0000E+00  0.1000E+01  0.1000E+01
    -47.489  0.0000E+00  0.0000E+00  0.1000E+01  0.1000E+01
    -47.299  0.0000E+00  0.0000E+00  0.1000E+01  0.1000E+01
    -47.109  0.0000E+00  0.0000E+00  0.1000E+01  0.1000E+01
    -46.919  0.0000E+00  0.0000E+00  0.1000E+01  0.1000E+01
    -46.729  0.0000E+00  0.0000E+00  0.1000E+01  0.1000E+01
    -46.539  0.0000E+00  0.0000E+00  0.1000E+01  0.1000E+01
    -46.349  0.0000E+00  0.0000E+00  0.1000E+01  0.1000E+01
    -46.159  0.0000E+00  0.0000E+00  0.1000E+01  0.1000E+01
    -45.969  0.0000E+00  0.0000E+00  0.1000E+01  0.1000E+01
    -45.779  0.0000E+00  0.0000E+00  0.1000E+01  0.1000E+01
    -45.589  0.0000E+00  0.0000E+00  0.1000E+01  0.1000E+01
    -45.399  0.0000E+00  0.0000E+00  0.1000E+01  0.1000E+01
    -45.209  0.0000E+00  0.0000E+00  0.1000E+01  0.1000E+01
    -45.019  0.0000E+00  0.0000E+00  0.1000E+01  0.1000E+01
    -44.829  0.0000E+00  0.0000E+00  0.1000E+01  0.1000E+01
    -44.639  0.0000E+00  0.0000E+00  0.1000E+01  0.1000E+01
    -44.449  0.0000E+00  0.0000E+00  0.1000E+01  0.1000E+01
    -44.259  0.0000E+00  0.0000E+00  0.1000E+01  0.1000E+01
    -44.069  0.0000E+00  0.0000E+00  0.1000E+01  0.1000E+01
    -43.879  0.0000E+00  0.0000E+00  0.1000E+01  0.1000E+01
    -43.689  0.0000E+00  0.0000E+00  0.1000E+01  0.1000E+01
    -43.499  0.0000E+00  0.0000E+00  0.1000E+01  0.1000E+01
    -43.309  0.0000E+00  0.0000E+00  0.1000E+01  0.1000E+01
    -43.119  0.0000E+00  0.0000E+00  0.1000E+01  0.1000E+01
    -42.929  0.0000E+00  0.0000E+00  0.1000E+01  0.1000E+01
    -42.739  0.0000E+00  0.0000E+00  0.1000E+01  0.1000E+01
    -42.549  0.0000E+00  0.0000E+00  0.1000E+01  0.1000E+01
    -42.359  0.0000E+00  0.0000E+00  0.1000E+01  0.1000E+01
    -42.169  0.0000E+00  0.0000E+00  0.1000E+01  0.1000E+01
    -41.979  0.0000E+00  0.0000E+00  0.1000E+01  0.1000E+01
    -41.789  0.0000E+00  0.0000E+00  0.1000E+01  0.1000E+01
    -41.599  0.0000E+00  0.0000E+00  0.1000E+01  0.1000E+01
    -41.409  0.0000E+00  0.0000E+00  0.1000E+01  0.1000E+01
    -41.219  0.0000E+00  0.0000E+00  0.1000E+01  0.1000E+01
    -41.029  0.0000E+00  0.0000E+00  0.1000E+01  0.1000E+01
    -40.839  0.0000E+00  0.0000E+00  0.1000E+01  0.1000E+01
    -40.649  0.0000E+00  0.0000E+00  0.1000E+01  0.1000E+01
    -40.459  0.0000E+00  0.0000E+00  0.1000E+01  0.1000E+01
    -40.269  0.0000E+00  0.0000E+00  0.1000E+01  0.1000E+01
    -40.079  0.0000E+00  0.0000E+00  0.1000E+01  0.1000E+01
    -39.889  0.0000E+00  0.0000E+00  0.1000E+01  0.1000E+01
    -39.699  0.0000E+00  0.0000E+00  0.1000E+01  0.1000E+01
    -39.509  0.0000E+00  0.0000E+00  0.1000E+01  0.1000E+01
    -39.319  0.0000E+00  0.0000E+00  0.1000E+01  0.1000E+01
    -39.129  0.0000E+00  0.0000E+00  0.1000E+01  0.1000E+01
    -38.939  0.0000E+00  0.0000E+00  0.1000E+01  0.1000E+01
    -38.749  0.0000E+00  0.0000E+00  0.1000E+01  0.1000E+01
    -38.559  0.0000E+00  0.0000E+00  0.1000E+01  0.1000E+01
    -38.369  0.0000E+00  0.0000E+00  0.1000E+01  0.1000E+01
    -38.179  0.0000E+00  0.0000E+00  0.1000E+01  0.1000E+01
    -37.989  0.0000E+00  0.0000E+00  0.1000E+01  0.1000E+01
    -37.799  0.0000E+00  0.0000E+00  0.1000E+01  0.1000E+01
    -37.609  0.0000E+00  0.0000E+00  0.1000E+01  0.1000E+01
    -37.419  0.0000E+00  0.0000E+00  0.1000E+01  0.1000E+01
    -37.229  0.0000E+00  0.0000E+00  0.1000E+01  0.1000E+01
    -37.039  0.0000E+00  0.0000E+00  0.1000E+01  0.1000E+01
    -36.849  0.0000E+00  0.0000E+00  0.1000E+01  0.1000E+01
    -36.659  0.0000E+00  0.0000E+00  0.1000E+01  0.1000E+01
    -36.469  0.0000E+00  0.0000E+00  0.1000E+01  0.1000E+01
    -36.279  0.0000E+00  0.0000E+00  0.1000E+01  0.1000E+01
    -36.089  0.0000E+00  0.0000E+00  0.1000E+01  0.1000E+01
    -35.899  0.0000E+00  0.0000E+00  0.1000E+01  0.1000E+01
    -35.709  0.0000E+00  0.0000E+00  0.1000E+01  0.1000E+01
    -35.519  0.0000E+00  0.0000E+00  0.1000E+01  0.1000E+01
    -35.329  0.0000E+00  0.0000E+00  0.1000E+01  0.1000E+01
    -35.139  0.0000E+00  0.0000E+00  0.1000E+01  0.1000E+01
    -34.949  0.0000E+00  0.0000E+00  0.1000E+01  0.1000E+01
    -34.759  0.0000E+00  0.0000E+00  0.1000E+01  0.1000E+01
    -34.569  0.0000E+00  0.0000E+00  0.1000E+01  0.1000E+01
    -34.379  0.0000E+00  0.0000E+00  0.1000E+01  0.1000E+01
    -34.189  0.0000E+00  0.0000E+00  0.1000E+01  0.1000E+01
    -33.999  0.0000E+00  0.0000E+00  0.1000E+01  0.1000E+01
    -33.809  0.0000E+00  0.0000E+00  0.1000E+01  0.1000E+01
    -33.619  0.0000E+00  0.0000E+00  0.1000E+01  0.1000E+01
    -33.429  0.0000E+00  0.0000E+00  0.1000E+01  0.1000E+01
    -33.239  0.0000E+00  0.0000E+00  0.1000E+01  0.1000E+01
    -33.049  0.0000E+00  0.0000E+00  0.1000E+01  0.1000E+01
    -32.859  0.0000E+00  0.0000E+00  0.1000E+01  0.1000E+01
    -32.670  0.0000E+00  0.0000E+00  0.1000E+01  0.1000E+01
    -32.480  0.0000E+00  0.0000E+00  0.1000E+01  0.1000E+01
    -32.290  0.0000E+00  0.0000E+00  0.1000E+01  0.1000E+01
    -32.100  0.0000E+00  0.0000E+00  0.1000E+01  0.1000E+01
    -31.910  0.0000E+00  0.0000E+00  0.1000E+01  0.1000E+01
    -31.720  0.0000E+00  0.0000E+00  0.1000E+01  0.1000E+01
    -31.530  0.0000E+00  0.0000E+00  0.1000E+01  0.1000E+01
    -31.340  0.0000E+00  0.0000E+00  0.1000E+01  0.1000E+01
    -31.150  0.0000E+00  0.0000E+00  0.1000E+01  0.1000E+01
    -30.960  0.0000E+00  0.0000E+00  0.1000E+01  0.1000E+01
    -30.770  0.0000E+00  0.0000E+00  0.1000E+01  0.1000E+01
    -30.580  0.0000E+00  0.0000E+00  0.1000E+01  0.1000E+01
    -30.390  0.0000E+00  0.0000E+00  0.1000E+01  0.1000E+01
    -30.200  0.0000E+00  0.0000E+00  0.1000E+01  0.1000E+01
    -30.010  0.0000E+00  0.0000E+00  0.1000E+01  0.1000E+01
    -29.820  0.0000E+00  0.0000E+00  0.1000E+01  0.1000E+01
    -29.630  0.0000E+00  0.0000E+00  0.1000E+01  0.1000E+01
    -29.440  0.0000E+00  0.0000E+00  0.1000E+01  0.1000E+01
    -29.250  0.0000E+00  0.0000E+00  0.1000E+01  0.1000E+01
    -29.060  0.0000E+00  0.0000E+00  0.1000E+01  0.1000E+01
    -28.870  0.0000E+00  0.0000E+00  0.1000E+01  0.1000E+01
    -28.680  0.0000E+00  0.0000E+00  0.1000E+01  0.1000E+01
    -28.490  0.0000E+00  0.0000E+00  0.1000E+01  0.1000E+01
    -28.300  0.0000E+00  0.0000E+00  0.1000E+01  0.1000E+01
    -28.110  0.0000E+00  0.0000E+00  0.1000E+01  0.1000E+01
    -27.920  0.0000E+00  0.0000E+00  0.1000E+01  0.1000E+01
    -27.730  0.0000E+00  0.0000E+00  0.1000E+01  0.1000E+01
    -27.540  0.0000E+00  0.0000E+00  0.1000E+01  0.1000E+01
    -27.350  0.0000E+00  0.0000E+00  0.1000E+01  0.1000E+01
    -27.160  0.0000E+00  0.0000E+00  0.1000E+01  0.1000E+01
    -26.970  0.0000E+00  0.0000E+00  0.1000E+01  0.1000E+01
    -26.780  0.0000E+00  0.0000E+00  0.1000E+01  0.1000E+01
    -26.590  0.0000E+00  0.0000E+00  0.1000E+01  0.1000E+01
    -26.400  0.0000E+00  0.0000E+00  0.1000E+01  0.1000E+01
    -26.210  0.0000E+00  0.0000E+00  0.1000E+01  0.1000E+01
    -26.020  0.0000E+00  0.0000E+00  0.1000E+01  0.1000E+01
    -25.830  0.0000E+00  0.0000E+00  0.1000E+01  0.1000E+01
    -25.640  0.0000E+00  0.0000E+00  0.1000E+01  0.1000E+01
    -25.450  0.0000E+00  0.0000E+00  0.1000E+01  0.1000E+01
    -25.260  0.0000E+00  0.0000E+00  0.1000E+01  0.1000E+01
    -25.070  0.0000E+00  0.0000E+00  0.1000E+01  0.1000E+01
    -24.880  0.0000E+00  0.0000E+00  0.1000E+01  0.1000E+01
    -24.690  0.0000E+00  0.0000E+00  0.1000E+01  0.1000E+01
    -24.500  0.0000E+00  0.0000E+00  0.1000E+01  0.1000E+01
    -24.310  0.0000E+00  0.0000E+00  0.1000E+01  0.1000E+01
    -24.120  0.0000E+00  0.0000E+00  0.1000E+01  0.1000E+01
    -23.930  0.0000E+00  0.0000E+00  0.1000E+01  0.1000E+01
    -23.740  0.0000E+00  0.0000E+00  0.1000E+01  0.1000E+01
    -23.550  0.0000E+00  0.0000E+00  0.1000E+01  0.1000E+01
    -23.360  0.0000E+00  0.0000E+00  0.1000E+01  0.1000E+01
    -23.170  0.0000E+00  0.0000E+00  0.1000E+01  0.1000E+01
    -22.980  0.2444E-03  0.2429E-03  0.1000E+01  0.1000E+01
    -22.790  0.1547E+01  0.1545E+01  0.1294E+01  0.1294E+01
    -22.600  0.3688E+01  0.3690E+01  0.1995E+01  0.1995E+01
    -22.410  0.4403E+01  0.4402E+01  0.2831E+01  0.2831E+01
    -22.220  0.1475E+01  0.1477E+01  0.3111E+01  0.3111E+01
    -22.030  0.7116E+01  0.7115E+01  0.4463E+01  0.4463E+01
    -21.840  0.2035E+01  0.2036E+01  0.4850E+01  0.4850E+01
    -21.650  0.1533E+01  0.1533E+01  0.5141E+01  0.5141E+01
    -21.460  0.7690E+01  0.7688E+01  0.6602E+01  0.6602E+01
    -21.270  0.2679E+01  0.2681E+01  0.7111E+01  0.7111E+01
    -21.080  0.3353E+01  0.3353E+01  0.7748E+01  0.7748E+01
    -20.890  0.1704E+01  0.1702E+01  0.8072E+01  0.8072E+01
    -20.700  0.7154E+01  0.7154E+01  0.9431E+01  0.9431E+01
    -20.510  0.5267E+01  0.5269E+01  0.1043E+02  0.1043E+02
    -20.320  0.8068E-01  0.8072E-01  0.1045E+02  0.1045E+02
    -20.130  0.3659E+01  0.3658E+01  0.1114E+02  0.1114E+02
    -19.940  0.6933E+01  0.6929E+01  0.1246E+02  0.1246E+02
    -19.750  0.3431E+01  0.3435E+01  0.1311E+02  0.1311E+02
    -19.560  0.6631E+01  0.6631E+01  0.1437E+02  0.1437E+02
    -19.370  0.3860E+00  0.3867E+00  0.1444E+02  0.1444E+02
    -19.180  0.3739E+00  0.3734E+00  0.1452E+02  0.1452E+02
    -18.990  0.9251E+01  0.9250E+01  0.1627E+02  0.1627E+02
    -18.800  0.5321E+01  0.5322E+01  0.1728E+02  0.1728E+02
    -18.610  0.2599E+01  0.2600E+01  0.1778E+02  0.1778E+02
    -18.420  0.5491E+01  0.5489E+01  0.1882E+02  0.1882E+02
    -18.230  0.1527E+01  0.1529E+01  0.1911E+02  0.1911E+02
    -18.040  0.3217E+00  0.3208E+00  0.1917E+02  0.1917E+02
    -17.850  0.1204E+02  0.1204E+02  0.2146E+02  0.2146E+02
    -17.660  0.3118E+01  0.3119E+01  0.2205E+02  0.2205E+02
    -17.470  0.7584E+01  0.7584E+01  0.2349E+02  0.2349E+02
    -17.280  0.1495E+01  0.1496E+01  0.2378E+02  0.2378E+02
    -17.090  0.1117E-01  0.1113E-01  0.2378E+02  0.2378E+02
    -16.900  0.2838E+01  0.2838E+01  0.2432E+02  0.2432E+02
    -16.710  0.7674E+01  0.7675E+01  0.2578E+02  0.2578E+02
    -16.520  0.2626E+00  0.2622E+00  0.2583E+02  0.2583E+02
    -16.330  0.3249E+01  0.3250E+01  0.2644E+02  0.2644E+02
    -16.140  0.1269E+01  0.1268E+01  0.2669E+02  0.2669E+02
    -15.950  0.4772E+01  0.4772E+01  0.2759E+02  0.2759E+02
    -15.760  0.1033E+02  0.1033E+02  0.2955E+02  0.2955E+02
    -15.570  0.5601E-02  0.5620E-02  0.2956E+02  0.2956E+02
    -15.380  0.2456E+01  0.2452E+01  0.3002E+02  0.3002E+02
    -15.190  0.1158E+02  0.1158E+02  0.3222E+02  0.3222E+02
    -15.000  0.1557E+00  0.1554E+00  0.3225E+02  0.3225E+02
    -14.810  0.6848E+01  0.6848E+01  0.3355E+02  0.3355E+02
    -14.620  0.1287E+01  0.1286E+01  0.3380E+02  0.3380E+02
    -14.430  0.4383E+01  0.4382E+01  0.3463E+02  0.3463E+02
    -14.240  0.7395E+01  0.7396E+01  0.3603E+02  0.3603E+02
    -14.050  0.9884E+00  0.9890E+00  0.3622E+02  0.3622E+02
    -13.860  0.4967E+00  0.4964E+00  0.3632E+02  0.3632E+02
    -13.670  0.7227E+01  0.7225E+01  0.3769E+02  0.3769E+02
    -13.480  0.1018E+02  0.7437E+01  0.3962E+02  0.3910E+02
    -13.290  0.3020E+01  0.5760E+01  0.4020E+02  0.4020E+02
    -13.100  0.6568E+01  0.6569E+01  0.4144E+02  0.4144E+02
    -12.910  0.1485E+01  0.1483E+01  0.4173E+02  0.4173E+02
    -12.720  0.9930E+01  0.9931E+01  0.4361E+02  0.4361E+02
    -12.530  0.2621E+01  0.2622E+01  0.4411E+02  0.4411E+02
    -12.340  0.9165E-02  0.9132E-02  0.4411E+02  0.4411E+02
    -12.150  0.4121E+01  0.4121E+01  0.4490E+02  0.4490E+02
    -11.961  0.1429E+02  0.1428E+02  0.4761E+02  0.4761E+02
    -11.771  0.2638E+01  0.2640E+01  0.4811E+02  0.4811E+02
    -11.581  0.2008E+01  0.2006E+01  0.4849E+02  0.4849E+02
    -11.391  0.5010E+01  0.5012E+01  0.4944E+02  0.4944E+02
    -11.201  0.2742E+01  0.2739E+01  0.4997E+02  0.4996E+02
    -11.011  0.7909E+01  0.7909E+01  0.5147E+02  0.5147E+02
    -10.821  0.1090E+02  0.1089E+02  0.5354E+02  0.5354E+02
    -10.631  0.1007E+02  0.1007E+02  0.5545E+02  0.5545E+02
    -10.441  0.1096E+02  0.5939E+01  0.5754E+02  0.5658E+02
    -10.251  0.9884E+01  0.1484E+02  0.5941E+02  0.5940E+02
    -10.061  0.9571E+01  0.9636E+01  0.6123E+02  0.6123E+02
     -9.871  0.1429E+02  0.1431E+02  0.6395E+02  0.6395E+02
     -9.681  0.7864E+01  0.7866E+01  0.6544E+02  0.6544E+02
     -9.491  0.1735E+02  0.1735E+02  0.6874E+02  0.6874E+02
     -9.301  0.1430E+02  0.1430E+02  0.7146E+02  0.7146E+02
     -9.111  0.5445E+01  0.5447E+01  0.7249E+02  0.7249E+02
     -8.921  0.9833E+01  0.9832E+01  0.7436E+02  0.7436E+02
     -8.731  0.3317E+01  0.3211E+01  0.7499E+02  0.7497E+02
     -8.541  0.2003E+02  0.2012E+02  0.7879E+02  0.7879E+02
     -8.351  0.1449E+02  0.1450E+02  0.8155E+02  0.8155E+02
     -8.161  0.3551E+01  0.3553E+01  0.8222E+02  0.8222E+02
     -7.971  0.1879E+00  0.1863E+00  0.8226E+02  0.8226E+02
     -7.781  0.9094E+01  0.9088E+01  0.8399E+02  0.8398E+02
     -7.591  0.1514E+02  0.1512E+02  0.8686E+02  0.8686E+02
     -7.401  0.6186E+01  0.6209E+01  0.8804E+02  0.8804E+02
     -7.211  0.6810E+01  0.6793E+01  0.8933E+02  0.8933E+02
     -7.021  0.4536E+01  0.4545E+01  0.9019E+02  0.9019E+02
     -6.831  0.9489E+01  0.4522E+01  0.9200E+02  0.9105E+02
     -6.641  0.8234E+01  0.1292E+02  0.9356E+02  0.9351E+02
     -6.451  0.1091E+02  0.1119E+02  0.9563E+02  0.9563E+02
     -6.261  0.5523E+01  0.5526E+01  0.9668E+02  0.9668E+02
     -6.071  0.7137E+01  0.7134E+01  0.9804E+02  0.9804E+02
     -5.881  0.5326E+00  0.5344E+00  0.9814E+02  0.9814E+02
     -5.691  0.3496E+01  0.3495E+01  0.9880E+02  0.9880E+02
     -5.501  0.5895E+01  0.5860E+01  0.9992E+02  0.9992E+02
     -5.311  0.1504E+02  0.1412E+02  0.1028E+03  0.1026E+03
     -5.121  0.5241E+01  0.2222E+01  0.1038E+03  0.1030E+03
     -4.931  0.4218E+01  0.4717E+01  0.1046E+03  0.1039E+03
     -4.741  0.3244E+01  0.6726E+01  0.1052E+03  0.1052E+03
     -4.551  0.1450E+01  0.1454E+01  0.1055E+03  0.1055E+03
     -4.361  0.8048E+01  0.8032E+01  0.1070E+03  0.1070E+03
     -4.171  0.4095E+01  0.4108E+01  0.1078E+03  0.1078E+03
     -3.981  0.4985E+01  0.1232E+01  0.1087E+03  0.1080E+03
     -3.791  0.2775E+00  0.4032E+01  0.1088E+03  0.1088E+03
     -3.601  0.0000E+00  0.8978E-05  0.1088E+03  0.1088E+03
     -3.411  0.1562E-03  0.1448E-03  0.1088E+03  0.1088E+03
     -3.221  0.2184E+01  0.2180E+01  0.1092E+03  0.1092E+03
     -3.031  0.1834E+01  0.1590E+00  0.1095E+03  0.1092E+03
     -2.841  0.3585E+01  0.0000E+00  0.1102E+03  0.1092E+03
     -2.651  0.2507E-05  0.3093E-04  0.1102E+03  0.1092E+03
     -2.461  0.8375E-07  0.4410E+01  0.1102E+03  0.1101E+03
     -2.271  0.1494E+01  0.2280E+01  0.1105E+03  0.1105E+03
     -2.081  0.6149E+01  0.6188E+01  0.1117E+03  0.1117E+03
     -1.891  0.2375E+01  0.2399E+01  0.1121E+03  0.1121E+03
     -1.701  0.5793E+01  0.5330E+01  0.1132E+03  0.1131E+03
     -1.511  0.1151E+02  0.1037E+02  0.1154E+03  0.1151E+03
     -1.321  0.7737E+01  0.9304E+01  0.1169E+03  0.1169E+03
     -1.131  0.7040E+01  0.7068E+01  0.1182E+03  0.1182E+03
     -0.941  0.3605E+01  0.3605E+01  0.1189E+03  0.1189E+03
     -0.751  0.6925E+01  0.6938E+01  0.1202E+03  0.1202E+03
     -0.561  0.1753E+01  0.1011E-01  0.1206E+03  0.1202E+03
     -0.371  0.4981E+01  0.1651E+01  0.1215E+03  0.1205E+03
     -0.181  0.4275E+01  0.8313E+01  0.1223E+03  0.1221E+03
      0.009  0.4960E+01  0.5848E+01  0.1233E+03  0.1232E+03
      0.199  0.8917E+01  0.8834E+01  0.1249E+03  0.1249E+03
      0.389  0.6563E+01  0.5676E+01  0.1262E+03  0.1260E+03
      0.579  0.4327E+01  0.4654E+01  0.1270E+03  0.1269E+03
      0.769  0.1289E+02  0.1306E+02  0.1295E+03  0.1293E+03
      0.959  0.7511E+01  0.6428E+01  0.1309E+03  0.1306E+03
      1.149  0.7173E+01  0.7215E+01  0.1323E+03  0.1319E+03
      1.339  0.1014E+02  0.1072E+02  0.1342E+03  0.1340E+03
      1.529  0.1639E+02  0.1572E+02  0.1373E+03  0.1370E+03
      1.719  0.1163E+02  0.1269E+02  0.1395E+03  0.1394E+03
      1.909  0.2586E+01  0.3288E+01  0.1400E+03  0.1400E+03
      2.099  0.1371E-03  0.4170E-03  0.1400E+03  0.1400E+03
      2.289  0.0000E+00  0.0000E+00  0.1400E+03  0.1400E+03
      2.479  0.0000E+00  0.0000E+00  0.1400E+03  0.1400E+03
      2.669  0.0000E+00  0.0000E+00  0.1400E+03  0.1400E+03
      2.859  0.0000E+00  0.0000E+00  0.1400E+03  0.1400E+03
      3.049  0.0000E+00  0.0000E+00  0.1400E+03  0.1400E+03
      3.239  0.0000E+00  0.0000E+00  0.1400E+03  0.1400E+03
      3.429  0.0000E+00  0.0000E+00  0.1400E+03  0.1400E+03
      3.619  0.0000E+00  0.0000E+00  0.1400E+03  0.1400E+03
      3.809  0.0000E+00  0.0000E+00  0.1400E+03  0.1400E+03
      3.999  0.0000E+00  0.0000E+00  0.1400E+03  0.1400E+03
      4.189  0.0000E+00  0.0000E+00  0.1400E+03  0.1400E+03
      4.379  0.0000E+00  0.0000E+00  0.1400E+03  0.1400E+03
