       N       E                     dE             d eps       ncg     rms          rms(c)
DAV:   1     0.196443882694E+04    0.19644E+04   -0.67812E+04  3256   0.106E+03
DAV:   2     0.416518781445E+02   -0.19228E+04   -0.17791E+04  4080   0.236E+02
DAV:   3    -0.467966574321E+03   -0.50962E+03   -0.50408E+03  3472   0.129E+02
DAV:   4    -0.495012642585E+03   -0.27046E+02   -0.26705E+02  3412   0.386E+01
DAV:   5    -0.495999880609E+03   -0.98724E+00   -0.97841E+00  4120   0.625E+00    0.334E+01
DAV:   6    -0.470853857246E+03    0.25146E+02   -0.24404E+01  2940   0.113E+01    0.193E+01
DAV:   7    -0.458213487597E+03    0.12640E+02   -0.16008E+01  3028   0.930E+00    0.101E+01
DAV:   8    -0.457667617342E+03    0.54587E+00   -0.46600E+00  2996   0.477E+00    0.381E+00
DAV:   9    -0.458868332545E+03   -0.12007E+01   -0.60653E-01  3476   0.181E+00    0.141E+00
DAV:  10    -0.459144365073E+03   -0.27603E+00   -0.16785E-01  2888   0.872E-01    0.937E-01
DAV:  11    -0.459445023231E+03   -0.30066E+00   -0.52210E-02  3248   0.417E-01    0.787E-01
DAV:  12    -0.459967023259E+03   -0.52200E+00   -0.22058E-01  2792   0.751E-01    0.532E-01
DAV:  13    -0.459945758989E+03    0.21264E-01   -0.66050E-02  2848   0.475E-01    0.421E-01
DAV:  14    -0.460766559601E+03   -0.82080E+00   -0.52692E-02  2912   0.334E-01    0.294E-01
DAV:  15    -0.461496158630E+03   -0.72960E+00   -0.27552E-02  2896   0.235E-01    0.201E-01
DAV:  16    -0.461801331562E+03   -0.30517E+00   -0.44100E-03  3012   0.142E-01    0.160E-01
DAV:  17    -0.462107835067E+03   -0.30650E+00   -0.64118E-03  2760   0.140E-01    0.107E-01
DAV:  18    -0.462205777839E+03   -0.97943E-01   -0.30904E-03  2880   0.906E-02    0.770E-02
DAV:  19    -0.462230111468E+03   -0.24334E-01   -0.13550E-03  3036   0.636E-02    0.546E-02
DAV:  20    -0.462261319591E+03   -0.31208E-01   -0.66471E-04  2912   0.511E-02    0.361E-02
DAV:  21    -0.462295026421E+03   -0.33707E-01   -0.15731E-04  2916   0.374E-02    0.240E-02
DAV:  22    -0.462321079349E+03   -0.26053E-01   -0.10330E-04  2960   0.295E-02    0.132E-02
DAV:  23    -0.462326944424E+03   -0.58651E-02   -0.35387E-05  2744   0.191E-02    0.919E-03
DAV:  24    -0.462329997802E+03   -0.30534E-02   -0.31943E-05  2336   0.151E-02    0.586E-03
DAV:  25    -0.462331477041E+03   -0.14792E-02   -0.28890E-05  2376   0.120E-02    0.350E-03
DAV:  26    -0.462332058836E+03   -0.58180E-03   -0.88144E-06  2316   0.782E-03    0.244E-03
DAV:  27    -0.462332406998E+03   -0.34816E-03   -0.29784E-06  2248   0.447E-03    0.170E-03
DAV:  28    -0.462332653717E+03   -0.24672E-03   -0.18181E-06  2200   0.289E-03    0.114E-03
DAV:  29    -0.462332812898E+03   -0.15918E-03   -0.92633E-07  2024   0.191E-03    0.779E-04
DAV:  30    -0.462332913930E+03   -0.10103E-03   -0.43840E-07  1968   0.131E-03    0.524E-04
DAV:  31    -0.462332985096E+03   -0.71166E-04   -0.37960E-07  1896   0.959E-04    0.326E-04
DAV:  32    -0.462333014831E+03   -0.29735E-04   -0.92866E-08  1960   0.646E-04    0.213E-04
DAV:  33    -0.462333026155E+03   -0.11324E-04   -0.11021E-08  2000   0.401E-04    0.152E-04
DAV:  34    -0.462333032053E+03   -0.58977E-05    0.74611E-09  1932   0.237E-04    0.128E-04
DAV:  35    -0.462333035583E+03   -0.35297E-05    0.10856E-08  1880   0.171E-04    0.117E-04
DAV:  36    -0.462333037243E+03   -0.16598E-05    0.17435E-08  1892   0.107E-04    0.112E-04
DAV:  37    -0.462333038666E+03   -0.14238E-05    0.18377E-08  1872   0.904E-05    0.109E-04
DAV:  38    -0.462333039071E+03   -0.40447E-06    0.20254E-08  1856   0.566E-05
   1 F= -.46233304E+03 E0= -.46232248E+03  d E =-.211195E-01  mag=    -0.0000
