  51  51   0   0
  0.7707117E+02  0.1230000E-08  0.1230000E-08  0.3000000E-08  0.5000000E-15
  1.000000000000000E-004
  CAR 
 Li defective graphene MACE training lab 
      4.86719557    -54.68814781  301     -1.79304079      1.00000000
    -54.688  0.0000E+00  0.0000E+00  0.0000E+00  0.0000E+00
    -54.490  0.0000E+00  0.0000E+00  0.0000E+00  0.0000E+00
    -54.291  0.0000E+00  0.0000E+00  0.0000E+00  0.0000E+00
    -54.093  0.0000E+00  0.0000E+00  0.0000E+00  0.0000E+00
    -53.894  0.0000E+00  0.0000E+00  0.0000E+00  0.0000E+00
    -53.696  0.0000E+00  0.0000E+00  0.0000E+00  0.0000E+00
    -53.497  0.0000E+00  0.0000E+00  0.0000E+00  0.0000E+00
    -53.299  0.0000E+00  0.0000E+00  0.0000E+00  0.0000E+00
    -53.100  0.0000E+00  0.0000E+00  0.0000E+00  0.0000E+00
    -52.901  0.0000E+00  0.0000E+00  0.0000E+00  0.0000E+00
    -52.703  0.0000E+00  0.0000E+00  0.0000E+00  0.0000E+00
    -52.504  0.0000E+00  0.0000E+00  0.0000E+00  0.0000E+00
    -52.306  0.0000E+00  0.0000E+00  0.0000E+00  0.0000E+00
    -52.107  0.8883E-05  0.8883E-05  0.1763E-05  0.1763E-05
    -51.909  0.4933E-01  0.4933E-01  0.9794E-02  0.9794E-02
    -51.710  0.1037E-02  0.1037E-02  0.1000E-01  0.1000E-01
    -51.512  0.0000E+00  0.0000E+00  0.1000E-01  0.1000E-01
    -51.313  0.0000E+00  0.0000E+00  0.1000E-01  0.1000E-01
    -51.115  0.0000E+00  0.0000E+00  0.1000E-01  0.1000E-01
    -50.916  0.0000E+00  0.0000E+00  0.1000E-01  0.1000E-01
    -50.718  0.0000E+00  0.0000E+00  0.1000E-01  0.1000E-01
    -50.519  0.0000E+00  0.0000E+00  0.1000E-01  0.1000E-01
    -50.321  0.0000E+00  0.0000E+00  0.1000E-01  0.1000E-01
    -50.122  0.0000E+00  0.0000E+00  0.1000E-01  0.1000E-01
    -49.924  0.0000E+00  0.0000E+00  0.1000E-01  0.1000E-01
    -49.725  0.0000E+00  0.0000E+00  0.1000E-01  0.1000E-01
    -49.527  0.0000E+00  0.0000E+00  0.1000E-01  0.1000E-01
    -49.328  0.0000E+00  0.0000E+00  0.1000E-01  0.1000E-01
    -49.130  0.0000E+00  0.0000E+00  0.1000E-01  0.1000E-01
    -48.931  0.0000E+00  0.0000E+00  0.1000E-01  0.1000E-01
    -48.733  0.0000E+00  0.0000E+00  0.1000E-01  0.1000E-01
    -48.534  0.0000E+00  0.0000E+00  0.1000E-01  0.1000E-01
    -48.336  0.0000E+00  0.0000E+00  0.1000E-01  0.1000E-01
    -48.137  0.0000E+00  0.0000E+00  0.1000E-01  0.1000E-01
    -47.939  0.0000E+00  0.0000E+00  0.1000E-01  0.1000E-01
    -47.740  0.0000E+00  0.0000E+00  0.1000E-01  0.1000E-01
    -47.542  0.0000E+00  0.0000E+00  0.1000E-01  0.1000E-01
    -47.343  0.0000E+00  0.0000E+00  0.1000E-01  0.1000E-01
    -47.144  0.0000E+00  0.0000E+00  0.1000E-01  0.1000E-01
    -46.946  0.0000E+00  0.0000E+00  0.1000E-01  0.1000E-01
    -46.747  0.0000E+00  0.0000E+00  0.1000E-01  0.1000E-01
    -46.549  0.0000E+00  0.0000E+00  0.1000E-01  0.1000E-01
    -46.350  0.0000E+00  0.0000E+00  0.1000E-01  0.1000E-01
    -46.152  0.0000E+00  0.0000E+00  0.1000E-01  0.1000E-01
    -45.953  0.0000E+00  0.0000E+00  0.1000E-01  0.1000E-01
    -45.755  0.0000E+00  0.0000E+00  0.1000E-01  0.1000E-01
    -45.556  0.0000E+00  0.0000E+00  0.1000E-01  0.1000E-01
    -45.358  0.0000E+00  0.0000E+00  0.1000E-01  0.1000E-01
    -45.159  0.0000E+00  0.0000E+00  0.1000E-01  0.1000E-01
    -44.961  0.0000E+00  0.0000E+00  0.1000E-01  0.1000E-01
    -44.762  0.0000E+00  0.0000E+00  0.1000E-01  0.1000E-01
    -44.564  0.0000E+00  0.0000E+00  0.1000E-01  0.1000E-01
    -44.365  0.0000E+00  0.0000E+00  0.1000E-01  0.1000E-01
    -44.167  0.0000E+00  0.0000E+00  0.1000E-01  0.1000E-01
    -43.968  0.0000E+00  0.0000E+00  0.1000E-01  0.1000E-01
    -43.770  0.0000E+00  0.0000E+00  0.1000E-01  0.1000E-01
    -43.571  0.0000E+00  0.0000E+00  0.1000E-01  0.1000E-01
    -43.373  0.0000E+00  0.0000E+00  0.1000E-01  0.1000E-01
    -43.174  0.0000E+00  0.0000E+00  0.1000E-01  0.1000E-01
    -42.976  0.0000E+00  0.0000E+00  0.1000E-01  0.1000E-01
    -42.777  0.0000E+00  0.0000E+00  0.1000E-01  0.1000E-01
    -42.579  0.0000E+00  0.0000E+00  0.1000E-01  0.1000E-01
    -42.380  0.0000E+00  0.0000E+00  0.1000E-01  0.1000E-01
    -42.182  0.0000E+00  0.0000E+00  0.1000E-01  0.1000E-01
    -41.983  0.0000E+00  0.0000E+00  0.1000E-01  0.1000E-01
    -41.784  0.0000E+00  0.0000E+00  0.1000E-01  0.1000E-01
    -41.586  0.0000E+00  0.0000E+00  0.1000E-01  0.1000E-01
    -41.387  0.0000E+00  0.0000E+00  0.1000E-01  0.1000E-01
    -41.189  0.0000E+00  0.0000E+00  0.1000E-01  0.1000E-01
    -40.990  0.0000E+00  0.0000E+00  0.1000E-01  0.1000E-01
    -40.792  0.0000E+00  0.0000E+00  0.1000E-01  0.1000E-01
    -40.593  0.0000E+00  0.0000E+00  0.1000E-01  0.1000E-01
    -40.395  0.0000E+00  0.0000E+00  0.1000E-01  0.1000E-01
    -40.196  0.0000E+00  0.0000E+00  0.1000E-01  0.1000E-01
    -39.998  0.0000E+00  0.0000E+00  0.1000E-01  0.1000E-01
    -39.799  0.0000E+00  0.0000E+00  0.1000E-01  0.1000E-01
    -39.601  0.0000E+00  0.0000E+00  0.1000E-01  0.1000E-01
    -39.402  0.0000E+00  0.0000E+00  0.1000E-01  0.1000E-01
    -39.204  0.0000E+00  0.0000E+00  0.1000E-01  0.1000E-01
    -39.005  0.0000E+00  0.0000E+00  0.1000E-01  0.1000E-01
    -38.807  0.0000E+00  0.0000E+00  0.1000E-01  0.1000E-01
    -38.608  0.0000E+00  0.0000E+00  0.1000E-01  0.1000E-01
    -38.410  0.0000E+00  0.0000E+00  0.1000E-01  0.1000E-01
    -38.211  0.0000E+00  0.0000E+00  0.1000E-01  0.1000E-01
    -38.013  0.0000E+00  0.0000E+00  0.1000E-01  0.1000E-01
    -37.814  0.0000E+00  0.0000E+00  0.1000E-01  0.1000E-01
    -37.616  0.0000E+00  0.0000E+00  0.1000E-01  0.1000E-01
    -37.417  0.0000E+00  0.0000E+00  0.1000E-01  0.1000E-01
    -37.219  0.0000E+00  0.0000E+00  0.1000E-01  0.1000E-01
    -37.020  0.0000E+00  0.0000E+00  0.1000E-01  0.1000E-01
    -36.822  0.0000E+00  0.0000E+00  0.1000E-01  0.1000E-01
    -36.623  0.0000E+00  0.0000E+00  0.1000E-01  0.1000E-01
    -36.425  0.0000E+00  0.0000E+00  0.1000E-01  0.1000E-01
    -36.226  0.0000E+00  0.0000E+00  0.1000E-01  0.1000E-01
    -36.027  0.0000E+00  0.0000E+00  0.1000E-01  0.1000E-01
    -35.829  0.0000E+00  0.0000E+00  0.1000E-01  0.1000E-01
    -35.630  0.0000E+00  0.0000E+00  0.1000E-01  0.1000E-01
    -35.432  0.0000E+00  0.0000E+00  0.1000E-01  0.1000E-01
    -35.233  0.0000E+00  0.0000E+00  0.1000E-01  0.1000E-01
    -35.035  0.0000E+00  0.0000E+00  0.1000E-01  0.1000E-01
    -34.836  0.0000E+00  0.0000E+00  0.1000E-01  0.1000E-01
    -34.638  0.0000E+00  0.0000E+00  0.1000E-01  0.1000E-01
    -34.439  0.0000E+00  0.0000E+00  0.1000E-01  0.1000E-01
    -34.241  0.0000E+00  0.0000E+00  0.1000E-01  0.1000E-01
    -34.042  0.0000E+00  0.0000E+00  0.1000E-01  0.1000E-01
    -33.844  0.0000E+00  0.0000E+00  0.1000E-01  0.1000E-01
    -33.645  0.0000E+00  0.0000E+00  0.1000E-01  0.1000E-01
    -33.447  0.0000E+00  0.0000E+00  0.1000E-01  0.1000E-01
    -33.248  0.0000E+00  0.0000E+00  0.1000E-01  0.1000E-01
    -33.050  0.0000E+00  0.0000E+00  0.1000E-01  0.1000E-01
    -32.851  0.0000E+00  0.0000E+00  0.1000E-01  0.1000E-01
    -32.653  0.0000E+00  0.0000E+00  0.1000E-01  0.1000E-01
    -32.454  0.0000E+00  0.0000E+00  0.1000E-01  0.1000E-01
    -32.256  0.0000E+00  0.0000E+00  0.1000E-01  0.1000E-01
    -32.057  0.0000E+00  0.0000E+00  0.1000E-01  0.1000E-01
    -31.859  0.0000E+00  0.0000E+00  0.1000E-01  0.1000E-01
    -31.660  0.0000E+00  0.0000E+00  0.1000E-01  0.1000E-01
    -31.462  0.0000E+00  0.0000E+00  0.1000E-01  0.1000E-01
    -31.263  0.0000E+00  0.0000E+00  0.1000E-01  0.1000E-01
    -31.065  0.0000E+00  0.0000E+00  0.1000E-01  0.1000E-01
    -30.866  0.0000E+00  0.0000E+00  0.1000E-01  0.1000E-01
    -30.667  0.0000E+00  0.0000E+00  0.1000E-01  0.1000E-01
    -30.469  0.0000E+00  0.0000E+00  0.1000E-01  0.1000E-01
    -30.270  0.0000E+00  0.0000E+00  0.1000E-01  0.1000E-01
    -30.072  0.0000E+00  0.0000E+00  0.1000E-01  0.1000E-01
    -29.873  0.0000E+00  0.0000E+00  0.1000E-01  0.1000E-01
    -29.675  0.0000E+00  0.0000E+00  0.1000E-01  0.1000E-01
    -29.476  0.0000E+00  0.0000E+00  0.1000E-01  0.1000E-01
    -29.278  0.0000E+00  0.0000E+00  0.1000E-01  0.1000E-01
    -29.079  0.0000E+00  0.0000E+00  0.1000E-01  0.1000E-01
    -28.881  0.0000E+00  0.0000E+00  0.1000E-01  0.1000E-01
    -28.682  0.0000E+00  0.0000E+00  0.1000E-01  0.1000E-01
    -28.484  0.0000E+00  0.0000E+00  0.1000E-01  0.1000E-01
    -28.285  0.0000E+00  0.0000E+00  0.1000E-01  0.1000E-01
    -28.087  0.0000E+00  0.0000E+00  0.1000E-01  0.1000E-01
    -27.888  0.0000E+00  0.0000E+00  0.1000E-01  0.1000E-01
    -27.690  0.0000E+00  0.0000E+00  0.1000E-01  0.1000E-01
    -27.491  0.0000E+00  0.0000E+00  0.1000E-01  0.1000E-01
    -27.293  0.0000E+00  0.0000E+00  0.1000E-01  0.1000E-01
    -27.094  0.0000E+00  0.0000E+00  0.1000E-01  0.1000E-01
    -26.896  0.0000E+00  0.0000E+00  0.1000E-01  0.1000E-01
    -26.697  0.0000E+00  0.0000E+00  0.1000E-01  0.1000E-01
    -26.499  0.0000E+00  0.0000E+00  0.1000E-01  0.1000E-01
    -26.300  0.0000E+00  0.0000E+00  0.1000E-01  0.1000E-01
    -26.102  0.0000E+00  0.0000E+00  0.1000E-01  0.1000E-01
    -25.903  0.0000E+00  0.0000E+00  0.1000E-01  0.1000E-01
    -25.705  0.0000E+00  0.0000E+00  0.1000E-01  0.1000E-01
    -25.506  0.0000E+00  0.0000E+00  0.1000E-01  0.1000E-01
    -25.308  0.0000E+00  0.0000E+00  0.1000E-01  0.1000E-01
    -25.109  0.0000E+00  0.0000E+00  0.1000E-01  0.1000E-01
    -24.910  0.0000E+00  0.0000E+00  0.1000E-01  0.1000E-01
    -24.712  0.0000E+00  0.0000E+00  0.1000E-01  0.1000E-01
    -24.513  0.0000E+00  0.0000E+00  0.1000E-01  0.1000E-01
    -24.315  0.0000E+00  0.0000E+00  0.1000E-01  0.1000E-01
    -24.116  0.0000E+00  0.0000E+00  0.1000E-01  0.1000E-01
    -23.918  0.0000E+00  0.0000E+00  0.1000E-01  0.1000E-01
    -23.719  0.0000E+00  0.0000E+00  0.1000E-01  0.1000E-01
    -23.521  0.0000E+00  0.0000E+00  0.1000E-01  0.1000E-01
    -23.322  0.0000E+00  0.0000E+00  0.1000E-01  0.1000E-01
    -23.124  0.0000E+00  0.0000E+00  0.1000E-01  0.1000E-01
    -22.925  0.0000E+00  0.0000E+00  0.1000E-01  0.1000E-01
    -22.727  0.0000E+00  0.0000E+00  0.1000E-01  0.1000E-01
    -22.528  0.8204E-09  0.8204E-09  0.1000E-01  0.1000E-01
    -22.330  0.4373E-02  0.4373E-02  0.1087E-01  0.1087E-01
    -22.131  0.4295E-01  0.4295E-01  0.1939E-01  0.1939E-01
    -21.933  0.2485E-01  0.2485E-01  0.2433E-01  0.2433E-01
    -21.734  0.3417E-01  0.3417E-01  0.3111E-01  0.3111E-01
    -21.536  0.6058E-01  0.6058E-01  0.4314E-01  0.4314E-01
    -21.337  0.2561E-01  0.2561E-01  0.4822E-01  0.4822E-01
    -21.139  0.1535E-01  0.1535E-01  0.5127E-01  0.5127E-01
    -20.940  0.7832E-01  0.7832E-01  0.6682E-01  0.6682E-01
    -20.742  0.2165E-01  0.2165E-01  0.7111E-01  0.7111E-01
    -20.543  0.3320E-01  0.3320E-01  0.7771E-01  0.7771E-01
    -20.345  0.3030E-01  0.3030E-01  0.8372E-01  0.8372E-01
    -20.146  0.6566E-01  0.6566E-01  0.9675E-01  0.9675E-01
    -19.948  0.3872E-01  0.3872E-01  0.1044E+00  0.1044E+00
    -19.749  0.4474E-02  0.4474E-02  0.1053E+00  0.1053E+00
    -19.550  0.3791E-01  0.3791E-01  0.1129E+00  0.1129E+00
    -19.352  0.9064E-01  0.9064E-01  0.1308E+00  0.1308E+00
    -19.153  0.5757E-02  0.5757E-02  0.1320E+00  0.1320E+00
    -18.955  0.6272E-01  0.6272E-01  0.1444E+00  0.1444E+00
    -18.756  0.6930E-05  0.6930E-05  0.1444E+00  0.1444E+00
    -18.558  0.4225E-01  0.4225E-01  0.1528E+00  0.1528E+00
    -18.359  0.8108E-01  0.8108E-01  0.1689E+00  0.1689E+00
    -18.161  0.4446E-01  0.4446E-01  0.1778E+00  0.1778E+00
    -17.962  0.1222E-01  0.1222E-01  0.1802E+00  0.1802E+00
    -17.764  0.5505E-01  0.5505E-01  0.1911E+00  0.1911E+00
    -17.565  0.2549E-03  0.2549E-03  0.1912E+00  0.1912E+00
    -17.367  0.9361E-01  0.9361E-01  0.2097E+00  0.2097E+00
    -17.168  0.4436E-01  0.4436E-01  0.2186E+00  0.2186E+00
    -16.970  0.7582E-01  0.7582E-01  0.2336E+00  0.2336E+00
    -16.771  0.2103E-01  0.2103E-01  0.2378E+00  0.2378E+00
    -16.573  0.1889E-04  0.1889E-04  0.2378E+00  0.2378E+00
    -16.374  0.2994E-01  0.2994E-01  0.2437E+00  0.2437E+00
    -16.176  0.7078E-01  0.7078E-01  0.2578E+00  0.2578E+00
    -15.977  0.7024E-02  0.7024E-02  0.2592E+00  0.2592E+00
    -15.779  0.2656E-01  0.2656E-01  0.2644E+00  0.2644E+00
    -15.580  0.2638E-01  0.2638E-01  0.2697E+00  0.2697E+00
    -15.382  0.5990E-01  0.5990E-01  0.2816E+00  0.2816E+00
    -15.183  0.7044E-01  0.7044E-01  0.2956E+00  0.2956E+00
    -14.985  0.2498E-05  0.2498E-05  0.2956E+00  0.2956E+00
    -14.786  0.9971E-01  0.9971E-01  0.3154E+00  0.3154E+00
    -14.588  0.3462E-01  0.3462E-01  0.3222E+00  0.3222E+00
    -14.389  0.4095E-01  0.4095E-01  0.3304E+00  0.3304E+00
    -14.191  0.2629E-01  0.2629E-01  0.3356E+00  0.3356E+00
    -13.992  0.3375E-01  0.3375E-01  0.3423E+00  0.3423E+00
    -13.793  0.7154E-01  0.7154E-01  0.3565E+00  0.3565E+00
    -13.595  0.2895E-01  0.2895E-01  0.3622E+00  0.3622E+00
    -13.396  0.4124E-03  0.4124E-03  0.3623E+00  0.3623E+00
    -13.198  0.4759E-01  0.4759E-01  0.3717E+00  0.3717E+00
    -12.999  0.4754E-01  0.4754E-01  0.3812E+00  0.3812E+00
    -12.801  0.5047E-01  0.5047E-01  0.3912E+00  0.3912E+00
    -12.602  0.6663E-01  0.6663E-01  0.4044E+00  0.4044E+00
    -12.404  0.8902E-02  0.8902E-02  0.4062E+00  0.4062E+00
    -12.205  0.9815E-01  0.9815E-01  0.4257E+00  0.4257E+00
    -12.007  0.2733E-01  0.2733E-01  0.4311E+00  0.4311E+00
    -11.808  0.5505E-04  0.5504E-04  0.4311E+00  0.4311E+00
    -11.610  0.4407E-01  0.4407E-01  0.4399E+00  0.4399E+00
    -11.411  0.1490E+00  0.1490E+00  0.4694E+00  0.4694E+00
    -11.213  0.8423E-02  0.8423E-02  0.4711E+00  0.4711E+00
    -11.014  0.4913E-01  0.4913E-01  0.4809E+00  0.4809E+00
    -10.816  0.1803E-01  0.1803E-01  0.4844E+00  0.4844E+00
    -10.617  0.7550E-01  0.7550E-01  0.4994E+00  0.4994E+00
    -10.419  0.6615E-01  0.6615E-01  0.5126E+00  0.5126E+00
    -10.220  0.1084E+00  0.1084E+00  0.5341E+00  0.5341E+00
    -10.022  0.7922E-01  0.7922E-01  0.5498E+00  0.5498E+00
     -9.823  0.4796E-01  0.4796E-01  0.5593E+00  0.5593E+00
     -9.625  0.1401E+00  0.1401E+00  0.5871E+00  0.5871E+00
     -9.426  0.1110E+00  0.1110E+00  0.6092E+00  0.6092E+00
     -9.228  0.1030E+00  0.1030E+00  0.6296E+00  0.6296E+00
     -9.029  0.1366E+00  0.1366E+00  0.6567E+00  0.6567E+00
     -8.831  0.1811E+00  0.1811E+00  0.6927E+00  0.6927E+00
     -8.632  0.3889E-01  0.3889E-01  0.7004E+00  0.7004E+00
     -8.433  0.1174E+00  0.1174E+00  0.7237E+00  0.7237E+00
     -8.235  0.1554E-01  0.1554E-01  0.7268E+00  0.7268E+00
     -8.036  0.1660E+00  0.1660E+00  0.7598E+00  0.7598E+00
     -7.838  0.1324E+00  0.1324E+00  0.7860E+00  0.7860E+00
     -7.639  0.3113E-01  0.3113E-01  0.7922E+00  0.7922E+00
     -7.441  0.1357E-01  0.1357E-01  0.7949E+00  0.7949E+00
     -7.242  0.8516E-01  0.8516E-01  0.8118E+00  0.8118E+00
     -7.044  0.1684E+00  0.1684E+00  0.8453E+00  0.8453E+00
     -6.845  0.3004E-01  0.3004E-01  0.8512E+00  0.8512E+00
     -6.647  0.7224E-01  0.7224E-01  0.8656E+00  0.8656E+00
     -6.448  0.4214E-01  0.4214E-01  0.8739E+00  0.8739E+00
     -6.250  0.4615E-01  0.4615E-01  0.8831E+00  0.8831E+00
     -6.051  0.1248E+00  0.1248E+00  0.9079E+00  0.9079E+00
     -5.853  0.6953E-01  0.6953E-01  0.9217E+00  0.9217E+00
     -5.654  0.5354E-01  0.5354E-01  0.9323E+00  0.9323E+00
     -5.456  0.4448E-01  0.4448E-01  0.9411E+00  0.9411E+00
     -5.257  0.3280E-01  0.3280E-01  0.9476E+00  0.9476E+00
     -5.059  0.3241E-01  0.3241E-01  0.9541E+00  0.9541E+00
     -4.860  0.1282E+00  0.1282E+00  0.9795E+00  0.9795E+00
     -4.662  0.4166E-01  0.4166E-01  0.9878E+00  0.9878E+00
     -4.463  0.2417E-04  0.2417E-04  0.9878E+00  0.9878E+00
     -4.265  0.2101E-01  0.2101E-01  0.9920E+00  0.9920E+00
     -4.066  0.1255E-01  0.1255E-01  0.9944E+00  0.9944E+00
     -3.868  0.3364E-01  0.3364E-01  0.1001E+01  0.1001E+01
     -3.669  0.3353E-01  0.3353E-01  0.1008E+01  0.1008E+01
     -3.471  0.8602E-09  0.8602E-09  0.1008E+01  0.1008E+01
     -3.272  0.0000E+00  0.0000E+00  0.1008E+01  0.1008E+01
     -3.074  0.1119E-16  0.1119E-16  0.1008E+01  0.1008E+01
     -2.875  0.1440E-03  0.1440E-03  0.1008E+01  0.1008E+01
     -2.676  0.2222E-01  0.2222E-01  0.1012E+01  0.1012E+01
     -2.478  0.2803E-04  0.2803E-04  0.1012E+01  0.1012E+01
     -2.279  0.0000E+00  0.0000E+00  0.1012E+01  0.1012E+01
     -2.081  0.3728E-17  0.3728E-17  0.1012E+01  0.1012E+01
     -1.882  0.9777E-04  0.9776E-04  0.1012E+01  0.1012E+01
     -1.684  0.6450E-01  0.6450E-01  0.1025E+01  0.1025E+01
     -1.485  0.2124E-01  0.2124E-01  0.1029E+01  0.1029E+01
     -1.287  0.5396E-01  0.5395E-01  0.1040E+01  0.1040E+01
     -1.088  0.6725E-01  0.6725E-01  0.1053E+01  0.1053E+01
     -0.890  0.7702E-01  0.7702E-01  0.1069E+01  0.1069E+01
     -0.691  0.3304E-01  0.3304E-01  0.1075E+01  0.1075E+01
     -0.493  0.6454E-01  0.6454E-01  0.1088E+01  0.1088E+01
     -0.294  0.7123E-01  0.7123E-01  0.1102E+01  0.1102E+01
     -0.096  0.4817E-03  0.4817E-03  0.1102E+01  0.1102E+01
      0.103  0.1856E-01  0.1856E-01  0.1106E+01  0.1106E+01
      0.301  0.7129E-01  0.7129E-01  0.1120E+01  0.1120E+01
      0.500  0.9238E-01  0.9238E-01  0.1138E+01  0.1138E+01
      0.698  0.6912E-01  0.6912E-01  0.1152E+01  0.1152E+01
      0.897  0.6853E-01  0.6857E-01  0.1166E+01  0.1166E+01
      1.095  0.4944E-01  0.4943E-01  0.1176E+01  0.1176E+01
      1.294  0.1720E+00  0.1720E+00  0.1210E+01  0.1210E+01
      1.492  0.9783E-01  0.9796E-01  0.1229E+01  0.1229E+01
      1.691  0.1301E+00  0.1299E+00  0.1255E+01  0.1255E+01
      1.889  0.1842E+00  0.1842E+00  0.1291E+01  0.1291E+01
      2.088  0.1193E+00  0.1192E+00  0.1315E+01  0.1315E+01
      2.286  0.2436E-01  0.2432E-01  0.1320E+01  0.1320E+01
      2.485  0.1580E-05  0.1571E-05  0.1320E+01  0.1320E+01
      2.683  0.0000E+00  0.0000E+00  0.1320E+01  0.1320E+01
      2.882  0.0000E+00  0.0000E+00  0.1320E+01  0.1320E+01
      3.081  0.0000E+00  0.0000E+00  0.1320E+01  0.1320E+01
      3.279  0.0000E+00  0.0000E+00  0.1320E+01  0.1320E+01
      3.478  0.0000E+00  0.0000E+00  0.1320E+01  0.1320E+01
      3.676  0.0000E+00  0.0000E+00  0.1320E+01  0.1320E+01
      3.875  0.0000E+00  0.0000E+00  0.1320E+01  0.1320E+01
      4.073  0.0000E+00  0.0000E+00  0.1320E+01  0.1320E+01
      4.272  0.0000E+00  0.0000E+00  0.1320E+01  0.1320E+01
      4.470  0.0000E+00  0.0000E+00  0.1320E+01  0.1320E+01
      4.669  0.0000E+00  0.0000E+00  0.1320E+01  0.1320E+01
      4.867  0.0000E+00  0.0000E+00  0.1320E+01  0.1320E+01
