 running on   16 total cores
 distrk:  each k-point on   16 cores,    1 groups
 distr:  one band on    4 cores,    4 groups
 using from now: INCAR     
 vasp.5.4.1 24Jun15 (build Jul 23 2024 06:15:33) complex                        
  
 POSCAR found type information on POSCAR  C  Li
 POSCAR found :  2 types and      51 ions
 scaLAPACK will be used
 LDA part: xc-table for Pade appr. of Perdew
 POSCAR, INCAR and KPOINTS ok, starting setup
 FFT: planning ...
 WAVECAR not read
 entering main loop
       N       E                     dE             d eps       ncg     rms          rms(c)
DAV:   1     0.198955221272E+04    0.19896E+04   -0.67429E+04  3216   0.106E+03
DAV:   2     0.479679442274E+02   -0.19416E+04   -0.18026E+04  4080   0.238E+02
DAV:   3    -0.466832822782E+03   -0.51480E+03   -0.50846E+03  3460   0.130E+02
DAV:   4    -0.494753783600E+03   -0.27921E+02   -0.27541E+02  3440   0.391E+01
DAV:   5    -0.495836894336E+03   -0.10831E+01   -0.10725E+01  4164   0.645E+00    0.334E+01
DAV:   6    -0.470563543961E+03    0.25273E+02   -0.24516E+01  3008   0.114E+01    0.194E+01
DAV:   7    -0.457907594498E+03    0.12656E+02   -0.16287E+01  3016   0.936E+00    0.101E+01
DAV:   8    -0.457350515957E+03    0.55708E+00   -0.46061E+00  2980   0.476E+00    0.384E+00
DAV:   9    -0.458523942956E+03   -0.11734E+01   -0.60355E-01  3540   0.179E+00    0.146E+00
DAV:  10    -0.458823512448E+03   -0.29957E+00   -0.17517E-01  2904   0.885E-01    0.943E-01
DAV:  11    -0.459126515951E+03   -0.30300E+00   -0.52945E-02  3128   0.420E-01    0.789E-01
DAV:  12    -0.459703682917E+03   -0.57717E+00   -0.20905E-01  2884   0.725E-01    0.540E-01
DAV:  13    -0.459685249148E+03    0.18434E-01   -0.76329E-02  2832   0.492E-01    0.421E-01
DAV:  14    -0.460432097059E+03   -0.74685E+00   -0.55134E-02  2900   0.340E-01    0.292E-01
DAV:  15    -0.461190324473E+03   -0.75823E+00   -0.31688E-02  2852   0.244E-01    0.199E-01
DAV:  16    -0.461492196241E+03   -0.30187E+00   -0.38558E-03  3056   0.136E-01    0.161E-01
DAV:  17    -0.461791466346E+03   -0.29927E+00   -0.60257E-03  2792   0.144E-01    0.108E-01
DAV:  18    -0.461892913537E+03   -0.10145E+00   -0.37303E-03  2892   0.982E-02    0.790E-02
DAV:  19    -0.461920850233E+03   -0.27937E-01   -0.16428E-03  2940   0.677E-02    0.586E-02
DAV:  20    -0.461943778443E+03   -0.22928E-01   -0.90319E-04  2896   0.572E-02    0.410E-02
DAV:  21    -0.461980751344E+03   -0.36973E-01   -0.30271E-04  2756   0.409E-02    0.272E-02
DAV:  22    -0.462013664968E+03   -0.32914E-01   -0.19502E-04  2788   0.305E-02    0.138E-02
DAV:  23    -0.462019629039E+03   -0.59641E-02   -0.55968E-05  2436   0.204E-02    0.873E-03
DAV:  24    -0.462021618171E+03   -0.19891E-02   -0.28266E-05  2312   0.149E-02    0.551E-03
DAV:  25    -0.462022465526E+03   -0.84736E-03   -0.30240E-05  2368   0.134E-02    0.314E-03
DAV:  26    -0.462022774454E+03   -0.30893E-03   -0.13930E-05  2288   0.101E-02    0.191E-03
DAV:  27    -0.462022891918E+03   -0.11746E-03   -0.39167E-06  1948   0.553E-03    0.130E-03
DAV:  28    -0.462022968490E+03   -0.76572E-04   -0.21777E-06  1888   0.361E-03    0.805E-04
DAV:  29    -0.462023008957E+03   -0.40467E-04   -0.14776E-06  1924   0.246E-03    0.541E-04
DAV:  30    -0.462023032013E+03   -0.23056E-04   -0.50909E-07  1964   0.163E-03    0.370E-04
DAV:  31    -0.462023049020E+03   -0.17007E-04   -0.30468E-07  1952   0.108E-03    0.250E-04
DAV:  32    -0.462023058766E+03   -0.97461E-05   -0.11131E-07  1948   0.641E-04
   1 F= -.46202306E+03 E0= -.46201271E+03  d E =-.462023E+03  mag=    -0.0002
 curvature:   0.00 expect dE= 0.000E+00 dE for cont linesearch  0.000E+00
 trial: gam= 0.00000 g(F)=  0.875E+00 g(S)=  0.000E+00 ort = 0.000E+00 (trialstep = 0.100E+01)
 search vector abs. value=  0.875E+00
 bond charge predicted
       N       E                     dE             d eps       ncg     rms          rms(c)
DAV:   1    -0.461770547938E+03    0.25250E+00   -0.12245E+02  2648   0.274E+01    0.289E+00
DAV:   2    -0.462231683026E+03   -0.46114E+00   -0.57199E+00  2936   0.450E+00    0.130E+00
DAV:   3    -0.462254028534E+03   -0.22346E-01   -0.43053E-01  3740   0.109E+00    0.992E-01
DAV:   4    -0.462252157356E+03    0.18712E-02   -0.27276E-02  3008   0.385E-01    0.478E-01
DAV:   5    -0.462251065062E+03    0.10923E-02   -0.68269E-03  2960   0.240E-01    0.104E-01
DAV:   6    -0.462251696535E+03   -0.63147E-03   -0.24120E-03  3368   0.109E-01    0.753E-02
DAV:   7    -0.462251775703E+03   -0.79168E-04   -0.78779E-05  3216   0.227E-02    0.602E-02
DAV:   8    -0.462252161677E+03   -0.38597E-03   -0.81062E-05  2600   0.222E-02    0.247E-02
DAV:   9    -0.462252327392E+03   -0.16572E-03   -0.32322E-05  2592   0.113E-02    0.107E-02
DAV:  10    -0.462252416056E+03   -0.88665E-04   -0.86023E-06  2144   0.616E-03    0.101E-02
DAV:  11    -0.462252681014E+03   -0.26496E-03   -0.48181E-05  2472   0.115E-02    0.616E-03
DAV:  12    -0.462252776140E+03   -0.95126E-04   -0.15004E-05  2084   0.557E-03    0.592E-03
DAV:  13    -0.462252836202E+03   -0.60062E-04   -0.84374E-06  1916   0.416E-03    0.325E-03
DAV:  14    -0.462252869366E+03   -0.33164E-04   -0.32537E-06  1964   0.302E-03    0.117E-03
DAV:  15    -0.462252883719E+03   -0.14353E-04   -0.80291E-07  1996   0.192E-03    0.786E-04
DAV:  16    -0.462252902283E+03   -0.18564E-04   -0.59389E-07  1896   0.142E-03    0.743E-04
DAV:  17    -0.462252908499E+03   -0.62157E-05   -0.22289E-07  2016   0.101E-03
   2 F= -.46225291E+03 E0= -.46224822E+03  d E =-.229850E+00  mag=    -0.0000
 trial-energy change:   -0.229850  1 .order   -0.289042   -0.874509    0.296425
 step:   0.6810(harm=  0.7468)  dis= 0.09203  next Energy=  -462.302118 (dE=-0.279E+00)
 bond charge predicted
       N       E                     dE             d eps       ncg     rms          rms(c)
DAV:   1    -0.462280074380E+03   -0.27172E-01   -0.13060E+01  2640   0.879E+00    0.542E-01
DAV:   2    -0.462300301337E+03   -0.20227E-01   -0.26684E-01  3080   0.116E+00    0.360E-01
DAV:   3    -0.462299561717E+03    0.73962E-03   -0.20090E-02  3672   0.361E-01    0.167E-01
DAV:   4    -0.462300110758E+03   -0.54904E-03   -0.41348E-03  2976   0.164E-01    0.661E-02
DAV:   5    -0.462300392931E+03   -0.28217E-03   -0.49323E-04  3944   0.480E-02    0.333E-02
DAV:   6    -0.462300536551E+03   -0.14362E-03   -0.97050E-05  2992   0.252E-02    0.149E-02
DAV:   7    -0.462300666724E+03   -0.13017E-03   -0.45042E-05  2368   0.118E-02    0.589E-03
DAV:   8    -0.462300736318E+03   -0.69594E-04   -0.13372E-05  2008   0.562E-03    0.390E-03
DAV:   9    -0.462300832385E+03   -0.96067E-04   -0.26107E-05  1984   0.535E-03    0.276E-03
DAV:  10    -0.462300891984E+03   -0.59599E-04   -0.15152E-05  2004   0.397E-03    0.241E-03
DAV:  11    -0.462300946952E+03   -0.54968E-04   -0.14893E-05  1904   0.370E-03    0.143E-03
DAV:  12    -0.462300989776E+03   -0.42824E-04   -0.19802E-05  1952   0.410E-03    0.877E-04
DAV:  13    -0.462300994081E+03   -0.43045E-05   -0.12672E-06  2232   0.246E-03
   3 F= -.46230099E+03 E0= -.46229482E+03  d E =-.277935E+00  mag=    -0.0000
 curvature:  -0.35 expect dE=-0.913E-01 dE for cont linesearch -0.449E-05
 trial: gam= 0.29594 g(F)=  0.262E+00 g(S)=  0.000E+00 ort = 0.336E-02 (trialstep = 0.936E+00)
 search vector abs. value=  0.341E+00
 bond charge predicted
       N       E                     dE             d eps       ncg     rms          rms(c)
DAV:   1    -0.462193898147E+03    0.10709E+00   -0.44680E+01  2640   0.181E+01    0.166E+00
DAV:   2    -0.462270078070E+03   -0.76180E-01   -0.12472E+00  3188   0.269E+00    0.848E-01
DAV:   3    -0.462262371441E+03    0.77066E-02   -0.87367E-02  3608   0.742E-01    0.464E-01
DAV:   4    -0.462260757541E+03    0.16139E-02   -0.13174E-02  2960   0.323E-01    0.166E-01
DAV:   5    -0.462260887770E+03   -0.13023E-03   -0.18689E-03  3096   0.121E-01    0.420E-02
DAV:   6    -0.462260957874E+03   -0.70104E-04   -0.20854E-04  3120   0.391E-02    0.192E-02
DAV:   7    -0.462260991036E+03   -0.33162E-04   -0.17171E-05  2084   0.131E-02    0.843E-03
DAV:   8    -0.462261015353E+03   -0.24317E-04   -0.57609E-06  2008   0.662E-03    0.392E-03
DAV:   9    -0.462261031420E+03   -0.16067E-04   -0.19342E-06  1968   0.373E-03    0.214E-03
DAV:  10    -0.462261057080E+03   -0.25661E-04   -0.27681E-06  1912   0.295E-03    0.134E-03
DAV:  11    -0.462261079199E+03   -0.22118E-04   -0.24236E-06  2008   0.260E-03    0.980E-04
DAV:  12    -0.462261093460E+03   -0.14261E-04   -0.16965E-06  1912   0.227E-03    0.621E-04
DAV:  13    -0.462261102167E+03   -0.87072E-05   -0.11086E-06  1984   0.166E-03
   4 F= -.46226110E+03 E0= -.46225221E+03  d E =0.398919E-01  mag=     0.0000
 trial-energy change:    0.039892  1 .order    0.045929   -0.246363    0.338222
 step:   0.4088(harm=  0.3945)  dis= 0.03122  next Energy=  -462.355287 (dE=-0.543E-01)
 bond charge predicted
       N       E                     dE             d eps       ncg     rms          rms(c)
DAV:   1    -0.462335410834E+03   -0.74317E-01   -0.14242E+01  2640   0.101E+01    0.763E-01
DAV:   2    -0.462355544159E+03   -0.20133E-01   -0.34652E-01  2960   0.148E+00    0.486E-01
DAV:   3    -0.462353071338E+03    0.24728E-02   -0.36884E-02  3688   0.480E-01    0.216E-01
DAV:   4    -0.462352991950E+03    0.79388E-04   -0.53135E-03  2872   0.200E-01    0.651E-02
DAV:   5    -0.462353105447E+03   -0.11350E-03   -0.65745E-04  3856   0.669E-02    0.306E-02
DAV:   6    -0.462353143093E+03   -0.37645E-04   -0.73151E-05  2952   0.235E-02    0.141E-02
DAV:   7    -0.462353178079E+03   -0.34986E-04   -0.12486E-05  1936   0.867E-03    0.444E-03
DAV:   8    -0.462353200348E+03   -0.22269E-04   -0.55739E-06  1976   0.503E-03    0.205E-03
DAV:   9    -0.462353213998E+03   -0.13650E-04   -0.20406E-06  1984   0.304E-03    0.149E-03
DAV:  10    -0.462353232913E+03   -0.18915E-04   -0.31112E-06  1924   0.229E-03    0.988E-04
DAV:  11    -0.462353247608E+03   -0.14695E-04   -0.22909E-06  1936   0.177E-03    0.648E-04
DAV:  12    -0.462353263569E+03   -0.15962E-04   -0.42020E-06  1936   0.193E-03    0.466E-04
DAV:  13    -0.462353267332E+03   -0.37623E-05   -0.60656E-07  2064   0.147E-03
   5 F= -.46235327E+03 E0= -.46234202E+03  d E =-.522733E-01  mag=    -0.0000
 curvature:  -0.26 expect dE=-0.170E-01 dE for cont linesearch -0.803E-05
 trial: gam= 0.31504 g(F)=  0.667E-01 g(S)=  0.000E+00 ort =-0.327E-02 (trialstep = 0.831E+00)
 search vector abs. value=  0.985E-01
 bond charge predicted
       N       E                     dE             d eps       ncg     rms          rms(c)
DAV:   1    -0.462350706314E+03    0.25573E-02   -0.96613E+00  2640   0.814E+00    0.547E-01
DAV:   2    -0.462364909216E+03   -0.14203E-01   -0.19940E-01  3108   0.106E+00    0.317E-01
DAV:   3    -0.462364927166E+03   -0.17950E-04   -0.15743E-02  3976   0.320E-01    0.138E-01
DAV:   4    -0.462365106540E+03   -0.17937E-03   -0.18167E-03  2956   0.116E-01    0.587E-02
DAV:   5    -0.462365172515E+03   -0.65975E-04   -0.19690E-04  3472   0.386E-02    0.207E-02
DAV:   6    -0.462365194987E+03   -0.22473E-04   -0.25169E-05  2352   0.139E-02    0.781E-03
DAV:   7    -0.462365210664E+03   -0.15676E-04   -0.44364E-06  1992   0.561E-03    0.283E-03
DAV:   8    -0.462365220996E+03   -0.10332E-04   -0.15202E-06  1956   0.315E-03    0.199E-03
DAV:   9    -0.462365232454E+03   -0.11458E-04   -0.14005E-06  1920   0.233E-03    0.138E-03
DAV:  10    -0.462365249865E+03   -0.17411E-04   -0.32747E-06  1920   0.224E-03    0.105E-03
DAV:  11    -0.462365259193E+03   -0.93271E-05   -0.12383E-06  1960   0.174E-03
   6 F= -.46236526E+03 E0= -.46235397E+03  d E =-.119919E-01  mag=    -0.0000
 trial-energy change:   -0.011992  1 .order   -0.012157   -0.054582    0.030269
 step:   0.5321(harm=  0.5344)  dis= 0.02392  next Energy=  -462.370706 (dE=-0.174E-01)
 bond charge predicted
       N       E                     dE             d eps       ncg     rms          rms(c)
DAV:   1    -0.462368908888E+03   -0.36590E-02   -0.12473E+00  2640   0.291E+00    0.178E-01
DAV:   2    -0.462370643930E+03   -0.17350E-02   -0.24548E-02  3000   0.382E-01    0.114E-01
DAV:   3    -0.462370654305E+03   -0.10375E-04   -0.21396E-03  3744   0.120E-01    0.486E-02
DAV:   4    -0.462370695770E+03   -0.41465E-04   -0.26716E-04  2896   0.445E-02    0.175E-02
DAV:   5    -0.462370706101E+03   -0.10331E-04   -0.22477E-05  2232   0.137E-02    0.819E-03
DAV:   6    -0.462370709423E+03   -0.33221E-05   -0.75051E-06  1788   0.881E-03
   7 F= -.46237071E+03 E0= -.46235934E+03  d E =-.174421E-01  mag=    -0.0000
 curvature:  -0.40 expect dE=-0.183E-01 dE for cont linesearch -0.787E-07
 trial: gam= 0.67858 g(F)=  0.457E-01 g(S)=  0.000E+00 ort =-0.139E-03 (trialstep = 0.771E+00)
 search vector abs. value=  0.908E-01
 bond charge predicted
       N       E                     dE             d eps       ncg     rms          rms(c)
DAV:   1    -0.462365497026E+03    0.52091E-02   -0.76443E+00  2640   0.719E+00    0.483E-01
DAV:   2    -0.462375868969E+03   -0.10372E-01   -0.15624E-01  3232   0.926E-01    0.286E-01
DAV:   3    -0.462375610594E+03    0.25837E-03   -0.11685E-02  3740   0.279E-01    0.117E-01
DAV:   4    -0.462375792596E+03   -0.18200E-03   -0.14524E-03  3112   0.102E-01    0.468E-02
DAV:   5    -0.462375854945E+03   -0.62349E-04   -0.17582E-04  3208   0.356E-02    0.170E-02
DAV:   6    -0.462375879607E+03   -0.24663E-04   -0.17308E-05  2004   0.125E-02    0.779E-03
DAV:   7    -0.462375903422E+03   -0.23815E-04   -0.10250E-05  1856   0.866E-03    0.350E-03
DAV:   8    -0.462375922084E+03   -0.18662E-04   -0.97844E-06  1912   0.815E-03    0.270E-03
DAV:   9    -0.462375946155E+03   -0.24071E-04   -0.10870E-05  1752   0.718E-03    0.178E-03
DAV:  10    -0.462375979739E+03   -0.33583E-04   -0.15118E-05  1868   0.624E-03    0.123E-03
DAV:  11    -0.462375992165E+03   -0.12426E-04   -0.50738E-06  1912   0.508E-03    0.684E-04
DAV:  12    -0.462375999406E+03   -0.72412E-05   -0.28293E-06  1768   0.369E-03
   8 F= -.46237600E+03 E0= -.46236598E+03  d E =-.528998E-02  mag=    -0.0000
 trial-energy change:   -0.005290  1 .order   -0.005306   -0.035149    0.024537
 step:   0.4540(harm=  0.4540)  dis= 0.01923  next Energy=  -462.381059 (dE=-0.103E-01)
 bond charge predicted
       N       E                     dE             d eps       ncg     rms          rms(c)
DAV:   1    -0.462379180242E+03   -0.31881E-02   -0.12907E+00  2640   0.295E+00    0.185E-01
DAV:   2    -0.462380983494E+03   -0.18033E-02   -0.26784E-02  3252   0.381E-01    0.118E-01
DAV:   3    -0.462380926080E+03    0.57413E-04   -0.20064E-03  3520   0.115E-01    0.476E-02
DAV:   4    -0.462380960867E+03   -0.34787E-04   -0.29767E-04  3032   0.453E-02    0.165E-02
DAV:   5    -0.462380976993E+03   -0.16126E-04   -0.31401E-05  2656   0.148E-02    0.743E-03
DAV:   6    -0.462380990016E+03   -0.13023E-04   -0.60263E-06  1872   0.673E-03    0.325E-03
DAV:   7    -0.462381004097E+03   -0.14081E-04   -0.38838E-06  1924   0.445E-03    0.172E-03
DAV:   8    -0.462381018383E+03   -0.14286E-04   -0.37337E-06  1880   0.428E-03    0.124E-03
DAV:   9    -0.462381032856E+03   -0.14473E-04   -0.52277E-06  1820   0.479E-03    0.941E-04
DAV:  10    -0.462381045131E+03   -0.12275E-04   -0.47057E-06  1864   0.357E-03    0.664E-04
DAV:  11    -0.462381055142E+03   -0.10011E-04   -0.25408E-06  1960   0.238E-03    0.352E-04
DAV:  12    -0.462381059560E+03   -0.44180E-05   -0.11520E-06  1984   0.200E-03
   9 F= -.46238106E+03 E0= -.46237036E+03  d E =-.103501E-01  mag=    -0.0000
 curvature:  -0.45 expect dE=-0.604E-02 dE for cont linesearch -0.424E-07
 trial: gam= 0.31033 g(F)=  0.133E-01 g(S)=  0.000E+00 ort =-0.922E-04 (trialstep = 0.708E+00)
 search vector abs. value=  0.220E-01
 bond charge predicted
       N       E                     dE             d eps       ncg     rms          rms(c)
DAV:   1    -0.462380911991E+03    0.14315E-03   -0.15343E+00  2640   0.341E+00    0.219E-01
DAV:   2    -0.462383150895E+03   -0.22389E-02   -0.33312E-02  3220   0.456E-01    0.143E-01
DAV:   3    -0.462382976408E+03    0.17449E-03   -0.26768E-03  3600   0.147E-01    0.618E-02
DAV:   4    -0.462383009819E+03   -0.33411E-04   -0.43152E-04  2952   0.572E-02    0.266E-02
DAV:   5    -0.462383031774E+03   -0.21955E-04   -0.58158E-05  3000   0.199E-02    0.114E-02
DAV:   6    -0.462383038226E+03   -0.64516E-05   -0.83050E-06  1912   0.896E-03
  10 F= -.46238304E+03 E0= -.46237226E+03  d E =-.197867E-02  mag=    -0.0000
 trial-energy change:   -0.001979  1 .order   -0.001997   -0.009419    0.005426
 step:   0.4490(harm=  0.4490)  dis= 0.00841  next Energy=  -462.384048 (dE=-0.299E-02)
 bond charge predicted
       N       E                     dE             d eps       ncg     rms          rms(c)
DAV:   1    -0.462383737628E+03   -0.70585E-03   -0.20453E-01  2640   0.124E+00    0.789E-02
DAV:   2    -0.462384043381E+03   -0.30575E-03   -0.44983E-03  3140   0.167E-01    0.520E-02
DAV:   3    -0.462384034314E+03    0.90675E-05   -0.37713E-04  3656   0.540E-02    0.223E-02
DAV:   4    -0.462384049563E+03   -0.15249E-04   -0.57326E-05  2868   0.208E-02    0.955E-03
DAV:   5    -0.462384056560E+03   -0.69971E-05   -0.59686E-06  1936   0.716E-03
  11 F= -.46238406E+03 E0= -.46237330E+03  d E =-.299700E-02  mag=    -0.0000
 curvature:  -0.37 expect dE=-0.250E-02 dE for cont linesearch -0.264E-06
 trial: gam= 0.50134 g(F)=  0.674E-02 g(S)=  0.000E+00 ort = 0.125E-03 (trialstep = 0.656E+00)
 search vector abs. value=  0.124E-01
 bond charge predicted
       N       E                     dE             d eps       ncg     rms          rms(c)
DAV:   1    -0.462385465755E+03   -0.14162E-02   -0.71044E-01  2640   0.231E+00    0.139E-01
DAV:   2    -0.462386465247E+03   -0.99949E-03   -0.14163E-02  3272   0.283E-01    0.905E-02
DAV:   3    -0.462386418916E+03    0.46331E-04   -0.86729E-04  3316   0.879E-02    0.360E-02
DAV:   4    -0.462386448175E+03   -0.29260E-04   -0.17204E-04  2848   0.363E-02    0.140E-02
DAV:   5    -0.462386457429E+03   -0.92533E-05   -0.18627E-05  2328   0.121E-02
  12 F= -.46238646E+03 E0= -.46237527E+03  d E =-.240087E-02  mag=    -0.0000
 trial-energy change:   -0.002401  1 .order   -0.002412   -0.004462   -0.000362
 step:   0.7138(harm=  0.7138)  dis= 0.00925  next Energy=  -462.386485 (dE=-0.243E-02)
 bond charge predicted
       N       E                     dE             d eps       ncg     rms          rms(c)
DAV:   1    -0.462386468074E+03   -0.19899E-04   -0.56195E-03  2712   0.206E-01    0.128E-02
DAV:   2    -0.462386477844E+03   -0.97693E-05   -0.12619E-04  3144   0.264E-02    0.858E-03
DAV:   3    -0.462386480792E+03   -0.29481E-05   -0.68280E-06  1984   0.830E-03
  13 F= -.46238648E+03 E0= -.46237526E+03  d E =-.242423E-02  mag=    -0.0000
 curvature:  -0.65 expect dE=-0.270E-02 dE for cont linesearch -0.183E-06
 trial: gam= 0.61287 g(F)=  0.414E-02 g(S)=  0.000E+00 ort = 0.591E-04 (trialstep = 0.667E+00)
 search vector abs. value=  0.887E-02
 bond charge predicted
       N       E                     dE             d eps       ncg     rms          rms(c)
DAV:   1    -0.462386857194E+03   -0.37935E-03   -0.52076E-01  2640   0.201E+00    0.119E-01
DAV:   2    -0.462387592907E+03   -0.73571E-03   -0.10347E-02  3384   0.245E-01    0.795E-02
DAV:   3    -0.462387555122E+03    0.37785E-04   -0.57272E-04  3340   0.707E-02    0.298E-02
DAV:   4    -0.462387582610E+03   -0.27488E-04   -0.10488E-04  2904   0.284E-02    0.111E-02
DAV:   5    -0.462387591228E+03   -0.86185E-05   -0.10347E-05  2008   0.930E-03
  14 F= -.46238759E+03 E0= -.46237665E+03  d E =-.111044E-02  mag=    -0.0000
 trial-energy change:   -0.001110  1 .order   -0.001107   -0.002789    0.000575
 step:   0.5533(harm=  0.5533)  dis= 0.00524  next Energy=  -462.387637 (dE=-0.116E-02)
 bond charge predicted
       N       E                     dE             d eps       ncg     rms          rms(c)
DAV:   1    -0.462387624040E+03   -0.41430E-04   -0.15126E-02  2648   0.342E-01    0.201E-02
DAV:   2    -0.462387644311E+03   -0.20271E-04   -0.29018E-04  3176   0.416E-02    0.135E-02
DAV:   3    -0.462387648398E+03   -0.40868E-05   -0.16437E-05  2212   0.125E-02
  15 F= -.46238765E+03 E0= -.46237665E+03  d E =-.116761E-02  mag=    -0.0000
 curvature:  -0.59 expect dE=-0.134E-02 dE for cont linesearch -0.686E-07
 trial: gam= 0.54782 g(F)=  0.229E-02 g(S)=  0.000E+00 ort = 0.322E-04 (trialstep = 0.645E+00)
 search vector abs. value=  0.499E-02
 bond charge predicted
       N       E                     dE             d eps       ncg     rms          rms(c)
DAV:   1    -0.462388004957E+03   -0.36065E-03   -0.27312E-01  2640   0.147E+00    0.876E-02
DAV:   2    -0.462388342585E+03   -0.33763E-03   -0.51654E-03  3288   0.182E-01    0.602E-02
DAV:   3    -0.462388315759E+03    0.26825E-04   -0.32555E-04  3116   0.555E-02    0.229E-02
DAV:   4    -0.462388331279E+03   -0.15519E-04   -0.70379E-05  2856   0.230E-02    0.869E-03
DAV:   5    -0.462388336324E+03   -0.50457E-05   -0.63365E-06  1992   0.771E-03
  16 F= -.46238834E+03 E0= -.46237748E+03  d E =-.687927E-03  mag=     0.0000
 trial-energy change:   -0.000688  1 .order   -0.000675   -0.001486    0.000136
 step:   0.5907(harm=  0.5907)  dis= 0.00322  next Energy=  -462.388329 (dE=-0.681E-03)
 bond charge predicted
       N       E                     dE             d eps       ncg     rms          rms(c)
DAV:   1    -0.462388341815E+03   -0.10537E-04   -0.18770E-03  2704   0.122E-01    0.738E-03
DAV:   2    -0.462388345058E+03   -0.32423E-05   -0.31878E-05  2440   0.149E-02
  17 F= -.46238835E+03 E0= -.46237747E+03  d E =-.696660E-03  mag=    -0.0000
 curvature:  -0.64 expect dE=-0.113E-02 dE for cont linesearch -0.349E-06
 trial: gam= 0.77776 g(F)=  0.177E-02 g(S)=  0.000E+00 ort = 0.522E-04 (trialstep = 0.634E+00)
 search vector abs. value=  0.487E-02
 bond charge predicted
       N       E                     dE             d eps       ncg     rms          rms(c)
DAV:   1    -0.462388574611E+03   -0.23280E-03   -0.25425E-01  2640   0.141E+00    0.800E-02
DAV:   2    -0.462388868353E+03   -0.29374E-03   -0.43654E-03  3240   0.167E-01    0.555E-02
DAV:   3    -0.462388849438E+03    0.18915E-04   -0.27502E-04  3124   0.516E-02    0.202E-02
DAV:   4    -0.462388863526E+03   -0.14088E-04   -0.59809E-05  2768   0.210E-02    0.789E-03
DAV:   5    -0.462388868305E+03   -0.47787E-05   -0.57589E-06  1928   0.751E-03
  18 F= -.46238887E+03 E0= -.46237785E+03  d E =-.523248E-03  mag=    -0.0000
 trial-energy change:   -0.000523  1 .order   -0.000514   -0.001149    0.000122
 step:   0.5732(harm=  0.5732)  dis= 0.00329  next Energy=  -462.388865 (dE=-0.520E-03)
 bond charge predicted
       N       E                     dE             d eps       ncg     rms          rms(c)
DAV:   1    -0.462388873071E+03   -0.95446E-05   -0.22840E-03  2700   0.134E-01    0.775E-03
DAV:   2    -0.462388875813E+03   -0.27417E-05   -0.36190E-05  2384   0.161E-02
  19 F= -.46238888E+03 E0= -.46237787E+03  d E =-.530755E-03  mag=    -0.0000
 curvature:  -0.77 expect dE=-0.959E-03 dE for cont linesearch -0.631E-06
 trial: gam= 0.70208 g(F)=  0.125E-02 g(S)=  0.000E+00 ort = 0.632E-04 (trialstep = 0.622E+00)
 search vector abs. value=  0.373E-02
 bond charge predicted
       N       E                     dE             d eps       ncg     rms          rms(c)
DAV:   1    -0.462389057163E+03   -0.18409E-03   -0.19314E-01  2640   0.122E+00    0.686E-02
DAV:   2    -0.462389270904E+03   -0.21374E-03   -0.32036E-03  3128   0.144E-01    0.478E-02
DAV:   3    -0.462389255650E+03    0.15254E-04   -0.18887E-04  3112   0.441E-02    0.171E-02
DAV:   4    -0.462389267043E+03   -0.11393E-04   -0.48791E-05  2616   0.193E-02    0.634E-03
DAV:   5    -0.462389270324E+03   -0.32807E-05   -0.69080E-06  1896   0.873E-03
  20 F= -.46238927E+03 E0= -.46237825E+03  d E =-.394511E-03  mag=     0.0000
 trial-energy change:   -0.000395  1 .order   -0.000391   -0.000802    0.000021
 step:   0.6061(harm=  0.6061)  dis= 0.00377  next Energy=  -462.389267 (dE=-0.391E-03)
 bond charge predicted
       N       E                     dE             d eps       ncg     rms          rms(c)
DAV:   1    -0.462389273065E+03   -0.60221E-05   -0.12030E-04  2600   0.306E-02    0.210E-03
DAV:   2    -0.462389272717E+03    0.34752E-06   -0.66352E-06  1832   0.762E-03
  21 F= -.46238927E+03 E0= -.46237825E+03  d E =-.396905E-03  mag=     0.0000
 curvature:  -0.88 expect dE=-0.101E-02 dE for cont linesearch -0.246E-06
 trial: gam= 0.91535 g(F)=  0.115E-02 g(S)=  0.000E+00 ort = 0.323E-04 (trialstep = 0.533E+00)
 search vector abs. value=  0.434E-02
 bond charge predicted
       N       E                     dE             d eps       ncg     rms          rms(c)
DAV:   1    -0.462389492330E+03   -0.21926E-03   -0.16832E-01  2648   0.111E+00    0.613E-02
DAV:   2    -0.462389665610E+03   -0.17328E-03   -0.26096E-03  3008   0.129E-01    0.431E-02
DAV:   3    -0.462389660572E+03    0.50378E-05   -0.17379E-04  2988   0.426E-02    0.143E-02
DAV:   4    -0.462389670791E+03   -0.10219E-04   -0.49490E-05  2624   0.206E-02    0.622E-03
DAV:   5    -0.462389673916E+03   -0.31257E-05   -0.14460E-05  2056   0.118E-02
  22 F= -.46238967E+03 E0= -.46237875E+03  d E =-.401199E-03  mag=    -0.0000
 trial-energy change:   -0.000401  1 .order   -0.000393   -0.000628   -0.000157
 step:   0.7108(harm=  0.7108)  dis= 0.00555  next Energy=  -462.389692 (dE=-0.419E-03)
 bond charge predicted
       N       E                     dE             d eps       ncg     rms          rms(c)
DAV:   1    -0.462389686631E+03   -0.15840E-04   -0.18946E-02  2656   0.372E-01    0.206E-02
DAV:   2    -0.462389701834E+03   -0.15204E-04   -0.32167E-04  2976   0.471E-02    0.146E-02
DAV:   3    -0.462389707188E+03   -0.53533E-05   -0.33568E-05  2292   0.193E-02
  23 F= -.46238971E+03 E0= -.46237882E+03  d E =-.434470E-03  mag=    -0.0000
 curvature:  -1.31 expect dE=-0.120E-02 dE for cont linesearch -0.101E-07
 trial: gam= 0.78166 g(F)=  0.918E-03 g(S)=  0.000E+00 ort = 0.578E-05 (trialstep = 0.568E+00)
 search vector abs. value=  0.358E-02
 bond charge predicted
       N       E                     dE             d eps       ncg     rms          rms(c)
DAV:   1    -0.462389919362E+03   -0.21753E-03   -0.16420E-01  2648   0.105E+00    0.583E-02
DAV:   2    -0.462390066101E+03   -0.14674E-03   -0.23327E-03  2944   0.120E-01    0.398E-02
DAV:   3    -0.462390079638E+03   -0.13537E-04   -0.18426E-04  2956   0.421E-02    0.110E-02
DAV:   4    -0.462390084472E+03   -0.48341E-05   -0.61615E-05  2568   0.236E-02
  24 F= -.46239008E+03 E0= -.46237919E+03  d E =-.377284E-03  mag=    -0.0000
 trial-energy change:   -0.000377  1 .order   -0.000366   -0.000524   -0.000207
 step:   0.9408(harm=  0.9408)  dis= 0.00765  next Energy=  -462.390141 (dE=-0.434E-03)
 bond charge predicted
       N       E                     dE             d eps       ncg     rms          rms(c)
DAV:   1    -0.462390098087E+03   -0.18450E-04   -0.70718E-02  2644   0.689E-01    0.379E-02
DAV:   2    -0.462390154074E+03   -0.55987E-04   -0.10515E-03  2928   0.828E-02    0.258E-02
DAV:   3    -0.462390179678E+03   -0.25604E-04   -0.11674E-04  2576   0.346E-02    0.766E-03
DAV:   4    -0.462390178854E+03    0.82363E-06   -0.89432E-05  2416   0.276E-02
  25 F= -.46239018E+03 E0= -.46237929E+03  d E =-.471667E-03  mag=    -0.0000
 curvature:  -1.82 expect dE=-0.258E-02 dE for cont linesearch -0.397E-07
 trial: gam= 1.49578 g(F)=  0.141E-02 g(S)=  0.000E+00 ort = 0.882E-05 (trialstep = 0.244E+00)
 search vector abs. value=  0.944E-02
 bond charge predicted
       N       E                     dE             d eps       ncg     rms          rms(c)
DAV:   1    -0.462390380401E+03   -0.20072E-03   -0.81711E-02  2648   0.721E-01    0.388E-02
DAV:   2    -0.462390447449E+03   -0.67048E-04   -0.11980E-03  2920   0.877E-02    0.269E-02
DAV:   3    -0.462390479214E+03   -0.31764E-04   -0.13989E-04  2620   0.385E-02    0.783E-03
DAV:   4    -0.462390475094E+03    0.41197E-05   -0.10921E-04  2472   0.306E-02    0.363E-03
DAV:   5    -0.462390469444E+03    0.56501E-05   -0.69518E-05  2280   0.231E-02
  26 F= -.46239047E+03 E0= -.46237955E+03  d E =-.290589E-03  mag=    -0.0000
 trial-energy change:   -0.000291  1 .order   -0.000287   -0.000347   -0.000226
 step:   0.6973(harm=  0.6973)  dis= 0.00986  next Energy=  -462.390676 (dE=-0.497E-03)
 bond charge predicted
       N       E                     dE             d eps       ncg     rms          rms(c)
DAV:   1    -0.462390331610E+03    0.14348E-03   -0.28329E-01  2640   0.134E+00    0.721E-02
DAV:   2    -0.462390620704E+03   -0.28909E-03   -0.40078E-03  3048   0.154E-01    0.498E-02
DAV:   3    -0.462390625723E+03   -0.50186E-05   -0.25754E-04  3016   0.505E-02    0.140E-02
DAV:   4    -0.462390636936E+03   -0.11213E-04   -0.59513E-05  2736   0.220E-02    0.652E-03
DAV:   5    -0.462390642528E+03   -0.55917E-05   -0.13788E-05  2016   0.121E-02
  27 F= -.46239064E+03 E0= -.46237969E+03  d E =-.463673E-03  mag=    -0.0000
 curvature:  -2.31 expect dE=-0.394E-02 dE for cont linesearch -0.441E-05
 trial: gam= 1.30771 g(F)=  0.171E-02 g(S)=  0.000E+00 ort =-0.134E-03 (trialstep = 0.180E+00)
 search vector abs. value=  0.175E-01
 bond charge predicted
       N       E                     dE             d eps       ncg     rms          rms(c)
DAV:   1    -0.462390792415E+03   -0.15548E-03   -0.85223E-02  2648   0.711E-01    0.383E-02
DAV:   2    -0.462390875139E+03   -0.82724E-04   -0.12081E-03  2920   0.834E-02    0.261E-02
DAV:   3    -0.462390890503E+03   -0.15363E-04   -0.94081E-05  2720   0.305E-02    0.704E-03
DAV:   4    -0.462390894362E+03   -0.38593E-05   -0.42865E-05  2472   0.198E-02
  28 F= -.46239089E+03 E0= -.46237994E+03  d E =-.251834E-03  mag=    -0.0000
 trial-energy change:   -0.000252  1 .order   -0.000239   -0.000276   -0.000202
 step:   0.6697(harm=  0.6697)  dis= 0.01370  next Energy=  -462.391155 (dE=-0.513E-03)
 bond charge predicted
       N       E                     dE             d eps       ncg     rms          rms(c)
DAV:   1    -0.462390502570E+03    0.38793E-03   -0.62641E-01  2640   0.193E+00    0.104E-01
DAV:   2    -0.462391151144E+03   -0.64857E-03   -0.87180E-03  2968   0.221E-01    0.705E-02
DAV:   3    -0.462391184344E+03   -0.33200E-04   -0.59274E-04  2968   0.731E-02    0.186E-02
DAV:   4    -0.462391205138E+03   -0.20794E-04   -0.15617E-04  2924   0.363E-02    0.747E-03
DAV:   5    -0.462391224308E+03   -0.19170E-04   -0.71495E-05  2388   0.255E-02    0.381E-03
DAV:   6    -0.462391221969E+03    0.23383E-05   -0.71671E-05  2320   0.240E-02
  29 F= -.46239122E+03 E0= -.46238028E+03  d E =-.579442E-03  mag=     0.0000
 curvature:  -3.83 expect dE=-0.702E-02 dE for cont linesearch -0.804E-05
 trial: gam= 0.78084 g(F)=  0.183E-02 g(S)=  0.000E+00 ort = 0.192E-03 (trialstep = 0.278E+00)
 search vector abs. value=  0.128E-01
 bond charge predicted
       N       E                     dE             d eps       ncg     rms          rms(c)
DAV:   1    -0.462391467534E+03   -0.24323E-03   -0.14881E-01  2648   0.930E-01    0.512E-02
DAV:   2    -0.462391628272E+03   -0.16074E-03   -0.21589E-03  2888   0.109E-01    0.340E-02
DAV:   3    -0.462391640392E+03   -0.12121E-04   -0.14535E-04  3040   0.355E-02    0.102E-02
DAV:   4    -0.462391649535E+03   -0.91429E-05   -0.26267E-05  2200   0.149E-02
  30 F= -.46239165E+03 E0= -.46238073E+03  d E =-.427566E-03  mag=     0.0000
 trial-energy change:   -0.000428  1 .order   -0.000436   -0.000552   -0.000321
 step:   0.6632(harm=  0.6632)  dis= 0.01185  next Energy=  -462.391880 (dE=-0.658E-03)
 bond charge predicted
       N       E                     dE             d eps       ncg     rms          rms(c)
DAV:   1    -0.462391563530E+03    0.76862E-04   -0.28517E-01  2640   0.129E+00    0.708E-02
DAV:   2    -0.462391879965E+03   -0.31643E-03   -0.41559E-03  2944   0.151E-01    0.468E-02
DAV:   3    -0.462391896959E+03   -0.16994E-04   -0.27436E-04  3128   0.488E-02    0.143E-02
DAV:   4    -0.462391910828E+03   -0.13869E-04   -0.51186E-05  2720   0.207E-02    0.630E-03
DAV:   5    -0.462391917460E+03   -0.66315E-05   -0.12782E-05  2064   0.117E-02
  31 F= -.46239192E+03 E0= -.46238102E+03  d E =-.695490E-03  mag=     0.0000
 curvature:  -2.14 expect dE=-0.304E-02 dE for cont linesearch -0.521E-05
 trial: gam= 0.85273 g(F)=  0.142E-02 g(S)=  0.000E+00 ort = 0.176E-03 (trialstep = 0.355E+00)
 search vector abs. value=  0.110E-01
 bond charge predicted
       N       E                     dE             d eps       ncg     rms          rms(c)
DAV:   1    -0.462392064691E+03   -0.15386E-03   -0.21230E-01  2640   0.109E+00    0.598E-02
DAV:   2    -0.462392309294E+03   -0.24460E-03   -0.31934E-03  2936   0.129E-01    0.389E-02
DAV:   3    -0.462392332089E+03   -0.22795E-04   -0.22214E-04  3044   0.432E-02    0.119E-02
DAV:   4    -0.462392342313E+03   -0.10224E-04   -0.49420E-05  2640   0.217E-02    0.498E-03
DAV:   5    -0.462392352629E+03   -0.10316E-04   -0.28048E-05  2328   0.166E-02    0.238E-03
DAV:   6    -0.462392350950E+03    0.16788E-05   -0.25258E-05  2296   0.150E-02
  32 F= -.46239235E+03 E0= -.46238144E+03  d E =-.433490E-03  mag=     0.0000
 trial-energy change:   -0.000433  1 .order   -0.000418   -0.000557   -0.000280
 step:   0.7126(harm=  0.7126)  dis= 0.01220  next Energy=  -462.392477 (dE=-0.559E-03)
 bond charge predicted
       N       E                     dE             d eps       ncg     rms          rms(c)
DAV:   1    -0.462392206555E+03    0.14607E-03   -0.21481E-01  2640   0.109E+00    0.603E-02
DAV:   2    -0.462392455424E+03   -0.24887E-03   -0.32226E-03  3032   0.128E-01    0.390E-02
DAV:   3    -0.462392471517E+03   -0.16093E-04   -0.20470E-04  3232   0.402E-02    0.117E-02
DAV:   4    -0.462392482042E+03   -0.10526E-04   -0.28781E-05  2304   0.147E-02    0.494E-03
DAV:   5    -0.462392487592E+03   -0.55494E-05   -0.54447E-06  1888   0.775E-03
  33 F= -.46239249E+03 E0= -.46238157E+03  d E =-.570132E-03  mag=     0.0000
 curvature:  -2.50 expect dE=-0.495E-02 dE for cont linesearch -0.107E-08
 trial: gam= 1.57811 g(F)=  0.198E-02 g(S)=  0.000E+00 ort =-0.217E-05 (trialstep = 0.160E+00)
 search vector abs. value=  0.294E-01
 bond charge predicted
       N       E                     dE             d eps       ncg     rms          rms(c)
DAV:   1    -0.462392626012E+03   -0.14397E-03   -0.11658E-01  2640   0.776E-01    0.424E-02
DAV:   2    -0.462392761408E+03   -0.13540E-03   -0.17280E-03  3016   0.908E-02    0.271E-02
DAV:   3    -0.462392777176E+03   -0.15767E-04   -0.10383E-04  2824   0.286E-02    0.733E-03
DAV:   4    -0.462392784697E+03   -0.75215E-05   -0.20602E-05  2280   0.138E-02
  34 F= -.46239278E+03 E0= -.46238187E+03  d E =-.297106E-03  mag=     0.0000
 ZBRENT: can't locate minimum, use default step
 trial-energy change:   -0.000297  1 .order   -0.000288   -0.000315   -0.000260
 step:   0.6395(harm=  0.9183)  dis= 0.01847  next Energy=  -462.393393 (dE=-0.906E-03)
 bond charge predicted
       N       E                     dE             d eps       ncg     rms          rms(c)
DAV:   1    -0.462391916247E+03    0.86093E-03   -0.10479E+00  2640   0.233E+00    0.127E-01
DAV:   2    -0.462393228425E+03   -0.13122E-02   -0.15876E-02  3088   0.272E-01    0.812E-02
DAV:   3    -0.462393308804E+03   -0.80379E-04   -0.92196E-04  3240   0.819E-02    0.214E-02
DAV:   4    -0.462393347869E+03   -0.39065E-04   -0.14797E-04  2944   0.324E-02    0.881E-03
DAV:   5    -0.462393363661E+03   -0.15792E-04   -0.28780E-05  2384   0.181E-02    0.414E-03
DAV:   6    -0.462393380888E+03   -0.17228E-04   -0.35350E-05  2356   0.188E-02    0.177E-03
DAV:   7    -0.462393372763E+03    0.81254E-05   -0.19694E-05  2184   0.137E-02
  35 F= -.46239337E+03 E0= -.46238245E+03  d E =-.885171E-03  mag=     0.0000
 curvature:  -5.93 expect dE=-0.991E-02 dE for cont linesearch -0.110E-03
 ZBRENT: increasing intervall
 opt :   1.5987  next Energy=  -462.393229 (dE=-0.741E-03)
 bond charge predicted
       N       E                     dE             d eps       ncg     rms          rms(c)
DAV:   1    -0.462386783630E+03    0.65973E-02   -0.41752E+00  2640   0.465E+00    0.253E-01
DAV:   2    -0.462392582159E+03   -0.57985E-02   -0.67397E-02  3064   0.550E-01    0.162E-01
DAV:   3    -0.462392935385E+03   -0.35323E-03   -0.45327E-03  3516   0.163E-01    0.445E-02
DAV:   4    -0.462393076285E+03   -0.14090E-03   -0.45074E-04  3112   0.523E-02    0.181E-02
DAV:   5    -0.462393122022E+03   -0.45736E-04   -0.32406E-05  2584   0.157E-02    0.750E-03
DAV:   6    -0.462393153294E+03   -0.31272E-04   -0.77069E-06  1952   0.745E-03    0.268E-03
DAV:   7    -0.462393176232E+03   -0.22938E-04   -0.42031E-06  1960   0.494E-03    0.154E-03
DAV:   8    -0.462393198730E+03   -0.22498E-04   -0.46364E-06  1896   0.552E-03    0.912E-04
DAV:   9    -0.462393212096E+03   -0.13365E-04   -0.37817E-06  1936   0.520E-03    0.731E-04
DAV:  10    -0.462393223866E+03   -0.11770E-04   -0.20592E-06  1912   0.303E-03    0.444E-04
DAV:  11    -0.462393233217E+03   -0.93514E-05   -0.14861E-06  1904   0.167E-03
  36 F= -.46239323E+03 E0= -.46238232E+03  d E =-.745625E-03  mag=     0.0000
 curvature:   7.74 expect dE= 0.436E-01 dE for cont linesearch  0.301E-03
 ZBRENT: bracketing found
 ZBRENT: interpolating
 opt :   1.0313  next Energy=  -462.393518 (dE=-0.103E-02)
 bond charge predicted
       N       E                     dE             d eps       ncg     rms          rms(c)
DAV:   1    -0.462391542997E+03    0.16809E-02   -0.14643E+00  2640   0.275E+00    0.156E-01
DAV:   2    -0.462393339047E+03   -0.17961E-02   -0.22072E-02  3040   0.318E-01    0.951E-02
DAV:   3    -0.462393445740E+03   -0.10669E-03   -0.13980E-03  3400   0.935E-02    0.282E-02
DAV:   4    -0.462393488982E+03   -0.43242E-04   -0.15258E-04  3144   0.304E-02    0.123E-02
DAV:   5    -0.462393502580E+03   -0.13598E-04   -0.65615E-06  1944   0.846E-03    0.432E-03
DAV:   6    -0.462393509645E+03   -0.70643E-05   -0.26876E-06  1928   0.483E-03
  37 F= -.46239351E+03 E0= -.46238259E+03  d E =-.102205E-02  mag=     0.0000
 curvature:  -3.72 expect dE=-0.988E-02 dE for cont linesearch -0.928E-07
 trial: gam= 0.94056 g(F)=  0.266E-02 g(S)=  0.000E+00 ort = 0.271E-04 (trialstep = 0.334E+00)
 search vector abs. value=  0.288E-01
 bond charge predicted
       N       E                     dE             d eps       ncg     rms          rms(c)
DAV:   1    -0.462393483978E+03    0.18603E-04   -0.50064E-01  2656   0.160E+00    0.894E-02
DAV:   2    -0.462394115061E+03   -0.63108E-03   -0.76938E-03  3056   0.191E-01    0.566E-02
DAV:   3    -0.462394143908E+03   -0.28847E-04   -0.44228E-04  3328   0.584E-02    0.182E-02
DAV:   4    -0.462394165104E+03   -0.21196E-04   -0.66156E-05  2968   0.209E-02    0.723E-03
DAV:   5    -0.462394169588E+03   -0.44834E-05   -0.46113E-06  1924   0.703E-03
  38 F= -.46239417E+03 E0= -.46238323E+03  d E =-.659943E-03  mag=     0.0000
 trial-energy change:   -0.000660  1 .order   -0.000635   -0.000896   -0.000374
 step:   0.5735(harm=  0.5735)  dis= 0.01652  next Energy=  -462.394279 (dE=-0.769E-03)
 bond charge predicted
       N       E                     dE             d eps       ncg     rms          rms(c)
DAV:   1    -0.462393944305E+03    0.22080E-03   -0.25716E-01  2640   0.115E+00    0.642E-02
DAV:   2    -0.462394262841E+03   -0.31854E-03   -0.39691E-03  3056   0.138E-01    0.407E-02
DAV:   3    -0.462394280629E+03   -0.17788E-04   -0.22942E-04  3224   0.423E-02    0.133E-02
DAV:   4    -0.462394293427E+03   -0.12798E-04   -0.33121E-05  2456   0.156E-02    0.526E-03
DAV:   5    -0.462394297625E+03   -0.41985E-05   -0.39313E-06  1848   0.670E-03
  39 F= -.46239430E+03 E0= -.46238334E+03  d E =-.787980E-03  mag=     0.0000
 curvature:  -3.07 expect dE=-0.690E-02 dE for cont linesearch -0.179E-06
 trial: gam= 0.84824 g(F)=  0.225E-02 g(S)=  0.000E+00 ort =-0.409E-04 (trialstep = 0.382E+00)
 search vector abs. value=  0.229E-01
 bond charge predicted
       N       E                     dE             d eps       ncg     rms          rms(c)
DAV:   1    -0.462394116452E+03    0.17697E-03   -0.51982E-01  2644   0.161E+00    0.895E-02
DAV:   2    -0.462394792258E+03   -0.67581E-03   -0.80809E-03  3152   0.192E-01    0.560E-02
DAV:   3    -0.462394832746E+03   -0.40488E-04   -0.45561E-04  3304   0.577E-02    0.183E-02
DAV:   4    -0.462394858664E+03   -0.25918E-04   -0.66977E-05  2880   0.214E-02    0.721E-03
DAV:   5    -0.462394867935E+03   -0.92702E-05   -0.70554E-06  1884   0.929E-03
  40 F= -.46239487E+03 E0= -.46238388E+03  d E =-.570310E-03  mag=     0.0000
 trial-energy change:   -0.000570  1 .order   -0.000579   -0.000845   -0.000313
 step:   0.6073(harm=  0.6073)  dis= 0.01566  next Energy=  -462.394969 (dE=-0.671E-03)
 bond charge predicted
       N       E                     dE             d eps       ncg     rms          rms(c)
DAV:   1    -0.462394698042E+03    0.16062E-03   -0.18093E-01  2648   0.952E-01    0.529E-02
DAV:   2    -0.462394928697E+03   -0.23065E-03   -0.28004E-03  3124   0.113E-01    0.331E-02
DAV:   3    -0.462394952259E+03   -0.23562E-04   -0.16052E-04  3072   0.353E-02    0.110E-02
DAV:   4    -0.462394966527E+03   -0.14269E-04   -0.27512E-05  2536   0.158E-02    0.433E-03
DAV:   5    -0.462394974167E+03   -0.76398E-05   -0.86960E-06  2064   0.104E-02
  41 F= -.46239497E+03 E0= -.46238396E+03  d E =-.676542E-03  mag=     0.0000
 curvature:  -3.14 expect dE=-0.545E-02 dE for cont linesearch -0.213E-09
 trial: gam= 0.81764 g(F)=  0.174E-02 g(S)=  0.000E+00 ort = 0.124E-05 (trialstep = 0.427E+00)
 search vector abs. value=  0.170E-01
 bond charge predicted
       N       E                     dE             d eps       ncg     rms          rms(c)
DAV:   1    -0.462394724731E+03    0.24180E-03   -0.48604E-01  2640   0.154E+00    0.856E-02
DAV:   2    -0.462395369016E+03   -0.64428E-03   -0.75845E-03  3184   0.184E-01    0.531E-02
DAV:   3    -0.462395415092E+03   -0.46077E-04   -0.40093E-04  3292   0.535E-02    0.175E-02
DAV:   4    -0.462395444015E+03   -0.28923E-04   -0.62147E-05  2760   0.228E-02    0.629E-03
DAV:   5    -0.462395455184E+03   -0.11169E-04   -0.15154E-05  2276   0.142E-02    0.308E-03
DAV:   6    -0.462395466637E+03   -0.11453E-04   -0.17153E-05  2212   0.142E-02    0.153E-03
DAV:   7    -0.462395465430E+03    0.12065E-05   -0.81770E-06  2036   0.967E-03
  42 F= -.46239547E+03 E0= -.46238448E+03  d E =-.491263E-03  mag=     0.0000
 trial-energy change:   -0.000491  1 .order   -0.000495   -0.000742   -0.000248
 step:   0.6415(harm=  0.6415)  dis= 0.01434  next Energy=  -462.395532 (dE=-0.557E-03)
 bond charge predicted
       N       E                     dE             d eps       ncg     rms          rms(c)
DAV:   1    -0.462395350627E+03    0.11601E-03   -0.12262E-01  2640   0.774E-01    0.432E-02
DAV:   2    -0.462395504610E+03   -0.15398E-03   -0.18859E-03  3128   0.919E-02    0.267E-02
DAV:   3    -0.462395521851E+03   -0.17241E-04   -0.10002E-04  3024   0.264E-02    0.872E-03
DAV:   4    -0.462395532515E+03   -0.10664E-04   -0.11828E-05  2072   0.932E-03    0.299E-03
DAV:   5    -0.462395537785E+03   -0.52699E-05   -0.20050E-06  1992   0.433E-03
  43 F= -.46239554E+03 E0= -.46238457E+03  d E =-.563617E-03  mag=     0.0000
 curvature:  -3.14 expect dE=-0.470E-02 dE for cont linesearch -0.108E-06
 trial: gam= 0.81484 g(F)=  0.150E-02 g(S)=  0.000E+00 ort =-0.242E-04 (trialstep = 0.470E+00)
 search vector abs. value=  0.128E-01
 bond charge predicted
       N       E                     dE             d eps       ncg     rms          rms(c)
DAV:   1    -0.462395291619E+03    0.24090E-03   -0.44256E-01  2640   0.147E+00    0.826E-02
DAV:   2    -0.462395898977E+03   -0.60736E-03   -0.71352E-03  3192   0.178E-01    0.512E-02
DAV:   3    -0.462395934255E+03   -0.35278E-04   -0.38607E-04  3372   0.519E-02    0.177E-02
DAV:   4    -0.462395960282E+03   -0.26027E-04   -0.51281E-05  2696   0.187E-02    0.668E-03
DAV:   5    -0.462395968982E+03   -0.86997E-05   -0.39594E-06  2000   0.662E-03
  44 F= -.46239597E+03 E0= -.46238501E+03  d E =-.431197E-03  mag=     0.0000
 trial-energy change:   -0.000431  1 .order   -0.000437   -0.000694   -0.000180
 step:   0.6346(harm=  0.6346)  dis= 0.01226  next Energy=  -462.396006 (dE=-0.468E-03)
 bond charge predicted
       N       E                     dE             d eps       ncg     rms          rms(c)
DAV:   1    -0.462395919013E+03    0.41269E-04   -0.54437E-02  2648   0.516E-01    0.291E-02
DAV:   2    -0.462395991614E+03   -0.72601E-04   -0.87259E-04  3016   0.628E-02    0.180E-02
DAV:   3    -0.462396003862E+03   -0.12248E-04   -0.48073E-05  2544   0.190E-02    0.646E-03
DAV:   4    -0.462396013244E+03   -0.93823E-05   -0.84067E-06  2008   0.869E-03
  45 F= -.46239601E+03 E0= -.46238506E+03  d E =-.475460E-03  mag=     0.0000
 curvature:  -2.74 expect dE=-0.393E-02 dE for cont linesearch -0.586E-07
 trial: gam= 0.97243 g(F)=  0.143E-02 g(S)=  0.000E+00 ort =-0.165E-04 (trialstep = 0.476E+00)
 search vector abs. value=  0.135E-01
 bond charge predicted
       N       E                     dE             d eps       ncg     rms          rms(c)
DAV:   1    -0.462395736967E+03    0.26689E-03   -0.47768E-01  2640   0.152E+00    0.846E-02
DAV:   2    -0.462396399188E+03   -0.66222E-03   -0.76895E-03  3136   0.181E-01    0.516E-02
DAV:   3    -0.462396445934E+03   -0.46746E-04   -0.42538E-04  3364   0.525E-02    0.172E-02
DAV:   4    -0.462396474051E+03   -0.28117E-04   -0.53028E-05  2720   0.188E-02    0.624E-03
DAV:   5    -0.462396484989E+03   -0.10938E-04   -0.55761E-06  1928   0.835E-03    0.282E-03
DAV:   6    -0.462396494717E+03   -0.97284E-05   -0.50037E-06  1816   0.762E-03
  46 F= -.46239649E+03 E0= -.46238548E+03  d E =-.481473E-03  mag=     0.0000
 trial-energy change:   -0.000481  1 .order   -0.000471   -0.000676   -0.000267
 step:   0.7871(harm=  0.7871)  dis= 0.01562  next Energy=  -462.396571 (dE=-0.558E-03)
 bond charge predicted
       N       E                     dE             d eps       ncg     rms          rms(c)
DAV:   1    -0.462396273068E+03    0.21192E-03   -0.20325E-01  2640   0.992E-01    0.554E-02
DAV:   2    -0.462396545873E+03   -0.27281E-03   -0.32395E-03  3088   0.118E-01    0.337E-02
DAV:   3    -0.462396572571E+03   -0.26698E-04   -0.18474E-04  3148   0.357E-02    0.112E-02
DAV:   4    -0.462396588533E+03   -0.15961E-04   -0.26574E-05  2400   0.154E-02    0.405E-03
DAV:   5    -0.462396596553E+03   -0.80204E-05   -0.81909E-06  2008   0.103E-02
  47 F= -.46239660E+03 E0= -.46238555E+03  d E =-.583309E-03  mag=    -0.0000
 curvature:  -3.74 expect dE=-0.545E-02 dE for cont linesearch -0.591E-06
 trial: gam= 0.96716 g(F)=  0.146E-02 g(S)=  0.000E+00 ort = 0.461E-04 (trialstep = 0.513E+00)
 search vector abs. value=  0.141E-01
 bond charge predicted
       N       E                     dE             d eps       ncg     rms          rms(c)
DAV:   1    -0.462396213599E+03    0.37493E-03   -0.57927E-01  2640   0.170E+00    0.944E-02
DAV:   2    -0.462396990412E+03   -0.77681E-03   -0.90810E-03  3120   0.202E-01    0.587E-02
DAV:   3    -0.462397037298E+03   -0.46886E-04   -0.49457E-04  3288   0.596E-02    0.201E-02
DAV:   4    -0.462397071578E+03   -0.34280E-04   -0.76940E-05  2800   0.252E-02    0.738E-03
DAV:   5    -0.462397084761E+03   -0.13183E-04   -0.16055E-05  2296   0.146E-02    0.355E-03
DAV:   6    -0.462397096691E+03   -0.11930E-04   -0.16306E-05  2184   0.144E-02    0.168E-03
DAV:   7    -0.462397098958E+03   -0.22669E-05   -0.10694E-05  2136   0.114E-02
  48 F= -.46239710E+03 E0= -.46238607E+03  d E =-.502405E-03  mag=    -0.0000
 trial-energy change:   -0.000502  1 .order   -0.000500   -0.000771   -0.000230
 step:   0.7313(harm=  0.7313)  dis= 0.01476  next Energy=  -462.397146 (dE=-0.550E-03)
 bond charge predicted
       N       E                     dE             d eps       ncg     rms          rms(c)
DAV:   1    -0.462396992441E+03    0.10425E-03   -0.10528E-01  2640   0.724E-01    0.404E-02
DAV:   2    -0.462397125749E+03   -0.13331E-03   -0.16206E-03  3128   0.857E-02    0.251E-02
DAV:   3    -0.462397140404E+03   -0.14655E-04   -0.88656E-05  3000   0.251E-02    0.846E-03
DAV:   4    -0.462397151158E+03   -0.10753E-04   -0.10789E-05  2032   0.905E-03    0.294E-03
DAV:   5    -0.462397156630E+03   -0.54728E-05   -0.20320E-06  2008   0.424E-03
  49 F= -.46239716E+03 E0= -.46238614E+03  d E =-.560077E-03  mag=    -0.0000
 curvature:  -3.44 expect dE=-0.450E-02 dE for cont linesearch -0.418E-07
 trial: gam= 0.96946 g(F)=  0.131E-02 g(S)=  0.000E+00 ort =-0.131E-04 (trialstep = 0.540E+00)
 search vector abs. value=  0.146E-01
 bond charge predicted
       N       E                     dE             d eps       ncg     rms          rms(c)
DAV:   1    -0.462396502078E+03    0.64908E-03   -0.65841E-01  2640   0.183E+00    0.101E-01
DAV:   2    -0.462397360090E+03   -0.85801E-03   -0.10163E-02  3120   0.215E-01    0.632E-02
DAV:   3    -0.462397408480E+03   -0.48390E-04   -0.56038E-04  3368   0.625E-02    0.201E-02
DAV:   4    -0.462397440560E+03   -0.32080E-04   -0.75237E-05  2928   0.219E-02    0.782E-03
DAV:   5    -0.462397452350E+03   -0.11790E-04   -0.53732E-06  2008   0.744E-03    0.368E-03
DAV:   6    -0.462397462905E+03   -0.10555E-04   -0.28748E-06  1912   0.524E-03    0.134E-03
DAV:   7    -0.462397471618E+03   -0.87136E-05   -0.24702E-06  1920   0.502E-03
  50 F= -.46239747E+03 E0= -.46238649E+03  d E =-.314988E-03  mag=    -0.0000
 trial-energy change:   -0.000315  1 .order   -0.000320   -0.000699    0.000060
 step:   0.4976(harm=  0.4976)  dis= 0.01020  next Energy=  -462.397479 (dE=-0.322E-03)
 bond charge predicted
       N       E                     dE             d eps       ncg     rms          rms(c)
DAV:   1    -0.462397474890E+03   -0.11985E-04   -0.40570E-03  2704   0.144E-01    0.807E-03
DAV:   2    -0.462397481595E+03   -0.67046E-05   -0.60164E-05  2668   0.173E-02
  51 F= -.46239748E+03 E0= -.46238650E+03  d E =-.324964E-03  mag=    -0.0000
 curvature:  -2.80 expect dE=-0.161E-02 dE for cont linesearch -0.115E-05
 trial: gam= 0.37556 g(F)=  0.575E-03 g(S)=  0.000E+00 ort = 0.773E-04 (trialstep = 0.532E+00)
 search vector abs. value=  0.269E-02
 bond charge predicted
       N       E                     dE             d eps       ncg     rms          rms(c)
DAV:   1    -0.462397467508E+03    0.73823E-05   -0.11497E-01  2640   0.799E-01    0.440E-02
DAV:   2    -0.462397601986E+03   -0.13448E-03   -0.17095E-03  3008   0.939E-02    0.277E-02
DAV:   3    -0.462397610761E+03   -0.87754E-05   -0.11481E-04  3104   0.302E-02    0.101E-02
DAV:   4    -0.462397616994E+03   -0.62329E-05   -0.14738E-05  1984   0.117E-02
  52 F= -.46239762E+03 E0= -.46238656E+03  d E =-.135399E-03  mag=    -0.0000
 trial-energy change:   -0.000135  1 .order   -0.000140   -0.000321    0.000042
 step:   0.4699(harm=  0.4699)  dis= 0.00408  next Energy=  -462.397624 (dE=-0.142E-03)
 bond charge predicted
       N       E                     dE             d eps       ncg     rms          rms(c)
DAV:   1    -0.462397622167E+03   -0.11406E-04   -0.15427E-03  2784   0.927E-02    0.561E-03
DAV:   2    -0.462397625037E+03   -0.28699E-05   -0.23104E-05  2200   0.125E-02
  53 F= -.46239763E+03 E0= -.46238658E+03  d E =-.143442E-03  mag=    -0.0000
 curvature:  -1.05 expect dE=-0.293E-03 dE for cont linesearch -0.357E-06
 trial: gam= 0.48228 g(F)=  0.280E-03 g(S)=  0.000E+00 ort = 0.303E-04 (trialstep = 0.519E+00)
 search vector abs. value=  0.935E-03
 bond charge predicted
       N       E                     dE             d eps       ncg     rms          rms(c)
DAV:   1    -0.462397652539E+03   -0.30372E-04   -0.37367E-02  2640   0.465E-01    0.254E-02
DAV:   2    -0.462397692046E+03   -0.39508E-04   -0.52438E-04  2856   0.542E-02    0.162E-02
DAV:   3    -0.462397696138E+03   -0.40912E-05   -0.35409E-05  2440   0.189E-02
  54 F= -.46239770E+03 E0= -.46238665E+03  d E =-.711007E-04  mag=     0.0000
 trial-energy change:   -0.000071  1 .order   -0.000073   -0.000153    0.000006
 step:   0.4986(harm=  0.4986)  dis= 0.00255  next Energy=  -462.397699 (dE=-0.735E-04)
 reached required accuracy - stopping structural energy minimisation
