  49  49   0   0
  0.8021693E+02  0.1230000E-08  0.1230000E-08  0.3000000E-08  0.5000000E-15
  1.000000000000000E-004
  CAR 
 Li defective graphene MACE training lab 
      4.78211623    -53.91099189  301     -3.07366512      1.00000000
    -53.911  0.0000E+00  0.0000E+00  0.0000E+00  0.0000E+00
    -53.715  0.0000E+00  0.0000E+00  0.0000E+00  0.0000E+00
    -53.520  0.0000E+00  0.0000E+00  0.0000E+00  0.0000E+00
    -53.324  0.0000E+00  0.0000E+00  0.0000E+00  0.0000E+00
    -53.128  0.0000E+00  0.0000E+00  0.0000E+00  0.0000E+00
    -52.933  0.0000E+00  0.0000E+00  0.0000E+00  0.0000E+00
    -52.737  0.0000E+00  0.0000E+00  0.0000E+00  0.0000E+00
    -52.541  0.0000E+00  0.0000E+00  0.0000E+00  0.0000E+00
    -52.346  0.0000E+00  0.0000E+00  0.0000E+00  0.0000E+00
    -52.150  0.0000E+00  0.0000E+00  0.0000E+00  0.0000E+00
    -51.955  0.0000E+00  0.0000E+00  0.0000E+00  0.0000E+00
    -51.759  0.0000E+00  0.0000E+00  0.0000E+00  0.0000E+00
    -51.563  0.0000E+00  0.0000E+00  0.0000E+00  0.0000E+00
    -51.368  0.1097E-02  0.1097E-02  0.2146E-03  0.2146E-03
    -51.172  0.4997E+01  0.4997E+01  0.9779E+00  0.9779E+00
    -50.976  0.1130E+00  0.1130E+00  0.1000E+01  0.1000E+01
    -50.781  0.0000E+00  0.0000E+00  0.1000E+01  0.1000E+01
    -50.585  0.0000E+00  0.0000E+00  0.1000E+01  0.1000E+01
    -50.389  0.0000E+00  0.0000E+00  0.1000E+01  0.1000E+01
    -50.194  0.0000E+00  0.0000E+00  0.1000E+01  0.1000E+01
    -49.998  0.0000E+00  0.0000E+00  0.1000E+01  0.1000E+01
    -49.802  0.0000E+00  0.0000E+00  0.1000E+01  0.1000E+01
    -49.607  0.0000E+00  0.0000E+00  0.1000E+01  0.1000E+01
    -49.411  0.0000E+00  0.0000E+00  0.1000E+01  0.1000E+01
    -49.216  0.0000E+00  0.0000E+00  0.1000E+01  0.1000E+01
    -49.020  0.0000E+00  0.0000E+00  0.1000E+01  0.1000E+01
    -48.824  0.0000E+00  0.0000E+00  0.1000E+01  0.1000E+01
    -48.629  0.0000E+00  0.0000E+00  0.1000E+01  0.1000E+01
    -48.433  0.0000E+00  0.0000E+00  0.1000E+01  0.1000E+01
    -48.237  0.0000E+00  0.0000E+00  0.1000E+01  0.1000E+01
    -48.042  0.0000E+00  0.0000E+00  0.1000E+01  0.1000E+01
    -47.846  0.0000E+00  0.0000E+00  0.1000E+01  0.1000E+01
    -47.650  0.0000E+00  0.0000E+00  0.1000E+01  0.1000E+01
    -47.455  0.0000E+00  0.0000E+00  0.1000E+01  0.1000E+01
    -47.259  0.0000E+00  0.0000E+00  0.1000E+01  0.1000E+01
    -47.063  0.0000E+00  0.0000E+00  0.1000E+01  0.1000E+01
    -46.868  0.0000E+00  0.0000E+00  0.1000E+01  0.1000E+01
    -46.672  0.0000E+00  0.0000E+00  0.1000E+01  0.1000E+01
    -46.477  0.0000E+00  0.0000E+00  0.1000E+01  0.1000E+01
    -46.281  0.0000E+00  0.0000E+00  0.1000E+01  0.1000E+01
    -46.085  0.0000E+00  0.0000E+00  0.1000E+01  0.1000E+01
    -45.890  0.0000E+00  0.0000E+00  0.1000E+01  0.1000E+01
    -45.694  0.0000E+00  0.0000E+00  0.1000E+01  0.1000E+01
    -45.498  0.0000E+00  0.0000E+00  0.1000E+01  0.1000E+01
    -45.303  0.0000E+00  0.0000E+00  0.1000E+01  0.1000E+01
    -45.107  0.0000E+00  0.0000E+00  0.1000E+01  0.1000E+01
    -44.911  0.0000E+00  0.0000E+00  0.1000E+01  0.1000E+01
    -44.716  0.0000E+00  0.0000E+00  0.1000E+01  0.1000E+01
    -44.520  0.0000E+00  0.0000E+00  0.1000E+01  0.1000E+01
    -44.324  0.0000E+00  0.0000E+00  0.1000E+01  0.1000E+01
    -44.129  0.0000E+00  0.0000E+00  0.1000E+01  0.1000E+01
    -43.933  0.0000E+00  0.0000E+00  0.1000E+01  0.1000E+01
    -43.738  0.0000E+00  0.0000E+00  0.1000E+01  0.1000E+01
    -43.542  0.0000E+00  0.0000E+00  0.1000E+01  0.1000E+01
    -43.346  0.0000E+00  0.0000E+00  0.1000E+01  0.1000E+01
    -43.151  0.0000E+00  0.0000E+00  0.1000E+01  0.1000E+01
    -42.955  0.0000E+00  0.0000E+00  0.1000E+01  0.1000E+01
    -42.759  0.0000E+00  0.0000E+00  0.1000E+01  0.1000E+01
    -42.564  0.0000E+00  0.0000E+00  0.1000E+01  0.1000E+01
    -42.368  0.0000E+00  0.0000E+00  0.1000E+01  0.1000E+01
    -42.172  0.0000E+00  0.0000E+00  0.1000E+01  0.1000E+01
    -41.977  0.0000E+00  0.0000E+00  0.1000E+01  0.1000E+01
    -41.781  0.0000E+00  0.0000E+00  0.1000E+01  0.1000E+01
    -41.585  0.0000E+00  0.0000E+00  0.1000E+01  0.1000E+01
    -41.390  0.0000E+00  0.0000E+00  0.1000E+01  0.1000E+01
    -41.194  0.0000E+00  0.0000E+00  0.1000E+01  0.1000E+01
    -40.999  0.0000E+00  0.0000E+00  0.1000E+01  0.1000E+01
    -40.803  0.0000E+00  0.0000E+00  0.1000E+01  0.1000E+01
    -40.607  0.0000E+00  0.0000E+00  0.1000E+01  0.1000E+01
    -40.412  0.0000E+00  0.0000E+00  0.1000E+01  0.1000E+01
    -40.216  0.0000E+00  0.0000E+00  0.1000E+01  0.1000E+01
    -40.020  0.0000E+00  0.0000E+00  0.1000E+01  0.1000E+01
    -39.825  0.0000E+00  0.0000E+00  0.1000E+01  0.1000E+01
    -39.629  0.0000E+00  0.0000E+00  0.1000E+01  0.1000E+01
    -39.433  0.0000E+00  0.0000E+00  0.1000E+01  0.1000E+01
    -39.238  0.0000E+00  0.0000E+00  0.1000E+01  0.1000E+01
    -39.042  0.0000E+00  0.0000E+00  0.1000E+01  0.1000E+01
    -38.846  0.0000E+00  0.0000E+00  0.1000E+01  0.1000E+01
    -38.651  0.0000E+00  0.0000E+00  0.1000E+01  0.1000E+01
    -38.455  0.0000E+00  0.0000E+00  0.1000E+01  0.1000E+01
    -38.259  0.0000E+00  0.0000E+00  0.1000E+01  0.1000E+01
    -38.064  0.0000E+00  0.0000E+00  0.1000E+01  0.1000E+01
    -37.868  0.0000E+00  0.0000E+00  0.1000E+01  0.1000E+01
    -37.673  0.0000E+00  0.0000E+00  0.1000E+01  0.1000E+01
    -37.477  0.0000E+00  0.0000E+00  0.1000E+01  0.1000E+01
    -37.281  0.0000E+00  0.0000E+00  0.1000E+01  0.1000E+01
    -37.086  0.0000E+00  0.0000E+00  0.1000E+01  0.1000E+01
    -36.890  0.0000E+00  0.0000E+00  0.1000E+01  0.1000E+01
    -36.694  0.0000E+00  0.0000E+00  0.1000E+01  0.1000E+01
    -36.499  0.0000E+00  0.0000E+00  0.1000E+01  0.1000E+01
    -36.303  0.0000E+00  0.0000E+00  0.1000E+01  0.1000E+01
    -36.107  0.0000E+00  0.0000E+00  0.1000E+01  0.1000E+01
    -35.912  0.0000E+00  0.0000E+00  0.1000E+01  0.1000E+01
    -35.716  0.0000E+00  0.0000E+00  0.1000E+01  0.1000E+01
    -35.520  0.0000E+00  0.0000E+00  0.1000E+01  0.1000E+01
    -35.325  0.0000E+00  0.0000E+00  0.1000E+01  0.1000E+01
    -35.129  0.0000E+00  0.0000E+00  0.1000E+01  0.1000E+01
    -34.934  0.0000E+00  0.0000E+00  0.1000E+01  0.1000E+01
    -34.738  0.0000E+00  0.0000E+00  0.1000E+01  0.1000E+01
    -34.542  0.0000E+00  0.0000E+00  0.1000E+01  0.1000E+01
    -34.347  0.0000E+00  0.0000E+00  0.1000E+01  0.1000E+01
    -34.151  0.0000E+00  0.0000E+00  0.1000E+01  0.1000E+01
    -33.955  0.0000E+00  0.0000E+00  0.1000E+01  0.1000E+01
    -33.760  0.0000E+00  0.0000E+00  0.1000E+01  0.1000E+01
    -33.564  0.0000E+00  0.0000E+00  0.1000E+01  0.1000E+01
    -33.368  0.0000E+00  0.0000E+00  0.1000E+01  0.1000E+01
    -33.173  0.0000E+00  0.0000E+00  0.1000E+01  0.1000E+01
    -32.977  0.0000E+00  0.0000E+00  0.1000E+01  0.1000E+01
    -32.781  0.0000E+00  0.0000E+00  0.1000E+01  0.1000E+01
    -32.586  0.0000E+00  0.0000E+00  0.1000E+01  0.1000E+01
    -32.390  0.0000E+00  0.0000E+00  0.1000E+01  0.1000E+01
    -32.195  0.0000E+00  0.0000E+00  0.1000E+01  0.1000E+01
    -31.999  0.0000E+00  0.0000E+00  0.1000E+01  0.1000E+01
    -31.803  0.0000E+00  0.0000E+00  0.1000E+01  0.1000E+01
    -31.608  0.0000E+00  0.0000E+00  0.1000E+01  0.1000E+01
    -31.412  0.0000E+00  0.0000E+00  0.1000E+01  0.1000E+01
    -31.216  0.0000E+00  0.0000E+00  0.1000E+01  0.1000E+01
    -31.021  0.0000E+00  0.0000E+00  0.1000E+01  0.1000E+01
    -30.825  0.0000E+00  0.0000E+00  0.1000E+01  0.1000E+01
    -30.629  0.0000E+00  0.0000E+00  0.1000E+01  0.1000E+01
    -30.434  0.0000E+00  0.0000E+00  0.1000E+01  0.1000E+01
    -30.238  0.0000E+00  0.0000E+00  0.1000E+01  0.1000E+01
    -30.042  0.0000E+00  0.0000E+00  0.1000E+01  0.1000E+01
    -29.847  0.0000E+00  0.0000E+00  0.1000E+01  0.1000E+01
    -29.651  0.0000E+00  0.0000E+00  0.1000E+01  0.1000E+01
    -29.456  0.0000E+00  0.0000E+00  0.1000E+01  0.1000E+01
    -29.260  0.0000E+00  0.0000E+00  0.1000E+01  0.1000E+01
    -29.064  0.0000E+00  0.0000E+00  0.1000E+01  0.1000E+01
    -28.869  0.0000E+00  0.0000E+00  0.1000E+01  0.1000E+01
    -28.673  0.0000E+00  0.0000E+00  0.1000E+01  0.1000E+01
    -28.477  0.0000E+00  0.0000E+00  0.1000E+01  0.1000E+01
    -28.282  0.0000E+00  0.0000E+00  0.1000E+01  0.1000E+01
    -28.086  0.0000E+00  0.0000E+00  0.1000E+01  0.1000E+01
    -27.890  0.0000E+00  0.0000E+00  0.1000E+01  0.1000E+01
    -27.695  0.0000E+00  0.0000E+00  0.1000E+01  0.1000E+01
    -27.499  0.0000E+00  0.0000E+00  0.1000E+01  0.1000E+01
    -27.303  0.0000E+00  0.0000E+00  0.1000E+01  0.1000E+01
    -27.108  0.0000E+00  0.0000E+00  0.1000E+01  0.1000E+01
    -26.912  0.0000E+00  0.0000E+00  0.1000E+01  0.1000E+01
    -26.717  0.0000E+00  0.0000E+00  0.1000E+01  0.1000E+01
    -26.521  0.0000E+00  0.0000E+00  0.1000E+01  0.1000E+01
    -26.325  0.0000E+00  0.0000E+00  0.1000E+01  0.1000E+01
    -26.130  0.0000E+00  0.0000E+00  0.1000E+01  0.1000E+01
    -25.934  0.0000E+00  0.0000E+00  0.1000E+01  0.1000E+01
    -25.738  0.0000E+00  0.0000E+00  0.1000E+01  0.1000E+01
    -25.543  0.0000E+00  0.0000E+00  0.1000E+01  0.1000E+01
    -25.347  0.0000E+00  0.0000E+00  0.1000E+01  0.1000E+01
    -25.151  0.0000E+00  0.0000E+00  0.1000E+01  0.1000E+01
    -24.956  0.0000E+00  0.0000E+00  0.1000E+01  0.1000E+01
    -24.760  0.0000E+00  0.0000E+00  0.1000E+01  0.1000E+01
    -24.564  0.0000E+00  0.0000E+00  0.1000E+01  0.1000E+01
    -24.369  0.0000E+00  0.0000E+00  0.1000E+01  0.1000E+01
    -24.173  0.0000E+00  0.0000E+00  0.1000E+01  0.1000E+01
    -23.978  0.0000E+00  0.0000E+00  0.1000E+01  0.1000E+01
    -23.782  0.0000E+00  0.0000E+00  0.1000E+01  0.1000E+01
    -23.586  0.0000E+00  0.0000E+00  0.1000E+01  0.1000E+01
    -23.391  0.0000E+00  0.0000E+00  0.1000E+01  0.1000E+01
    -23.195  0.0000E+00  0.0000E+00  0.1000E+01  0.1000E+01
    -22.999  0.0000E+00  0.0000E+00  0.1000E+01  0.1000E+01
    -22.804  0.0000E+00  0.0000E+00  0.1000E+01  0.1000E+01
    -22.608  0.2011E-13  0.2011E-13  0.1000E+01  0.1000E+01
    -22.412  0.1475E-01  0.1475E-01  0.1003E+01  0.1003E+01
    -22.217  0.3956E+01  0.3956E+01  0.1777E+01  0.1777E+01
    -22.021  0.1703E+01  0.1703E+01  0.2110E+01  0.2110E+01
    -21.825  0.2976E+01  0.2976E+01  0.2692E+01  0.2692E+01
    -21.630  0.3696E+01  0.3696E+01  0.3415E+01  0.3415E+01
    -21.434  0.4332E+01  0.4332E+01  0.4263E+01  0.4263E+01
    -21.238  0.3164E+01  0.3164E+01  0.4882E+01  0.4882E+01
    -21.043  0.3747E+01  0.3747E+01  0.5615E+01  0.5615E+01
    -20.847  0.3508E+01  0.3508E+01  0.6301E+01  0.6301E+01
    -20.652  0.4140E+01  0.4140E+01  0.7111E+01  0.7111E+01
    -20.456  0.3355E+01  0.3355E+01  0.7768E+01  0.7768E+01
    -20.260  0.3539E+01  0.3539E+01  0.8460E+01  0.8460E+01
    -20.065  0.5492E+01  0.5492E+01  0.9535E+01  0.9535E+01
    -19.869  0.3308E+01  0.3308E+01  0.1018E+02  0.1018E+02
    -19.673  0.1263E+01  0.1263E+01  0.1043E+02  0.1043E+02
    -19.478  0.4461E+01  0.4461E+01  0.1130E+02  0.1130E+02
    -19.282  0.6622E+01  0.6622E+01  0.1260E+02  0.1260E+02
    -19.086  0.2774E+01  0.2774E+01  0.1314E+02  0.1314E+02
    -18.891  0.4367E+01  0.4367E+01  0.1399E+02  0.1399E+02
    -18.695  0.2504E+01  0.2504E+01  0.1448E+02  0.1448E+02
    -18.499  0.4460E+01  0.4460E+01  0.1536E+02  0.1536E+02
    -18.304  0.6126E+01  0.6126E+01  0.1656E+02  0.1656E+02
    -18.108  0.3410E+01  0.3410E+01  0.1722E+02  0.1722E+02
    -17.913  0.1479E+01  0.1479E+01  0.1751E+02  0.1751E+02
    -17.717  0.5044E+01  0.5044E+01  0.1850E+02  0.1850E+02
    -17.521  0.4383E+01  0.4383E+01  0.1936E+02  0.1936E+02
    -17.326  0.5442E+01  0.5442E+01  0.2042E+02  0.2042E+02
    -17.130  0.5235E+01  0.5235E+01  0.2144E+02  0.2144E+02
    -16.934  0.4611E+01  0.4611E+01  0.2235E+02  0.2235E+02
    -16.739  0.1669E+01  0.1669E+01  0.2267E+02  0.2267E+02
    -16.543  0.2560E+01  0.2560E+01  0.2317E+02  0.2317E+02
    -16.347  0.4414E+01  0.4414E+01  0.2404E+02  0.2404E+02
    -16.152  0.2180E+01  0.2180E+01  0.2446E+02  0.2446E+02
    -15.956  0.2959E+01  0.2959E+01  0.2504E+02  0.2504E+02
    -15.760  0.5173E+01  0.5173E+01  0.2606E+02  0.2606E+02
    -15.565  0.1612E+01  0.1612E+01  0.2637E+02  0.2637E+02
    -15.369  0.4242E+01  0.4242E+01  0.2720E+02  0.2720E+02
    -15.174  0.6115E+01  0.6115E+01  0.2840E+02  0.2840E+02
    -14.978  0.3769E+01  0.3769E+01  0.2913E+02  0.2913E+02
    -14.782  0.5260E+01  0.5260E+01  0.3016E+02  0.3016E+02
    -14.587  0.3294E+01  0.3294E+01  0.3081E+02  0.3081E+02
    -14.391  0.3857E+01  0.3857E+01  0.3156E+02  0.3156E+02
    -14.195  0.3834E+01  0.3834E+01  0.3231E+02  0.3231E+02
    -14.000  0.5501E+01  0.5501E+01  0.3339E+02  0.3339E+02
    -13.804  0.2574E+01  0.2574E+01  0.3389E+02  0.3389E+02
    -13.608  0.4477E+01  0.4477E+01  0.3477E+02  0.3477E+02
    -13.413  0.4589E+01  0.4589E+01  0.3567E+02  0.3567E+02
    -13.217  0.2734E-02  0.2734E-02  0.3567E+02  0.3567E+02
    -13.021  0.4114E+01  0.4114E+01  0.3647E+02  0.3647E+02
    -12.826  0.6145E+01  0.6145E+01  0.3767E+02  0.3767E+02
    -12.630  0.7035E+01  0.7035E+01  0.3905E+02  0.3905E+02
    -12.435  0.2301E+01  0.2301E+01  0.3950E+02  0.3950E+02
    -12.239  0.4442E+01  0.4442E+01  0.4037E+02  0.4037E+02
    -12.043  0.3101E+01  0.3101E+01  0.4098E+02  0.4098E+02
    -11.848  0.4830E+01  0.4830E+01  0.4192E+02  0.4192E+02
    -11.652  0.4774E+01  0.4774E+01  0.4286E+02  0.4286E+02
    -11.456  0.5632E+01  0.5632E+01  0.4396E+02  0.4396E+02
    -11.261  0.5062E+01  0.5062E+01  0.4495E+02  0.4495E+02
    -11.065  0.7151E+01  0.7151E+01  0.4635E+02  0.4635E+02
    -10.869  0.2427E+01  0.2427E+01  0.4682E+02  0.4682E+02
    -10.674  0.5310E+01  0.5310E+01  0.4786E+02  0.4786E+02
    -10.478  0.6589E+01  0.6589E+01  0.4915E+02  0.4915E+02
    -10.282  0.1031E+02  0.1031E+02  0.5117E+02  0.5117E+02
    -10.087  0.8475E+01  0.8475E+01  0.5282E+02  0.5282E+02
     -9.891  0.1028E+02  0.1028E+02  0.5484E+02  0.5484E+02
     -9.696  0.6977E+01  0.6977E+01  0.5620E+02  0.5620E+02
     -9.500  0.9610E+01  0.9610E+01  0.5808E+02  0.5808E+02
     -9.304  0.7962E+01  0.7962E+01  0.5964E+02  0.5964E+02
     -9.109  0.1133E+02  0.1133E+02  0.6186E+02  0.6186E+02
     -8.913  0.1277E+02  0.1277E+02  0.6436E+02  0.6436E+02
     -8.717  0.1188E+02  0.1188E+02  0.6668E+02  0.6668E+02
     -8.522  0.9657E+01  0.9657E+01  0.6857E+02  0.6857E+02
     -8.326  0.7796E+01  0.7796E+01  0.7010E+02  0.7010E+02
     -8.130  0.8321E+01  0.8321E+01  0.7172E+02  0.7172E+02
     -7.935  0.1348E+02  0.1348E+02  0.7436E+02  0.7436E+02
     -7.739  0.9189E+01  0.9189E+01  0.7616E+02  0.7616E+02
     -7.543  0.3587E+01  0.3587E+01  0.7686E+02  0.7686E+02
     -7.348  0.7630E+01  0.7630E+01  0.7835E+02  0.7835E+02
     -7.152  0.1088E+02  0.1088E+02  0.8048E+02  0.8048E+02
     -6.957  0.7726E+01  0.7726E+01  0.8199E+02  0.8199E+02
     -6.761  0.8204E+01  0.8204E+01  0.8360E+02  0.8360E+02
     -6.565  0.5488E+01  0.5488E+01  0.8467E+02  0.8467E+02
     -6.370  0.6653E+01  0.6653E+01  0.8597E+02  0.8597E+02
     -6.174  0.5583E+01  0.5583E+01  0.8707E+02  0.8707E+02
     -5.978  0.8749E+01  0.8749E+01  0.8878E+02  0.8878E+02
     -5.783  0.2308E+01  0.2308E+01  0.8923E+02  0.8923E+02
     -5.587  0.4666E+01  0.4666E+01  0.9014E+02  0.9014E+02
     -5.391  0.5098E+01  0.5098E+01  0.9114E+02  0.9114E+02
     -5.196  0.3295E+01  0.3295E+01  0.9178E+02  0.9178E+02
     -5.000  0.6099E+01  0.6099E+01  0.9298E+02  0.9298E+02
     -4.804  0.5354E+01  0.5354E+01  0.9402E+02  0.9402E+02
     -4.609  0.4259E+01  0.4259E+01  0.9486E+02  0.9486E+02
     -4.413  0.8181E+00  0.8181E+00  0.9502E+02  0.9502E+02
     -4.217  0.2228E+01  0.2228E+01  0.9545E+02  0.9545E+02
     -4.022  0.2829E+01  0.2829E+01  0.9601E+02  0.9601E+02
     -3.826  0.1672E+01  0.1672E+01  0.9633E+02  0.9633E+02
     -3.631  0.3152E+01  0.3152E+01  0.9695E+02  0.9695E+02
     -3.435  0.2501E+00  0.2501E+00  0.9700E+02  0.9700E+02
     -3.239  0.6468E-01  0.6469E-01  0.9701E+02  0.9701E+02
     -3.044  0.2723E+01  0.2723E+01  0.9755E+02  0.9755E+02
     -2.848  0.1066E+01  0.1066E+01  0.9775E+02  0.9775E+02
     -2.652  0.3448E+00  0.3448E+00  0.9782E+02  0.9782E+02
     -2.457  0.1925E+01  0.1925E+01  0.9820E+02  0.9820E+02
     -2.261  0.1233E+00  0.1232E+00  0.9822E+02  0.9822E+02
     -2.065  0.4949E-06  0.4950E-06  0.9822E+02  0.9822E+02
     -1.870  0.1317E+01  0.1317E+01  0.9848E+02  0.9848E+02
     -1.674  0.5344E+01  0.5344E+01  0.9953E+02  0.9953E+02
     -1.478  0.1792E+01  0.1792E+01  0.9988E+02  0.9988E+02
     -1.283  0.2077E+01  0.2077E+01  0.1003E+03  0.1003E+03
     -1.087  0.9241E+01  0.9240E+01  0.1021E+03  0.1021E+03
     -0.892  0.8444E+01  0.8443E+01  0.1037E+03  0.1037E+03
     -0.696  0.3457E+01  0.3457E+01  0.1044E+03  0.1044E+03
     -0.500  0.2586E+01  0.2586E+01  0.1049E+03  0.1049E+03
     -0.305  0.7891E+01  0.7891E+01  0.1065E+03  0.1065E+03
     -0.109  0.6394E+00  0.6395E+00  0.1066E+03  0.1066E+03
      0.087  0.6174E+01  0.6173E+01  0.1078E+03  0.1078E+03
      0.282  0.7054E+01  0.7053E+01  0.1092E+03  0.1092E+03
      0.478  0.8070E+01  0.8067E+01  0.1108E+03  0.1108E+03
      0.674  0.5288E+01  0.5288E+01  0.1118E+03  0.1118E+03
      0.869  0.8891E+01  0.8839E+01  0.1135E+03  0.1135E+03
      1.065  0.1133E+02  0.1122E+02  0.1158E+03  0.1157E+03
      1.261  0.1359E+02  0.1334E+02  0.1184E+03  0.1183E+03
      1.456  0.1333E+02  0.1319E+02  0.1210E+03  0.1209E+03
      1.652  0.1270E+02  0.1279E+02  0.1235E+03  0.1234E+03
      1.847  0.1708E+02  0.1636E+02  0.1268E+03  0.1266E+03
      2.043  0.4767E+01  0.6194E+01  0.1278E+03  0.1278E+03
      2.239  0.1150E+01  0.9130E+00  0.1280E+03  0.1280E+03
      2.434  0.1413E-04  0.1219E-03  0.1280E+03  0.1280E+03
      2.630  0.0000E+00  0.0000E+00  0.1280E+03  0.1280E+03
      2.826  0.0000E+00  0.0000E+00  0.1280E+03  0.1280E+03
      3.021  0.0000E+00  0.0000E+00  0.1280E+03  0.1280E+03
      3.217  0.0000E+00  0.0000E+00  0.1280E+03  0.1280E+03
      3.413  0.0000E+00  0.0000E+00  0.1280E+03  0.1280E+03
      3.608  0.0000E+00  0.0000E+00  0.1280E+03  0.1280E+03
      3.804  0.0000E+00  0.0000E+00  0.1280E+03  0.1280E+03
      4.000  0.0000E+00  0.0000E+00  0.1280E+03  0.1280E+03
      4.195  0.0000E+00  0.0000E+00  0.1280E+03  0.1280E+03
      4.391  0.0000E+00  0.0000E+00  0.1280E+03  0.1280E+03
      4.586  0.0000E+00  0.0000E+00  0.1280E+03  0.1280E+03
      4.782  0.0000E+00  0.0000E+00  0.1280E+03  0.1280E+03
