       N       E                     dE             d eps       ncg     rms          rms(c)
DAV:   1     0.184679101581E+04    0.18468E+04   -0.64252E+04  3144   0.105E+03
DAV:   2     0.449751267277E+02   -0.18018E+04   -0.16555E+04  3968   0.230E+02
DAV:   3    -0.438141833631E+03   -0.48312E+03   -0.47876E+03  3344   0.127E+02
DAV:   4    -0.464824244903E+03   -0.26682E+02   -0.26349E+02  3336   0.387E+01
DAV:   5    -0.466027254266E+03   -0.12030E+01   -0.11887E+01  4240   0.676E+00    0.315E+01
DAV:   6    -0.443226710810E+03    0.22801E+02   -0.22930E+01  2880   0.128E+01    0.182E+01
DAV:   7    -0.432215328268E+03    0.11011E+02   -0.15254E+01  3032   0.969E+00    0.980E+00
DAV:   8    -0.431729763671E+03    0.48556E+00   -0.41322E+00  3000   0.465E+00    0.373E+00
DAV:   9    -0.432873120962E+03   -0.11434E+01   -0.56164E-01  3608   0.201E+00    0.162E+00
DAV:  10    -0.433387807777E+03   -0.51469E+00   -0.16795E-01  2832   0.105E+00    0.100E+00
DAV:  11    -0.433801162308E+03   -0.41335E+00   -0.51898E-02  3040   0.522E-01    0.835E-01
DAV:  12    -0.434559015587E+03   -0.75785E+00   -0.15306E-01  2808   0.692E-01    0.624E-01
DAV:  13    -0.434709361133E+03   -0.15035E+00   -0.11641E-01  2744   0.595E-01    0.456E-01
DAV:  14    -0.435059186405E+03   -0.34983E+00   -0.58646E-02  2808   0.434E-01    0.313E-01
DAV:  15    -0.435819839966E+03   -0.76065E+00   -0.38074E-02  2832   0.281E-01    0.208E-01
DAV:  16    -0.436223468498E+03   -0.40363E+00   -0.77291E-03  2984   0.170E-01    0.155E-01
DAV:  17    -0.436536176909E+03   -0.31271E+00   -0.59050E-03  2800   0.152E-01    0.107E-01
DAV:  18    -0.436673905928E+03   -0.13773E+00   -0.30950E-03  2808   0.102E-01    0.767E-02
DAV:  19    -0.436720242400E+03   -0.46336E-01   -0.14233E-03  2896   0.702E-02    0.558E-02
DAV:  20    -0.436732857566E+03   -0.12615E-01   -0.62000E-04  2768   0.516E-02    0.400E-02
DAV:  21    -0.436744324098E+03   -0.11467E-01   -0.23296E-04  2896   0.377E-02    0.282E-02
DAV:  22    -0.436768628676E+03   -0.24305E-01   -0.96732E-05  2792   0.298E-02    0.178E-02
DAV:  23    -0.436791277369E+03   -0.22649E-01   -0.49197E-05  2904   0.243E-02    0.101E-02
DAV:  24    -0.436795794505E+03   -0.45171E-02   -0.25551E-05  2504   0.184E-02    0.717E-03
DAV:  25    -0.436798805732E+03   -0.30112E-02   -0.42842E-05  2488   0.182E-02    0.409E-03
DAV:  26    -0.436799974251E+03   -0.11685E-02   -0.22487E-05  2392   0.154E-02    0.264E-03
DAV:  27    -0.436800397466E+03   -0.42321E-03   -0.63344E-06  2312   0.897E-03    0.168E-03
DAV:  28    -0.436800672100E+03   -0.27463E-03   -0.28370E-06  2248   0.534E-03    0.117E-03
DAV:  29    -0.436800808381E+03   -0.13628E-03   -0.12225E-06  2216   0.317E-03    0.808E-04
DAV:  30    -0.436800883027E+03   -0.74645E-04   -0.50615E-07  1936   0.192E-03    0.440E-04
DAV:  31    -0.436800927766E+03   -0.44739E-04   -0.26522E-07  1888   0.121E-03    0.399E-04
DAV:  32    -0.436800948572E+03   -0.20806E-04   -0.10638E-07  1944   0.800E-04    0.224E-04
DAV:  33    -0.436800954560E+03   -0.59881E-05   -0.19724E-08  1960   0.502E-04    0.144E-04
DAV:  34    -0.436800957703E+03   -0.31430E-05    0.10108E-09  1880   0.289E-04    0.140E-04
DAV:  35    -0.436800959200E+03   -0.14967E-05    0.12162E-08  1880   0.186E-04    0.119E-04
DAV:  36    -0.436800959753E+03   -0.55308E-06    0.16260E-08  1920   0.116E-04
   1 F= -.43680096E+03 E0= -.43679772E+03  d E =-.647319E-02  mag=     0.0000
