  51  51   0   0
  0.7707117E+02  0.1230000E-08  0.1230000E-08  0.3000000E-08  0.5000000E-15
  1.000000000000000E-004
  CAR 
 Li defective graphene MACE training lab 
      4.84580192    -54.56838873  301     -2.55601371      1.00000000
    -54.568  0.0000E+00  0.0000E+00  0.0000E+00  0.0000E+00
    -54.370  0.0000E+00  0.0000E+00  0.0000E+00  0.0000E+00
    -54.172  0.0000E+00  0.0000E+00  0.0000E+00  0.0000E+00
    -53.974  0.0000E+00  0.0000E+00  0.0000E+00  0.0000E+00
    -53.776  0.0000E+00  0.0000E+00  0.0000E+00  0.0000E+00
    -53.578  0.0000E+00  0.0000E+00  0.0000E+00  0.0000E+00
    -53.380  0.0000E+00  0.0000E+00  0.0000E+00  0.0000E+00
    -53.182  0.0000E+00  0.0000E+00  0.0000E+00  0.0000E+00
    -52.984  0.0000E+00  0.0000E+00  0.0000E+00  0.0000E+00
    -52.786  0.0000E+00  0.0000E+00  0.0000E+00  0.0000E+00
    -52.588  0.0000E+00  0.0000E+00  0.0000E+00  0.0000E+00
    -52.390  0.0000E+00  0.0000E+00  0.0000E+00  0.0000E+00
    -52.192  0.0000E+00  0.0000E+00  0.0000E+00  0.0000E+00
    -51.994  0.9197E-03  0.7828E-03  0.1821E-03  0.1550E-03
    -51.796  0.4943E+01  0.4932E+01  0.9792E+00  0.9770E+00
    -51.598  0.1052E+00  0.1163E+00  0.1000E+01  0.1000E+01
    -51.400  0.0000E+00  0.0000E+00  0.1000E+01  0.1000E+01
    -51.202  0.0000E+00  0.0000E+00  0.1000E+01  0.1000E+01
    -51.004  0.0000E+00  0.0000E+00  0.1000E+01  0.1000E+01
    -50.805  0.0000E+00  0.0000E+00  0.1000E+01  0.1000E+01
    -50.607  0.0000E+00  0.0000E+00  0.1000E+01  0.1000E+01
    -50.409  0.0000E+00  0.0000E+00  0.1000E+01  0.1000E+01
    -50.211  0.0000E+00  0.0000E+00  0.1000E+01  0.1000E+01
    -50.013  0.0000E+00  0.0000E+00  0.1000E+01  0.1000E+01
    -49.815  0.0000E+00  0.0000E+00  0.1000E+01  0.1000E+01
    -49.617  0.0000E+00  0.0000E+00  0.1000E+01  0.1000E+01
    -49.419  0.0000E+00  0.0000E+00  0.1000E+01  0.1000E+01
    -49.221  0.0000E+00  0.0000E+00  0.1000E+01  0.1000E+01
    -49.023  0.0000E+00  0.0000E+00  0.1000E+01  0.1000E+01
    -48.825  0.0000E+00  0.0000E+00  0.1000E+01  0.1000E+01
    -48.627  0.0000E+00  0.0000E+00  0.1000E+01  0.1000E+01
    -48.429  0.0000E+00  0.0000E+00  0.1000E+01  0.1000E+01
    -48.231  0.0000E+00  0.0000E+00  0.1000E+01  0.1000E+01
    -48.033  0.0000E+00  0.0000E+00  0.1000E+01  0.1000E+01
    -47.835  0.0000E+00  0.0000E+00  0.1000E+01  0.1000E+01
    -47.637  0.0000E+00  0.0000E+00  0.1000E+01  0.1000E+01
    -47.439  0.0000E+00  0.0000E+00  0.1000E+01  0.1000E+01
    -47.241  0.0000E+00  0.0000E+00  0.1000E+01  0.1000E+01
    -47.043  0.0000E+00  0.0000E+00  0.1000E+01  0.1000E+01
    -46.845  0.0000E+00  0.0000E+00  0.1000E+01  0.1000E+01
    -46.646  0.0000E+00  0.0000E+00  0.1000E+01  0.1000E+01
    -46.448  0.0000E+00  0.0000E+00  0.1000E+01  0.1000E+01
    -46.250  0.0000E+00  0.0000E+00  0.1000E+01  0.1000E+01
    -46.052  0.0000E+00  0.0000E+00  0.1000E+01  0.1000E+01
    -45.854  0.0000E+00  0.0000E+00  0.1000E+01  0.1000E+01
    -45.656  0.0000E+00  0.0000E+00  0.1000E+01  0.1000E+01
    -45.458  0.0000E+00  0.0000E+00  0.1000E+01  0.1000E+01
    -45.260  0.0000E+00  0.0000E+00  0.1000E+01  0.1000E+01
    -45.062  0.0000E+00  0.0000E+00  0.1000E+01  0.1000E+01
    -44.864  0.0000E+00  0.0000E+00  0.1000E+01  0.1000E+01
    -44.666  0.0000E+00  0.0000E+00  0.1000E+01  0.1000E+01
    -44.468  0.0000E+00  0.0000E+00  0.1000E+01  0.1000E+01
    -44.270  0.0000E+00  0.0000E+00  0.1000E+01  0.1000E+01
    -44.072  0.0000E+00  0.0000E+00  0.1000E+01  0.1000E+01
    -43.874  0.0000E+00  0.0000E+00  0.1000E+01  0.1000E+01
    -43.676  0.0000E+00  0.0000E+00  0.1000E+01  0.1000E+01
    -43.478  0.0000E+00  0.0000E+00  0.1000E+01  0.1000E+01
    -43.280  0.0000E+00  0.0000E+00  0.1000E+01  0.1000E+01
    -43.082  0.0000E+00  0.0000E+00  0.1000E+01  0.1000E+01
    -42.884  0.0000E+00  0.0000E+00  0.1000E+01  0.1000E+01
    -42.686  0.0000E+00  0.0000E+00  0.1000E+01  0.1000E+01
    -42.488  0.0000E+00  0.0000E+00  0.1000E+01  0.1000E+01
    -42.289  0.0000E+00  0.0000E+00  0.1000E+01  0.1000E+01
    -42.091  0.0000E+00  0.0000E+00  0.1000E+01  0.1000E+01
    -41.893  0.0000E+00  0.0000E+00  0.1000E+01  0.1000E+01
    -41.695  0.0000E+00  0.0000E+00  0.1000E+01  0.1000E+01
    -41.497  0.0000E+00  0.0000E+00  0.1000E+01  0.1000E+01
    -41.299  0.0000E+00  0.0000E+00  0.1000E+01  0.1000E+01
    -41.101  0.0000E+00  0.0000E+00  0.1000E+01  0.1000E+01
    -40.903  0.0000E+00  0.0000E+00  0.1000E+01  0.1000E+01
    -40.705  0.0000E+00  0.0000E+00  0.1000E+01  0.1000E+01
    -40.507  0.0000E+00  0.0000E+00  0.1000E+01  0.1000E+01
    -40.309  0.0000E+00  0.0000E+00  0.1000E+01  0.1000E+01
    -40.111  0.0000E+00  0.0000E+00  0.1000E+01  0.1000E+01
    -39.913  0.0000E+00  0.0000E+00  0.1000E+01  0.1000E+01
    -39.715  0.0000E+00  0.0000E+00  0.1000E+01  0.1000E+01
    -39.517  0.0000E+00  0.0000E+00  0.1000E+01  0.1000E+01
    -39.319  0.0000E+00  0.0000E+00  0.1000E+01  0.1000E+01
    -39.121  0.0000E+00  0.0000E+00  0.1000E+01  0.1000E+01
    -38.923  0.0000E+00  0.0000E+00  0.1000E+01  0.1000E+01
    -38.725  0.0000E+00  0.0000E+00  0.1000E+01  0.1000E+01
    -38.527  0.0000E+00  0.0000E+00  0.1000E+01  0.1000E+01
    -38.329  0.0000E+00  0.0000E+00  0.1000E+01  0.1000E+01
    -38.130  0.0000E+00  0.0000E+00  0.1000E+01  0.1000E+01
    -37.932  0.0000E+00  0.0000E+00  0.1000E+01  0.1000E+01
    -37.734  0.0000E+00  0.0000E+00  0.1000E+01  0.1000E+01
    -37.536  0.0000E+00  0.0000E+00  0.1000E+01  0.1000E+01
    -37.338  0.0000E+00  0.0000E+00  0.1000E+01  0.1000E+01
    -37.140  0.0000E+00  0.0000E+00  0.1000E+01  0.1000E+01
    -36.942  0.0000E+00  0.0000E+00  0.1000E+01  0.1000E+01
    -36.744  0.0000E+00  0.0000E+00  0.1000E+01  0.1000E+01
    -36.546  0.0000E+00  0.0000E+00  0.1000E+01  0.1000E+01
    -36.348  0.0000E+00  0.0000E+00  0.1000E+01  0.1000E+01
    -36.150  0.0000E+00  0.0000E+00  0.1000E+01  0.1000E+01
    -35.952  0.0000E+00  0.0000E+00  0.1000E+01  0.1000E+01
    -35.754  0.0000E+00  0.0000E+00  0.1000E+01  0.1000E+01
    -35.556  0.0000E+00  0.0000E+00  0.1000E+01  0.1000E+01
    -35.358  0.0000E+00  0.0000E+00  0.1000E+01  0.1000E+01
    -35.160  0.0000E+00  0.0000E+00  0.1000E+01  0.1000E+01
    -34.962  0.0000E+00  0.0000E+00  0.1000E+01  0.1000E+01
    -34.764  0.0000E+00  0.0000E+00  0.1000E+01  0.1000E+01
    -34.566  0.0000E+00  0.0000E+00  0.1000E+01  0.1000E+01
    -34.368  0.0000E+00  0.0000E+00  0.1000E+01  0.1000E+01
    -34.170  0.0000E+00  0.0000E+00  0.1000E+01  0.1000E+01
    -33.971  0.0000E+00  0.0000E+00  0.1000E+01  0.1000E+01
    -33.773  0.0000E+00  0.0000E+00  0.1000E+01  0.1000E+01
    -33.575  0.0000E+00  0.0000E+00  0.1000E+01  0.1000E+01
    -33.377  0.0000E+00  0.0000E+00  0.1000E+01  0.1000E+01
    -33.179  0.0000E+00  0.0000E+00  0.1000E+01  0.1000E+01
    -32.981  0.0000E+00  0.0000E+00  0.1000E+01  0.1000E+01
    -32.783  0.0000E+00  0.0000E+00  0.1000E+01  0.1000E+01
    -32.585  0.0000E+00  0.0000E+00  0.1000E+01  0.1000E+01
    -32.387  0.0000E+00  0.0000E+00  0.1000E+01  0.1000E+01
    -32.189  0.0000E+00  0.0000E+00  0.1000E+01  0.1000E+01
    -31.991  0.0000E+00  0.0000E+00  0.1000E+01  0.1000E+01
    -31.793  0.0000E+00  0.0000E+00  0.1000E+01  0.1000E+01
    -31.595  0.0000E+00  0.0000E+00  0.1000E+01  0.1000E+01
    -31.397  0.0000E+00  0.0000E+00  0.1000E+01  0.1000E+01
    -31.199  0.0000E+00  0.0000E+00  0.1000E+01  0.1000E+01
    -31.001  0.0000E+00  0.0000E+00  0.1000E+01  0.1000E+01
    -30.803  0.0000E+00  0.0000E+00  0.1000E+01  0.1000E+01
    -30.605  0.0000E+00  0.0000E+00  0.1000E+01  0.1000E+01
    -30.407  0.0000E+00  0.0000E+00  0.1000E+01  0.1000E+01
    -30.209  0.0000E+00  0.0000E+00  0.1000E+01  0.1000E+01
    -30.011  0.0000E+00  0.0000E+00  0.1000E+01  0.1000E+01
    -29.812  0.0000E+00  0.0000E+00  0.1000E+01  0.1000E+01
    -29.614  0.0000E+00  0.0000E+00  0.1000E+01  0.1000E+01
    -29.416  0.0000E+00  0.0000E+00  0.1000E+01  0.1000E+01
    -29.218  0.0000E+00  0.0000E+00  0.1000E+01  0.1000E+01
    -29.020  0.0000E+00  0.0000E+00  0.1000E+01  0.1000E+01
    -28.822  0.0000E+00  0.0000E+00  0.1000E+01  0.1000E+01
    -28.624  0.0000E+00  0.0000E+00  0.1000E+01  0.1000E+01
    -28.426  0.0000E+00  0.0000E+00  0.1000E+01  0.1000E+01
    -28.228  0.0000E+00  0.0000E+00  0.1000E+01  0.1000E+01
    -28.030  0.0000E+00  0.0000E+00  0.1000E+01  0.1000E+01
    -27.832  0.0000E+00  0.0000E+00  0.1000E+01  0.1000E+01
    -27.634  0.0000E+00  0.0000E+00  0.1000E+01  0.1000E+01
    -27.436  0.0000E+00  0.0000E+00  0.1000E+01  0.1000E+01
    -27.238  0.0000E+00  0.0000E+00  0.1000E+01  0.1000E+01
    -27.040  0.0000E+00  0.0000E+00  0.1000E+01  0.1000E+01
    -26.842  0.0000E+00  0.0000E+00  0.1000E+01  0.1000E+01
    -26.644  0.0000E+00  0.0000E+00  0.1000E+01  0.1000E+01
    -26.446  0.0000E+00  0.0000E+00  0.1000E+01  0.1000E+01
    -26.248  0.0000E+00  0.0000E+00  0.1000E+01  0.1000E+01
    -26.050  0.0000E+00  0.0000E+00  0.1000E+01  0.1000E+01
    -25.852  0.0000E+00  0.0000E+00  0.1000E+01  0.1000E+01
    -25.653  0.0000E+00  0.0000E+00  0.1000E+01  0.1000E+01
    -25.455  0.0000E+00  0.0000E+00  0.1000E+01  0.1000E+01
    -25.257  0.0000E+00  0.0000E+00  0.1000E+01  0.1000E+01
    -25.059  0.0000E+00  0.0000E+00  0.1000E+01  0.1000E+01
    -24.861  0.0000E+00  0.0000E+00  0.1000E+01  0.1000E+01
    -24.663  0.0000E+00  0.0000E+00  0.1000E+01  0.1000E+01
    -24.465  0.0000E+00  0.0000E+00  0.1000E+01  0.1000E+01
    -24.267  0.0000E+00  0.0000E+00  0.1000E+01  0.1000E+01
    -24.069  0.0000E+00  0.0000E+00  0.1000E+01  0.1000E+01
    -23.871  0.0000E+00  0.0000E+00  0.1000E+01  0.1000E+01
    -23.673  0.0000E+00  0.0000E+00  0.1000E+01  0.1000E+01
    -23.475  0.0000E+00  0.0000E+00  0.1000E+01  0.1000E+01
    -23.277  0.0000E+00  0.0000E+00  0.1000E+01  0.1000E+01
    -23.079  0.0000E+00  0.0000E+00  0.1000E+01  0.1000E+01
    -22.881  0.0000E+00  0.0000E+00  0.1000E+01  0.1000E+01
    -22.683  0.1190E-11  0.1956E-12  0.1000E+01  0.1000E+01
    -22.485  0.5406E-01  0.3301E-01  0.1011E+01  0.1007E+01
    -22.287  0.4747E+01  0.4642E+01  0.1951E+01  0.1926E+01
    -22.089  0.4623E+00  0.4973E+00  0.2042E+01  0.2024E+01
    -21.891  0.4647E+01  0.4636E+01  0.2963E+01  0.2943E+01
    -21.693  0.2857E+01  0.2873E+01  0.3529E+01  0.3512E+01
    -21.494  0.4946E+01  0.4770E+01  0.4508E+01  0.4456E+01
    -21.296  0.2489E+01  0.2649E+01  0.5001E+01  0.4981E+01
    -21.098  0.3886E+01  0.3637E+01  0.5771E+01  0.5701E+01
    -20.900  0.6025E+01  0.6258E+01  0.6964E+01  0.6941E+01
    -20.702  0.1072E+01  0.1119E+01  0.7176E+01  0.7162E+01
    -20.504  0.3481E+01  0.3396E+01  0.7866E+01  0.7835E+01
    -20.306  0.4397E+01  0.4471E+01  0.8736E+01  0.8721E+01
    -20.108  0.5776E+01  0.5765E+01  0.9880E+01  0.9862E+01
    -19.910  0.2276E+01  0.2354E+01  0.1033E+02  0.1033E+02
    -19.712  0.4790E+01  0.4613E+01  0.1128E+02  0.1124E+02
    -19.514  0.3271E+01  0.3294E+01  0.1193E+02  0.1189E+02
    -19.316  0.4747E+01  0.4784E+01  0.1287E+02  0.1284E+02
    -19.118  0.4248E+01  0.4287E+01  0.1371E+02  0.1369E+02
    -18.920  0.3701E+01  0.3777E+01  0.1444E+02  0.1444E+02
    -18.722  0.8632E+00  0.8148E+00  0.1461E+02  0.1460E+02
    -18.524  0.6413E+01  0.6200E+01  0.1588E+02  0.1583E+02
    -18.326  0.6181E+01  0.6322E+01  0.1711E+02  0.1708E+02
    -18.128  0.2185E+01  0.2288E+01  0.1754E+02  0.1753E+02
    -17.930  0.4873E+01  0.4805E+01  0.1850E+02  0.1848E+02
    -17.732  0.3062E+01  0.3162E+01  0.1911E+02  0.1911E+02
    -17.534  0.2560E+01  0.2326E+01  0.1962E+02  0.1957E+02
    -17.335  0.9152E+01  0.9225E+01  0.2143E+02  0.2140E+02
    -17.137  0.3810E+01  0.3798E+01  0.2219E+02  0.2215E+02
    -16.939  0.5112E+01  0.5135E+01  0.2320E+02  0.2317E+02
    -16.741  0.2638E+01  0.2692E+01  0.2372E+02  0.2370E+02
    -16.543  0.1599E+01  0.1646E+01  0.2404E+02  0.2403E+02
    -16.345  0.4365E+01  0.4128E+01  0.2490E+02  0.2484E+02
    -16.147  0.5641E+01  0.5869E+01  0.2602E+02  0.2601E+02
    -15.949  0.4696E+00  0.5280E+00  0.2611E+02  0.2611E+02
    -15.751  0.3434E+01  0.3351E+01  0.2679E+02  0.2677E+02
    -15.553  0.3175E+01  0.3151E+01  0.2742E+02  0.2740E+02
    -15.355  0.3802E+01  0.3742E+01  0.2817E+02  0.2814E+02
    -15.157  0.6502E+01  0.6629E+01  0.2946E+02  0.2945E+02
    -14.959  0.3993E+01  0.3981E+01  0.3025E+02  0.3024E+02
    -14.761  0.5635E+01  0.5569E+01  0.3137E+02  0.3134E+02
    -14.563  0.3203E+01  0.3312E+01  0.3200E+02  0.3200E+02
    -14.365  0.4934E+01  0.4747E+01  0.3298E+02  0.3294E+02
    -14.167  0.2628E+01  0.2620E+01  0.3350E+02  0.3346E+02
    -13.969  0.5736E+01  0.5835E+01  0.3464E+02  0.3461E+02
    -13.771  0.4458E+01  0.4501E+01  0.3552E+02  0.3551E+02
    -13.573  0.1868E+01  0.1929E+01  0.3589E+02  0.3589E+02
    -13.375  0.1639E+01  0.1432E+01  0.3621E+02  0.3617E+02
    -13.177  0.7443E+01  0.7414E+01  0.3769E+02  0.3764E+02
    -12.978  0.5724E+01  0.5846E+01  0.3882E+02  0.3880E+02
    -12.780  0.4492E+01  0.4540E+01  0.3971E+02  0.3970E+02
    -12.582  0.1970E+01  0.1865E+01  0.4010E+02  0.4007E+02
    -12.384  0.3666E+01  0.3710E+01  0.4083E+02  0.4080E+02
    -12.186  0.4910E+01  0.4884E+01  0.4180E+02  0.4177E+02
    -11.988  0.7550E+01  0.7614E+01  0.4329E+02  0.4328E+02
    -11.790  0.1482E+01  0.1525E+01  0.4359E+02  0.4358E+02
    -11.592  0.6327E+01  0.5963E+01  0.4484E+02  0.4476E+02
    -11.394  0.7493E+01  0.7835E+01  0.4632E+02  0.4631E+02
    -11.196  0.4517E+01  0.4522E+01  0.4722E+02  0.4721E+02
    -10.998  0.3342E+01  0.3260E+01  0.4788E+02  0.4785E+02
    -10.800  0.3093E+01  0.3177E+01  0.4849E+02  0.4848E+02
    -10.602  0.8602E+01  0.8260E+01  0.5020E+02  0.5012E+02
    -10.404  0.1008E+02  0.1009E+02  0.5219E+02  0.5212E+02
    -10.206  0.8494E+01  0.8837E+01  0.5388E+02  0.5387E+02
    -10.008  0.7572E+01  0.6957E+01  0.5538E+02  0.5524E+02
     -9.810  0.8591E+01  0.8995E+01  0.5708E+02  0.5703E+02
     -9.612  0.1017E+02  0.1004E+02  0.5909E+02  0.5901E+02
     -9.414  0.1004E+02  0.1013E+02  0.6108E+02  0.6102E+02
     -9.216  0.1311E+02  0.1311E+02  0.6368E+02  0.6362E+02
     -9.018  0.1137E+02  0.1129E+02  0.6593E+02  0.6585E+02
     -8.819  0.1218E+02  0.1211E+02  0.6834E+02  0.6825E+02
     -8.621  0.9419E+01  0.9704E+01  0.7020E+02  0.7017E+02
     -8.423  0.7746E+01  0.7591E+01  0.7174E+02  0.7167E+02
     -8.225  0.9195E+01  0.8881E+01  0.7356E+02  0.7343E+02
     -8.027  0.1163E+02  0.1174E+02  0.7586E+02  0.7576E+02
     -7.829  0.1011E+02  0.1029E+02  0.7787E+02  0.7780E+02
     -7.631  0.2951E+01  0.3139E+01  0.7845E+02  0.7842E+02
     -7.433  0.7865E+01  0.7460E+01  0.8001E+02  0.7989E+02
     -7.235  0.9809E+01  0.9844E+01  0.8195E+02  0.8184E+02
     -7.037  0.9988E+01  0.9933E+01  0.8393E+02  0.8381E+02
     -6.839  0.7031E+01  0.7061E+01  0.8532E+02  0.8521E+02
     -6.641  0.8922E+01  0.9066E+01  0.8709E+02  0.8701E+02
     -6.443  0.3826E+01  0.4077E+01  0.8785E+02  0.8781E+02
     -6.245  0.6047E+01  0.5875E+01  0.8904E+02  0.8898E+02
     -6.047  0.1086E+02  0.1040E+02  0.9119E+02  0.9104E+02
     -5.849  0.5455E+01  0.6111E+01  0.9228E+02  0.9225E+02
     -5.651  0.5169E+01  0.4939E+01  0.9330E+02  0.9322E+02
     -5.453  0.4705E+01  0.4913E+01  0.9423E+02  0.9420E+02
     -5.255  0.2105E+01  0.1843E+01  0.9465E+02  0.9456E+02
     -5.057  0.5444E+01  0.5164E+01  0.9573E+02  0.9558E+02
     -4.859  0.8716E+01  0.8907E+01  0.9745E+02  0.9735E+02
     -4.660  0.4288E+01  0.4640E+01  0.9830E+02  0.9827E+02
     -4.462  0.1489E+01  0.1307E+01  0.9860E+02  0.9853E+02
     -4.264  0.2932E+01  0.3092E+01  0.9918E+02  0.9914E+02
     -4.066  0.8343E+00  0.9889E+00  0.9934E+02  0.9933E+02
     -3.868  0.3736E+01  0.3635E+01  0.1001E+03  0.1001E+03
     -3.670  0.1532E+01  0.1556E+01  0.1004E+03  0.1004E+03
     -3.472  0.1982E+01  0.2096E+01  0.1008E+03  0.1008E+03
     -3.274  0.2937E-04  0.1107E-03  0.1008E+03  0.1008E+03
     -3.076  0.3544E-04  0.2554E-06  0.1008E+03  0.1008E+03
     -2.878  0.1076E+01  0.8037E+00  0.1010E+03  0.1009E+03
     -2.680  0.1707E+01  0.1677E+01  0.1013E+03  0.1013E+03
     -2.482  0.2499E+01  0.1899E+01  0.1018E+03  0.1016E+03
     -2.284  0.1999E+01  0.2698E+01  0.1022E+03  0.1022E+03
     -2.086  0.1187E-01  0.2152E+00  0.1022E+03  0.1022E+03
     -1.888  0.1241E+01  0.6531E+00  0.1025E+03  0.1024E+03
     -1.690  0.4360E+01  0.4697E+01  0.1033E+03  0.1033E+03
     -1.492  0.2861E+01  0.3082E+01  0.1039E+03  0.1039E+03
     -1.294  0.1045E+01  0.8923E+00  0.1041E+03  0.1041E+03
     -1.096  0.9224E+01  0.8731E+01  0.1059E+03  0.1058E+03
     -0.898  0.6334E+01  0.6444E+01  0.1072E+03  0.1071E+03
     -0.700  0.7767E+01  0.8055E+01  0.1087E+03  0.1087E+03
     -0.501  0.5134E+01  0.4956E+01  0.1097E+03  0.1097E+03
     -0.303  0.7463E+00  0.1201E+01  0.1099E+03  0.1099E+03
     -0.105  0.3049E+01  0.2600E+01  0.1105E+03  0.1104E+03
      0.093  0.3442E+01  0.3703E+01  0.1112E+03  0.1111E+03
      0.291  0.6182E+01  0.5817E+01  0.1124E+03  0.1123E+03
      0.489  0.9347E+01  0.9422E+01  0.1142E+03  0.1142E+03
      0.687  0.5328E+01  0.5657E+01  0.1153E+03  0.1153E+03
      0.885  0.5935E+01  0.5655E+01  0.1165E+03  0.1164E+03
      1.083  0.7865E+01  0.7859E+01  0.1180E+03  0.1180E+03
      1.281  0.1126E+02  0.1065E+02  0.1203E+03  0.1201E+03
      1.479  0.1472E+02  0.1423E+02  0.1232E+03  0.1229E+03
      1.677  0.1544E+02  0.1569E+02  0.1262E+03  0.1260E+03
      1.875  0.1944E+02  0.1880E+02  0.1301E+03  0.1297E+03
      2.073  0.8199E+01  0.9520E+01  0.1317E+03  0.1316E+03
      2.271  0.1439E+01  0.2044E+01  0.1320E+03  0.1320E+03
      2.469  0.1023E-03  0.3585E-05  0.1320E+03  0.1320E+03
      2.667  0.0000E+00  0.0000E+00  0.1320E+03  0.1320E+03
      2.865  0.0000E+00  0.0000E+00  0.1320E+03  0.1320E+03
      3.063  0.0000E+00  0.0000E+00  0.1320E+03  0.1320E+03
      3.261  0.0000E+00  0.0000E+00  0.1320E+03  0.1320E+03
      3.459  0.0000E+00  0.0000E+00  0.1320E+03  0.1320E+03
      3.658  0.0000E+00  0.0000E+00  0.1320E+03  0.1320E+03
      3.856  0.0000E+00  0.0000E+00  0.1320E+03  0.1320E+03
      4.054  0.0000E+00  0.0000E+00  0.1320E+03  0.1320E+03
      4.252  0.0000E+00  0.0000E+00  0.1320E+03  0.1320E+03
      4.450  0.0000E+00  0.0000E+00  0.1320E+03  0.1320E+03
      4.648  0.0000E+00  0.0000E+00  0.1320E+03  0.1320E+03
      4.846  0.0000E+00  0.0000E+00  0.1320E+03  0.1320E+03
