       N       E                     dE             d eps       ncg     rms          rms(c)
DAV:   1     0.193593888399E+04    0.19359E+04   -0.67742E+04  3240   0.106E+03
DAV:   2     0.415951420353E+02   -0.18943E+04   -0.17507E+04  4080   0.236E+02
DAV:   3    -0.462281204168E+03   -0.50388E+03   -0.49950E+03  3436   0.128E+02
DAV:   4    -0.489376137213E+03   -0.27095E+02   -0.26768E+02  3408   0.390E+01
DAV:   5    -0.490362126286E+03   -0.98599E+00   -0.97827E+00  3976   0.628E+00    0.330E+01
DAV:   6    -0.465283794988E+03    0.25078E+02   -0.25339E+01  2972   0.127E+01    0.190E+01
DAV:   7    -0.453288365087E+03    0.11995E+02   -0.17467E+01  3016   0.101E+01    0.999E+00
DAV:   8    -0.452700319422E+03    0.58805E+00   -0.43813E+00  3080   0.475E+00    0.391E+00
DAV:   9    -0.453748579481E+03   -0.10483E+01   -0.61146E-01  3452   0.206E+00    0.147E+00
DAV:  10    -0.454108261796E+03   -0.35968E+00   -0.19461E-01  2872   0.108E+00    0.993E-01
DAV:  11    -0.454424123583E+03   -0.31586E+00   -0.50540E-02  3520   0.506E-01    0.841E-01
DAV:  12    -0.455148790619E+03   -0.72467E+00   -0.18630E-01  2852   0.779E-01    0.603E-01
DAV:  13    -0.455224278565E+03   -0.75488E-01   -0.11200E-01  2868   0.617E-01    0.446E-01
DAV:  14    -0.455712181127E+03   -0.48790E+00   -0.61430E-02  2956   0.440E-01    0.302E-01
DAV:  15    -0.456466307262E+03   -0.75413E+00   -0.36335E-02  2924   0.291E-01    0.203E-01
DAV:  16    -0.456860226464E+03   -0.39392E+00   -0.77352E-03  3036   0.173E-01    0.154E-01
DAV:  17    -0.457196952958E+03   -0.33673E+00   -0.62406E-03  2932   0.153E-01    0.103E-01
DAV:  18    -0.457319262541E+03   -0.12231E+00   -0.26286E-03  2912   0.962E-02    0.761E-02
DAV:  19    -0.457360124053E+03   -0.40862E-01   -0.11977E-03  3036   0.673E-02    0.561E-02
DAV:  20    -0.457375386751E+03   -0.15263E-01   -0.69154E-04  3012   0.527E-02    0.391E-02
DAV:  21    -0.457389325447E+03   -0.13939E-01   -0.24071E-04  2996   0.398E-02    0.272E-02
DAV:  22    -0.457420151871E+03   -0.30826E-01   -0.14233E-04  2936   0.346E-02    0.154E-02
DAV:  23    -0.457435140242E+03   -0.14988E-01   -0.58140E-05  2952   0.285E-02    0.944E-03
DAV:  24    -0.457439135365E+03   -0.39951E-02   -0.35106E-05  2384   0.209E-02    0.627E-03
DAV:  25    -0.457441379039E+03   -0.22437E-02   -0.37656E-05  2400   0.188E-02    0.366E-03
DAV:  26    -0.457442197663E+03   -0.81862E-03   -0.13951E-05  2368   0.126E-02    0.242E-03
DAV:  27    -0.457442580112E+03   -0.38245E-03   -0.45067E-06  2336   0.661E-03    0.150E-03
DAV:  28    -0.457442795554E+03   -0.21544E-03   -0.14167E-06  2088   0.352E-03    0.103E-03
DAV:  29    -0.457442912035E+03   -0.11648E-03   -0.70782E-07  1984   0.195E-03    0.667E-04
DAV:  30    -0.457442980419E+03   -0.68384E-04   -0.42477E-07  2000   0.130E-03    0.428E-04
DAV:  31    -0.457443019141E+03   -0.38722E-04   -0.18009E-07  2020   0.893E-04    0.292E-04
DAV:  32    -0.457443038463E+03   -0.19322E-04   -0.73410E-08  1984   0.633E-04    0.191E-04
DAV:  33    -0.457443046440E+03   -0.79768E-05   -0.30248E-08  1968   0.426E-04    0.152E-04
DAV:  34    -0.457443049433E+03   -0.29928E-05    0.96547E-11  1936   0.263E-04    0.134E-04
DAV:  35    -0.457443050741E+03   -0.13082E-05    0.99728E-09  1888   0.166E-04    0.129E-04
DAV:  36    -0.457443051363E+03   -0.62249E-06    0.13374E-08  1832   0.111E-04
   1 F= -.45744305E+03 E0= -.45743934E+03  d E =-.743124E-02  mag=     0.2654
