  50  50   0   0
  0.7861259E+02  0.1230000E-08  0.1230000E-08  0.3000000E-08  0.5000000E-15
  1.000000000000000E-004
  CAR 
 Li defective graphene MACE training lab 
      4.52136618    -52.62615224  301     -2.95571181      1.00000000
    -52.626  0.0000E+00  0.0000E+00  0.0000E+00  0.0000E+00
    -52.436  0.0000E+00  0.0000E+00  0.0000E+00  0.0000E+00
    -52.245  0.0000E+00  0.0000E+00  0.0000E+00  0.0000E+00
    -52.055  0.0000E+00  0.0000E+00  0.0000E+00  0.0000E+00
    -51.864  0.0000E+00  0.0000E+00  0.0000E+00  0.0000E+00
    -51.674  0.0000E+00  0.0000E+00  0.0000E+00  0.0000E+00
    -51.483  0.0000E+00  0.0000E+00  0.0000E+00  0.0000E+00
    -51.293  0.0000E+00  0.0000E+00  0.0000E+00  0.0000E+00
    -51.102  0.0000E+00  0.0000E+00  0.0000E+00  0.0000E+00
    -50.912  0.0000E+00  0.0000E+00  0.0000E+00  0.0000E+00
    -50.721  0.0000E+00  0.0000E+00  0.0000E+00  0.0000E+00
    -50.531  0.0000E+00  0.0000E+00  0.0000E+00  0.0000E+00
    -50.340  0.0000E+00  0.0000E+00  0.0000E+00  0.0000E+00
    -50.150  0.1592E-02  0.7608E-03  0.3032E-03  0.1449E-03
    -49.959  0.5117E+01  0.5045E+01  0.9750E+00  0.9611E+00
    -49.769  0.1315E+00  0.2042E+00  0.1000E+01  0.1000E+01
    -49.578  0.0000E+00  0.0000E+00  0.1000E+01  0.1000E+01
    -49.388  0.0000E+00  0.0000E+00  0.1000E+01  0.1000E+01
    -49.197  0.0000E+00  0.0000E+00  0.1000E+01  0.1000E+01
    -49.007  0.0000E+00  0.0000E+00  0.1000E+01  0.1000E+01
    -48.816  0.0000E+00  0.0000E+00  0.1000E+01  0.1000E+01
    -48.626  0.0000E+00  0.0000E+00  0.1000E+01  0.1000E+01
    -48.435  0.0000E+00  0.0000E+00  0.1000E+01  0.1000E+01
    -48.245  0.0000E+00  0.0000E+00  0.1000E+01  0.1000E+01
    -48.054  0.0000E+00  0.0000E+00  0.1000E+01  0.1000E+01
    -47.864  0.0000E+00  0.0000E+00  0.1000E+01  0.1000E+01
    -47.673  0.0000E+00  0.0000E+00  0.1000E+01  0.1000E+01
    -47.483  0.0000E+00  0.0000E+00  0.1000E+01  0.1000E+01
    -47.292  0.0000E+00  0.0000E+00  0.1000E+01  0.1000E+01
    -47.102  0.0000E+00  0.0000E+00  0.1000E+01  0.1000E+01
    -46.911  0.0000E+00  0.0000E+00  0.1000E+01  0.1000E+01
    -46.721  0.0000E+00  0.0000E+00  0.1000E+01  0.1000E+01
    -46.530  0.0000E+00  0.0000E+00  0.1000E+01  0.1000E+01
    -46.340  0.0000E+00  0.0000E+00  0.1000E+01  0.1000E+01
    -46.149  0.0000E+00  0.0000E+00  0.1000E+01  0.1000E+01
    -45.959  0.0000E+00  0.0000E+00  0.1000E+01  0.1000E+01
    -45.768  0.0000E+00  0.0000E+00  0.1000E+01  0.1000E+01
    -45.578  0.0000E+00  0.0000E+00  0.1000E+01  0.1000E+01
    -45.387  0.0000E+00  0.0000E+00  0.1000E+01  0.1000E+01
    -45.197  0.0000E+00  0.0000E+00  0.1000E+01  0.1000E+01
    -45.006  0.0000E+00  0.0000E+00  0.1000E+01  0.1000E+01
    -44.816  0.0000E+00  0.0000E+00  0.1000E+01  0.1000E+01
    -44.625  0.0000E+00  0.0000E+00  0.1000E+01  0.1000E+01
    -44.435  0.0000E+00  0.0000E+00  0.1000E+01  0.1000E+01
    -44.245  0.0000E+00  0.0000E+00  0.1000E+01  0.1000E+01
    -44.054  0.0000E+00  0.0000E+00  0.1000E+01  0.1000E+01
    -43.864  0.0000E+00  0.0000E+00  0.1000E+01  0.1000E+01
    -43.673  0.0000E+00  0.0000E+00  0.1000E+01  0.1000E+01
    -43.483  0.0000E+00  0.0000E+00  0.1000E+01  0.1000E+01
    -43.292  0.0000E+00  0.0000E+00  0.1000E+01  0.1000E+01
    -43.102  0.0000E+00  0.0000E+00  0.1000E+01  0.1000E+01
    -42.911  0.0000E+00  0.0000E+00  0.1000E+01  0.1000E+01
    -42.721  0.0000E+00  0.0000E+00  0.1000E+01  0.1000E+01
    -42.530  0.0000E+00  0.0000E+00  0.1000E+01  0.1000E+01
    -42.340  0.0000E+00  0.0000E+00  0.1000E+01  0.1000E+01
    -42.149  0.0000E+00  0.0000E+00  0.1000E+01  0.1000E+01
    -41.959  0.0000E+00  0.0000E+00  0.1000E+01  0.1000E+01
    -41.768  0.0000E+00  0.0000E+00  0.1000E+01  0.1000E+01
    -41.578  0.0000E+00  0.0000E+00  0.1000E+01  0.1000E+01
    -41.387  0.0000E+00  0.0000E+00  0.1000E+01  0.1000E+01
    -41.197  0.0000E+00  0.0000E+00  0.1000E+01  0.1000E+01
    -41.006  0.0000E+00  0.0000E+00  0.1000E+01  0.1000E+01
    -40.816  0.0000E+00  0.0000E+00  0.1000E+01  0.1000E+01
    -40.625  0.0000E+00  0.0000E+00  0.1000E+01  0.1000E+01
    -40.435  0.0000E+00  0.0000E+00  0.1000E+01  0.1000E+01
    -40.244  0.0000E+00  0.0000E+00  0.1000E+01  0.1000E+01
    -40.054  0.0000E+00  0.0000E+00  0.1000E+01  0.1000E+01
    -39.863  0.0000E+00  0.0000E+00  0.1000E+01  0.1000E+01
    -39.673  0.0000E+00  0.0000E+00  0.1000E+01  0.1000E+01
    -39.482  0.0000E+00  0.0000E+00  0.1000E+01  0.1000E+01
    -39.292  0.0000E+00  0.0000E+00  0.1000E+01  0.1000E+01
    -39.101  0.0000E+00  0.0000E+00  0.1000E+01  0.1000E+01
    -38.911  0.0000E+00  0.0000E+00  0.1000E+01  0.1000E+01
    -38.720  0.0000E+00  0.0000E+00  0.1000E+01  0.1000E+01
    -38.530  0.0000E+00  0.0000E+00  0.1000E+01  0.1000E+01
    -38.339  0.0000E+00  0.0000E+00  0.1000E+01  0.1000E+01
    -38.149  0.0000E+00  0.0000E+00  0.1000E+01  0.1000E+01
    -37.958  0.0000E+00  0.0000E+00  0.1000E+01  0.1000E+01
    -37.768  0.0000E+00  0.0000E+00  0.1000E+01  0.1000E+01
    -37.577  0.0000E+00  0.0000E+00  0.1000E+01  0.1000E+01
    -37.387  0.0000E+00  0.0000E+00  0.1000E+01  0.1000E+01
    -37.196  0.0000E+00  0.0000E+00  0.1000E+01  0.1000E+01
    -37.006  0.0000E+00  0.0000E+00  0.1000E+01  0.1000E+01
    -36.815  0.0000E+00  0.0000E+00  0.1000E+01  0.1000E+01
    -36.625  0.0000E+00  0.0000E+00  0.1000E+01  0.1000E+01
    -36.434  0.0000E+00  0.0000E+00  0.1000E+01  0.1000E+01
    -36.244  0.0000E+00  0.0000E+00  0.1000E+01  0.1000E+01
    -36.053  0.0000E+00  0.0000E+00  0.1000E+01  0.1000E+01
    -35.863  0.0000E+00  0.0000E+00  0.1000E+01  0.1000E+01
    -35.672  0.0000E+00  0.0000E+00  0.1000E+01  0.1000E+01
    -35.482  0.0000E+00  0.0000E+00  0.1000E+01  0.1000E+01
    -35.291  0.0000E+00  0.0000E+00  0.1000E+01  0.1000E+01
    -35.101  0.0000E+00  0.0000E+00  0.1000E+01  0.1000E+01
    -34.910  0.0000E+00  0.0000E+00  0.1000E+01  0.1000E+01
    -34.720  0.0000E+00  0.0000E+00  0.1000E+01  0.1000E+01
    -34.529  0.0000E+00  0.0000E+00  0.1000E+01  0.1000E+01
    -34.339  0.0000E+00  0.0000E+00  0.1000E+01  0.1000E+01
    -34.148  0.0000E+00  0.0000E+00  0.1000E+01  0.1000E+01
    -33.958  0.0000E+00  0.0000E+00  0.1000E+01  0.1000E+01
    -33.767  0.0000E+00  0.0000E+00  0.1000E+01  0.1000E+01
    -33.577  0.0000E+00  0.0000E+00  0.1000E+01  0.1000E+01
    -33.386  0.0000E+00  0.0000E+00  0.1000E+01  0.1000E+01
    -33.196  0.0000E+00  0.0000E+00  0.1000E+01  0.1000E+01
    -33.006  0.0000E+00  0.0000E+00  0.1000E+01  0.1000E+01
    -32.815  0.0000E+00  0.0000E+00  0.1000E+01  0.1000E+01
    -32.625  0.0000E+00  0.0000E+00  0.1000E+01  0.1000E+01
    -32.434  0.0000E+00  0.0000E+00  0.1000E+01  0.1000E+01
    -32.244  0.0000E+00  0.0000E+00  0.1000E+01  0.1000E+01
    -32.053  0.0000E+00  0.0000E+00  0.1000E+01  0.1000E+01
    -31.863  0.0000E+00  0.0000E+00  0.1000E+01  0.1000E+01
    -31.672  0.0000E+00  0.0000E+00  0.1000E+01  0.1000E+01
    -31.482  0.0000E+00  0.0000E+00  0.1000E+01  0.1000E+01
    -31.291  0.0000E+00  0.0000E+00  0.1000E+01  0.1000E+01
    -31.101  0.0000E+00  0.0000E+00  0.1000E+01  0.1000E+01
    -30.910  0.0000E+00  0.0000E+00  0.1000E+01  0.1000E+01
    -30.720  0.0000E+00  0.0000E+00  0.1000E+01  0.1000E+01
    -30.529  0.0000E+00  0.0000E+00  0.1000E+01  0.1000E+01
    -30.339  0.0000E+00  0.0000E+00  0.1000E+01  0.1000E+01
    -30.148  0.0000E+00  0.0000E+00  0.1000E+01  0.1000E+01
    -29.958  0.0000E+00  0.0000E+00  0.1000E+01  0.1000E+01
    -29.767  0.0000E+00  0.0000E+00  0.1000E+01  0.1000E+01
    -29.577  0.0000E+00  0.0000E+00  0.1000E+01  0.1000E+01
    -29.386  0.0000E+00  0.0000E+00  0.1000E+01  0.1000E+01
    -29.196  0.0000E+00  0.0000E+00  0.1000E+01  0.1000E+01
    -29.005  0.0000E+00  0.0000E+00  0.1000E+01  0.1000E+01
    -28.815  0.0000E+00  0.0000E+00  0.1000E+01  0.1000E+01
    -28.624  0.0000E+00  0.0000E+00  0.1000E+01  0.1000E+01
    -28.434  0.0000E+00  0.0000E+00  0.1000E+01  0.1000E+01
    -28.243  0.0000E+00  0.0000E+00  0.1000E+01  0.1000E+01
    -28.053  0.0000E+00  0.0000E+00  0.1000E+01  0.1000E+01
    -27.862  0.0000E+00  0.0000E+00  0.1000E+01  0.1000E+01
    -27.672  0.0000E+00  0.0000E+00  0.1000E+01  0.1000E+01
    -27.481  0.0000E+00  0.0000E+00  0.1000E+01  0.1000E+01
    -27.291  0.0000E+00  0.0000E+00  0.1000E+01  0.1000E+01
    -27.100  0.0000E+00  0.0000E+00  0.1000E+01  0.1000E+01
    -26.910  0.0000E+00  0.0000E+00  0.1000E+01  0.1000E+01
    -26.719  0.0000E+00  0.0000E+00  0.1000E+01  0.1000E+01
    -26.529  0.0000E+00  0.0000E+00  0.1000E+01  0.1000E+01
    -26.338  0.0000E+00  0.0000E+00  0.1000E+01  0.1000E+01
    -26.148  0.0000E+00  0.0000E+00  0.1000E+01  0.1000E+01
    -25.957  0.0000E+00  0.0000E+00  0.1000E+01  0.1000E+01
    -25.767  0.0000E+00  0.0000E+00  0.1000E+01  0.1000E+01
    -25.576  0.0000E+00  0.0000E+00  0.1000E+01  0.1000E+01
    -25.386  0.0000E+00  0.0000E+00  0.1000E+01  0.1000E+01
    -25.195  0.0000E+00  0.0000E+00  0.1000E+01  0.1000E+01
    -25.005  0.0000E+00  0.0000E+00  0.1000E+01  0.1000E+01
    -24.814  0.0000E+00  0.0000E+00  0.1000E+01  0.1000E+01
    -24.624  0.0000E+00  0.0000E+00  0.1000E+01  0.1000E+01
    -24.433  0.0000E+00  0.0000E+00  0.1000E+01  0.1000E+01
    -24.243  0.0000E+00  0.0000E+00  0.1000E+01  0.1000E+01
    -24.052  0.0000E+00  0.0000E+00  0.1000E+01  0.1000E+01
    -23.862  0.0000E+00  0.0000E+00  0.1000E+01  0.1000E+01
    -23.671  0.0000E+00  0.0000E+00  0.1000E+01  0.1000E+01
    -23.481  0.0000E+00  0.0000E+00  0.1000E+01  0.1000E+01
    -23.290  0.0000E+00  0.0000E+00  0.1000E+01  0.1000E+01
    -23.100  0.0000E+00  0.0000E+00  0.1000E+01  0.1000E+01
    -22.909  0.0000E+00  0.0000E+00  0.1000E+01  0.1000E+01
    -22.719  0.1254E-12  0.5310E-14  0.1000E+01  0.1000E+01
    -22.528  0.1846E-01  0.6693E-02  0.1004E+01  0.1001E+01
    -22.338  0.3473E+01  0.3057E+01  0.1665E+01  0.1584E+01
    -22.147  0.2448E+01  0.2709E+01  0.2131E+01  0.2100E+01
    -21.957  0.4588E+01  0.4287E+01  0.3005E+01  0.2916E+01
    -21.766  0.2022E+01  0.1890E+01  0.3391E+01  0.3276E+01
    -21.576  0.5825E+01  0.5730E+01  0.4500E+01  0.4368E+01
    -21.386  0.2504E+01  0.3122E+01  0.4977E+01  0.4962E+01
    -21.195  0.2507E+01  0.2131E+01  0.5455E+01  0.5368E+01
    -21.005  0.7025E+01  0.6511E+01  0.6793E+01  0.6608E+01
    -20.814  0.1711E+01  0.2643E+01  0.7119E+01  0.7112E+01
    -20.624  0.3441E+01  0.3304E+01  0.7774E+01  0.7741E+01
    -20.433  0.3462E+01  0.3370E+01  0.8434E+01  0.8383E+01
    -20.243  0.7493E+01  0.7227E+01  0.9861E+01  0.9760E+01
    -20.052  0.1894E+01  0.2420E+01  0.1022E+02  0.1022E+02
    -19.862  0.5666E+00  0.1752E+00  0.1033E+02  0.1025E+02
    -19.671  0.5865E+01  0.5632E+01  0.1145E+02  0.1133E+02
    -19.481  0.6291E+01  0.6597E+01  0.1265E+02  0.1258E+02
    -19.290  0.2763E+01  0.2747E+01  0.1317E+02  0.1311E+02
    -19.100  0.4209E+01  0.4036E+01  0.1397E+02  0.1388E+02
    -18.909  0.2535E+01  0.2908E+01  0.1446E+02  0.1443E+02
    -18.719  0.3015E+01  0.2622E+01  0.1503E+02  0.1493E+02
    -18.528  0.6032E+01  0.5764E+01  0.1618E+02  0.1603E+02
    -18.338  0.6407E+01  0.6646E+01  0.1740E+02  0.1729E+02
    -18.147  0.3956E+00  0.8235E+00  0.1748E+02  0.1745E+02
    -17.957  0.5692E+01  0.4987E+01  0.1856E+02  0.1840E+02
    -17.766  0.2895E+01  0.3733E+01  0.1911E+02  0.1911E+02
    -17.576  0.3963E+01  0.2844E+01  0.1987E+02  0.1965E+02
    -17.385  0.8687E+01  0.8702E+01  0.2152E+02  0.2131E+02
    -17.195  0.5251E+01  0.5807E+01  0.2252E+02  0.2242E+02
    -17.004  0.1794E+01  0.1944E+01  0.2286E+02  0.2279E+02
    -16.814  0.3368E+01  0.2744E+01  0.2350E+02  0.2331E+02
    -16.623  0.1728E+01  0.2364E+01  0.2383E+02  0.2376E+02
    -16.433  0.4405E+01  0.4158E+01  0.2467E+02  0.2455E+02
    -16.242  0.1769E+01  0.2351E+01  0.2501E+02  0.2500E+02
    -16.052  0.5048E+01  0.4495E+01  0.2597E+02  0.2586E+02
    -15.861  0.2007E+01  0.2368E+01  0.2635E+02  0.2631E+02
    -15.671  0.2194E+01  0.1566E+01  0.2677E+02  0.2661E+02
    -15.480  0.4774E+01  0.4879E+01  0.2768E+02  0.2754E+02
    -15.290  0.8064E+01  0.8759E+01  0.2922E+02  0.2920E+02
    -15.099  0.5970E+00  0.3079E+00  0.2933E+02  0.2926E+02
    -14.909  0.7803E+01  0.7756E+01  0.3082E+02  0.3074E+02
    -14.718  0.3523E+01  0.3576E+01  0.3149E+02  0.3142E+02
    -14.528  0.5801E+01  0.5467E+01  0.3259E+02  0.3246E+02
    -14.337  0.1760E+01  0.2333E+01  0.3293E+02  0.3291E+02
    -14.147  0.2203E+01  0.2071E+01  0.3335E+02  0.3330E+02
    -13.956  0.6609E+01  0.5828E+01  0.3461E+02  0.3441E+02
    -13.766  0.5868E+01  0.6534E+01  0.3573E+02  0.3566E+02
    -13.575  0.8592E+00  0.1221E+01  0.3589E+02  0.3589E+02
    -13.385  0.1856E+00  0.4315E-01  0.3592E+02  0.3590E+02
    -13.194  0.6695E+01  0.5914E+01  0.3720E+02  0.3702E+02
    -13.004  0.5520E+01  0.6280E+01  0.3825E+02  0.3822E+02
    -12.813  0.5408E+01  0.5197E+01  0.3928E+02  0.3921E+02
    -12.623  0.5686E+01  0.5229E+01  0.4036E+02  0.4021E+02
    -12.432  0.5916E+00  0.1279E+01  0.4048E+02  0.4045E+02
    -12.242  0.8959E+01  0.8764E+01  0.4218E+02  0.4212E+02
    -12.051  0.1080E+01  0.1160E+01  0.4239E+02  0.4234E+02
    -11.861  0.2859E+01  0.2370E+01  0.4293E+02  0.4279E+02
    -11.670  0.8252E+01  0.8540E+01  0.4451E+02  0.4442E+02
    -11.480  0.4366E+01  0.4169E+01  0.4534E+02  0.4521E+02
    -11.289  0.7317E+01  0.7671E+01  0.4673E+02  0.4667E+02
    -11.099  0.3908E+01  0.3771E+01  0.4748E+02  0.4739E+02
    -10.908  0.3320E+01  0.3726E+01  0.4811E+02  0.4810E+02
    -10.718  0.6349E+01  0.4684E+01  0.4932E+02  0.4899E+02
    -10.527  0.5417E+01  0.6324E+01  0.5035E+02  0.5020E+02
    -10.337  0.1190E+02  0.1213E+02  0.5262E+02  0.5251E+02
    -10.146  0.8479E+01  0.8578E+01  0.5423E+02  0.5414E+02
     -9.956  0.1065E+02  0.9637E+01  0.5626E+02  0.5598E+02
     -9.766  0.8331E+01  0.8837E+01  0.5785E+02  0.5766E+02
     -9.575  0.8799E+01  0.8564E+01  0.5952E+02  0.5929E+02
     -9.385  0.1377E+02  0.1432E+02  0.6215E+02  0.6202E+02
     -9.194  0.1127E+02  0.1070E+02  0.6429E+02  0.6406E+02
     -9.004  0.1053E+02  0.1029E+02  0.6630E+02  0.6602E+02
     -8.813  0.1424E+02  0.1460E+02  0.6901E+02  0.6880E+02
     -8.623  0.4361E+01  0.4489E+01  0.6984E+02  0.6966E+02
     -8.432  0.1120E+02  0.1098E+02  0.7198E+02  0.7175E+02
     -8.242  0.6830E+01  0.6981E+01  0.7328E+02  0.7308E+02
     -8.051  0.1375E+02  0.1340E+02  0.7590E+02  0.7563E+02
     -7.861  0.5992E+01  0.6602E+01  0.7704E+02  0.7689E+02
     -7.670  0.4790E+01  0.4817E+01  0.7795E+02  0.7781E+02
     -7.480  0.7537E+01  0.6007E+01  0.7939E+02  0.7895E+02
     -7.289  0.9798E+01  0.1059E+02  0.8125E+02  0.8097E+02
     -7.099  0.9381E+01  0.1004E+02  0.8304E+02  0.8288E+02
     -6.908  0.7420E+01  0.6772E+01  0.8445E+02  0.8417E+02
     -6.718  0.5168E+01  0.5508E+01  0.8544E+02  0.8522E+02
     -6.527  0.6381E+01  0.6893E+01  0.8665E+02  0.8653E+02
     -6.337  0.5888E+01  0.6035E+01  0.8777E+02  0.8768E+02
     -6.146  0.7570E+01  0.6496E+01  0.8922E+02  0.8892E+02
     -5.956  0.6378E+01  0.7582E+01  0.9043E+02  0.9036E+02
     -5.765  0.3954E+01  0.2882E+01  0.9118E+02  0.9091E+02
     -5.575  0.4868E+01  0.6262E+01  0.9211E+02  0.9211E+02
     -5.384  0.3101E+01  0.2392E+01  0.9270E+02  0.9256E+02
     -5.194  0.4920E+01  0.4336E+01  0.9364E+02  0.9339E+02
     -5.003  0.1155E+02  0.1190E+02  0.9584E+02  0.9565E+02
     -4.813  0.2606E+00  0.1230E+01  0.9589E+02  0.9589E+02
     -4.622  0.2444E+01  0.3192E+00  0.9635E+02  0.9595E+02
     -4.432  0.3850E+01  0.4698E+01  0.9709E+02  0.9684E+02
     -4.241  0.1290E+01  0.1999E+01  0.9733E+02  0.9723E+02
     -4.051  0.4968E+01  0.2445E+01  0.9828E+02  0.9769E+02
     -3.860  0.2608E+01  0.1622E+01  0.9878E+02  0.9800E+02
     -3.670  0.1088E+01  0.2878E+01  0.9898E+02  0.9855E+02
     -3.479  0.8882E-01  0.1204E+01  0.9900E+02  0.9878E+02
     -3.289  0.3450E+01  0.2541E-01  0.9966E+02  0.9878E+02
     -3.098  0.6304E+00  0.1141E+01  0.9978E+02  0.9900E+02
     -2.908  0.1157E+01  0.1117E+01  0.1000E+03  0.9921E+02
     -2.717  0.4239E-01  0.4075E+01  0.1000E+03  0.9999E+02
     -2.527  0.1131E+01  0.8089E+00  0.1002E+03  0.1001E+03
     -2.336  0.2561E-03  0.4165E+00  0.1002E+03  0.1002E+03
     -2.146  0.1577E-02  0.9249E-06  0.1002E+03  0.1002E+03
     -1.955  0.2425E+01  0.1584E+01  0.1007E+03  0.1005E+03
     -1.765  0.5370E+01  0.3999E+01  0.1017E+03  0.1013E+03
     -1.574  0.2491E+01  0.4208E+01  0.1022E+03  0.1021E+03
     -1.384  0.5762E+01  0.4134E+01  0.1033E+03  0.1029E+03
     -1.193  0.6016E+01  0.7041E+01  0.1044E+03  0.1042E+03
     -1.003  0.8152E+01  0.8347E+01  0.1060E+03  0.1058E+03
     -0.812  0.7365E+01  0.5404E+01  0.1074E+03  0.1068E+03
     -0.622  0.3339E+01  0.5094E+01  0.1080E+03  0.1078E+03
     -0.431  0.7109E+01  0.7733E+01  0.1094E+03  0.1093E+03
     -0.241  0.9804E+00  0.1452E+01  0.1096E+03  0.1096E+03
     -0.050  0.4603E+01  0.1872E+01  0.1104E+03  0.1099E+03
      0.140  0.6094E+01  0.8226E+01  0.1116E+03  0.1115E+03
      0.331  0.2511E+01  0.2536E+01  0.1121E+03  0.1120E+03
      0.521  0.7963E+01  0.8341E+01  0.1136E+03  0.1136E+03
      0.712  0.4520E+01  0.3950E+01  0.1145E+03  0.1143E+03
      0.902  0.7565E+01  0.8097E+01  0.1159E+03  0.1158E+03
      1.093  0.9686E+01  0.9535E+01  0.1177E+03  0.1177E+03
      1.283  0.8705E+01  0.7758E+01  0.1194E+03  0.1191E+03
      1.473  0.1577E+02  0.1573E+02  0.1224E+03  0.1221E+03
      1.664  0.1506E+02  0.1544E+02  0.1253E+03  0.1251E+03
      1.854  0.1359E+02  0.1405E+02  0.1279E+03  0.1278E+03
      2.045  0.7420E+00  0.1289E+01  0.1280E+03  0.1280E+03
      2.235  0.1119E-03  0.1769E-03  0.1280E+03  0.1280E+03
      2.426  0.0000E+00  0.0000E+00  0.1280E+03  0.1280E+03
      2.616  0.0000E+00  0.0000E+00  0.1280E+03  0.1280E+03
      2.807  0.0000E+00  0.0000E+00  0.1280E+03  0.1280E+03
      2.997  0.0000E+00  0.0000E+00  0.1280E+03  0.1280E+03
      3.188  0.0000E+00  0.0000E+00  0.1280E+03  0.1280E+03
      3.378  0.0000E+00  0.0000E+00  0.1280E+03  0.1280E+03
      3.569  0.0000E+00  0.0000E+00  0.1280E+03  0.1280E+03
      3.759  0.0000E+00  0.0000E+00  0.1280E+03  0.1280E+03
      3.950  0.0000E+00  0.0000E+00  0.1280E+03  0.1280E+03
      4.140  0.0000E+00  0.0000E+00  0.1280E+03  0.1280E+03
      4.331  0.0000E+00  0.0000E+00  0.1280E+03  0.1280E+03
      4.521  0.0000E+00  0.0000E+00  0.1280E+03  0.1280E+03
