       N       E                     dE             d eps       ncg     rms          rms(c)
DAV:   1     0.192344644622E+04    0.19234E+04   -0.65918E+04  3136   0.107E+03
DAV:   2     0.542524199896E+02   -0.18692E+04   -0.17364E+04  3944   0.236E+02
DAV:   3    -0.448460345560E+03   -0.50271E+03   -0.49816E+03  3352   0.130E+02
DAV:   4    -0.476920235030E+03   -0.28460E+02   -0.28039E+02  3280   0.402E+01
DAV:   5    -0.478051144772E+03   -0.11309E+01   -0.11203E+01  4160   0.663E+00    0.326E+01
DAV:   6    -0.454517263850E+03    0.23534E+02   -0.26347E+01  2808   0.126E+01    0.188E+01
DAV:   7    -0.443876281133E+03    0.10641E+02   -0.15605E+01  2880   0.990E+00    0.100E+01
DAV:   8    -0.443212618345E+03    0.66366E+00   -0.51972E+00  2936   0.539E+00    0.388E+00
DAV:   9    -0.443821133559E+03   -0.60852E+00   -0.77458E-01  3472   0.235E+00    0.195E+00
DAV:  10    -0.444224883325E+03   -0.40375E+00   -0.19711E-01  2816   0.113E+00    0.103E+00
DAV:  11    -0.444521290376E+03   -0.29641E+00   -0.84844E-02  2968   0.687E-01    0.767E-01
DAV:  12    -0.444838814465E+03   -0.31752E+00   -0.39380E-02  2808   0.439E-01    0.649E-01
DAV:  13    -0.445401724632E+03   -0.56291E+00   -0.10698E-01  2824   0.590E-01    0.462E-01
DAV:  14    -0.445417135058E+03   -0.15410E-01   -0.83899E-02  2800   0.566E-01    0.328E-01
DAV:  15    -0.445962676627E+03   -0.54554E+00   -0.32224E-02  2944   0.301E-01    0.245E-01
DAV:  16    -0.446460269230E+03   -0.49759E+00   -0.18128E-02  2904   0.230E-01    0.162E-01
DAV:  17    -0.446773230274E+03   -0.31296E+00   -0.57837E-03  2888   0.154E-01    0.122E-01
DAV:  18    -0.446988135793E+03   -0.21491E+00   -0.39184E-03  2832   0.123E-01    0.857E-02
DAV:  19    -0.447096870757E+03   -0.10873E+00   -0.22699E-03  2848   0.828E-02    0.609E-02
DAV:  20    -0.447129156334E+03   -0.32286E-01   -0.91847E-04  2840   0.521E-02    0.434E-02
DAV:  21    -0.447141613714E+03   -0.12457E-01   -0.44710E-04  3040   0.344E-02    0.306E-02
DAV:  22    -0.447160574574E+03   -0.18961E-01   -0.11356E-04  2872   0.220E-02    0.208E-02
DAV:  23    -0.447182827449E+03   -0.22253E-01   -0.41596E-05  2896   0.158E-02    0.127E-02
DAV:  24    -0.447192903120E+03   -0.10076E-01   -0.15584E-05  2568   0.117E-02    0.813E-03
DAV:  25    -0.447196152582E+03   -0.32495E-02   -0.11524E-05  2312   0.920E-03    0.513E-03
DAV:  26    -0.447197610462E+03   -0.14579E-02   -0.22003E-05  2248   0.110E-02    0.340E-03
DAV:  27    -0.447198438984E+03   -0.82852E-03   -0.10229E-05  2240   0.926E-03    0.206E-03
DAV:  28    -0.447198774441E+03   -0.33546E-03   -0.37298E-06  2248   0.546E-03    0.132E-03
DAV:  29    -0.447198948598E+03   -0.17416E-03   -0.12075E-06  1832   0.347E-03    0.894E-04
DAV:  30    -0.447199047095E+03   -0.98497E-04   -0.58160E-07  1944   0.191E-03    0.636E-04
DAV:  31    -0.447199113108E+03   -0.66013E-04   -0.41781E-07  1928   0.141E-03    0.392E-04
DAV:  32    -0.447199144582E+03   -0.31473E-04   -0.20073E-07  1920   0.945E-04    0.254E-04
DAV:  33    -0.447199159332E+03   -0.14750E-04   -0.51822E-08  1952   0.575E-04    0.184E-04
DAV:  34    -0.447199168361E+03   -0.90287E-05   -0.30978E-08  1864   0.394E-04    0.132E-04
DAV:  35    -0.447199171204E+03   -0.28427E-05   -0.33449E-09  1848   0.256E-04    0.114E-04
DAV:  36    -0.447199172436E+03   -0.12319E-05    0.97187E-09  1816   0.155E-04    0.109E-04
DAV:  37    -0.447199172972E+03   -0.53679E-06    0.13898E-08  1744   0.976E-05
   1 F= -.44719917E+03 E0= -.44719740E+03  d E =-.353625E-02  mag=     0.9463
