  50  50   0   0
  0.7861259E+02  0.1230000E-08  0.1230000E-08  0.3000000E-08  0.5000000E-15
  1.000000000000000E-004
  CAR 
 Li defective graphene MACE training lab 
      4.66994242    -53.50727229  301     -2.86798399      1.00000000
    -53.507  0.0000E+00  0.0000E+00  0.0000E+00  0.0000E+00
    -53.313  0.0000E+00  0.0000E+00  0.0000E+00  0.0000E+00
    -53.119  0.0000E+00  0.0000E+00  0.0000E+00  0.0000E+00
    -52.926  0.0000E+00  0.0000E+00  0.0000E+00  0.0000E+00
    -52.732  0.0000E+00  0.0000E+00  0.0000E+00  0.0000E+00
    -52.538  0.0000E+00  0.0000E+00  0.0000E+00  0.0000E+00
    -52.344  0.0000E+00  0.0000E+00  0.0000E+00  0.0000E+00
    -52.150  0.0000E+00  0.0000E+00  0.0000E+00  0.0000E+00
    -51.956  0.0000E+00  0.0000E+00  0.0000E+00  0.0000E+00
    -51.762  0.0000E+00  0.0000E+00  0.0000E+00  0.0000E+00
    -51.568  0.0000E+00  0.0000E+00  0.0000E+00  0.0000E+00
    -51.374  0.0000E+00  0.0000E+00  0.0000E+00  0.0000E+00
    -51.180  0.0000E+00  0.0000E+00  0.0000E+00  0.0000E+00
    -50.986  0.1243E-02  0.8426E-03  0.2411E-03  0.1634E-03
    -50.792  0.5037E+01  0.5005E+01  0.9770E+00  0.9707E+00
    -50.598  0.1188E+00  0.1508E+00  0.1000E+01  0.1000E+01
    -50.404  0.0000E+00  0.0000E+00  0.1000E+01  0.1000E+01
    -50.211  0.0000E+00  0.0000E+00  0.1000E+01  0.1000E+01
    -50.017  0.0000E+00  0.0000E+00  0.1000E+01  0.1000E+01
    -49.823  0.0000E+00  0.0000E+00  0.1000E+01  0.1000E+01
    -49.629  0.0000E+00  0.0000E+00  0.1000E+01  0.1000E+01
    -49.435  0.0000E+00  0.0000E+00  0.1000E+01  0.1000E+01
    -49.241  0.0000E+00  0.0000E+00  0.1000E+01  0.1000E+01
    -49.047  0.0000E+00  0.0000E+00  0.1000E+01  0.1000E+01
    -48.853  0.0000E+00  0.0000E+00  0.1000E+01  0.1000E+01
    -48.659  0.0000E+00  0.0000E+00  0.1000E+01  0.1000E+01
    -48.465  0.0000E+00  0.0000E+00  0.1000E+01  0.1000E+01
    -48.271  0.0000E+00  0.0000E+00  0.1000E+01  0.1000E+01
    -48.077  0.0000E+00  0.0000E+00  0.1000E+01  0.1000E+01
    -47.883  0.0000E+00  0.0000E+00  0.1000E+01  0.1000E+01
    -47.690  0.0000E+00  0.0000E+00  0.1000E+01  0.1000E+01
    -47.496  0.0000E+00  0.0000E+00  0.1000E+01  0.1000E+01
    -47.302  0.0000E+00  0.0000E+00  0.1000E+01  0.1000E+01
    -47.108  0.0000E+00  0.0000E+00  0.1000E+01  0.1000E+01
    -46.914  0.0000E+00  0.0000E+00  0.1000E+01  0.1000E+01
    -46.720  0.0000E+00  0.0000E+00  0.1000E+01  0.1000E+01
    -46.526  0.0000E+00  0.0000E+00  0.1000E+01  0.1000E+01
    -46.332  0.0000E+00  0.0000E+00  0.1000E+01  0.1000E+01
    -46.138  0.0000E+00  0.0000E+00  0.1000E+01  0.1000E+01
    -45.944  0.0000E+00  0.0000E+00  0.1000E+01  0.1000E+01
    -45.750  0.0000E+00  0.0000E+00  0.1000E+01  0.1000E+01
    -45.556  0.0000E+00  0.0000E+00  0.1000E+01  0.1000E+01
    -45.362  0.0000E+00  0.0000E+00  0.1000E+01  0.1000E+01
    -45.169  0.0000E+00  0.0000E+00  0.1000E+01  0.1000E+01
    -44.975  0.0000E+00  0.0000E+00  0.1000E+01  0.1000E+01
    -44.781  0.0000E+00  0.0000E+00  0.1000E+01  0.1000E+01
    -44.587  0.0000E+00  0.0000E+00  0.1000E+01  0.1000E+01
    -44.393  0.0000E+00  0.0000E+00  0.1000E+01  0.1000E+01
    -44.199  0.0000E+00  0.0000E+00  0.1000E+01  0.1000E+01
    -44.005  0.0000E+00  0.0000E+00  0.1000E+01  0.1000E+01
    -43.811  0.0000E+00  0.0000E+00  0.1000E+01  0.1000E+01
    -43.617  0.0000E+00  0.0000E+00  0.1000E+01  0.1000E+01
    -43.423  0.0000E+00  0.0000E+00  0.1000E+01  0.1000E+01
    -43.229  0.0000E+00  0.0000E+00  0.1000E+01  0.1000E+01
    -43.035  0.0000E+00  0.0000E+00  0.1000E+01  0.1000E+01
    -42.841  0.0000E+00  0.0000E+00  0.1000E+01  0.1000E+01
    -42.648  0.0000E+00  0.0000E+00  0.1000E+01  0.1000E+01
    -42.454  0.0000E+00  0.0000E+00  0.1000E+01  0.1000E+01
    -42.260  0.0000E+00  0.0000E+00  0.1000E+01  0.1000E+01
    -42.066  0.0000E+00  0.0000E+00  0.1000E+01  0.1000E+01
    -41.872  0.0000E+00  0.0000E+00  0.1000E+01  0.1000E+01
    -41.678  0.0000E+00  0.0000E+00  0.1000E+01  0.1000E+01
    -41.484  0.0000E+00  0.0000E+00  0.1000E+01  0.1000E+01
    -41.290  0.0000E+00  0.0000E+00  0.1000E+01  0.1000E+01
    -41.096  0.0000E+00  0.0000E+00  0.1000E+01  0.1000E+01
    -40.902  0.0000E+00  0.0000E+00  0.1000E+01  0.1000E+01
    -40.708  0.0000E+00  0.0000E+00  0.1000E+01  0.1000E+01
    -40.514  0.0000E+00  0.0000E+00  0.1000E+01  0.1000E+01
    -40.320  0.0000E+00  0.0000E+00  0.1000E+01  0.1000E+01
    -40.127  0.0000E+00  0.0000E+00  0.1000E+01  0.1000E+01
    -39.933  0.0000E+00  0.0000E+00  0.1000E+01  0.1000E+01
    -39.739  0.0000E+00  0.0000E+00  0.1000E+01  0.1000E+01
    -39.545  0.0000E+00  0.0000E+00  0.1000E+01  0.1000E+01
    -39.351  0.0000E+00  0.0000E+00  0.1000E+01  0.1000E+01
    -39.157  0.0000E+00  0.0000E+00  0.1000E+01  0.1000E+01
    -38.963  0.0000E+00  0.0000E+00  0.1000E+01  0.1000E+01
    -38.769  0.0000E+00  0.0000E+00  0.1000E+01  0.1000E+01
    -38.575  0.0000E+00  0.0000E+00  0.1000E+01  0.1000E+01
    -38.381  0.0000E+00  0.0000E+00  0.1000E+01  0.1000E+01
    -38.187  0.0000E+00  0.0000E+00  0.1000E+01  0.1000E+01
    -37.993  0.0000E+00  0.0000E+00  0.1000E+01  0.1000E+01
    -37.799  0.0000E+00  0.0000E+00  0.1000E+01  0.1000E+01
    -37.606  0.0000E+00  0.0000E+00  0.1000E+01  0.1000E+01
    -37.412  0.0000E+00  0.0000E+00  0.1000E+01  0.1000E+01
    -37.218  0.0000E+00  0.0000E+00  0.1000E+01  0.1000E+01
    -37.024  0.0000E+00  0.0000E+00  0.1000E+01  0.1000E+01
    -36.830  0.0000E+00  0.0000E+00  0.1000E+01  0.1000E+01
    -36.636  0.0000E+00  0.0000E+00  0.1000E+01  0.1000E+01
    -36.442  0.0000E+00  0.0000E+00  0.1000E+01  0.1000E+01
    -36.248  0.0000E+00  0.0000E+00  0.1000E+01  0.1000E+01
    -36.054  0.0000E+00  0.0000E+00  0.1000E+01  0.1000E+01
    -35.860  0.0000E+00  0.0000E+00  0.1000E+01  0.1000E+01
    -35.666  0.0000E+00  0.0000E+00  0.1000E+01  0.1000E+01
    -35.472  0.0000E+00  0.0000E+00  0.1000E+01  0.1000E+01
    -35.278  0.0000E+00  0.0000E+00  0.1000E+01  0.1000E+01
    -35.084  0.0000E+00  0.0000E+00  0.1000E+01  0.1000E+01
    -34.891  0.0000E+00  0.0000E+00  0.1000E+01  0.1000E+01
    -34.697  0.0000E+00  0.0000E+00  0.1000E+01  0.1000E+01
    -34.503  0.0000E+00  0.0000E+00  0.1000E+01  0.1000E+01
    -34.309  0.0000E+00  0.0000E+00  0.1000E+01  0.1000E+01
    -34.115  0.0000E+00  0.0000E+00  0.1000E+01  0.1000E+01
    -33.921  0.0000E+00  0.0000E+00  0.1000E+01  0.1000E+01
    -33.727  0.0000E+00  0.0000E+00  0.1000E+01  0.1000E+01
    -33.533  0.0000E+00  0.0000E+00  0.1000E+01  0.1000E+01
    -33.339  0.0000E+00  0.0000E+00  0.1000E+01  0.1000E+01
    -33.145  0.0000E+00  0.0000E+00  0.1000E+01  0.1000E+01
    -32.951  0.0000E+00  0.0000E+00  0.1000E+01  0.1000E+01
    -32.757  0.0000E+00  0.0000E+00  0.1000E+01  0.1000E+01
    -32.563  0.0000E+00  0.0000E+00  0.1000E+01  0.1000E+01
    -32.370  0.0000E+00  0.0000E+00  0.1000E+01  0.1000E+01
    -32.176  0.0000E+00  0.0000E+00  0.1000E+01  0.1000E+01
    -31.982  0.0000E+00  0.0000E+00  0.1000E+01  0.1000E+01
    -31.788  0.0000E+00  0.0000E+00  0.1000E+01  0.1000E+01
    -31.594  0.0000E+00  0.0000E+00  0.1000E+01  0.1000E+01
    -31.400  0.0000E+00  0.0000E+00  0.1000E+01  0.1000E+01
    -31.206  0.0000E+00  0.0000E+00  0.1000E+01  0.1000E+01
    -31.012  0.0000E+00  0.0000E+00  0.1000E+01  0.1000E+01
    -30.818  0.0000E+00  0.0000E+00  0.1000E+01  0.1000E+01
    -30.624  0.0000E+00  0.0000E+00  0.1000E+01  0.1000E+01
    -30.430  0.0000E+00  0.0000E+00  0.1000E+01  0.1000E+01
    -30.236  0.0000E+00  0.0000E+00  0.1000E+01  0.1000E+01
    -30.042  0.0000E+00  0.0000E+00  0.1000E+01  0.1000E+01
    -29.849  0.0000E+00  0.0000E+00  0.1000E+01  0.1000E+01
    -29.655  0.0000E+00  0.0000E+00  0.1000E+01  0.1000E+01
    -29.461  0.0000E+00  0.0000E+00  0.1000E+01  0.1000E+01
    -29.267  0.0000E+00  0.0000E+00  0.1000E+01  0.1000E+01
    -29.073  0.0000E+00  0.0000E+00  0.1000E+01  0.1000E+01
    -28.879  0.0000E+00  0.0000E+00  0.1000E+01  0.1000E+01
    -28.685  0.0000E+00  0.0000E+00  0.1000E+01  0.1000E+01
    -28.491  0.0000E+00  0.0000E+00  0.1000E+01  0.1000E+01
    -28.297  0.0000E+00  0.0000E+00  0.1000E+01  0.1000E+01
    -28.103  0.0000E+00  0.0000E+00  0.1000E+01  0.1000E+01
    -27.909  0.0000E+00  0.0000E+00  0.1000E+01  0.1000E+01
    -27.715  0.0000E+00  0.0000E+00  0.1000E+01  0.1000E+01
    -27.521  0.0000E+00  0.0000E+00  0.1000E+01  0.1000E+01
    -27.328  0.0000E+00  0.0000E+00  0.1000E+01  0.1000E+01
    -27.134  0.0000E+00  0.0000E+00  0.1000E+01  0.1000E+01
    -26.940  0.0000E+00  0.0000E+00  0.1000E+01  0.1000E+01
    -26.746  0.0000E+00  0.0000E+00  0.1000E+01  0.1000E+01
    -26.552  0.0000E+00  0.0000E+00  0.1000E+01  0.1000E+01
    -26.358  0.0000E+00  0.0000E+00  0.1000E+01  0.1000E+01
    -26.164  0.0000E+00  0.0000E+00  0.1000E+01  0.1000E+01
    -25.970  0.0000E+00  0.0000E+00  0.1000E+01  0.1000E+01
    -25.776  0.0000E+00  0.0000E+00  0.1000E+01  0.1000E+01
    -25.582  0.0000E+00  0.0000E+00  0.1000E+01  0.1000E+01
    -25.388  0.0000E+00  0.0000E+00  0.1000E+01  0.1000E+01
    -25.194  0.0000E+00  0.0000E+00  0.1000E+01  0.1000E+01
    -25.000  0.0000E+00  0.0000E+00  0.1000E+01  0.1000E+01
    -24.807  0.0000E+00  0.0000E+00  0.1000E+01  0.1000E+01
    -24.613  0.0000E+00  0.0000E+00  0.1000E+01  0.1000E+01
    -24.419  0.0000E+00  0.0000E+00  0.1000E+01  0.1000E+01
    -24.225  0.0000E+00  0.0000E+00  0.1000E+01  0.1000E+01
    -24.031  0.0000E+00  0.0000E+00  0.1000E+01  0.1000E+01
    -23.837  0.0000E+00  0.0000E+00  0.1000E+01  0.1000E+01
    -23.643  0.0000E+00  0.0000E+00  0.1000E+01  0.1000E+01
    -23.449  0.0000E+00  0.0000E+00  0.1000E+01  0.1000E+01
    -23.255  0.0000E+00  0.0000E+00  0.1000E+01  0.1000E+01
    -23.061  0.0000E+00  0.0000E+00  0.1000E+01  0.1000E+01
    -22.867  0.0000E+00  0.0000E+00  0.1000E+01  0.1000E+01
    -22.673  0.1408E-10  0.9483E-12  0.1000E+01  0.1000E+01
    -22.479  0.7983E-01  0.4003E-01  0.1015E+01  0.1008E+01
    -22.286  0.3934E+01  0.3775E+01  0.1778E+01  0.1740E+01
    -22.092  0.2337E+01  0.2338E+01  0.2232E+01  0.2193E+01
    -21.898  0.4485E+01  0.4550E+01  0.3101E+01  0.3076E+01
    -21.704  0.3355E+01  0.2775E+01  0.3752E+01  0.3614E+01
    -21.510  0.5002E+01  0.5313E+01  0.4722E+01  0.4644E+01
    -21.316  0.1518E+01  0.1842E+01  0.5016E+01  0.5001E+01
    -21.122  0.3952E+01  0.3530E+01  0.5783E+01  0.5686E+01
    -20.928  0.6689E+01  0.6962E+01  0.7080E+01  0.7036E+01
    -20.734  0.9470E+00  0.6126E+00  0.7264E+01  0.7155E+01
    -20.540  0.3191E+01  0.3522E+01  0.7882E+01  0.7838E+01
    -20.346  0.4785E+01  0.4272E+01  0.8810E+01  0.8666E+01
    -20.152  0.6605E+01  0.7070E+01  0.1009E+02  0.1004E+02
    -19.958  0.6766E+00  0.9539E+00  0.1022E+02  0.1022E+02
    -19.764  0.3190E+01  0.2320E+01  0.1084E+02  0.1067E+02
    -19.571  0.4971E+01  0.5194E+01  0.1180E+02  0.1168E+02
    -19.377  0.6006E+01  0.6519E+01  0.1297E+02  0.1294E+02
    -19.183  0.3736E+01  0.3157E+01  0.1369E+02  0.1356E+02
    -18.989  0.2681E+01  0.2804E+01  0.1421E+02  0.1410E+02
    -18.795  0.2228E+01  0.2558E+01  0.1465E+02  0.1460E+02
    -18.601  0.5061E+01  0.4943E+01  0.1563E+02  0.1555E+02
    -18.407  0.7560E+01  0.7284E+01  0.1709E+02  0.1697E+02
    -18.213  0.1809E+01  0.2461E+01  0.1744E+02  0.1744E+02
    -18.019  0.4197E+01  0.3258E+01  0.1826E+02  0.1808E+02
    -17.825  0.4268E+01  0.4980E+01  0.1909E+02  0.1904E+02
    -17.631  0.9013E+00  0.8839E+00  0.1926E+02  0.1921E+02
    -17.437  0.8067E+01  0.7738E+01  0.2083E+02  0.2071E+02
    -17.243  0.7028E+01  0.6505E+01  0.2219E+02  0.2197E+02
    -17.050  0.2850E+01  0.3619E+01  0.2274E+02  0.2268E+02
    -16.856  0.2293E+01  0.1578E+01  0.2319E+02  0.2298E+02
    -16.662  0.2367E+01  0.3240E+01  0.2364E+02  0.2361E+02
    -16.468  0.4210E+01  0.3699E+01  0.2446E+02  0.2433E+02
    -16.274  0.2779E+01  0.3453E+01  0.2500E+02  0.2500E+02
    -16.080  0.3607E+01  0.2060E+01  0.2570E+02  0.2540E+02
    -15.886  0.2750E+01  0.4062E+01  0.2623E+02  0.2619E+02
    -15.692  0.1396E+01  0.1432E+01  0.2650E+02  0.2646E+02
    -15.498  0.5178E+01  0.5085E+01  0.2751E+02  0.2745E+02
    -15.304  0.8524E+01  0.8383E+01  0.2916E+02  0.2907E+02
    -15.110  0.4252E+00  0.7788E+00  0.2924E+02  0.2923E+02
    -14.916  0.7624E+01  0.7022E+01  0.3072E+02  0.3059E+02
    -14.722  0.3606E+01  0.3779E+01  0.3142E+02  0.3132E+02
    -14.529  0.5466E+01  0.5334E+01  0.3248E+02  0.3235E+02
    -14.335  0.2217E+01  0.2797E+01  0.3291E+02  0.3290E+02
    -14.141  0.2039E+01  0.1939E+01  0.3331E+02  0.3327E+02
    -13.947  0.6128E+01  0.5539E+01  0.3449E+02  0.3435E+02
    -13.753  0.6274E+01  0.6709E+01  0.3571E+02  0.3565E+02
    -13.559  0.9175E+00  0.1238E+01  0.3589E+02  0.3589E+02
    -13.365  0.2051E+00  0.4340E-01  0.3593E+02  0.3590E+02
    -13.171  0.6746E+01  0.5960E+01  0.3724E+02  0.3705E+02
    -12.977  0.5269E+01  0.6020E+01  0.3826E+02  0.3822E+02
    -12.783  0.5447E+01  0.5265E+01  0.3932E+02  0.3924E+02
    -12.589  0.5553E+01  0.5112E+01  0.4039E+02  0.4023E+02
    -12.395  0.7506E+00  0.1180E+01  0.4054E+02  0.4046E+02
    -12.201  0.8630E+01  0.8860E+01  0.4221E+02  0.4218E+02
    -12.008  0.1133E+01  0.1087E+01  0.4243E+02  0.4239E+02
    -11.814  0.4106E+01  0.2939E+01  0.4323E+02  0.4296E+02
    -11.620  0.7401E+01  0.8327E+01  0.4466E+02  0.4457E+02
    -11.426  0.5026E+01  0.4237E+01  0.4564E+02  0.4540E+02
    -11.232  0.5939E+01  0.6978E+01  0.4679E+02  0.4675E+02
    -11.038  0.4293E+01  0.4111E+01  0.4762E+02  0.4755E+02
    -10.844  0.2592E+01  0.2920E+01  0.4812E+02  0.4811E+02
    -10.650  0.8143E+01  0.7157E+01  0.4970E+02  0.4950E+02
    -10.456  0.6248E+01  0.6034E+01  0.5091E+02  0.5067E+02
    -10.262  0.1119E+02  0.1189E+02  0.5308E+02  0.5298E+02
    -10.068  0.7966E+01  0.7678E+01  0.5463E+02  0.5447E+02
     -9.874  0.1086E+02  0.1042E+02  0.5674E+02  0.5649E+02
     -9.680  0.9220E+01  0.9587E+01  0.5852E+02  0.5834E+02
     -9.487  0.1015E+02  0.9577E+01  0.6049E+02  0.6020E+02
     -9.293  0.1149E+02  0.1201E+02  0.6272E+02  0.6253E+02
     -9.099  0.1173E+02  0.1202E+02  0.6500E+02  0.6486E+02
     -8.905  0.1243E+02  0.1110E+02  0.6741E+02  0.6702E+02
     -8.711  0.1026E+02  0.1184E+02  0.6940E+02  0.6931E+02
     -8.517  0.8161E+01  0.6243E+01  0.7098E+02  0.7052E+02
     -8.323  0.7829E+01  0.9487E+01  0.7250E+02  0.7236E+02
     -8.129  0.9647E+01  0.8442E+01  0.7437E+02  0.7400E+02
     -7.935  0.1142E+02  0.1214E+02  0.7658E+02  0.7635E+02
     -7.741  0.4463E+01  0.4271E+01  0.7745E+02  0.7718E+02
     -7.547  0.4785E+01  0.4982E+01  0.7837E+02  0.7815E+02
     -7.353  0.1087E+02  0.1088E+02  0.8048E+02  0.8026E+02
     -7.159  0.9935E+01  0.1014E+02  0.8241E+02  0.8222E+02
     -6.966  0.6887E+01  0.6069E+01  0.8374E+02  0.8340E+02
     -6.772  0.6452E+01  0.7445E+01  0.8500E+02  0.8484E+02
     -6.578  0.5858E+01  0.5516E+01  0.8613E+02  0.8591E+02
     -6.384  0.6170E+01  0.6111E+01  0.8733E+02  0.8710E+02
     -6.190  0.7085E+01  0.7031E+01  0.8870E+02  0.8846E+02
     -5.996  0.8007E+01  0.8765E+01  0.9025E+02  0.9016E+02
     -5.802  0.2415E+01  0.1971E+01  0.9072E+02  0.9054E+02
     -5.608  0.6989E+01  0.7398E+01  0.9208E+02  0.9198E+02
     -5.414  0.1797E+01  0.1380E+01  0.9243E+02  0.9225E+02
     -5.220  0.4382E+01  0.4552E+01  0.9328E+02  0.9313E+02
     -5.026  0.1057E+02  0.9694E+01  0.9533E+02  0.9501E+02
     -4.832  0.2896E+01  0.4532E+01  0.9589E+02  0.9589E+02
     -4.638  0.1502E+01  0.2306E-01  0.9618E+02  0.9589E+02
     -4.444  0.4353E+01  0.3997E+01  0.9702E+02  0.9667E+02
     -4.251  0.1590E+01  0.2300E+01  0.9733E+02  0.9711E+02
     -4.057  0.4126E+01  0.1929E+01  0.9813E+02  0.9749E+02
     -3.863  0.3322E+01  0.2637E+01  0.9878E+02  0.9800E+02
     -3.669  0.1009E+01  0.2778E+00  0.9897E+02  0.9805E+02
     -3.475  0.1559E+00  0.3727E+01  0.9900E+02  0.9878E+02
     -3.281  0.3012E+01  0.5928E-02  0.9959E+02  0.9878E+02
     -3.087  0.9831E+00  0.6344E-01  0.9978E+02  0.9879E+02
     -2.893  0.1113E+01  0.1083E+01  0.9999E+02  0.9900E+02
     -2.699  0.1454E+00  0.1150E+01  0.1000E+03  0.9922E+02
     -2.505  0.1033E+01  0.3586E+01  0.1002E+03  0.9992E+02
     -2.311  0.1573E-04  0.1566E+01  0.1002E+03  0.1002E+03
     -2.117  0.3462E-01  0.9029E-03  0.1002E+03  0.1002E+03
     -1.923  0.2549E+01  0.2016E+01  0.1007E+03  0.1006E+03
     -1.730  0.5158E+01  0.4266E+01  0.1017E+03  0.1014E+03
     -1.536  0.2471E+01  0.3276E+01  0.1022E+03  0.1021E+03
     -1.342  0.5154E+01  0.2099E+01  0.1032E+03  0.1025E+03
     -1.148  0.7192E+01  0.9261E+01  0.1046E+03  0.1043E+03
     -0.954  0.8089E+01  0.8758E+01  0.1062E+03  0.1060E+03
     -0.760  0.7277E+01  0.6443E+01  0.1076E+03  0.1072E+03
     -0.566  0.7018E+01  0.7807E+01  0.1089E+03  0.1087E+03
     -0.372  0.3183E+01  0.4161E+01  0.1096E+03  0.1095E+03
     -0.178  0.4746E+00  0.1582E+00  0.1096E+03  0.1096E+03
      0.016  0.6044E+01  0.4790E+01  0.1108E+03  0.1105E+03
      0.210  0.4518E+01  0.5744E+01  0.1117E+03  0.1116E+03
      0.404  0.5629E+01  0.5042E+01  0.1128E+03  0.1126E+03
      0.598  0.6578E+01  0.6537E+01  0.1141E+03  0.1139E+03
      0.791  0.5989E+01  0.6124E+01  0.1152E+03  0.1151E+03
      0.985  0.8310E+01  0.8354E+01  0.1168E+03  0.1167E+03
      1.179  0.9610E+01  0.9709E+01  0.1187E+03  0.1186E+03
      1.373  0.1138E+02  0.1084E+02  0.1209E+03  0.1207E+03
      1.567  0.1612E+02  0.1551E+02  0.1240E+03  0.1237E+03
      1.761  0.1517E+02  0.1573E+02  0.1270E+03  0.1267E+03
      1.955  0.4738E+01  0.6467E+01  0.1279E+03  0.1280E+03
      2.149  0.5598E+00  0.1479E+00  0.1280E+03  0.1280E+03
      2.343  0.1381E-03  0.0000E+00  0.1280E+03  0.1280E+03
      2.537  0.0000E+00  0.0000E+00  0.1280E+03  0.1280E+03
      2.731  0.0000E+00  0.0000E+00  0.1280E+03  0.1280E+03
      2.925  0.0000E+00  0.0000E+00  0.1280E+03  0.1280E+03
      3.119  0.0000E+00  0.0000E+00  0.1280E+03  0.1280E+03
      3.312  0.0000E+00  0.0000E+00  0.1280E+03  0.1280E+03
      3.506  0.0000E+00  0.0000E+00  0.1280E+03  0.1280E+03
      3.700  0.0000E+00  0.0000E+00  0.1280E+03  0.1280E+03
      3.894  0.0000E+00  0.0000E+00  0.1280E+03  0.1280E+03
      4.088  0.0000E+00  0.0000E+00  0.1280E+03  0.1280E+03
      4.282  0.0000E+00  0.0000E+00  0.1280E+03  0.1280E+03
      4.476  0.0000E+00  0.0000E+00  0.1280E+03  0.1280E+03
      4.670  0.0000E+00  0.0000E+00  0.1280E+03  0.1280E+03
