       N       E                     dE             d eps       ncg     rms          rms(c)
DAV:   1     0.192319003837E+04    0.19232E+04   -0.65935E+04  3136   0.107E+03
DAV:   2     0.549380519574E+02   -0.18683E+04   -0.17342E+04  3928   0.236E+02
DAV:   3    -0.447645123047E+03   -0.50258E+03   -0.49845E+03  3336   0.130E+02
DAV:   4    -0.476101729767E+03   -0.28457E+02   -0.28004E+02  3328   0.403E+01
DAV:   5    -0.477308028721E+03   -0.12063E+01   -0.11912E+01  4032   0.687E+00    0.326E+01
DAV:   6    -0.453827946140E+03    0.23480E+02   -0.27573E+01  2856   0.126E+01    0.189E+01
DAV:   7    -0.443273769606E+03    0.10554E+02   -0.17065E+01  2880   0.104E+01    0.102E+01
DAV:   8    -0.442429696468E+03    0.84407E+00   -0.60577E+00  2936   0.589E+00    0.406E+00
DAV:   9    -0.443034242618E+03   -0.60455E+00   -0.10013E+00  3448   0.291E+00    0.210E+00
DAV:  10    -0.443437164367E+03   -0.40292E+00   -0.30016E-01  2776   0.140E+00    0.117E+00
DAV:  11    -0.443736709624E+03   -0.29955E+00   -0.96322E-02  2968   0.819E-01    0.803E-01
DAV:  12    -0.444035115888E+03   -0.29841E+00   -0.54088E-02  2784   0.523E-01    0.653E-01
DAV:  13    -0.444538203866E+03   -0.50309E+00   -0.73372E-02  2832   0.500E-01    0.498E-01
DAV:  14    -0.444677656102E+03   -0.13945E+00   -0.95276E-02  2808   0.562E-01    0.342E-01
DAV:  15    -0.445155645944E+03   -0.47799E+00   -0.39608E-02  2912   0.359E-01    0.237E-01
DAV:  16    -0.445614817253E+03   -0.45917E+00   -0.16640E-02  2912   0.214E-01    0.167E-01
DAV:  17    -0.445969182137E+03   -0.35436E+00   -0.72162E-03  2952   0.160E-01    0.119E-01
DAV:  18    -0.446204922410E+03   -0.23574E+00   -0.43320E-03  2864   0.124E-01    0.848E-02
DAV:  19    -0.446307632870E+03   -0.10271E+00   -0.18749E-03  2888   0.788E-02    0.617E-02
DAV:  20    -0.446344712218E+03   -0.37079E-01   -0.96594E-04  2840   0.523E-02    0.438E-02
DAV:  21    -0.446357159793E+03   -0.12448E-01   -0.49739E-04  2992   0.351E-02    0.309E-02
DAV:  22    -0.446372475468E+03   -0.15316E-01   -0.13769E-04  2920   0.230E-02    0.216E-02
DAV:  23    -0.446396424746E+03   -0.23949E-01   -0.57908E-05  2864   0.171E-02    0.127E-02
DAV:  24    -0.446407277804E+03   -0.10853E-01   -0.20282E-05  2672   0.133E-02    0.786E-03
DAV:  25    -0.446410121362E+03   -0.28436E-02   -0.10657E-05  2368   0.104E-02    0.528E-03
DAV:  26    -0.446411797219E+03   -0.16759E-02   -0.22132E-05  2264   0.111E-02    0.321E-03
DAV:  27    -0.446412527729E+03   -0.73051E-03   -0.94627E-06  2344   0.931E-03    0.203E-03
DAV:  28    -0.446412863731E+03   -0.33600E-03   -0.38945E-06  2328   0.600E-03    0.128E-03
DAV:  29    -0.446413031362E+03   -0.16763E-03   -0.12755E-06  1944   0.375E-03    0.868E-04
DAV:  30    -0.446413122732E+03   -0.91370E-04   -0.62507E-07  1952   0.228E-03    0.599E-04
DAV:  31    -0.446413186017E+03   -0.63284E-04   -0.46926E-07  1992   0.155E-03    0.376E-04
DAV:  32    -0.446413215049E+03   -0.29032E-04   -0.18454E-07  2000   0.976E-04    0.252E-04
DAV:  33    -0.446413230666E+03   -0.15617E-04   -0.71935E-08  1936   0.655E-04    0.178E-04
DAV:  34    -0.446413238498E+03   -0.78325E-05   -0.30349E-08  1944   0.413E-04    0.138E-04
DAV:  35    -0.446413241524E+03   -0.30256E-05   -0.37440E-09  1920   0.262E-04    0.119E-04
DAV:  36    -0.446413242880E+03   -0.13567E-05    0.81722E-09  1840   0.163E-04    0.114E-04
DAV:  37    -0.446413243334E+03   -0.45379E-06    0.13729E-08  1808   0.967E-05
   1 F= -.44641324E+03 E0= -.44641314E+03  d E =-.207143E-03  mag=     0.9980
