  49  49   0   0
  0.8021693E+02  0.1230000E-08  0.1230000E-08  0.3000000E-08  0.5000000E-15
  1.000000000000000E-004
  CAR 
 Li defective graphene MACE training lab 
      4.81416468    -54.08930915  301     -3.09689250      1.00000000
    -54.089  0.0000E+00  0.0000E+00  0.0000E+00  0.0000E+00
    -53.893  0.0000E+00  0.0000E+00  0.0000E+00  0.0000E+00
    -53.697  0.0000E+00  0.0000E+00  0.0000E+00  0.0000E+00
    -53.500  0.0000E+00  0.0000E+00  0.0000E+00  0.0000E+00
    -53.304  0.0000E+00  0.0000E+00  0.0000E+00  0.0000E+00
    -53.108  0.0000E+00  0.0000E+00  0.0000E+00  0.0000E+00
    -52.911  0.0000E+00  0.0000E+00  0.0000E+00  0.0000E+00
    -52.715  0.0000E+00  0.0000E+00  0.0000E+00  0.0000E+00
    -52.519  0.0000E+00  0.0000E+00  0.0000E+00  0.0000E+00
    -52.322  0.0000E+00  0.0000E+00  0.0000E+00  0.0000E+00
    -52.126  0.0000E+00  0.0000E+00  0.0000E+00  0.0000E+00
    -51.930  0.0000E+00  0.0000E+00  0.0000E+00  0.0000E+00
    -51.733  0.0000E+00  0.0000E+00  0.0000E+00  0.0000E+00
    -51.537  0.1042E-02  0.1042E-02  0.2046E-03  0.2046E-03
    -51.340  0.4981E+01  0.4981E+01  0.9783E+00  0.9783E+00
    -51.144  0.1106E+00  0.1106E+00  0.1000E+01  0.1000E+01
    -50.948  0.0000E+00  0.0000E+00  0.1000E+01  0.1000E+01
    -50.751  0.0000E+00  0.0000E+00  0.1000E+01  0.1000E+01
    -50.555  0.0000E+00  0.0000E+00  0.1000E+01  0.1000E+01
    -50.359  0.0000E+00  0.0000E+00  0.1000E+01  0.1000E+01
    -50.162  0.0000E+00  0.0000E+00  0.1000E+01  0.1000E+01
    -49.966  0.0000E+00  0.0000E+00  0.1000E+01  0.1000E+01
    -49.770  0.0000E+00  0.0000E+00  0.1000E+01  0.1000E+01
    -49.573  0.0000E+00  0.0000E+00  0.1000E+01  0.1000E+01
    -49.377  0.0000E+00  0.0000E+00  0.1000E+01  0.1000E+01
    -49.181  0.0000E+00  0.0000E+00  0.1000E+01  0.1000E+01
    -48.984  0.0000E+00  0.0000E+00  0.1000E+01  0.1000E+01
    -48.788  0.0000E+00  0.0000E+00  0.1000E+01  0.1000E+01
    -48.592  0.0000E+00  0.0000E+00  0.1000E+01  0.1000E+01
    -48.395  0.0000E+00  0.0000E+00  0.1000E+01  0.1000E+01
    -48.199  0.0000E+00  0.0000E+00  0.1000E+01  0.1000E+01
    -48.003  0.0000E+00  0.0000E+00  0.1000E+01  0.1000E+01
    -47.806  0.0000E+00  0.0000E+00  0.1000E+01  0.1000E+01
    -47.610  0.0000E+00  0.0000E+00  0.1000E+01  0.1000E+01
    -47.414  0.0000E+00  0.0000E+00  0.1000E+01  0.1000E+01
    -47.217  0.0000E+00  0.0000E+00  0.1000E+01  0.1000E+01
    -47.021  0.0000E+00  0.0000E+00  0.1000E+01  0.1000E+01
    -46.825  0.0000E+00  0.0000E+00  0.1000E+01  0.1000E+01
    -46.628  0.0000E+00  0.0000E+00  0.1000E+01  0.1000E+01
    -46.432  0.0000E+00  0.0000E+00  0.1000E+01  0.1000E+01
    -46.236  0.0000E+00  0.0000E+00  0.1000E+01  0.1000E+01
    -46.039  0.0000E+00  0.0000E+00  0.1000E+01  0.1000E+01
    -45.843  0.0000E+00  0.0000E+00  0.1000E+01  0.1000E+01
    -45.646  0.0000E+00  0.0000E+00  0.1000E+01  0.1000E+01
    -45.450  0.0000E+00  0.0000E+00  0.1000E+01  0.1000E+01
    -45.254  0.0000E+00  0.0000E+00  0.1000E+01  0.1000E+01
    -45.057  0.0000E+00  0.0000E+00  0.1000E+01  0.1000E+01
    -44.861  0.0000E+00  0.0000E+00  0.1000E+01  0.1000E+01
    -44.665  0.0000E+00  0.0000E+00  0.1000E+01  0.1000E+01
    -44.468  0.0000E+00  0.0000E+00  0.1000E+01  0.1000E+01
    -44.272  0.0000E+00  0.0000E+00  0.1000E+01  0.1000E+01
    -44.076  0.0000E+00  0.0000E+00  0.1000E+01  0.1000E+01
    -43.879  0.0000E+00  0.0000E+00  0.1000E+01  0.1000E+01
    -43.683  0.0000E+00  0.0000E+00  0.1000E+01  0.1000E+01
    -43.487  0.0000E+00  0.0000E+00  0.1000E+01  0.1000E+01
    -43.290  0.0000E+00  0.0000E+00  0.1000E+01  0.1000E+01
    -43.094  0.0000E+00  0.0000E+00  0.1000E+01  0.1000E+01
    -42.898  0.0000E+00  0.0000E+00  0.1000E+01  0.1000E+01
    -42.701  0.0000E+00  0.0000E+00  0.1000E+01  0.1000E+01
    -42.505  0.0000E+00  0.0000E+00  0.1000E+01  0.1000E+01
    -42.309  0.0000E+00  0.0000E+00  0.1000E+01  0.1000E+01
    -42.112  0.0000E+00  0.0000E+00  0.1000E+01  0.1000E+01
    -41.916  0.0000E+00  0.0000E+00  0.1000E+01  0.1000E+01
    -41.720  0.0000E+00  0.0000E+00  0.1000E+01  0.1000E+01
    -41.523  0.0000E+00  0.0000E+00  0.1000E+01  0.1000E+01
    -41.327  0.0000E+00  0.0000E+00  0.1000E+01  0.1000E+01
    -41.131  0.0000E+00  0.0000E+00  0.1000E+01  0.1000E+01
    -40.934  0.0000E+00  0.0000E+00  0.1000E+01  0.1000E+01
    -40.738  0.0000E+00  0.0000E+00  0.1000E+01  0.1000E+01
    -40.542  0.0000E+00  0.0000E+00  0.1000E+01  0.1000E+01
    -40.345  0.0000E+00  0.0000E+00  0.1000E+01  0.1000E+01
    -40.149  0.0000E+00  0.0000E+00  0.1000E+01  0.1000E+01
    -39.952  0.0000E+00  0.0000E+00  0.1000E+01  0.1000E+01
    -39.756  0.0000E+00  0.0000E+00  0.1000E+01  0.1000E+01
    -39.560  0.0000E+00  0.0000E+00  0.1000E+01  0.1000E+01
    -39.363  0.0000E+00  0.0000E+00  0.1000E+01  0.1000E+01
    -39.167  0.0000E+00  0.0000E+00  0.1000E+01  0.1000E+01
    -38.971  0.0000E+00  0.0000E+00  0.1000E+01  0.1000E+01
    -38.774  0.0000E+00  0.0000E+00  0.1000E+01  0.1000E+01
    -38.578  0.0000E+00  0.0000E+00  0.1000E+01  0.1000E+01
    -38.382  0.0000E+00  0.0000E+00  0.1000E+01  0.1000E+01
    -38.185  0.0000E+00  0.0000E+00  0.1000E+01  0.1000E+01
    -37.989  0.0000E+00  0.0000E+00  0.1000E+01  0.1000E+01
    -37.793  0.0000E+00  0.0000E+00  0.1000E+01  0.1000E+01
    -37.596  0.0000E+00  0.0000E+00  0.1000E+01  0.1000E+01
    -37.400  0.0000E+00  0.0000E+00  0.1000E+01  0.1000E+01
    -37.204  0.0000E+00  0.0000E+00  0.1000E+01  0.1000E+01
    -37.007  0.0000E+00  0.0000E+00  0.1000E+01  0.1000E+01
    -36.811  0.0000E+00  0.0000E+00  0.1000E+01  0.1000E+01
    -36.615  0.0000E+00  0.0000E+00  0.1000E+01  0.1000E+01
    -36.418  0.0000E+00  0.0000E+00  0.1000E+01  0.1000E+01
    -36.222  0.0000E+00  0.0000E+00  0.1000E+01  0.1000E+01
    -36.026  0.0000E+00  0.0000E+00  0.1000E+01  0.1000E+01
    -35.829  0.0000E+00  0.0000E+00  0.1000E+01  0.1000E+01
    -35.633  0.0000E+00  0.0000E+00  0.1000E+01  0.1000E+01
    -35.437  0.0000E+00  0.0000E+00  0.1000E+01  0.1000E+01
    -35.240  0.0000E+00  0.0000E+00  0.1000E+01  0.1000E+01
    -35.044  0.0000E+00  0.0000E+00  0.1000E+01  0.1000E+01
    -34.848  0.0000E+00  0.0000E+00  0.1000E+01  0.1000E+01
    -34.651  0.0000E+00  0.0000E+00  0.1000E+01  0.1000E+01
    -34.455  0.0000E+00  0.0000E+00  0.1000E+01  0.1000E+01
    -34.258  0.0000E+00  0.0000E+00  0.1000E+01  0.1000E+01
    -34.062  0.0000E+00  0.0000E+00  0.1000E+01  0.1000E+01
    -33.866  0.0000E+00  0.0000E+00  0.1000E+01  0.1000E+01
    -33.669  0.0000E+00  0.0000E+00  0.1000E+01  0.1000E+01
    -33.473  0.0000E+00  0.0000E+00  0.1000E+01  0.1000E+01
    -33.277  0.0000E+00  0.0000E+00  0.1000E+01  0.1000E+01
    -33.080  0.0000E+00  0.0000E+00  0.1000E+01  0.1000E+01
    -32.884  0.0000E+00  0.0000E+00  0.1000E+01  0.1000E+01
    -32.688  0.0000E+00  0.0000E+00  0.1000E+01  0.1000E+01
    -32.491  0.0000E+00  0.0000E+00  0.1000E+01  0.1000E+01
    -32.295  0.0000E+00  0.0000E+00  0.1000E+01  0.1000E+01
    -32.099  0.0000E+00  0.0000E+00  0.1000E+01  0.1000E+01
    -31.902  0.0000E+00  0.0000E+00  0.1000E+01  0.1000E+01
    -31.706  0.0000E+00  0.0000E+00  0.1000E+01  0.1000E+01
    -31.510  0.0000E+00  0.0000E+00  0.1000E+01  0.1000E+01
    -31.313  0.0000E+00  0.0000E+00  0.1000E+01  0.1000E+01
    -31.117  0.0000E+00  0.0000E+00  0.1000E+01  0.1000E+01
    -30.921  0.0000E+00  0.0000E+00  0.1000E+01  0.1000E+01
    -30.724  0.0000E+00  0.0000E+00  0.1000E+01  0.1000E+01
    -30.528  0.0000E+00  0.0000E+00  0.1000E+01  0.1000E+01
    -30.332  0.0000E+00  0.0000E+00  0.1000E+01  0.1000E+01
    -30.135  0.0000E+00  0.0000E+00  0.1000E+01  0.1000E+01
    -29.939  0.0000E+00  0.0000E+00  0.1000E+01  0.1000E+01
    -29.743  0.0000E+00  0.0000E+00  0.1000E+01  0.1000E+01
    -29.546  0.0000E+00  0.0000E+00  0.1000E+01  0.1000E+01
    -29.350  0.0000E+00  0.0000E+00  0.1000E+01  0.1000E+01
    -29.154  0.0000E+00  0.0000E+00  0.1000E+01  0.1000E+01
    -28.957  0.0000E+00  0.0000E+00  0.1000E+01  0.1000E+01
    -28.761  0.0000E+00  0.0000E+00  0.1000E+01  0.1000E+01
    -28.564  0.0000E+00  0.0000E+00  0.1000E+01  0.1000E+01
    -28.368  0.0000E+00  0.0000E+00  0.1000E+01  0.1000E+01
    -28.172  0.0000E+00  0.0000E+00  0.1000E+01  0.1000E+01
    -27.975  0.0000E+00  0.0000E+00  0.1000E+01  0.1000E+01
    -27.779  0.0000E+00  0.0000E+00  0.1000E+01  0.1000E+01
    -27.583  0.0000E+00  0.0000E+00  0.1000E+01  0.1000E+01
    -27.386  0.0000E+00  0.0000E+00  0.1000E+01  0.1000E+01
    -27.190  0.0000E+00  0.0000E+00  0.1000E+01  0.1000E+01
    -26.994  0.0000E+00  0.0000E+00  0.1000E+01  0.1000E+01
    -26.797  0.0000E+00  0.0000E+00  0.1000E+01  0.1000E+01
    -26.601  0.0000E+00  0.0000E+00  0.1000E+01  0.1000E+01
    -26.405  0.0000E+00  0.0000E+00  0.1000E+01  0.1000E+01
    -26.208  0.0000E+00  0.0000E+00  0.1000E+01  0.1000E+01
    -26.012  0.0000E+00  0.0000E+00  0.1000E+01  0.1000E+01
    -25.816  0.0000E+00  0.0000E+00  0.1000E+01  0.1000E+01
    -25.619  0.0000E+00  0.0000E+00  0.1000E+01  0.1000E+01
    -25.423  0.0000E+00  0.0000E+00  0.1000E+01  0.1000E+01
    -25.227  0.0000E+00  0.0000E+00  0.1000E+01  0.1000E+01
    -25.030  0.0000E+00  0.0000E+00  0.1000E+01  0.1000E+01
    -24.834  0.0000E+00  0.0000E+00  0.1000E+01  0.1000E+01
    -24.638  0.0000E+00  0.0000E+00  0.1000E+01  0.1000E+01
    -24.441  0.0000E+00  0.0000E+00  0.1000E+01  0.1000E+01
    -24.245  0.0000E+00  0.0000E+00  0.1000E+01  0.1000E+01
    -24.049  0.0000E+00  0.0000E+00  0.1000E+01  0.1000E+01
    -23.852  0.0000E+00  0.0000E+00  0.1000E+01  0.1000E+01
    -23.656  0.0000E+00  0.0000E+00  0.1000E+01  0.1000E+01
    -23.460  0.0000E+00  0.0000E+00  0.1000E+01  0.1000E+01
    -23.263  0.0000E+00  0.0000E+00  0.1000E+01  0.1000E+01
    -23.067  0.0000E+00  0.0000E+00  0.1000E+01  0.1000E+01
    -22.870  0.0000E+00  0.0000E+00  0.1000E+01  0.1000E+01
    -22.674  0.0000E+00  0.0000E+00  0.1000E+01  0.1000E+01
    -22.478  0.1715E-05  0.1715E-05  0.1000E+01  0.1000E+01
    -22.281  0.8992E+00  0.8992E+00  0.1177E+01  0.1177E+01
    -22.085  0.4180E+01  0.4180E+01  0.1997E+01  0.1997E+01
    -21.889  0.3289E+01  0.3289E+01  0.2643E+01  0.2643E+01
    -21.692  0.2392E+01  0.2392E+01  0.3113E+01  0.3113E+01
    -21.496  0.5047E+01  0.5047E+01  0.4104E+01  0.4104E+01
    -21.300  0.3580E+01  0.3580E+01  0.4807E+01  0.4807E+01
    -21.103  0.1897E+01  0.1897E+01  0.5179E+01  0.5179E+01
    -20.907  0.4203E+01  0.4203E+01  0.6005E+01  0.6005E+01
    -20.711  0.5524E+01  0.5524E+01  0.7089E+01  0.7089E+01
    -20.514  0.2270E+01  0.2270E+01  0.7535E+01  0.7535E+01
    -20.318  0.3534E+01  0.3534E+01  0.8229E+01  0.8229E+01
    -20.122  0.4138E+01  0.4138E+01  0.9041E+01  0.9041E+01
    -19.925  0.5346E+01  0.5346E+01  0.1009E+02  0.1009E+02
    -19.729  0.7094E+00  0.7094E+00  0.1023E+02  0.1023E+02
    -19.533  0.4150E+01  0.4150E+01  0.1104E+02  0.1104E+02
    -19.336  0.6754E+01  0.6754E+01  0.1237E+02  0.1237E+02
    -19.140  0.3466E+01  0.3466E+01  0.1305E+02  0.1305E+02
    -18.944  0.4519E+01  0.4519E+01  0.1394E+02  0.1394E+02
    -18.747  0.1909E+01  0.1909E+01  0.1431E+02  0.1431E+02
    -18.551  0.3313E+01  0.3313E+01  0.1496E+02  0.1496E+02
    -18.355  0.5638E+01  0.5638E+01  0.1607E+02  0.1607E+02
    -18.158  0.5853E+01  0.5853E+01  0.1722E+02  0.1722E+02
    -17.962  0.8182E+00  0.8182E+00  0.1738E+02  0.1738E+02
    -17.766  0.4725E+01  0.4725E+01  0.1831E+02  0.1831E+02
    -17.569  0.4973E+01  0.4973E+01  0.1929E+02  0.1929E+02
    -17.373  0.4806E+01  0.4806E+01  0.2023E+02  0.2023E+02
    -17.176  0.4735E+01  0.4735E+01  0.2116E+02  0.2116E+02
    -16.980  0.4379E+01  0.4379E+01  0.2202E+02  0.2202E+02
    -16.784  0.3303E+01  0.3303E+01  0.2267E+02  0.2267E+02
    -16.587  0.1731E+01  0.1731E+01  0.2301E+02  0.2301E+02
    -16.391  0.4562E+01  0.4562E+01  0.2390E+02  0.2390E+02
    -16.195  0.2468E+01  0.2468E+01  0.2439E+02  0.2439E+02
    -15.998  0.3141E+01  0.3141E+01  0.2500E+02  0.2500E+02
    -15.802  0.3742E+01  0.3742E+01  0.2574E+02  0.2574E+02
    -15.606  0.2681E+01  0.2681E+01  0.2626E+02  0.2626E+02
    -15.409  0.3599E+01  0.3599E+01  0.2697E+02  0.2697E+02
    -15.213  0.5435E+01  0.5435E+01  0.2804E+02  0.2804E+02
    -15.017  0.4952E+01  0.4952E+01  0.2901E+02  0.2901E+02
    -14.820  0.4386E+01  0.4386E+01  0.2987E+02  0.2987E+02
    -14.624  0.4228E+01  0.4228E+01  0.3070E+02  0.3070E+02
    -14.428  0.3793E+01  0.3793E+01  0.3145E+02  0.3145E+02
    -14.231  0.4062E+01  0.4062E+01  0.3224E+02  0.3224E+02
    -14.035  0.4194E+01  0.4194E+01  0.3307E+02  0.3307E+02
    -13.839  0.4159E+01  0.4159E+01  0.3388E+02  0.3388E+02
    -13.642  0.3344E+01  0.3344E+01  0.3454E+02  0.3454E+02
    -13.446  0.5707E+01  0.5707E+01  0.3566E+02  0.3566E+02
    -13.250  0.2657E-01  0.2657E-01  0.3567E+02  0.3567E+02
    -13.053  0.2314E+01  0.2314E+01  0.3612E+02  0.3612E+02
    -12.857  0.7455E+01  0.7455E+01  0.3758E+02  0.3758E+02
    -12.661  0.5957E+01  0.5957E+01  0.3875E+02  0.3875E+02
    -12.464  0.3317E+01  0.3317E+01  0.3941E+02  0.3941E+02
    -12.268  0.4644E+01  0.4644E+01  0.4032E+02  0.4032E+02
    -12.071  0.2421E+01  0.2421E+01  0.4079E+02  0.4079E+02
    -11.875  0.5139E+01  0.5139E+01  0.4180E+02  0.4180E+02
    -11.679  0.4595E+01  0.4595E+01  0.4270E+02  0.4270E+02
    -11.482  0.5594E+01  0.5594E+01  0.4380E+02  0.4380E+02
    -11.286  0.5253E+01  0.5253E+01  0.4483E+02  0.4483E+02
    -11.090  0.7323E+01  0.7323E+01  0.4627E+02  0.4627E+02
    -10.893  0.2375E+01  0.2375E+01  0.4674E+02  0.4674E+02
    -10.697  0.5456E+01  0.5456E+01  0.4781E+02  0.4781E+02
    -10.501  0.6189E+01  0.6189E+01  0.4902E+02  0.4902E+02
    -10.304  0.8661E+01  0.8661E+01  0.5072E+02  0.5072E+02
    -10.108  0.9225E+01  0.9225E+01  0.5254E+02  0.5254E+02
     -9.912  0.1081E+02  0.1081E+02  0.5466E+02  0.5466E+02
     -9.715  0.7358E+01  0.7358E+01  0.5610E+02  0.5610E+02
     -9.519  0.9297E+01  0.9297E+01  0.5793E+02  0.5793E+02
     -9.323  0.7891E+01  0.7891E+01  0.5948E+02  0.5948E+02
     -9.126  0.1100E+02  0.1100E+02  0.6164E+02  0.6164E+02
     -8.930  0.1183E+02  0.1183E+02  0.6396E+02  0.6396E+02
     -8.734  0.1283E+02  0.1283E+02  0.6648E+02  0.6648E+02
     -8.537  0.1048E+02  0.1048E+02  0.6854E+02  0.6854E+02
     -8.341  0.7881E+01  0.7881E+01  0.7009E+02  0.7009E+02
     -8.145  0.7833E+01  0.7833E+01  0.7162E+02  0.7162E+02
     -7.948  0.1333E+02  0.1333E+02  0.7424E+02  0.7424E+02
     -7.752  0.9833E+01  0.9833E+01  0.7617E+02  0.7617E+02
     -7.556  0.3538E+01  0.3538E+01  0.7687E+02  0.7687E+02
     -7.359  0.6958E+01  0.6958E+01  0.7823E+02  0.7823E+02
     -7.163  0.1062E+02  0.1062E+02  0.8032E+02  0.8032E+02
     -6.967  0.8227E+01  0.8227E+01  0.8194E+02  0.8194E+02
     -6.770  0.8536E+01  0.8536E+01  0.8361E+02  0.8361E+02
     -6.574  0.5344E+01  0.5344E+01  0.8466E+02  0.8466E+02
     -6.377  0.6621E+01  0.6621E+01  0.8596E+02  0.8596E+02
     -6.181  0.4435E+01  0.4435E+01  0.8683E+02  0.8683E+02
     -5.985  0.9678E+01  0.9678E+01  0.8873E+02  0.8873E+02
     -5.788  0.2512E+01  0.2512E+01  0.8922E+02  0.8922E+02
     -5.592  0.4269E+01  0.4269E+01  0.9006E+02  0.9006E+02
     -5.396  0.5508E+01  0.5508E+01  0.9114E+02  0.9114E+02
     -5.199  0.2824E+01  0.2824E+01  0.9170E+02  0.9170E+02
     -5.003  0.6068E+01  0.6068E+01  0.9289E+02  0.9289E+02
     -4.807  0.6000E+01  0.6000E+01  0.9407E+02  0.9407E+02
     -4.610  0.4162E+01  0.4162E+01  0.9489E+02  0.9489E+02
     -4.414  0.3676E+00  0.3676E+00  0.9496E+02  0.9496E+02
     -4.218  0.2678E+01  0.2678E+01  0.9548E+02  0.9548E+02
     -4.021  0.2656E+01  0.2656E+01  0.9601E+02  0.9601E+02
     -3.825  0.1676E+01  0.1676E+01  0.9633E+02  0.9633E+02
     -3.629  0.3234E+01  0.3234E+01  0.9697E+02  0.9697E+02
     -3.432  0.1562E+00  0.1562E+00  0.9700E+02  0.9700E+02
     -3.236  0.1918E+00  0.1918E+00  0.9704E+02  0.9704E+02
     -3.040  0.2631E+01  0.2631E+01  0.9755E+02  0.9755E+02
     -2.843  0.1103E+01  0.1103E+01  0.9777E+02  0.9777E+02
     -2.647  0.2213E+00  0.2213E+00  0.9781E+02  0.9781E+02
     -2.451  0.2026E+01  0.2026E+01  0.9821E+02  0.9821E+02
     -2.254  0.5120E-01  0.5120E-01  0.9822E+02  0.9822E+02
     -2.058  0.8921E-07  0.8921E-07  0.9822E+02  0.9822E+02
     -1.862  0.6835E+00  0.6835E+00  0.9836E+02  0.9836E+02
     -1.665  0.5881E+01  0.5881E+01  0.9951E+02  0.9951E+02
     -1.469  0.1709E+01  0.1709E+01  0.9985E+02  0.9985E+02
     -1.273  0.1925E+01  0.1925E+01  0.1002E+03  0.1002E+03
     -1.076  0.7932E+01  0.7932E+01  0.1018E+03  0.1018E+03
     -0.880  0.9510E+01  0.9510E+01  0.1036E+03  0.1036E+03
     -0.683  0.4550E+01  0.4550E+01  0.1045E+03  0.1045E+03
     -0.487  0.3741E+01  0.3741E+01  0.1053E+03  0.1053E+03
     -0.291  0.6481E+01  0.6481E+01  0.1065E+03  0.1065E+03
     -0.094  0.2002E+01  0.2002E+01  0.1069E+03  0.1069E+03
      0.102  0.5264E+01  0.5264E+01  0.1080E+03  0.1080E+03
      0.298  0.6598E+01  0.6594E+01  0.1093E+03  0.1093E+03
      0.495  0.8032E+01  0.8031E+01  0.1108E+03  0.1108E+03
      0.691  0.5146E+01  0.5146E+01  0.1119E+03  0.1119E+03
      0.887  0.1148E+02  0.1142E+02  0.1141E+03  0.1141E+03
      1.084  0.9717E+01  0.9567E+01  0.1160E+03  0.1160E+03
      1.280  0.1324E+02  0.1298E+02  0.1186E+03  0.1185E+03
      1.476  0.1346E+02  0.1317E+02  0.1213E+03  0.1211E+03
      1.673  0.1311E+02  0.1327E+02  0.1238E+03  0.1237E+03
      1.869  0.1683E+02  0.1661E+02  0.1271E+03  0.1270E+03
      2.065  0.3421E+01  0.4393E+01  0.1278E+03  0.1278E+03
      2.262  0.9491E+00  0.7916E+00  0.1280E+03  0.1280E+03
      2.458  0.1275E-05  0.1158E-03  0.1280E+03  0.1280E+03
      2.654  0.0000E+00  0.0000E+00  0.1280E+03  0.1280E+03
      2.851  0.0000E+00  0.0000E+00  0.1280E+03  0.1280E+03
      3.047  0.0000E+00  0.0000E+00  0.1280E+03  0.1280E+03
      3.243  0.0000E+00  0.0000E+00  0.1280E+03  0.1280E+03
      3.440  0.0000E+00  0.0000E+00  0.1280E+03  0.1280E+03
      3.636  0.0000E+00  0.0000E+00  0.1280E+03  0.1280E+03
      3.832  0.0000E+00  0.0000E+00  0.1280E+03  0.1280E+03
      4.029  0.0000E+00  0.0000E+00  0.1280E+03  0.1280E+03
      4.225  0.0000E+00  0.0000E+00  0.1280E+03  0.1280E+03
      4.421  0.0000E+00  0.0000E+00  0.1280E+03  0.1280E+03
      4.618  0.0000E+00  0.0000E+00  0.1280E+03  0.1280E+03
      4.814  0.0000E+00  0.0000E+00  0.1280E+03  0.1280E+03
