 vasp.5.4.1 24Jun15 (build Jul 23 2024 06:15:33) complex                        
  
 executed on           IFC91_ompi date 2026.05.05  14:58:12
 running on   16 total cores
 distrk:  each k-point on   16 cores,    1 groups
 distr:  one band on NCORES_PER_BAND=   4 cores,    4 groups


--------------------------------------------------------------------------------------------------------


 INCAR:
 POTCAR:    PAW_PBE C 08Apr2002                   
 POTCAR:    PAW_PBE Li_sv 10Sep2004               
 POTCAR:    PAW_PBE C 08Apr2002                   
   VRHFIN =C: s2p2                                                              
   LEXCH  = PE                                                                  
   EATOM  =   147.1560 eV,   10.8157 Ry                                         
                                                                                
   TITEL  = PAW_PBE C 08Apr2002                                                 
   LULTRA =        F    use ultrasoft PP ?                                      
   IUNSCR =        1    unscreen: 0-lin 1-nonlin 2-no                           
   RPACOR =    1.200    partial core radius                                     
   POMASS =   12.011; ZVAL   =    4.000    mass and valenz                      
   RCORE  =    1.500    outmost cutoff radius                                   
   RWIGS  =    1.630; RWIGS  =    0.863    wigner-seitz radius (au A)           
   ENMAX  =  400.000; ENMIN  =  300.000 eV                                      
   ICORE  =        2    local potential                                         
   LCOR   =        T    correct aug charges                                     
   LPAW   =        T    paw PP                                                  
   EAUG   =  644.873                                                            
   DEXC   =    0.000                                                            
   RMAX   =    1.529    core radius for proj-oper                               
   RAUG   =    1.300    factor for augmentation sphere                          
   RDEP   =    1.501    radius for radial grids                                 
   RDEPT  =    1.300    core radius for aug-charge                              
                                                                                
   Atomic configuration                                                         
    4 entries                                                                   
     n  l   j            E        occ.                                          
     1  0  0.50      -273.3789   2.0000                                         
     2  0  0.50       -13.7508   2.0000                                         
     2  1  0.50        -5.2854   2.0000                                         
     3  2  1.50        -5.4423   0.0000                                         
   Description                                                                  
     l       E           TYP  RCUT    TYP  RCUT                                 
     0    -13.7508458     23  1.200                                             
     0     -8.2022199     23  1.200                                             
     1     -5.2854383     23  1.500                                             
     1     34.0145650     23  1.500                                             
     2     -5.4423304      7  1.500                                             
  local pseudopotential read in
  partial core-charges read in
  partial kinetic energy density read in
  atomic valenz-charges read in
  non local Contribution for L=           0  read in
    real space projection operators read in
  non local Contribution for L=           0  read in
    real space projection operators read in
  non local Contribution for L=           1  read in
    real space projection operators read in
  non local Contribution for L=           1  read in
    real space projection operators read in
    PAW grid and wavefunctions read in
 
   number of l-projection  operators is LMAX  =           4
   number of lm-projection operators is LMMAX =           8
 
 POTCAR:    PAW_PBE Li_sv 10Sep2004               
   VRHFIN =Li: 1s2s2p                                                           
   LEXCH  = PE                                                                  
   EATOM  =   202.7858 eV,   14.9043 Ry                                         
                                                                                
   TITEL  = PAW_PBE Li_sv 10Sep2004                                             
   LULTRA =        F    use ultrasoft PP ?                                      
   IUNSCR =        0    unscreen: 0-lin 1-nonlin 2-no                           
   RPACOR =    0.000    partial core radius                                     
   POMASS =    7.010; ZVAL   =    3.000    mass and valenz                      
   RCORE  =    1.700    outmost cutoff radius                                   
   RWIGS  =    2.050; RWIGS  =    1.085    wigner-seitz radius (au A)           
   ENMAX  =  499.034; ENMIN  =  374.276 eV                                      
   ICORE  =        2    local potential                                         
   LCOR   =        T    correct aug charges                                     
   LPAW   =        T    paw PP                                                  
   EAUG   =  628.945                                                            
   RMAX   =    1.732    core radius for proj-oper                               
   RAUG   =    1.300    factor for augmentation sphere                          
   RDEP   =    1.728    radius for radial grids                                 
   RDEPT  =    1.329    core radius for aug-charge                              
                                                                                
   Atomic configuration                                                         
    4 entries                                                                   
     n  l   j            E        occ.                                          
     1  0  0.50       -51.8549   2.0000                                         
     2  0  0.50        -2.8742   1.0000                                         
     2  1  0.50        -1.3606   0.0000                                         
     3  2  1.50        -1.3606   0.0000                                         
   Description                                                                  
     l       E           TYP  RCUT    TYP  RCUT                                 
     0    -51.8548813     23  1.400                                             
     0     -2.8742052     23  1.700                                             
     1     -1.3605826     23  1.400                                             
     2     -1.3605826     23  1.400                                             
  local pseudopotential read in
  atomic valenz-charges read in
  non local Contribution for L=           0  read in
    real space projection operators read in
  non local Contribution for L=           0  read in
    real space projection operators read in
  non local Contribution for L=           1  read in
    real space projection operators read in
    PAW grid and wavefunctions read in
 
   number of l-projection  operators is LMAX  =           3
   number of lm-projection operators is LMMAX =           5
 
 Optimization of the real space projectors (new method)

 maximal supplied QI-value         = 25.13
 optimisation between [QCUT,QGAM] = [ 11.56, 23.12] = [ 37.43,149.72] Ry 
 Optimized for a Real-space Cutoff    1.04 Angstroem

   l    n(q)    QCUT    max X(q) W(low)/X(q) W(high)/X(q)  e(spline) 
   0      7    11.561   115.676    0.20E-03    0.60E-03    0.21E-06
   0      7    11.561    87.132    0.20E-03    0.59E-03    0.21E-06
   1      7    11.561     4.429    0.23E-03    0.35E-03    0.15E-06
   1      7    11.561     2.733    0.18E-03    0.25E-03    0.12E-06
 Optimization of the real space projectors (new method)

 maximal supplied QI-value         = 22.11
 optimisation between [QCUT,QGAM] = [ 11.50, 23.22] = [ 37.02,150.92] Ry 
 Optimized for a Real-space Cutoff    1.08 Angstroem

   l    n(q)    QCUT    max X(q) W(low)/X(q) W(high)/X(q)  e(spline) 
   0      7    11.497    10.506    0.36E-04    0.62E-04    0.14E-07
   0      7    11.497     8.367    0.65E-04    0.14E-03    0.28E-07
   1      7    11.497     8.983    0.21E-03    0.43E-03    0.90E-07
  PAW_PBE C 08Apr2002                   :
 energy of atom  1       EATOM= -147.1560
 kinetic energy error for atom=    0.0071 (will be added to EATOM!!)
  PAW_PBE Li_sv 10Sep2004               :
 energy of atom  2       EATOM= -202.7858
 kinetic energy error for atom=    0.0130 (will be added to EATOM!!)
 
 
 POSCAR: C  Li                                   
  positions in direct lattice
  velocities in cartesian coordinates
 exchange correlation table for  LEXCH =        8
   RHO(1)=    0.500       N(1)  =     2000
   RHO(2)=  100.500       N(2)  =     4000
 


--------------------------------------------------------------------------------------------------------


 ion  position               nearest neighbor table
   1  0.001  0.995  0.500-  41 1.41  48 1.44   2 1.44
   2  0.136  0.065  0.500-  11 1.41  13 1.44   1 1.44
   3  0.005  0.196  0.501-  43 1.39  41 1.42   4 1.42
   4  0.138  0.266  0.501-  13 1.41   3 1.42  15 1.43
   5  0.997  0.392  0.501-  43 1.40  44 1.42   6 1.42
   6  0.130  0.464  0.501-   5 1.42  17 1.42  15 1.43
   7  0.975  0.576  0.500-  46 1.44  44 1.50   8 1.52
   8  0.117  0.656  0.500-  17 1.42  19 1.48   7 1.52
   9  0.987  0.786  0.500-  48 1.42  10 1.48  46 1.52
  10  0.126  0.860  0.500-  19 1.40   9 1.48  11 1.48
  11  0.202  0.999  0.500-   2 1.41  10 1.48  12 1.48
  12  0.341  0.075  0.500-  21 1.40  23 1.48  11 1.48
  13  0.206  0.200  0.500-   4 1.41   2 1.44  14 1.44
  14  0.341  0.272  0.500-  23 1.42  25 1.42  13 1.44
  15  0.200  0.399  0.501-  16 1.42   4 1.43   6 1.43
  16  0.333  0.470  0.501-  15 1.42  27 1.43  25 1.43
  17  0.192  0.597  0.501-   8 1.42   6 1.42  18 1.44
  18  0.327  0.669  0.500-  27 1.41  29 1.44  17 1.44
  19  0.192  0.794  0.500-  10 1.40   8 1.48  20 1.48
  20  0.331  0.870  0.500-  29 1.41  19 1.48  21 1.48
  21  0.407  0.009  0.500-  12 1.40  22 1.48  20 1.48
  22  0.545  0.084  0.500-  31 1.42  21 1.48  33 1.52
  23  0.415  0.214  0.500-  14 1.42  12 1.48  24 1.52
  24  0.557  0.293  0.499-  33 1.44  35 1.51  23 1.52
  25  0.402  0.405  0.500-  26 1.42  14 1.42  16 1.43
  26  0.536  0.478  0.500-  36 1.40  35 1.42  25 1.42
  27  0.394  0.604  0.500-  18 1.41  28 1.42  16 1.43
  28  0.527  0.674  0.500-  36 1.38  38 1.42  27 1.42
  29  0.397  0.804  0.500-  20 1.41  30 1.44  18 1.44
  30  0.532  0.874  0.500-  38 1.41  29 1.44  31 1.44
  31  0.604  0.009  0.500-  22 1.42  32 1.42  30 1.44
  32  0.737  0.071  0.501-  42 1.42  31 1.42  40 1.43
  33  0.625  0.226  0.500-  24 1.44  34 1.50  22 1.52
  34  0.766  0.291  0.500-  42 1.42  33 1.50  44 1.77
  35  0.623  0.434  0.500-  26 1.42  24 1.51  45 1.77  49 1.97
  36  0.592  0.609  0.500-  28 1.38  26 1.40  37 1.40
  37  0.723  0.666  0.500-  36 1.40  45 1.42  47 1.42
  38  0.597  0.807  0.500-  30 1.41  28 1.42  39 1.43
  39  0.731  0.868  0.500-  40 1.42  38 1.43  47 1.43
  40  0.802  0.001  0.500-  39 1.42  41 1.43  32 1.43
  41  0.935  0.063  0.500-   1 1.41   3 1.42  40 1.43
  42  0.809  0.204  0.501-  43 1.40  34 1.42  32 1.42
  43  0.940  0.261  0.501-   3 1.39  42 1.40   5 1.40
  44  0.910  0.435  0.500-   5 1.42   7 1.50  34 1.77
  45  0.767  0.578  0.500-  37 1.42  46 1.50  35 1.77  49 2.30
  46  0.908  0.644  0.499-   7 1.44  45 1.50   9 1.52
  47  0.796  0.799  0.500-  37 1.42  48 1.42  39 1.43
  48  0.929  0.860  0.500-   9 1.42  47 1.42   1 1.44
  49  0.703  0.435  0.557-  35 1.97  45 2.30
 

IMPORTANT INFORMATION: All symmetrisations will be switched off!
NOSYMM: (Re-)initialisation of all symmetry stuff for point group C_1.

 
 
 KPOINTS: Automatic mesh                          

Automatic generation of k-mesh.
Space group operators:
 irot       det(A)        alpha          n_x          n_y          n_z        tau_x        tau_y        tau_z
    1     1.000000     0.000001     1.000000     0.000000     0.000000     0.000000     0.000000     0.000000
 
 Subroutine IBZKPT returns following result:
 ===========================================
 
 Found      5 irreducible k-points:
 
 Following reciprocal coordinates:
            Coordinates               Weight
  0.000000  0.000000  0.000000      1.000000
  0.333333 -0.000000  0.000000      2.000000
  0.000000  0.333333  0.000000      2.000000
  0.333333  0.333333  0.000000      2.000000
 -0.333333  0.333333  0.000000      2.000000
 
 Following cartesian coordinates:
            Coordinates               Weight
  0.000000  0.000000  0.000000      1.000000
  0.027100  0.015646  0.000000      2.000000
  0.000000  0.031293  0.000000      2.000000
  0.027100  0.046939  0.000000      2.000000
 -0.027100  0.015646  0.000000      2.000000
 


--------------------------------------------------------------------------------------------------------




 Dimension of arrays:
   k-points           NKPTS =      5   k-points in BZ     NKDIM =      5   number of bands    NBANDS=    128
   number of dos      NEDOS =    301   number of ions     NIONS =     49
   non local maximal  LDIM  =      4   non local SUM 2l+1 LMDIM =      8
   total plane-waves  NPLWV = ******
   max r-space proj   IRMAX =   2789   max aug-charges    IRDMAX=  51672
   dimension x,y,z NGX =    96 NGY =   96 NGZ =  224
   dimension x,y,z NGXF=   192 NGYF=  192 NGZF=  448
   support grid    NGXF=   384 NGYF=  384 NGZF=  896
   ions per type =              48   1
 NGX,Y,Z   is equivalent  to a cutoff of  12.98, 12.98, 12.41 a.u.
 NGXF,Y,Z  is equivalent  to a cutoff of  25.95, 25.95, 24.83 a.u.


 I would recommend the setting:
   dimension x,y,z NGX =    91 NGY =   91 NGZ =  223
 SYSTEM =  Li defective graphene MACE training lab 
 POSCAR =  C  Li                                   

 Startparameter for this run:
   NWRITE =      2    write-flag & timer
   PREC   = accura    normal or accurate (medium, high low for compatibility)
   ISTART =      0    job   : 0-new  1-cont  2-samecut
   ICHARG =      2    charge: 1-file 2-atom 10-const
   ISPIN  =      2    spin polarized calculation?
   LNONCOLLINEAR =      F non collinear calculations
   LSORBIT =      F    spin-orbit coupling
   INIWAV =      1    electr: 0-lowe 1-rand  2-diag
   LASPH  =      T    aspherical Exc in radial PAW
   METAGGA=      F    non-selfconsistent MetaGGA calc.

 Electronic Relaxation 1
   ENCUT  =  520.0 eV  38.22 Ry    6.18 a.u.  22.87 22.87 55.78*2*pi/ulx,y,z
   ENINI  =  520.0     initial cutoff
   ENAUG  =  644.9 eV  augmentation charge cutoff
   NELM   =    120;   NELMIN=  2; NELMDL= -5     # of ELM steps 
   EDIFF  = 0.1E-05   stopping-criterion for ELM
   LREAL  =      T    real-space projection
   NLSPLINE    = F    spline interpolate recip. space projectors
   LCOMPAT=      F    compatible to vasp.4.4
   GGA_COMPAT  = T    GGA compatible to vasp.4.4-vasp.4.6
   LMAXPAW     = -100 max onsite density
   LMAXMIX     =    2 max onsite mixed and CHGCAR
   VOSKOWN=      0    Vosko Wilk Nusair interpolation
   ROPT   =   -0.00025  -0.00025
 Ionic relaxation
   EDIFFG = 0.1E-04   stopping-criterion for IOM
   NSW    =      0    number of steps for IOM
   NBLOCK =      1;   KBLOCK =      1    inner block; outer block 
   IBRION =     -1    ionic relax: 0-MD 1-quasi-New 2-CG
   NFREE  =      0    steps in history (QN), initial steepest desc. (CG)
   ISIF   =      2    stress and relaxation
   IWAVPR =     10    prediction:  0-non 1-charg 2-wave 3-comb
   ISYM   =      0    0-nonsym 1-usesym 2-fastsym
   LCORR  =      T    Harris-Foulkes like correction to forces

   POTIM  = 0.5000    time-step for ionic-motion
   TEIN   =    0.0    initial temperature
   TEBEG  =    0.0;   TEEND  =   0.0 temperature during run
   SMASS  =  -3.00    Nose mass-parameter (am)
   estimated Nose-frequenzy (Omega)   =  0.10E-29 period in steps =****** mass=  -0.346E-26a.u.
   SCALEE = 1.0000    scale energy and forces
   NPACO  =    256;   APACO  = 16.0  distance and # of slots for P.C.
   PSTRESS=    0.0 pullay stress

  Mass of Ions in am
   POMASS =  12.01  7.01
  Ionic Valenz
   ZVAL   =   4.00  3.00
  Atomic Wigner-Seitz radii
   RWIGS  =  -1.00 -1.00
  virtual crystal weights 
   VCA    =   1.00  1.00
   NELECT =     195.0000    total number of electrons
   NUPDOWN=      -1.0000    fix difference up-down

 DOS related values:
   EMIN   =  10.00;   EMAX   =-10.00  energy-range for DOS
   EFERMI =   0.00
   ISMEAR =     0;   SIGMA  =   0.05  broadening in eV -4-tet -1-fermi 0-gaus

 Electronic relaxation 2 (details)
   IALGO  =     38    algorithm
   LDIAG  =      T    sub-space diagonalisation (order eigenvalues)
   LSUBROT=      F    optimize rotation matrix (better conditioning)
   TURBO    =      0    0=normal 1=particle mesh
   IRESTART =      0    0=no restart 2=restart with 2 vectors
   NREBOOT  =      0    no. of reboots
   NMIN     =      0    reboot dimension
   EREF     =   0.00    reference energy to select bands
   IMIX   =      4    mixing-type and parameters
     AMIX     =   0.40;   BMIX     =  1.00
     AMIX_MAG =   1.60;   BMIX_MAG =  1.00
     AMIN     =   0.10
     WC   =   100.;   INIMIX=   1;  MIXPRE=   1;  MAXMIX= -45

 Intra band minimization:
   WEIMIN = 0.0000     energy-eigenvalue tresh-hold
   EBREAK =  0.20E-08  absolut break condition
   DEPER  =   0.30     relativ break condition  

   TIME   =   0.40     timestep for ELM

  volume/ion in A,a.u.               =      80.22       541.33
  Fermi-wavevector in a.u.,A,eV,Ry     =   0.601542  1.136749  4.923299  0.361852
  Thomas-Fermi vector in A             =   1.653814
 
 Write flags
   LWAVE  =      F    write WAVECAR
   LCHARG =      F    write CHGCAR
   LVTOT  =      F    write LOCPOT, total local potential
   LVHAR  =      F    write LOCPOT, Hartree potential only
   LELF   =      F    write electronic localiz. function (ELF)
   LORBIT =      0    0 simple, 1 ext, 2 COOP (PROOUT)


 Dipole corrections
   LMONO  =      F    monopole corrections only (constant potential shift)
   LDIPOL =      F    correct potential (dipole corrections)
   IDIPOL =      0    1-x, 2-y, 3-z, 4-all directions 
   EPSILON=  1.0000000 bulk dielectric constant

 Exchange correlation treatment:
   GGA     =    --    GGA type
   LEXCH   =     8    internal setting for exchange type
   VOSKOWN=      0    Vosko Wilk Nusair interpolation
   LHFCALC =     F    Hartree Fock is set to
   LHFONE  =     F    Hartree Fock one center treatment
   AEXX    =    0.0000 exact exchange contribution

 Linear response parameters
   LEPSILON=     F    determine dielectric tensor
   LRPA    =     F    only Hartree local field effects (RPA)
   LNABLA  =     F    use nabla operator in PAW spheres
   LVEL    =     F    velocity operator in full k-point grid
   LINTERFAST=   F  fast interpolation
   KINTER  =     0    interpolate to denser k-point grid
   CSHIFT  =0.1000    complex shift for real part using Kramers Kronig
   OMEGAMAX=  -1.0    maximum frequency
   DEG_THRESHOLD= 0.2000000E-02 threshold for treating states as degnerate
   RTIME   =    0.100 relaxation time in fs

 Orbital magnetization related:
   ORBITALMAG=     F  switch on orbital magnetization
   LCHIMAG   =     F  perturbation theory with respect to B field
   DQ        =  0.001000  dq finite difference perturbation B field



--------------------------------------------------------------------------------------------------------


 Static calculation
 charge density and potential will be updated during run
 spin polarized calculation
 Variant of blocked Davidson
 Davidson routine will perform the subspace rotation
 perform sub-space diagonalisation
    after iterative eigenvector-optimisation
 modified Broyden-mixing scheme, WC =      100.0
 initial mixing is a Kerker type mixing with AMIX =  0.4000 and BMIX =      1.0000
 Hartree-type preconditioning will be used
 using additional bands           30
 real space projection scheme for non local part
 use partial core corrections
 calculate Harris-corrections to forces 
   (improved forces if not selfconsistent)
 use gradient corrections 
 use of overlap-Matrix (Vanderbilt PP)
 Gauss-broadening in eV      SIGMA  =   0.05


--------------------------------------------------------------------------------------------------------


  energy-cutoff  :      520.00
  volume of cell :     3930.63
      direct lattice vectors                 reciprocal lattice vectors
    12.300000000  0.000000000  0.000000000     0.081300813  0.046939046  0.000000000
    -6.150000000 10.652112467  0.000000000     0.000000000  0.093878093  0.000000000
     0.000000000  0.000000000 30.000000000     0.000000000  0.000000000  0.033333333

  length of vectors
    12.300000000 12.300000000 30.000000000     0.093878093  0.093878093  0.033333333


 
 k-points in units of 2pi/SCALE and weight: Automatic mesh                          
   0.00000000  0.00000000  0.00000000       0.111
   0.02710027  0.01564635  0.00000000       0.222
   0.00000000  0.03129270  0.00000000       0.222
   0.02710027  0.04693905  0.00000000       0.222
  -0.02710027  0.01564635  0.00000000       0.222
 
 k-points in reciprocal lattice and weights: Automatic mesh                          
   0.00000000  0.00000000  0.00000000       0.111
   0.33333333 -0.00000000  0.00000000       0.222
   0.00000000  0.33333333  0.00000000       0.222
   0.33333333  0.33333333  0.00000000       0.222
  -0.33333333  0.33333333  0.00000000       0.222
 
 position of ions in fractional coordinates (direct lattice) 
   0.00069168  0.99541666  0.49998612
   0.13570752  0.06529461  0.50002869
   0.00528682  0.19571106  0.50058609
   0.13833518  0.26560218  0.50057170
   0.99712702  0.39177707  0.50100754
   0.13026968  0.46391674  0.50087604
   0.97526623  0.57616636  0.49974051
   0.11731876  0.65556017  0.50025836
   0.98729726  0.78579945  0.49978844
   0.12617716  0.86034230  0.49990407
   0.20174420  0.99935984  0.49996315
   0.34076841  0.07491797  0.49997416
   0.20564900  0.20029985  0.50029029
   0.34065624  0.27207656  0.50022199
   0.19984457  0.39937158  0.50071372
   0.33279713  0.46984879  0.50056375
   0.19199209  0.59719431  0.50058322
   0.32697969  0.66894440  0.50043978
   0.19196150  0.79444851  0.50008107
   0.33098870  0.87000208  0.50010093
   0.40655756  0.00904940  0.49998696
   0.54540405  0.08366039  0.49998134
   0.41537712  0.21379237  0.49993588
   0.55744946  0.29324157  0.49946986
   0.40242993  0.40537510  0.50047012
   0.53559216  0.47761928  0.50044748
   0.39430443  0.60365582  0.50046434
   0.52736225  0.67361877  0.50026175
   0.39695450  0.80397139  0.50018869
   0.53196727  0.87397152  0.50011628
   0.60374810  0.00898380  0.50016676
   0.73705382  0.07076953  0.50050530
   0.62488765  0.22578393  0.49959691
   0.76599571  0.29127341  0.50025991
   0.62301774  0.43445421  0.49988325
   0.59240615  0.60866974  0.50023153
   0.72347200  0.66559306  0.50021997
   0.59727190  0.80667286  0.50014313
   0.73106729  0.86823424  0.50012855
   0.80156259  0.00117311  0.50027601
   0.93536716  0.06268160  0.50025728
   0.80924606  0.20391568  0.50083025
   0.94027672  0.26072818  0.50083145
   0.90975834  0.43503138  0.50036590
   0.76676574  0.57827823  0.49975349
   0.90787378  0.64372456  0.49943208
   0.79564026  0.79872732  0.50011285
   0.92892615  0.86046430  0.49989995
   0.70266384  0.43463288  0.55687285
 
 position of ions in cartesian coordinates  (Angst):
  -6.11330483 10.60329023 14.99958364
   1.26764057  0.69552556 15.00086075
  -1.13859512  2.08473622 15.01758274
   0.06806937  2.82922427 15.01715097
   9.85523339  4.17325344 15.03022634
  -1.25077088  4.94169327 15.02628121
   8.45235147  6.13738886 14.99221529
  -2.58867433  6.98310066 15.00775068
   7.31108972  8.37042415 14.99365323
  -3.73912601  9.16446290 14.99712203
  -3.66460934 10.64529343 14.99889442
   3.73070598  0.79803464 14.99922475
   1.29763861  2.13361658 15.00870875
   2.51680093  2.89819015 15.00665976
   0.00195299  4.25415096 15.02141158
   1.20383457  5.00488220 15.01691263
  -1.31124229  6.36138095 15.01749656
  -0.09215791  7.12567103 15.01319341
  -2.52473189  8.46255485 15.00243220
  -1.27935176  9.26735996 15.00302804
   4.94500417  0.09639525 14.99960866
   6.19395838  0.89115990 14.99944008
   3.79431545  2.27734037 14.99807648
   5.05319273  3.12364215 14.98409583
   2.45683129  4.31810112 15.01410351
   3.65042501  5.08765432 15.01342433
   1.13746127  6.43020964 15.01393010
   2.34380027  7.17546288 15.00785256
  -0.06188373  8.56399365 15.00566076
   1.16827260  9.30964288 15.00348832
   7.37085128  0.09569642 15.00500276
   8.63052935  0.75384501 15.01515905
   6.29754694  2.40507582 14.98790724
   7.63041577  3.10267710 15.00779716
   4.99122486  4.62785512 14.99649763
   3.54327668  6.48361857 15.00694581
   4.80530831  7.08997210 15.00659896
   2.38540631  8.59277005 15.00429399
   3.65248707  9.24852879 15.00385649
   9.85200524  0.01249611 15.00828041
  11.11952414  0.66769150 15.00771842
   8.69964504  2.17213278 15.02490737
   9.96192535  2.77730585 15.02494356
   8.51458457  4.63400320 15.01097688
   5.87480748  6.15988476 14.99260483
   7.20794144  6.85702638 14.98296225
   4.87420211  8.50813329 15.00338542
   6.13393617  9.16576253 14.99699848
   5.96977306  4.62975835 16.70618555
 


--------------------------------------------------------------------------------------------------------


 k-point  1 :   0.0000 0.0000 0.0000  plane waves:  105831
 k-point  2 :   0.3333-0.0000 0.0000  plane waves:  105834
 k-point  3 :   0.0000 0.3333 0.0000  plane waves:  105834
 k-point  4 :   0.3333 0.3333 0.0000  plane waves:  105861
 k-point  5 :  -0.3333 0.3333 0.0000  plane waves:  105834

 maximum and minimum number of plane-waves per node :     26501    26424

 maximum number of plane-waves:    105861
 maximum index in each direction: 
   IXMAX=   23   IYMAX=   22   IZMAX=   55
   IXMIN=  -23   IYMIN=  -23   IZMIN=  -55

 NGX is ok and might be reduce to  94
 NGY is ok and might be reduce to  92
 NGZ is ok and might be reduce to 222

 real space projection operators:
  total allocation   :       7406.65 KBytes
  max/ min on nodes  :       1852.36       1850.35


 parallel 3D FFT for wavefunctions:
    minimum data exchange during FFTs selected (reduces bandwidth)
 parallel 3D FFT for charge:
    minimum data exchange during FFTs selected (reduces bandwidth)


 total amount of memory used by VASP on root node   460771. kBytes
========================================================================

   base      :      30000. kBytes
   nonlr-proj:       4562. kBytes
   fftplans  :     165810. kBytes
   grid      :     124231. kBytes
   one-center:         79. kBytes
   wavefun   :     136089. kBytes
 
     INWAV:  cpu time    0.0000: real time    0.0003
 Broyden mixing: mesh for mixing (old mesh)
   NGX = 45   NGY = 45   NGZ =111
  (NGX  =192   NGY  =192   NGZ  =448)
  gives a total of 224775 points

 initial charge density was supplied:
 charge density of overlapping atoms calculated
 number of electron     195.0000000 magnetization       5.8000000
 keeping initial charge density in first step


--------------------------------------------------------------------------------------------------------


 Maximum index for non-local projection operator          673
 Maximum index for augmentation-charges         3225 (set IRDMAX)


--------------------------------------------------------------------------------------------------------


 First call to EWALD:  gamma=   0.112
 Maximum number of real-space cells 4x 4x 2
 Maximum number of reciprocal cells 2x 2x 5

 FEWALD executed in parallel
    FEWALD:  cpu time    0.0019: real time    0.0031


----------------------------------------- Iteration    1(   1)  ---------------------------------------


    POTLOK:  cpu time    1.5256: real time    1.5258
    SETDIJ:  cpu time    1.3726: real time    1.3750
     EDDAV:  cpu time   43.7130: real time   43.7653
       DOS:  cpu time    0.0006: real time    0.0006
    --------------------------------------------
      LOOP:  cpu time   46.6127: real time   46.6699

 eigenvalue-minimisations  :  3128
 total energy-change (2. order) : 0.1848368E+04  (-0.6418555E+04)
 number of electron     195.0000000 magnetization       5.8000000
 augmentation part      195.0000000 magnetization       5.8000000

 Free energy of the ion-electron system (eV)
  ---------------------------------------------------
  alpha Z        PSCENC =        49.28462660
  Ewald energy   TEWEN  =     52388.16410050
  -Hartree energ DENC   =    -57476.56842480
  -exchange      EXHF   =         0.00000000
  -V(xc)+E(xc)   XCENC  =       641.30521758
  PAW double counting   =      5288.51619703    -5331.18329077
  entropy T*S    EENTRO =        -0.02834462
  eigenvalues    EBANDS =      -977.04153628
  atomic energy  EATOM  =      7265.91972593
  Solvation  Ediel_sol  =         0.00000000
  ---------------------------------------------------
  free energy    TOTEN  =      1848.36827118 eV

  energy without entropy =     1848.39661580  energy(sigma->0) =     1848.38244349


--------------------------------------------------------------------------------------------------------




----------------------------------------- Iteration    1(   2)  ---------------------------------------


     EDDAV:  cpu time   52.7929: real time   52.8013
       DOS:  cpu time    0.0005: real time    0.0005
    --------------------------------------------
      LOOP:  cpu time   52.7945: real time   52.8061

 eigenvalue-minimisations  :  3952
 total energy-change (2. order) :-0.1801873E+04  (-0.1654627E+04)
 number of electron     195.0000000 magnetization       5.8000000
 augmentation part      195.0000000 magnetization       5.8000000

 Free energy of the ion-electron system (eV)
  ---------------------------------------------------
  alpha Z        PSCENC =        49.28462660
  Ewald energy   TEWEN  =     52388.16410050
  -Hartree energ DENC   =    -57476.56842480
  -exchange      EXHF   =         0.00000000
  -V(xc)+E(xc)   XCENC  =       641.30521758
  PAW double counting   =      5288.51619703    -5331.18329077
  entropy T*S    EENTRO =        -0.00602533
  eigenvalues    EBANDS =     -2778.93668161
  atomic energy  EATOM  =      7265.91972593
  Solvation  Ediel_sol  =         0.00000000
  ---------------------------------------------------
  free energy    TOTEN  =        46.49544513 eV

  energy without entropy =       46.50147047  energy(sigma->0) =       46.49845780


--------------------------------------------------------------------------------------------------------




----------------------------------------- Iteration    1(   3)  ---------------------------------------


     EDDAV:  cpu time   46.1358: real time   46.1422
       DOS:  cpu time    0.0005: real time    0.0005
    --------------------------------------------
      LOOP:  cpu time   46.1369: real time   46.1461

 eigenvalue-minimisations  :  3336
 total energy-change (2. order) :-0.4849676E+03  (-0.4813623E+03)
 number of electron     195.0000000 magnetization       5.8000000
 augmentation part      195.0000000 magnetization       5.8000000

 Free energy of the ion-electron system (eV)
  ---------------------------------------------------
  alpha Z        PSCENC =        49.28462660
  Ewald energy   TEWEN  =     52388.16410050
  -Hartree energ DENC   =    -57476.56842480
  -exchange      EXHF   =         0.00000000
  -V(xc)+E(xc)   XCENC  =       641.30521758
  PAW double counting   =      5288.51619703    -5331.18329077
  entropy T*S    EENTRO =        -0.00313798
  eigenvalues    EBANDS =     -3263.90712586
  atomic energy  EATOM  =      7265.91972593
  Solvation  Ediel_sol  =         0.00000000
  ---------------------------------------------------
  free energy    TOTEN  =      -438.47211175 eV

  energy without entropy =     -438.46897378  energy(sigma->0) =     -438.47054277


--------------------------------------------------------------------------------------------------------




----------------------------------------- Iteration    1(   4)  ---------------------------------------


     EDDAV:  cpu time   45.8333: real time   45.8393
       DOS:  cpu time    0.0004: real time    0.0004
    --------------------------------------------
      LOOP:  cpu time   45.8342: real time   45.8434

 eigenvalue-minimisations  :  3304
 total energy-change (2. order) :-0.2676745E+02  (-0.2644972E+02)
 number of electron     195.0000000 magnetization       5.8000000
 augmentation part      195.0000000 magnetization       5.8000000

 Free energy of the ion-electron system (eV)
  ---------------------------------------------------
  alpha Z        PSCENC =        49.28462660
  Ewald energy   TEWEN  =     52388.16410050
  -Hartree energ DENC   =    -57476.56842480
  -exchange      EXHF   =         0.00000000
  -V(xc)+E(xc)   XCENC  =       641.30521758
  PAW double counting   =      5288.51619703    -5331.18329077
  entropy T*S    EENTRO =        -0.00491346
  eigenvalues    EBANDS =     -3290.67279789
  atomic energy  EATOM  =      7265.91972593
  Solvation  Ediel_sol  =         0.00000000
  ---------------------------------------------------
  free energy    TOTEN  =      -465.23955928 eV

  energy without entropy =     -465.23464582  energy(sigma->0) =     -465.23710255


--------------------------------------------------------------------------------------------------------




----------------------------------------- Iteration    1(   5)  ---------------------------------------


     EDDAV:  cpu time   53.9484: real time   53.9541
       DOS:  cpu time    0.0005: real time    0.0005
    CHARGE:  cpu time    3.9880: real time    3.9883
    MIXING:  cpu time    0.0381: real time    0.0381
    --------------------------------------------
      LOOP:  cpu time   57.9757: real time   57.9838

 eigenvalue-minimisations  :  4024
 total energy-change (2. order) :-0.1058429E+01  (-0.1049634E+01)
 number of electron     195.0000000 magnetization       5.4175233
 augmentation part        6.0705759 magnetization       5.2748242

 Broyden mixing:
  rms(total) = 0.31504E+01    rms(broyden)= 0.31499E+01
  rms(prec ) = 0.32477E+01
  weight for this iteration     100.00

 Free energy of the ion-electron system (eV)
  ---------------------------------------------------
  alpha Z        PSCENC =        49.28462660
  Ewald energy   TEWEN  =     52388.16410050
  -Hartree energ DENC   =    -57476.56842480
  -exchange      EXHF   =         0.00000000
  -V(xc)+E(xc)   XCENC  =       641.30521758
  PAW double counting   =      5288.51619703    -5331.18329077
  entropy T*S    EENTRO =        -0.00502002
  eigenvalues    EBANDS =     -3291.73111986
  atomic energy  EATOM  =      7265.91972593
  Solvation  Ediel_sol  =         0.00000000
  ---------------------------------------------------
  free energy    TOTEN  =      -466.29798780 eV

  energy without entropy =     -466.29296778  energy(sigma->0) =     -466.29547779


--------------------------------------------------------------------------------------------------------




----------------------------------------- Iteration    1(   6)  ---------------------------------------


    POTLOK:  cpu time    1.3648: real time    1.3649
    SETDIJ:  cpu time    1.3984: real time    1.3987
     EDDAV:  cpu time   41.1789: real time   41.1838
       DOS:  cpu time    0.0005: real time    0.0005
    CHARGE:  cpu time    4.0009: real time    4.0012
    MIXING:  cpu time    0.0416: real time    0.0416
    --------------------------------------------
      LOOP:  cpu time   47.9856: real time   47.9939

 eigenvalue-minimisations  :  2872
 total energy-change (2. order) : 0.2260872E+02  (-0.2283693E+01)
 number of electron     195.0000000 magnetization       4.9174018
 augmentation part        5.8435607 magnetization       4.7117695

 Broyden mixing:
  rms(total) = 0.18149E+01    rms(broyden)= 0.18148E+01
  rms(prec ) = 0.18639E+01
  weight for this iteration     100.00

 eigenvalues of (default mixing * dielectric matrix)
  average eigenvalue GAMMA=   0.9550
  0.9550

 Free energy of the ion-electron system (eV)
  ---------------------------------------------------
  alpha Z        PSCENC =        49.28462660
  Ewald energy   TEWEN  =     52388.16410050
  -Hartree energ DENC   =    -57753.12340030
  -exchange      EXHF   =         0.00000000
  -V(xc)+E(xc)   XCENC  =       653.50313241
  PAW double counting   =      9418.40353512    -9464.69287250
  entropy T*S    EENTRO =        -0.00681327
  eigenvalues    EBANDS =     -3001.14129917
  atomic energy  EATOM  =      7265.91972593
  Solvation  Ediel_sol  =         0.00000000
  ---------------------------------------------------
  free energy    TOTEN  =      -443.68926467 eV

  energy without entropy =     -443.68245140  energy(sigma->0) =     -443.68585804


--------------------------------------------------------------------------------------------------------




----------------------------------------- Iteration    1(   7)  ---------------------------------------


    POTLOK:  cpu time    1.3525: real time    1.3526
    SETDIJ:  cpu time    1.3979: real time    1.3981
     EDDAV:  cpu time   42.9837: real time   42.9898
       DOS:  cpu time    0.0005: real time    0.0005
    CHARGE:  cpu time    3.7800: real time    3.7804
    MIXING:  cpu time    0.0417: real time    0.0417
    --------------------------------------------
      LOOP:  cpu time   49.5570: real time   49.5664

 eigenvalue-minimisations  :  3040
 total energy-change (2. order) : 0.1098043E+02  (-0.1512487E+01)
 number of electron     195.0000000 magnetization       4.4374195
 augmentation part        5.6528817 magnetization       4.2852622

 Broyden mixing:
  rms(total) = 0.97398E+00    rms(broyden)= 0.97393E+00
  rms(prec ) = 0.99000E+00
  weight for this iteration     100.00

 eigenvalues of (default mixing * dielectric matrix)
  average eigenvalue GAMMA=   1.4157
  0.6671  2.1643

 Free energy of the ion-electron system (eV)
  ---------------------------------------------------
  alpha Z        PSCENC =        49.28462660
  Ewald energy   TEWEN  =     52388.16410050
  -Hartree energ DENC   =    -57993.40881252
  -exchange      EXHF   =         0.00000000
  -V(xc)+E(xc)   XCENC  =       666.65318547
  PAW double counting   =     14230.00234759   -14278.42424866
  entropy T*S    EENTRO =        -0.00522686
  eigenvalues    EBANDS =     -2760.89453648
  atomic energy  EATOM  =      7265.91972593
  Solvation  Ediel_sol  =         0.00000000
  ---------------------------------------------------
  free energy    TOTEN  =      -432.70883841 eV

  energy without entropy =     -432.70361155  energy(sigma->0) =     -432.70622498


--------------------------------------------------------------------------------------------------------




----------------------------------------- Iteration    1(   8)  ---------------------------------------


    POTLOK:  cpu time    1.3547: real time    1.3549
    SETDIJ:  cpu time    1.3962: real time    1.3963
     EDDAV:  cpu time   42.2395: real time   42.2443
       DOS:  cpu time    0.0005: real time    0.0005
    CHARGE:  cpu time    3.8321: real time    3.8341
    MIXING:  cpu time    0.0444: real time    0.0444
    --------------------------------------------
      LOOP:  cpu time   48.8679: real time   48.8776

 eigenvalue-minimisations  :  2976
 total energy-change (2. order) : 0.4560081E+00  (-0.4089469E+00)
 number of electron     195.0000000 magnetization       3.9495335
 augmentation part        5.5142190 magnetization       3.8142496

 Broyden mixing:
  rms(total) = 0.36928E+00    rms(broyden)= 0.36920E+00
  rms(prec ) = 0.38029E+00
  weight for this iteration     100.00

 eigenvalues of (default mixing * dielectric matrix)
  average eigenvalue GAMMA=   1.4122
  2.3028  1.2733  0.6606

 Free energy of the ion-electron system (eV)
  ---------------------------------------------------
  alpha Z        PSCENC =        49.28462660
  Ewald energy   TEWEN  =     52388.16410050
  -Hartree energ DENC   =    -58145.88762739
  -exchange      EXHF   =         0.00000000
  -V(xc)+E(xc)   XCENC  =       671.82841917
  PAW double counting   =     17879.34515066   -17928.57832053
  entropy T*S    EENTRO =        -0.00502394
  eigenvalues    EBANDS =     -2612.32388130
  atomic energy  EATOM  =      7265.91972593
  Solvation  Ediel_sol  =         0.00000000
  ---------------------------------------------------
  free energy    TOTEN  =      -432.25283029 eV

  energy without entropy =     -432.24780635  energy(sigma->0) =     -432.25031832


--------------------------------------------------------------------------------------------------------




----------------------------------------- Iteration    1(   9)  ---------------------------------------


    POTLOK:  cpu time    1.3539: real time    1.3542
    SETDIJ:  cpu time    1.3962: real time    1.3967
     EDDAV:  cpu time   49.9602: real time   49.9656
       DOS:  cpu time    0.0005: real time    0.0005
    CHARGE:  cpu time    3.8280: real time    3.8292
    MIXING:  cpu time    0.0391: real time    0.0391
    --------------------------------------------
      LOOP:  cpu time   56.5784: real time   56.5882

 eigenvalue-minimisations  :  3672
 total energy-change (2. order) :-0.1180961E+01  (-0.6016422E-01)
 number of electron     195.0000000 magnetization       3.6034797
 augmentation part        5.4865808 magnetization       3.4742273

 Broyden mixing:
  rms(total) = 0.15489E+00    rms(broyden)= 0.15479E+00
  rms(prec ) = 0.16710E+00
  weight for this iteration     100.00

 eigenvalues of (default mixing * dielectric matrix)
  average eigenvalue GAMMA=   1.4174
  2.2962  1.9617  0.7583  0.6536

 Free energy of the ion-electron system (eV)
  ---------------------------------------------------
  alpha Z        PSCENC =        49.28462660
  Ewald energy   TEWEN  =     52388.16410050
  -Hartree energ DENC   =    -58194.53975313
  -exchange      EXHF   =         0.00000000
  -V(xc)+E(xc)   XCENC  =       671.04959566
  PAW double counting   =     18991.55877761   -19040.26241177
  entropy T*S    EENTRO =        -0.00503950
  eigenvalues    EBANDS =     -2564.60341314
  atomic energy  EATOM  =      7265.91972593
  Solvation  Ediel_sol  =         0.00000000
  ---------------------------------------------------
  free energy    TOTEN  =      -433.43379124 eV

  energy without entropy =     -433.42875174  energy(sigma->0) =     -433.43127149


--------------------------------------------------------------------------------------------------------




----------------------------------------- Iteration    1(  10)  ---------------------------------------


    POTLOK:  cpu time    1.3807: real time    1.3808
    SETDIJ:  cpu time    1.3965: real time    1.3966
     EDDAV:  cpu time   41.0296: real time   41.0337
       DOS:  cpu time    0.0005: real time    0.0005
    CHARGE:  cpu time    3.6625: real time    3.6627
    MIXING:  cpu time    0.0614: real time    0.0614
    --------------------------------------------
      LOOP:  cpu time   47.5316: real time   47.5388

 eigenvalue-minimisations  :  2872
 total energy-change (2. order) :-0.5086067E+00  (-0.1600540E-01)
 number of electron     195.0000000 magnetization       3.3345629
 augmentation part        5.4837609 magnetization       3.2149856

 Broyden mixing:
  rms(total) = 0.99345E-01    rms(broyden)= 0.99331E-01
  rms(prec ) = 0.11084E+00
  weight for this iteration     100.00

 eigenvalues of (default mixing * dielectric matrix)
  average eigenvalue GAMMA=   1.3390
  2.1790  2.1790  0.9936  0.6960  0.6475

 Free energy of the ion-electron system (eV)
  ---------------------------------------------------
  alpha Z        PSCENC =        49.28462660
  Ewald energy   TEWEN  =     52388.16410050
  -Hartree energ DENC   =    -58224.60074878
  -exchange      EXHF   =         0.00000000
  -V(xc)+E(xc)   XCENC  =       670.79235873
  PAW double counting   =     19237.93149744   -19286.40220400
  entropy T*S    EENTRO =        -0.00511708
  eigenvalues    EBANDS =     -2535.02663730
  atomic energy  EATOM  =      7265.91972593
  Solvation  Ediel_sol  =         0.00000000
  ---------------------------------------------------
  free energy    TOTEN  =      -433.94239795 eV

  energy without entropy =     -433.93728087  energy(sigma->0) =     -433.93983941


--------------------------------------------------------------------------------------------------------




----------------------------------------- Iteration    1(  11)  ---------------------------------------


    POTLOK:  cpu time    1.4954: real time    1.4955
    SETDIJ:  cpu time    1.3970: real time    1.3970
     EDDAV:  cpu time   43.0357: real time   43.0414
       DOS:  cpu time    0.0006: real time    0.0006
    CHARGE:  cpu time    4.0268: real time    4.0271
    MIXING:  cpu time    0.0597: real time    0.0597
    --------------------------------------------
      LOOP:  cpu time   50.0158: real time   50.0244

 eigenvalue-minimisations  :  3048
 total energy-change (2. order) :-0.4120467E+00  (-0.5363875E-02)
 number of electron     195.0000000 magnetization       2.7351296
 augmentation part        5.4800466 magnetization       2.6208445

 Broyden mixing:
  rms(total) = 0.82890E-01    rms(broyden)= 0.82886E-01
  rms(prec ) = 0.92288E-01
  weight for this iteration     100.00

 eigenvalues of (default mixing * dielectric matrix)
  average eigenvalue GAMMA=   1.3649
  2.2482  2.2482  1.4107  0.9645  0.6798  0.6382

 Free energy of the ion-electron system (eV)
  ---------------------------------------------------
  alpha Z        PSCENC =        49.28462660
  Ewald energy   TEWEN  =     52388.16410050
  -Hartree energ DENC   =    -58246.35637247
  -exchange      EXHF   =         0.00000000
  -V(xc)+E(xc)   XCENC  =       670.63613053
  PAW double counting   =     19232.52336322   -19280.93013255
  entropy T*S    EENTRO =        -0.00518347
  eigenvalues    EBANDS =     -2513.59070293
  atomic energy  EATOM  =      7265.91972593
  Solvation  Ediel_sol  =         0.00000000
  ---------------------------------------------------
  free energy    TOTEN  =      -434.35444464 eV

  energy without entropy =     -434.34926117  energy(sigma->0) =     -434.35185290


--------------------------------------------------------------------------------------------------------




----------------------------------------- Iteration    1(  12)  ---------------------------------------


    POTLOK:  cpu time    1.3470: real time    1.3471
    SETDIJ:  cpu time    1.3991: real time    1.4001
     EDDAV:  cpu time   40.4922: real time   40.4966
       DOS:  cpu time    0.0005: real time    0.0005
    CHARGE:  cpu time    3.9501: real time    3.9503
    MIXING:  cpu time    0.0489: real time    0.0489
    --------------------------------------------
      LOOP:  cpu time   47.2384: real time   47.2485

 eigenvalue-minimisations  :  2816
 total energy-change (2. order) :-0.7752808E+00  (-0.1625045E-01)
 number of electron     195.0000000 magnetization       2.1233731
 augmentation part        5.4761230 magnetization       2.0188566

 Broyden mixing:
  rms(total) = 0.61350E-01    rms(broyden)= 0.61348E-01
  rms(prec ) = 0.66432E-01
  weight for this iteration     100.00

 eigenvalues of (default mixing * dielectric matrix)
  average eigenvalue GAMMA=   1.5125
  2.9869  2.6408  1.7885  1.0973  0.7766  0.6731  0.6247

 Free energy of the ion-electron system (eV)
  ---------------------------------------------------
  alpha Z        PSCENC =        49.28462660
  Ewald energy   TEWEN  =     52388.16410050
  -Hartree energ DENC   =    -58289.31441751
  -exchange      EXHF   =         0.00000000
  -V(xc)+E(xc)   XCENC  =       670.32483514
  PAW double counting   =     19167.37429524   -19215.67729850
  entropy T*S    EENTRO =        -0.00539443
  eigenvalues    EBANDS =     -2471.20019842
  atomic energy  EATOM  =      7265.91972593
  Solvation  Ediel_sol  =         0.00000000
  ---------------------------------------------------
  free energy    TOTEN  =      -435.12972545 eV

  energy without entropy =     -435.12433101  energy(sigma->0) =     -435.12702823


--------------------------------------------------------------------------------------------------------




----------------------------------------- Iteration    1(  13)  ---------------------------------------


    POTLOK:  cpu time    1.3449: real time    1.3450
    SETDIJ:  cpu time    1.4012: real time    1.4015
     EDDAV:  cpu time   39.6126: real time   39.6184
       DOS:  cpu time    0.0005: real time    0.0005
    CHARGE:  cpu time    3.9102: real time    3.9105
    MIXING:  cpu time    0.0442: real time    0.0442
    --------------------------------------------
      LOOP:  cpu time   46.3143: real time   46.3231

 eigenvalue-minimisations  :  2736
 total energy-change (2. order) :-0.1044424E+00  (-0.1103662E-01)
 number of electron     195.0000000 magnetization       1.5402046
 augmentation part        5.4712924 magnetization       1.4585220

 Broyden mixing:
  rms(total) = 0.44976E-01    rms(broyden)= 0.44973E-01
  rms(prec ) = 0.47065E-01
  weight for this iteration     100.00

 eigenvalues of (default mixing * dielectric matrix)
  average eigenvalue GAMMA=   1.6336
  4.4413  2.3872  1.9260  1.1373  1.1373  0.7501  0.6677  0.6220

 Free energy of the ion-electron system (eV)
  ---------------------------------------------------
  alpha Z        PSCENC =        49.28462660
  Ewald energy   TEWEN  =     52388.16410050
  -Hartree energ DENC   =    -58328.26881479
  -exchange      EXHF   =         0.00000000
  -V(xc)+E(xc)   XCENC  =       670.61565167
  PAW double counting   =     19127.83092555   -19176.07561033
  entropy T*S    EENTRO =        -0.00580253
  eigenvalues    EBANDS =     -2432.69897043
  atomic energy  EATOM  =      7265.91972593
  Solvation  Ediel_sol  =         0.00000000
  ---------------------------------------------------
  free energy    TOTEN  =      -435.23416782 eV

  energy without entropy =     -435.22836529  energy(sigma->0) =     -435.23126655


--------------------------------------------------------------------------------------------------------




----------------------------------------- Iteration    1(  14)  ---------------------------------------


    POTLOK:  cpu time    1.3478: real time    1.3479
    SETDIJ:  cpu time    1.3962: real time    1.3964
     EDDAV:  cpu time   40.5882: real time   40.5929
       DOS:  cpu time    0.0005: real time    0.0005
    CHARGE:  cpu time    3.8709: real time    3.8712
    MIXING:  cpu time    0.0473: real time    0.0473
    --------------------------------------------
      LOOP:  cpu time   47.2514: real time   47.2589

 eigenvalue-minimisations  :  2824
 total energy-change (2. order) :-0.4127347E+00  (-0.5847116E-02)
 number of electron     195.0000000 magnetization       1.0856509
 augmentation part        5.4676420 magnetization       1.0303226

 Broyden mixing:
  rms(total) = 0.30470E-01    rms(broyden)= 0.30468E-01
  rms(prec ) = 0.31590E-01
  weight for this iteration     100.00

 eigenvalues of (default mixing * dielectric matrix)
  average eigenvalue GAMMA=   1.9031
  6.8850  2.2828  2.2828  1.6309  1.1700  0.8770  0.7189  0.6594  0.6211

 Free energy of the ion-electron system (eV)
  ---------------------------------------------------
  alpha Z        PSCENC =        49.28462660
  Ewald energy   TEWEN  =     52388.16410050
  -Hartree energ DENC   =    -58356.78750887
  -exchange      EXHF   =         0.00000000
  -V(xc)+E(xc)   XCENC  =       670.42837417
  PAW double counting   =     19109.57089983   -19157.81573963
  entropy T*S    EENTRO =        -0.00614349
  eigenvalues    EBANDS =     -2404.40523758
  atomic energy  EATOM  =      7265.91972593
  Solvation  Ediel_sol  =         0.00000000
  ---------------------------------------------------
  free energy    TOTEN  =      -435.64690253 eV

  energy without entropy =     -435.64075904  energy(sigma->0) =     -435.64383078


--------------------------------------------------------------------------------------------------------




----------------------------------------- Iteration    1(  15)  ---------------------------------------


    POTLOK:  cpu time    1.3450: real time    1.3450
    SETDIJ:  cpu time    1.3952: real time    1.3963
     EDDAV:  cpu time   40.8987: real time   40.9038
       DOS:  cpu time    0.0012: real time    0.0012
    CHARGE:  cpu time    3.8262: real time    3.8265
    MIXING:  cpu time    0.0483: real time    0.0483
    --------------------------------------------
      LOOP:  cpu time   47.5150: real time   47.5235

 eigenvalue-minimisations  :  2856
 total energy-change (2. order) :-0.7353910E+00  (-0.3355911E-02)
 number of electron     195.0000000 magnetization       0.8351925
 augmentation part        5.4652346 magnetization       0.8036457

 Broyden mixing:
  rms(total) = 0.20387E-01    rms(broyden)= 0.20385E-01
  rms(prec ) = 0.21729E-01
  weight for this iteration     100.00

 eigenvalues of (default mixing * dielectric matrix)
  average eigenvalue GAMMA=   2.0337
  8.7227  2.4338  2.4338  1.7546  1.1104  1.1104  0.8009  0.6947  0.6572  0.6180

 Free energy of the ion-electron system (eV)
  ---------------------------------------------------
  alpha Z        PSCENC =        49.28462660
  Ewald energy   TEWEN  =     52388.16410050
  -Hartree energ DENC   =    -58371.06461775
  -exchange      EXHF   =         0.00000000
  -V(xc)+E(xc)   XCENC  =       669.74317158
  PAW double counting   =     19094.66820072   -19142.92348036
  entropy T*S    EENTRO =        -0.00632553
  eigenvalues    EBANDS =     -2390.16769521
  atomic energy  EATOM  =      7265.91972593
  Solvation  Ediel_sol  =         0.00000000
  ---------------------------------------------------
  free energy    TOTEN  =      -436.38229351 eV

  energy without entropy =     -436.37596798  energy(sigma->0) =     -436.37913074


--------------------------------------------------------------------------------------------------------




----------------------------------------- Iteration    1(  16)  ---------------------------------------


    POTLOK:  cpu time    1.3626: real time    1.3627
    SETDIJ:  cpu time    1.3948: real time    1.3961
     EDDAV:  cpu time   41.5064: real time   41.5122
       DOS:  cpu time    0.0005: real time    0.0005
    CHARGE:  cpu time    3.6835: real time    3.6837
    MIXING:  cpu time    0.0693: real time    0.0693
    --------------------------------------------
      LOOP:  cpu time   48.0177: real time   48.0281

 eigenvalue-minimisations  :  2912
 total energy-change (2. order) :-0.3952744E+00  (-0.7499268E-03)
 number of electron     195.0000000 magnetization       0.5787650
 augmentation part        5.4644491 magnetization       0.5586430

 Broyden mixing:
  rms(total) = 0.15185E-01    rms(broyden)= 0.15183E-01
  rms(prec ) = 0.16473E-01
  weight for this iteration     100.00

 eigenvalues of (default mixing * dielectric matrix)
  average eigenvalue GAMMA=   2.1365
  9.9449  2.6283  2.6283  1.7898  1.4898  1.3255  0.9510  0.7815  0.6879  0.6564
  0.6174

 Free energy of the ion-electron system (eV)
  ---------------------------------------------------
  alpha Z        PSCENC =        49.28462660
  Ewald energy   TEWEN  =     52388.16410050
  -Hartree energ DENC   =    -58373.19176199
  -exchange      EXHF   =         0.00000000
  -V(xc)+E(xc)   XCENC  =       669.30179419
  PAW double counting   =     19094.22192670   -19142.48358352
  entropy T*S    EENTRO =        -0.00637560
  eigenvalues    EBANDS =     -2387.98802074
  atomic energy  EATOM  =      7265.91972593
  Solvation  Ediel_sol  =         0.00000000
  ---------------------------------------------------
  free energy    TOTEN  =      -436.77756792 eV

  energy without entropy =     -436.77119232  energy(sigma->0) =     -436.77438012


--------------------------------------------------------------------------------------------------------




----------------------------------------- Iteration    1(  17)  ---------------------------------------


    POTLOK:  cpu time    1.4902: real time    1.4907
    SETDIJ:  cpu time    1.3984: real time    1.3985
     EDDAV:  cpu time   40.0445: real time   40.0488
       DOS:  cpu time    0.0005: real time    0.0005
    CHARGE:  cpu time    3.6733: real time    3.6735
    MIXING:  cpu time    0.0612: real time    0.0612
    --------------------------------------------
      LOOP:  cpu time   46.6687: real time   46.6761

 eigenvalue-minimisations  :  2784
 total energy-change (2. order) :-0.3111289E+00  (-0.6239740E-03)
 number of electron     195.0000000 magnetization       0.4056275
 augmentation part        5.4645808 magnetization       0.3936578

 Broyden mixing:
  rms(total) = 0.10249E-01    rms(broyden)= 0.10248E-01
  rms(prec ) = 0.11214E-01
  weight for this iteration     100.00

 eigenvalues of (default mixing * dielectric matrix)
  average eigenvalue GAMMA=   2.2091
 10.8867  3.5409  2.4446  1.8954  1.8954  1.1348  1.1348  0.8565  0.7668  0.6170
  0.6823  0.6540

 Free energy of the ion-electron system (eV)
  ---------------------------------------------------
  alpha Z        PSCENC =        49.28462660
  Ewald energy   TEWEN  =     52388.16410050
  -Hartree energ DENC   =    -58371.22856692
  -exchange      EXHF   =         0.00000000
  -V(xc)+E(xc)   XCENC  =       668.91486679
  PAW double counting   =     19101.25642622   -19149.52022563
  entropy T*S    EENTRO =        -0.00639848
  eigenvalues    EBANDS =     -2389.87325186
  atomic energy  EATOM  =      7265.91972593
  Solvation  Ediel_sol  =         0.00000000
  ---------------------------------------------------
  free energy    TOTEN  =      -437.08869684 eV

  energy without entropy =     -437.08229836  energy(sigma->0) =     -437.08549760


--------------------------------------------------------------------------------------------------------




----------------------------------------- Iteration    1(  18)  ---------------------------------------


    POTLOK:  cpu time    1.4947: real time    1.4950
    SETDIJ:  cpu time    1.3931: real time    1.3932
     EDDAV:  cpu time   40.5912: real time   40.5965
       DOS:  cpu time    0.0005: real time    0.0005
    CHARGE:  cpu time    3.6835: real time    3.6839
    MIXING:  cpu time    0.0679: real time    0.0679
    --------------------------------------------
      LOOP:  cpu time   47.2316: real time   47.2397

 eigenvalue-minimisations  :  2832
 total energy-change (2. order) :-0.1210704E+00  (-0.2690250E-03)
 number of electron     195.0000000 magnetization       0.2826301
 augmentation part        5.4646925 magnetization       0.2756324

 Broyden mixing:
  rms(total) = 0.74843E-02    rms(broyden)= 0.74840E-02
  rms(prec ) = 0.82152E-02
  weight for this iteration     100.00

 eigenvalues of (default mixing * dielectric matrix)
  average eigenvalue GAMMA=   2.2475
 11.5071  4.2269  2.3422  2.0734  1.9688  1.3085  1.3085  0.9805  0.8107  0.7474
  0.6166  0.6761  0.6513

 Free energy of the ion-electron system (eV)
  ---------------------------------------------------
  alpha Z        PSCENC =        49.28462660
  Ewald energy   TEWEN  =     52388.16410050
  -Hartree energ DENC   =    -58368.63230591
  -exchange      EXHF   =         0.00000000
  -V(xc)+E(xc)   XCENC  =       668.75377186
  PAW double counting   =     19105.53633865   -19153.80063001
  entropy T*S    EENTRO =        -0.00640715
  eigenvalues    EBANDS =     -2392.42898778
  atomic energy  EATOM  =      7265.91972593
  Solvation  Ediel_sol  =         0.00000000
  ---------------------------------------------------
  free energy    TOTEN  =      -437.20976729 eV

  energy without entropy =     -437.20336015  energy(sigma->0) =     -437.20656372


--------------------------------------------------------------------------------------------------------




----------------------------------------- Iteration    1(  19)  ---------------------------------------


    POTLOK:  cpu time    1.4916: real time    1.4917
    SETDIJ:  cpu time    1.3985: real time    1.3988
     EDDAV:  cpu time   40.9494: real time   40.9540
       DOS:  cpu time    0.0005: real time    0.0005
    CHARGE:  cpu time    3.6733: real time    3.6735
    MIXING:  cpu time    0.0688: real time    0.0688
    --------------------------------------------
      LOOP:  cpu time   47.5827: real time   47.5899

 eigenvalue-minimisations  :  2864
 total energy-change (2. order) :-0.4262705E-01  (-0.1333361E-03)
 number of electron     195.0000000 magnetization       0.1866268
 augmentation part        5.4649928 magnetization       0.1821915

 Broyden mixing:
  rms(total) = 0.54239E-02    rms(broyden)= 0.54238E-02
  rms(prec ) = 0.59869E-02
  weight for this iteration     100.00

 eigenvalues of (default mixing * dielectric matrix)
  average eigenvalue GAMMA=   2.2975
 12.0729  5.0402  2.4286  2.4286  1.7213  1.7213  1.1958  1.1958  0.9131  0.7991
  0.7108  0.6167  0.6704  0.6496

 Free energy of the ion-electron system (eV)
  ---------------------------------------------------
  alpha Z        PSCENC =        49.28462660
  Ewald energy   TEWEN  =     52388.16410050
  -Hartree energ DENC   =    -58365.90264021
  -exchange      EXHF   =         0.00000000
  -V(xc)+E(xc)   XCENC  =       668.68726177
  PAW double counting   =     19106.20609481   -19154.46717467
  entropy T*S    EENTRO =        -0.00640940
  eigenvalues    EBANDS =     -2395.13797968
  atomic energy  EATOM  =      7265.91972593
  Solvation  Ediel_sol  =         0.00000000
  ---------------------------------------------------
  free energy    TOTEN  =      -437.25239434 eV

  energy without entropy =     -437.24598494  energy(sigma->0) =     -437.24918964


--------------------------------------------------------------------------------------------------------




----------------------------------------- Iteration    1(  20)  ---------------------------------------


    POTLOK:  cpu time    1.4929: real time    1.4930
    SETDIJ:  cpu time    1.3989: real time    1.3990
     EDDAV:  cpu time   40.2256: real time   40.2308
       DOS:  cpu time    0.0005: real time    0.0005
    CHARGE:  cpu time    3.6907: real time    3.6915
    MIXING:  cpu time    0.0756: real time    0.0756
    --------------------------------------------
      LOOP:  cpu time   46.8848: real time   46.8939

 eigenvalue-minimisations  :  2800
 total energy-change (2. order) :-0.1180636E-01  (-0.5894795E-04)
 number of electron     195.0000000 magnetization       0.1174561
 augmentation part        5.4651685 magnetization       0.1148744

 Broyden mixing:
  rms(total) = 0.38655E-02    rms(broyden)= 0.38654E-02
  rms(prec ) = 0.42732E-02
  weight for this iteration     100.00

 eigenvalues of (default mixing * dielectric matrix)
  average eigenvalue GAMMA=   2.3297
 12.5225  5.8199  2.7423  2.4178  1.9248  1.4029  1.3627  1.3627  1.1389  0.8485
  0.7817  0.6946  0.6168  0.6629  0.6471

 Free energy of the ion-electron system (eV)
  ---------------------------------------------------
  alpha Z        PSCENC =        49.28462660
  Ewald energy   TEWEN  =     52388.16410050
  -Hartree energ DENC   =    -58363.53850905
  -exchange      EXHF   =         0.00000000
  -V(xc)+E(xc)   XCENC  =       668.66550345
  PAW double counting   =     19107.34012424   -19155.59870764
  entropy T*S    EENTRO =        -0.00641058
  eigenvalues    EBANDS =     -2397.49465416
  atomic energy  EATOM  =      7265.91972593
  Solvation  Ediel_sol  =         0.00000000
  ---------------------------------------------------
  free energy    TOTEN  =      -437.26420070 eV

  energy without entropy =     -437.25779012  energy(sigma->0) =     -437.26099541


--------------------------------------------------------------------------------------------------------




----------------------------------------- Iteration    1(  21)  ---------------------------------------


    POTLOK:  cpu time    1.4987: real time    1.4988
    SETDIJ:  cpu time    1.3973: real time    1.3976
     EDDAV:  cpu time   40.4257: real time   40.4304
       DOS:  cpu time    0.0005: real time    0.0005
    CHARGE:  cpu time    3.8450: real time    3.8466
    MIXING:  cpu time    0.0660: real time    0.0660
    --------------------------------------------
      LOOP:  cpu time   47.2338: real time   47.2424

 eigenvalue-minimisations  :  2824
 total energy-change (2. order) :-0.1222504E-01  (-0.2215592E-04)
 number of electron     195.0000000 magnetization       0.0637806
 augmentation part        5.4652505 magnetization       0.0625817

 Broyden mixing:
  rms(total) = 0.27087E-02    rms(broyden)= 0.27086E-02
  rms(prec ) = 0.29967E-02
  weight for this iteration     100.00

 eigenvalues of (default mixing * dielectric matrix)
  average eigenvalue GAMMA=   2.3752
 12.9663  6.5922  3.2105  2.3356  2.1439  1.5573  1.5573  1.2155  1.2155  1.0307
  0.8223  0.7549  0.6880  0.6165  0.6481  0.6481

 Free energy of the ion-electron system (eV)
  ---------------------------------------------------
  alpha Z        PSCENC =        49.28462660
  Ewald energy   TEWEN  =     52388.16410050
  -Hartree energ DENC   =    -58361.96101900
  -exchange      EXHF   =         0.00000000
  -V(xc)+E(xc)   XCENC  =       668.65338149
  PAW double counting   =     19106.54799538   -19154.80632772
  entropy T*S    EENTRO =        -0.00641119
  eigenvalues    EBANDS =     -2399.07249775
  atomic energy  EATOM  =      7265.91972593
  Solvation  Ediel_sol  =         0.00000000
  ---------------------------------------------------
  free energy    TOTEN  =      -437.27642574 eV

  energy without entropy =     -437.27001456  energy(sigma->0) =     -437.27322015


--------------------------------------------------------------------------------------------------------




----------------------------------------- Iteration    1(  22)  ---------------------------------------


    POTLOK:  cpu time    1.5062: real time    1.5073
    SETDIJ:  cpu time    1.3918: real time    1.3927
     EDDAV:  cpu time   40.1645: real time   40.1695
       DOS:  cpu time    0.0005: real time    0.0005
    CHARGE:  cpu time    3.8767: real time    3.8771
    MIXING:  cpu time    0.0756: real time    0.0756
    --------------------------------------------
      LOOP:  cpu time   47.0162: real time   47.0260

 eigenvalue-minimisations  :  2800
 total energy-change (2. order) :-0.2549375E-01  (-0.1077570E-04)
 number of electron     195.0000000 magnetization       0.0270110
 augmentation part        5.4652993 magnetization       0.0268105

 Broyden mixing:
  rms(total) = 0.16986E-02    rms(broyden)= 0.16984E-02
  rms(prec ) = 0.18861E-02
  weight for this iteration     100.00

 eigenvalues of (default mixing * dielectric matrix)
  average eigenvalue GAMMA=   2.5051
 13.7526  7.9565  3.9926  2.3761  2.3761  1.9556  1.4510  1.4510  1.1303  1.1303
  0.9030  0.8026  0.7325  0.6805  0.6160  0.6448  0.6351

 Free energy of the ion-electron system (eV)
  ---------------------------------------------------
  alpha Z        PSCENC =        49.28462660
  Ewald energy   TEWEN  =     52388.16410050
  -Hartree energ DENC   =    -58360.72407875
  -exchange      EXHF   =         0.00000000
  -V(xc)+E(xc)   XCENC  =       668.62647377
  PAW double counting   =     19105.19675922   -19153.45582562
  entropy T*S    EENTRO =        -0.00641117
  eigenvalues    EBANDS =     -2400.30728998
  atomic energy  EATOM  =      7265.91972593
  Solvation  Ediel_sol  =         0.00000000
  ---------------------------------------------------
  free energy    TOTEN  =      -437.30191949 eV

  energy without entropy =     -437.29550832  energy(sigma->0) =     -437.29871391


--------------------------------------------------------------------------------------------------------




----------------------------------------- Iteration    1(  23)  ---------------------------------------


    POTLOK:  cpu time    1.4924: real time    1.4927
    SETDIJ:  cpu time    1.3999: real time    1.4001
     EDDAV:  cpu time   40.6294: real time   40.6362
       DOS:  cpu time    0.0005: real time    0.0005
    CHARGE:  cpu time    3.9142: real time    3.9145
    MIXING:  cpu time    0.0748: real time    0.0748
    --------------------------------------------
      LOOP:  cpu time   47.5119: real time   47.5211

 eigenvalue-minimisations  :  2840
 total energy-change (2. order) :-0.2049463E-01  (-0.5796862E-05)
 number of electron     195.0000000 magnetization       0.0156561
 augmentation part        5.4653333 magnetization       0.0161660

 Broyden mixing:
  rms(total) = 0.96413E-03    rms(broyden)= 0.96402E-03
  rms(prec ) = 0.11049E-02
  weight for this iteration     100.00

 eigenvalues of (default mixing * dielectric matrix)
  average eigenvalue GAMMA=   2.5261
 14.2867  8.7081  4.3382  2.4665  2.4665  1.9901  1.4767  1.4767  1.1790  1.1790
  0.9675  0.8710  0.7798  0.7143  0.6766  0.6482  0.6155  0.6291

 Free energy of the ion-electron system (eV)
  ---------------------------------------------------
  alpha Z        PSCENC =        49.28462660
  Ewald energy   TEWEN  =     52388.16410050
  -Hartree energ DENC   =    -58359.84102576
  -exchange      EXHF   =         0.00000000
  -V(xc)+E(xc)   XCENC  =       668.60347470
  PAW double counting   =     19105.36384379   -19153.62412817
  entropy T*S    EENTRO =        -0.00641115
  eigenvalues    EBANDS =     -2401.18662057
  atomic energy  EATOM  =      7265.91972593
  Solvation  Ediel_sol  =         0.00000000
  ---------------------------------------------------
  free energy    TOTEN  =      -437.32241413 eV

  energy without entropy =     -437.31600298  energy(sigma->0) =     -437.31920855


--------------------------------------------------------------------------------------------------------




----------------------------------------- Iteration    1(  24)  ---------------------------------------


    POTLOK:  cpu time    1.5038: real time    1.5039
    SETDIJ:  cpu time    1.3942: real time    1.3943
     EDDAV:  cpu time   37.0895: real time   37.0936
       DOS:  cpu time    0.0005: real time    0.0005
    CHARGE:  cpu time    4.3160: real time    4.3164
    MIXING:  cpu time    0.0822: real time    0.0822
    --------------------------------------------
      LOOP:  cpu time   44.3868: real time   44.3943

 eigenvalue-minimisations  :  2544
 total energy-change (2. order) :-0.4401812E-02  (-0.3161838E-05)
 number of electron     195.0000000 magnetization       0.0073596
 augmentation part        5.4653324 magnetization       0.0078514

 Broyden mixing:
  rms(total) = 0.66408E-03    rms(broyden)= 0.66397E-03
  rms(prec ) = 0.76292E-03
  weight for this iteration     100.00

 eigenvalues of (default mixing * dielectric matrix)
  average eigenvalue GAMMA=   2.5475
 14.6205  9.1438  4.6174  2.7655  2.4169  2.0001  2.0001  1.3914  1.3914  1.1454
  1.1454  0.9244  0.8265  0.7561  0.6963  0.6707  0.6495  0.6155  0.6256

 Free energy of the ion-electron system (eV)
  ---------------------------------------------------
  alpha Z        PSCENC =        49.28462660
  Ewald energy   TEWEN  =     52388.16410050
  -Hartree energ DENC   =    -58359.61676102
  -exchange      EXHF   =         0.00000000
  -V(xc)+E(xc)   XCENC  =       668.59846976
  PAW double counting   =     19105.71234585   -19153.97356870
  entropy T*S    EENTRO =        -0.00641133
  eigenvalues    EBANDS =     -2401.40934354
  atomic energy  EATOM  =      7265.91972593
  Solvation  Ediel_sol  =         0.00000000
  ---------------------------------------------------
  free energy    TOTEN  =      -437.32681594 eV

  energy without entropy =     -437.32040461  energy(sigma->0) =     -437.32361027


--------------------------------------------------------------------------------------------------------




----------------------------------------- Iteration    1(  25)  ---------------------------------------


    POTLOK:  cpu time    1.5099: real time    1.5101
    SETDIJ:  cpu time    1.3918: real time    1.3932
     EDDAV:  cpu time   35.7749: real time   35.7790
       DOS:  cpu time    0.0005: real time    0.0005
    CHARGE:  cpu time    4.3129: real time    4.3144
    MIXING:  cpu time    0.0754: real time    0.0754
    --------------------------------------------
      LOOP:  cpu time   43.0663: real time   43.0748

 eigenvalue-minimisations  :  2424
 total energy-change (2. order) :-0.2612563E-02  (-0.4410966E-05)
 number of electron     195.0000000 magnetization       0.0034687
 augmentation part        5.4653332 magnetization       0.0038352

 Broyden mixing:
  rms(total) = 0.38720E-03    rms(broyden)= 0.38701E-03
  rms(prec ) = 0.44262E-03
  weight for this iteration     100.00

 eigenvalues of (default mixing * dielectric matrix)
  average eigenvalue GAMMA=   2.5697
 14.8809  9.4952  5.0539  3.3526  2.4024  2.4024  1.9742  1.4413  1.4413  1.1599
  1.1599  0.9327  0.9327  0.7941  0.7350  0.6890  0.6643  0.6441  0.6165  0.6204

 Free energy of the ion-electron system (eV)
  ---------------------------------------------------
  alpha Z        PSCENC =        49.28462660
  Ewald energy   TEWEN  =     52388.16410050
  -Hartree energ DENC   =    -58359.49593647
  -exchange      EXHF   =         0.00000000
  -V(xc)+E(xc)   XCENC  =       668.59572523
  PAW double counting   =     19105.80560797   -19154.06739867
  entropy T*S    EENTRO =        -0.00641139
  eigenvalues    EBANDS =     -2401.52946822
  atomic energy  EATOM  =      7265.91972593
  Solvation  Ediel_sol  =         0.00000000
  ---------------------------------------------------
  free energy    TOTEN  =      -437.32942850 eV

  energy without entropy =     -437.32301711  energy(sigma->0) =     -437.32622281


--------------------------------------------------------------------------------------------------------




----------------------------------------- Iteration    1(  26)  ---------------------------------------


    POTLOK:  cpu time    1.5085: real time    1.5087
    SETDIJ:  cpu time    1.3983: real time    1.3985
     EDDAV:  cpu time   34.8122: real time   34.8161
       DOS:  cpu time    0.0005: real time    0.0005
    CHARGE:  cpu time    4.3356: real time    4.3361
    MIXING:  cpu time    0.0861: real time    0.0861
    --------------------------------------------
      LOOP:  cpu time   42.1420: real time   42.1493

 eigenvalue-minimisations  :  2288
 total energy-change (2. order) :-0.1026802E-02  (-0.2327528E-05)
 number of electron     195.0000000 magnetization       0.0019313
 augmentation part        5.4653347 magnetization       0.0022135

 Broyden mixing:
  rms(total) = 0.24405E-03    rms(broyden)= 0.24376E-03
  rms(prec ) = 0.28406E-03
  weight for this iteration     100.00

 eigenvalues of (default mixing * dielectric matrix)
  average eigenvalue GAMMA=   2.5565
 15.0136  9.7000  5.4710  3.6965  2.4670  2.4670  1.9170  1.4504  1.2910  1.2910
  1.2206  1.2206  0.9490  0.8343  0.7740  0.7169  0.6818  0.6546  0.6388  0.6169
  0.6134

 Free energy of the ion-electron system (eV)
  ---------------------------------------------------
  alpha Z        PSCENC =        49.28462660
  Ewald energy   TEWEN  =     52388.16410050
  -Hartree energ DENC   =    -58359.47167651
  -exchange      EXHF   =         0.00000000
  -V(xc)+E(xc)   XCENC  =       668.59495941
  PAW double counting   =     19105.89179855   -19154.15338744
  entropy T*S    EENTRO =        -0.00641131
  eigenvalues    EBANDS =     -2401.55419105
  atomic energy  EATOM  =      7265.91972593
  Solvation  Ediel_sol  =         0.00000000
  ---------------------------------------------------
  free energy    TOTEN  =      -437.33045530 eV

  energy without entropy =     -437.32404399  energy(sigma->0) =     -437.32724965


--------------------------------------------------------------------------------------------------------




----------------------------------------- Iteration    1(  27)  ---------------------------------------


    POTLOK:  cpu time    1.5090: real time    1.5091
    SETDIJ:  cpu time    1.3909: real time    1.3910
     EDDAV:  cpu time   34.1760: real time   34.1801
       DOS:  cpu time    0.0006: real time    0.0006
    CHARGE:  cpu time    4.3349: real time    4.3353
    MIXING:  cpu time    0.0856: real time    0.0856
    --------------------------------------------
      LOOP:  cpu time   41.4976: real time   41.5038

 eigenvalue-minimisations  :  2280
 total energy-change (2. order) :-0.3861784E-03  (-0.5480328E-06)
 number of electron     195.0000000 magnetization       0.0010906
 augmentation part        5.4653326 magnetization       0.0012843

 Broyden mixing:
  rms(total) = 0.15406E-03    rms(broyden)= 0.15361E-03
  rms(prec ) = 0.18785E-03
  weight for this iteration     100.00

 eigenvalues of (default mixing * dielectric matrix)
  average eigenvalue GAMMA=   2.5460
 15.0733  9.8058  5.7782  3.8955  2.5081  2.5081  2.0007  2.0007  1.3797  1.3797
  1.1497  1.1497  0.9589  0.9589  0.8137  0.7591  0.7075  0.6773  0.6464  0.6355
  0.6162  0.6095

 Free energy of the ion-electron system (eV)
  ---------------------------------------------------
  alpha Z        PSCENC =        49.28462660
  Ewald energy   TEWEN  =     52388.16410050
  -Hartree energ DENC   =    -58359.49525850
  -exchange      EXHF   =         0.00000000
  -V(xc)+E(xc)   XCENC  =       668.59517769
  PAW double counting   =     19105.99077932   -19154.25212929
  entropy T*S    EENTRO =        -0.00641132
  eigenvalues    EBANDS =     -2401.53145243
  atomic energy  EATOM  =      7265.91972593
  Solvation  Ediel_sol  =         0.00000000
  ---------------------------------------------------
  free energy    TOTEN  =      -437.33084148 eV

  energy without entropy =     -437.32443016  energy(sigma->0) =     -437.32763582


--------------------------------------------------------------------------------------------------------




----------------------------------------- Iteration    1(  28)  ---------------------------------------


    POTLOK:  cpu time    1.5083: real time    1.5085
    SETDIJ:  cpu time    1.3977: real time    1.3981
     EDDAV:  cpu time   33.2805: real time   33.2855
       DOS:  cpu time    0.0008: real time    0.0008
    CHARGE:  cpu time    4.3267: real time    4.3270
    MIXING:  cpu time    0.0945: real time    0.0946
    --------------------------------------------
      LOOP:  cpu time   40.6090: real time   40.6170

 eigenvalue-minimisations  :  2200
 total energy-change (2. order) :-0.2401559E-03  (-0.2266550E-06)
 number of electron     195.0000000 magnetization       0.0006370
 augmentation part        5.4653246 magnetization       0.0007330

 Broyden mixing:
  rms(total) = 0.11397E-03    rms(broyden)= 0.11335E-03
  rms(prec ) = 0.13398E-03
  weight for this iteration     100.00

 eigenvalues of (default mixing * dielectric matrix)
  average eigenvalue GAMMA=   2.5458
 15.1209  9.8953  6.1695  4.1891  2.7985  2.5432  2.2916  2.0216  1.4153  1.4153
  1.1856  1.1856  1.0412  1.0157  0.8309  0.8235  0.7421  0.6974  0.6728  0.6433
  0.6331  0.6153  0.6056

 Free energy of the ion-electron system (eV)
  ---------------------------------------------------
  alpha Z        PSCENC =        49.28462660
  Ewald energy   TEWEN  =     52388.16410050
  -Hartree energ DENC   =    -58359.53549042
  -exchange      EXHF   =         0.00000000
  -V(xc)+E(xc)   XCENC  =       668.59567859
  PAW double counting   =     19105.96756833   -19154.22875359
  entropy T*S    EENTRO =        -0.00641139
  eigenvalues    EBANDS =     -2401.49212621
  atomic energy  EATOM  =      7265.91972593
  Solvation  Ediel_sol  =         0.00000000
  ---------------------------------------------------
  free energy    TOTEN  =      -437.33108164 eV

  energy without entropy =     -437.32467025  energy(sigma->0) =     -437.32787595


--------------------------------------------------------------------------------------------------------




----------------------------------------- Iteration    1(  29)  ---------------------------------------


    POTLOK:  cpu time    1.5069: real time    1.5070
    SETDIJ:  cpu time    1.3933: real time    1.3934
     EDDAV:  cpu time   33.4696: real time   33.4748
       DOS:  cpu time    0.0005: real time    0.0005
    CHARGE:  cpu time    4.3524: real time    4.3527
    MIXING:  cpu time    0.0948: real time    0.0948
    --------------------------------------------
      LOOP:  cpu time   40.8183: real time   40.8264

 eigenvalue-minimisations  :  2216
 total energy-change (2. order) :-0.1169729E-03  (-0.9746436E-07)
 number of electron     195.0000000 magnetization       0.0003517
 augmentation part        5.4653186 magnetization       0.0003835

 Broyden mixing:
  rms(total) = 0.71365E-04    rms(broyden)= 0.70387E-04
  rms(prec ) = 0.84959E-04
  weight for this iteration     100.00

 eigenvalues of (default mixing * dielectric matrix)
  average eigenvalue GAMMA=   2.5315
 15.1452  9.9597  6.4954  4.4662  3.1367  2.4647  2.3451  1.9973  1.6780  1.2876
  1.2876  1.1645  1.1645  0.9889  0.9889  0.8274  0.7827  0.7253  0.6906  0.6696
  0.6443  0.6303  0.6156  0.6013

 Free energy of the ion-electron system (eV)
  ---------------------------------------------------
  alpha Z        PSCENC =        49.28462660
  Ewald energy   TEWEN  =     52388.16410050
  -Hartree energ DENC   =    -58359.55886821
  -exchange      EXHF   =         0.00000000
  -V(xc)+E(xc)   XCENC  =       668.59586655
  PAW double counting   =     19105.87059535   -19154.13169772
  entropy T*S    EENTRO =        -0.00641137
  eigenvalues    EBANDS =     -2401.46913624
  atomic energy  EATOM  =      7265.91972593
  Solvation  Ediel_sol  =         0.00000000
  ---------------------------------------------------
  free energy    TOTEN  =      -437.33119861 eV

  energy without entropy =     -437.32478724  energy(sigma->0) =     -437.32799293


--------------------------------------------------------------------------------------------------------




----------------------------------------- Iteration    1(  30)  ---------------------------------------


    POTLOK:  cpu time    1.5113: real time    1.5114
    SETDIJ:  cpu time    1.3951: real time    1.3952
     EDDAV:  cpu time   29.7839: real time   29.7877
       DOS:  cpu time    0.0005: real time    0.0005
    CHARGE:  cpu time    4.3354: real time    4.3357
    MIXING:  cpu time    0.0969: real time    0.0969
    --------------------------------------------
      LOOP:  cpu time   37.1240: real time   37.1305

 eigenvalue-minimisations  :  1880
 total energy-change (2. order) :-0.6076418E-04  (-0.3558962E-07)
 number of electron     195.0000000 magnetization       0.0001252
 augmentation part        5.4653159 magnetization       0.0001385

 Broyden mixing:
  rms(total) = 0.42991E-04    rms(broyden)= 0.41349E-04
  rms(prec ) = 0.51860E-04
  weight for this iteration     100.00

 eigenvalues of (default mixing * dielectric matrix)
  average eigenvalue GAMMA=   2.5276
 15.1599 10.0102  6.7488  4.7088  3.3678  2.3928  2.3928  2.1617  2.0075  1.3717
  1.3717  1.1740  1.1740  1.0450  1.0450  0.8964  0.8442  0.7599  0.7179  0.6870
  0.6647  0.6438  0.6285  0.6158  0.5994

 Free energy of the ion-electron system (eV)
  ---------------------------------------------------
  alpha Z        PSCENC =        49.28462660
  Ewald energy   TEWEN  =     52388.16410050
  -Hartree energ DENC   =    -58359.57513779
  -exchange      EXHF   =         0.00000000
  -V(xc)+E(xc)   XCENC  =       668.59588509
  PAW double counting   =     19105.82980334   -19154.09089196
  entropy T*S    EENTRO =        -0.00641134
  eigenvalues    EBANDS =     -2401.45295975
  atomic energy  EATOM  =      7265.91972593
  Solvation  Ediel_sol  =         0.00000000
  ---------------------------------------------------
  free energy    TOTEN  =      -437.33125938 eV

  energy without entropy =     -437.32484803  energy(sigma->0) =     -437.32805370


--------------------------------------------------------------------------------------------------------




----------------------------------------- Iteration    1(  31)  ---------------------------------------


    POTLOK:  cpu time    1.5172: real time    1.5175
    SETDIJ:  cpu time    1.3945: real time    1.3958
     EDDAV:  cpu time   30.0499: real time   30.0542
       DOS:  cpu time    0.0005: real time    0.0005
    CHARGE:  cpu time    4.3557: real time    4.3569
    MIXING:  cpu time    0.1056: real time    0.1056
    --------------------------------------------
      LOOP:  cpu time   37.4244: real time   37.4340

 eigenvalue-minimisations  :  1904
 total energy-change (2. order) :-0.4343187E-04  (-0.2398179E-07)
 number of electron     195.0000000 magnetization       0.0000344
 augmentation part        5.4653134 magnetization       0.0000453

 Broyden mixing:
  rms(total) = 0.37275E-04    rms(broyden)= 0.35371E-04
  rms(prec ) = 0.39465E-04
  weight for this iteration     100.00

 eigenvalues of (default mixing * dielectric matrix)
  average eigenvalue GAMMA=   2.5474
 15.1731 10.0813  7.1855  5.1572  3.7761  2.7270  2.3933  2.3933  1.9994  1.4847
  1.2426  1.2426  1.1851  1.1851  1.0875  0.9850  0.8453  0.8120  0.7397  0.7129
  0.6825  0.6571  0.6433  0.6269  0.6155  0.5985

 Free energy of the ion-electron system (eV)
  ---------------------------------------------------
  alpha Z        PSCENC =        49.28462660
  Ewald energy   TEWEN  =     52388.16410050
  -Hartree energ DENC   =    -58359.59380910
  -exchange      EXHF   =         0.00000000
  -V(xc)+E(xc)   XCENC  =       668.59589141
  PAW double counting   =     19105.83352283   -19154.09466150
  entropy T*S    EENTRO =        -0.00641135
  eigenvalues    EBANDS =     -2401.43428814
  atomic energy  EATOM  =      7265.91972593
  Solvation  Ediel_sol  =         0.00000000
  ---------------------------------------------------
  free energy    TOTEN  =      -437.33130281 eV

  energy without entropy =     -437.32489146  energy(sigma->0) =     -437.32809713


--------------------------------------------------------------------------------------------------------




----------------------------------------- Iteration    1(  32)  ---------------------------------------


    POTLOK:  cpu time    1.5206: real time    1.5207
    SETDIJ:  cpu time    1.3919: real time    1.3924
     EDDAV:  cpu time   30.3995: real time   30.4034
       DOS:  cpu time    0.0005: real time    0.0005
    CHARGE:  cpu time    4.3335: real time    4.3339
    MIXING:  cpu time    0.1117: real time    0.1117
    --------------------------------------------
      LOOP:  cpu time   37.7583: real time   37.7649

 eigenvalue-minimisations  :  1936
 total energy-change (2. order) :-0.1699607E-04  (-0.6769518E-08)
 number of electron     195.0000000 magnetization       0.0000204
 augmentation part        5.4653119 magnetization       0.0000298

 Broyden mixing:
  rms(total) = 0.19903E-04    rms(broyden)= 0.16061E-04
  rms(prec ) = 0.18459E-04
  weight for this iteration     100.00
  WARNING: grid for Broyden might be to small

 eigenvalues of (default mixing * dielectric matrix)
  average eigenvalue GAMMA=   2.5452
 15.1780 10.1423  7.6211  5.4974  3.9954  2.9094  2.4115  2.4115  1.9768  1.7680
  1.2951  1.2951  1.1561  1.1561  1.0516  1.0516  0.9386  0.8449  0.7763  0.7324
  0.7011  0.6766  0.6538  0.6378  0.6159  0.6268  0.5980

 Free energy of the ion-electron system (eV)
  ---------------------------------------------------
  alpha Z        PSCENC =        49.28462660
  Ewald energy   TEWEN  =     52388.16410050
  -Hartree energ DENC   =    -58359.60414937
  -exchange      EXHF   =         0.00000000
  -V(xc)+E(xc)   XCENC  =       668.59588621
  PAW double counting   =     19105.83837834   -19154.09955015
  entropy T*S    EENTRO =        -0.00641136
  eigenvalues    EBANDS =     -2401.42392651
  atomic energy  EATOM  =      7265.91972593
  Solvation  Ediel_sol  =         0.00000000
  ---------------------------------------------------
  free energy    TOTEN  =      -437.33131980 eV

  energy without entropy =     -437.32490845  energy(sigma->0) =     -437.32811412


--------------------------------------------------------------------------------------------------------




----------------------------------------- Iteration    1(  33)  ---------------------------------------


    POTLOK:  cpu time    1.5179: real time    1.5180
    SETDIJ:  cpu time    1.3913: real time    1.3914
     EDDAV:  cpu time   30.7535: real time   30.7578
       DOS:  cpu time    0.0005: real time    0.0005
    CHARGE:  cpu time    4.3539: real time    4.3542
    MIXING:  cpu time    0.1097: real time    0.1097
    --------------------------------------------
      LOOP:  cpu time   38.1273: real time   38.1345

 eigenvalue-minimisations  :  1968
 total energy-change (2. order) :-0.4961521E-05  (-0.8305648E-09)
 number of electron     195.0000000 magnetization       0.0000147
 augmentation part        5.4653111 magnetization       0.0000204

 Broyden mixing:
  rms(total) = 0.14391E-04    rms(broyden)= 0.83046E-05
  rms(prec ) = 0.10014E-04
  weight for this iteration     100.00
  WARNING: grid for Broyden might be to small

 eigenvalues of (default mixing * dielectric matrix)
  average eigenvalue GAMMA=   2.5329
 15.1793 10.1898  7.9582  5.6890  4.1193  3.0133  2.4484  2.4484  1.9535  1.9535
  1.3229  1.3229  1.1975  1.1975  1.1806  1.0345  1.0345  0.8532  0.8522  0.7592
  0.7278  0.6913  0.6711  0.6492  0.6348  0.6160  0.6253  0.5976

 Free energy of the ion-electron system (eV)
  ---------------------------------------------------
  alpha Z        PSCENC =        49.28462660
  Ewald energy   TEWEN  =     52388.16410050
  -Hartree energ DENC   =    -58359.60804834
  -exchange      EXHF   =         0.00000000
  -V(xc)+E(xc)   XCENC  =       668.59588102
  PAW double counting   =     19105.84145135   -19154.10261637
  entropy T*S    EENTRO =        -0.00641136
  eigenvalues    EBANDS =     -2401.42003411
  atomic energy  EATOM  =      7265.91972593
  Solvation  Ediel_sol  =         0.00000000
  ---------------------------------------------------
  free energy    TOTEN  =      -437.33132477 eV

  energy without entropy =     -437.32491341  energy(sigma->0) =     -437.32811909


--------------------------------------------------------------------------------------------------------




----------------------------------------- Iteration    1(  34)  ---------------------------------------


    POTLOK:  cpu time    1.5090: real time    1.5094
    SETDIJ:  cpu time    1.3911: real time    1.3913
     EDDAV:  cpu time   29.3336: real time   29.3381
       DOS:  cpu time    0.0005: real time    0.0005
    CHARGE:  cpu time    4.3199: real time    4.3202
    MIXING:  cpu time    0.1207: real time    0.1207
    --------------------------------------------
      LOOP:  cpu time   36.6755: real time   36.6829

 eigenvalue-minimisations  :  1840
 total energy-change (2. order) :-0.2662158E-05  ( 0.5876976E-09)
 number of electron     195.0000000 magnetization       0.0000079
 augmentation part        5.4653107 magnetization       0.0000104

 Broyden mixing:
  rms(total) = 0.13808E-04    rms(broyden)= 0.72479E-05
  rms(prec ) = 0.81624E-05
  weight for this iteration     100.00
  WARNING: grid for Broyden might be to small

 eigenvalues of (default mixing * dielectric matrix)
  average eigenvalue GAMMA=   2.5210
 15.1810 10.2265  8.1940  5.8252  4.2327  3.1539  2.4801  2.4801  2.0454  2.0454
  1.7089  1.2755  1.2755  1.1617  1.1617  1.0608  1.0158  1.0158  0.8302  0.8064
  0.7441  0.7217  0.6853  0.6668  0.6474  0.6325  0.6158  0.6221  0.5975

 Free energy of the ion-electron system (eV)
  ---------------------------------------------------
  alpha Z        PSCENC =        49.28462660
  Ewald energy   TEWEN  =     52388.16410050
  -Hartree energ DENC   =    -58359.61117685
  -exchange      EXHF   =         0.00000000
  -V(xc)+E(xc)   XCENC  =       668.59588590
  PAW double counting   =     19105.84074539   -19154.10189186
  entropy T*S    EENTRO =        -0.00641135
  eigenvalues    EBANDS =     -2401.41693169
  atomic energy  EATOM  =      7265.91972593
  Solvation  Ediel_sol  =         0.00000000
  ---------------------------------------------------
  free energy    TOTEN  =      -437.33132743 eV

  energy without entropy =     -437.32491608  energy(sigma->0) =     -437.32812175


--------------------------------------------------------------------------------------------------------




----------------------------------------- Iteration    1(  35)  ---------------------------------------


    POTLOK:  cpu time    1.5183: real time    1.5184
    SETDIJ:  cpu time    1.3913: real time    1.3925
     EDDAV:  cpu time   29.7110: real time   29.7149
       DOS:  cpu time    0.0005: real time    0.0005
    CHARGE:  cpu time    4.3273: real time    4.3285
    MIXING:  cpu time    0.1234: real time    0.1234
    --------------------------------------------
      LOOP:  cpu time   37.0725: real time   37.0812

 eigenvalue-minimisations  :  1872
 total energy-change (2. order) :-0.1236784E-05  ( 0.1490704E-08)
 number of electron     195.0000000 magnetization       0.0000032
 augmentation part        5.4653104 magnetization       0.0000052

 Broyden mixing:
  rms(total) = 0.12130E-04    rms(broyden)= 0.30056E-05
  rms(prec ) = 0.38172E-05
  weight for this iteration     100.00
  WARNING: grid for Broyden might be to small

 eigenvalues of (default mixing * dielectric matrix)
  average eigenvalue GAMMA=   2.4984
 15.1821 10.2468  8.3220  5.9128  4.3287  3.3070  2.5128  2.5128  2.2710  1.9955
  1.8037  1.3042  1.3042  1.1590  1.1590  1.1905  1.0196  1.0196  0.8680  0.8680
  0.7752  0.7327  0.7106  0.6806  0.6586  0.6446  0.6298  0.6168  0.6168  0.5976

 Free energy of the ion-electron system (eV)
  ---------------------------------------------------
  alpha Z        PSCENC =        49.28462660
  Ewald energy   TEWEN  =     52388.16410050
  -Hartree energ DENC   =    -58359.61340618
  -exchange      EXHF   =         0.00000000
  -V(xc)+E(xc)   XCENC  =       668.59589293
  PAW double counting   =     19105.83976309   -19154.10089859
  entropy T*S    EENTRO =        -0.00641135
  eigenvalues    EBANDS =     -2401.41472161
  atomic energy  EATOM  =      7265.91972593
  Solvation  Ediel_sol  =         0.00000000
  ---------------------------------------------------
  free energy    TOTEN  =      -437.33132866 eV

  energy without entropy =     -437.32491731  energy(sigma->0) =     -437.32812299


--------------------------------------------------------------------------------------------------------




----------------------------------------- Iteration    1(  36)  ---------------------------------------


    POTLOK:  cpu time    1.5167: real time    1.5168
    SETDIJ:  cpu time    1.3933: real time    1.3934
     EDDAV:  cpu time   30.0778: real time   30.0815
       DOS:  cpu time    0.0005: real time    0.0005
    --------------------------------------------
      LOOP:  cpu time   32.9888: real time   32.9956

 eigenvalue-minimisations  :  1880
 total energy-change (2. order) :-0.4768208E-06  ( 0.1740269E-08)
 number of electron     195.0000000 magnetization       0.0000032
 augmentation part        5.4653104 magnetization       0.0000052

 Free energy of the ion-electron system (eV)
  ---------------------------------------------------
  alpha Z        PSCENC =        49.28462660
  Ewald energy   TEWEN  =     52388.16410050
  -Hartree energ DENC   =    -58359.61478251
  -exchange      EXHF   =         0.00000000
  -V(xc)+E(xc)   XCENC  =       668.59589962
  PAW double counting   =     19105.83916166   -19154.10029366
  entropy T*S    EENTRO =        -0.00641135
  eigenvalues    EBANDS =     -2401.41335593
  atomic energy  EATOM  =      7265.91972593
  Solvation  Ediel_sol  =         0.00000000
  ---------------------------------------------------
  free energy    TOTEN  =      -437.33132914 eV

  energy without entropy =     -437.32491779  energy(sigma->0) =     -437.32812346


--------------------------------------------------------------------------------------------------------




 average (electrostatic) potential at core
  the test charge radii are     0.6991  0.7079
  (the norm of the test charge is              1.0000)
       1 -58.3844       2 -58.3715       3 -58.2236       4 -58.2929       5 -58.0812
       6 -58.3585       7 -58.8267       8 -58.6289       9 -58.6732      10 -58.5434
      11 -58.5585      12 -58.5794      13 -58.4015      14 -58.5108      15 -58.3436
      16 -58.3635      17 -58.4052      18 -58.3817      19 -58.5372      20 -58.5509
      21 -58.5751      22 -58.6901      23 -58.7623      24 -59.0698      25 -58.4525
      26 -58.3164      27 -58.2867      28 -58.2742      29 -58.3606      30 -58.3837
      31 -58.4323      32 -58.3795      33 -58.9539      34 -58.7789      35 -58.8831
      36 -57.9024      37 -58.2411      38 -58.2826      39 -58.3589      40 -58.3317
      41 -58.2816      42 -58.1065      43 -57.8212      44 -58.7497      45 -58.8905
      46 -58.9243      47 -58.4056      48 -58.4587      49 -70.5017
 
 
 
 E-fermi :  -3.0969     XC(G=0):  -1.4527     alpha+bet : -1.2620


 spin component 1

 k-point     1 :       0.0000    0.0000    0.0000
  band No.  band energies     occupation 
      1     -51.4119      1.00000
      2     -22.3178      1.00000
      3     -21.6216      1.00000
      4     -21.4625      1.00000
      5     -21.3796      1.00000
      6     -21.2877      1.00000
      7     -21.1337      1.00000
      8     -20.8563      1.00000
      9     -19.6576      1.00000
     10     -19.5048      1.00000
     11     -19.4823      1.00000
     12     -19.4146      1.00000
     13     -19.3831      1.00000
     14     -19.1377      1.00000
     15     -18.7907      1.00000
     16     -18.6565      1.00000
     17     -18.5402      1.00000
     18     -18.4941      1.00000
     19     -18.2899      1.00000
     20     -17.7053      1.00000
     21     -16.4965      1.00000
     22     -16.4740      1.00000
     23     -16.4362      1.00000
     24     -16.1939      1.00000
     25     -16.0716      1.00000
     26     -15.9475      1.00000
     27     -15.5285      1.00000
     28     -15.4796      1.00000
     29     -15.2884      1.00000
     30     -15.1218      1.00000
     31     -15.0366      1.00000
     32     -14.5834      1.00000
     33     -14.1497      1.00000
     34     -14.0922      1.00000
     35     -13.9624      1.00000
     36     -13.7110      1.00000
     37     -13.5101      1.00000
     38     -12.7318      1.00000
     39     -11.7878      1.00000
     40     -11.6877      1.00000
     41     -11.6752      1.00000
     42     -11.6381      1.00000
     43     -11.5931      1.00000
     44     -11.5132      1.00000
     45     -11.4765      1.00000
     46     -11.3551      1.00000
     47     -11.1780      1.00000
     48     -11.1367      1.00000
     49     -10.7173      1.00000
     50     -10.5742      1.00000
     51     -10.4300      1.00000
     52     -10.2172      1.00000
     53     -10.0769      1.00000
     54     -10.0723      1.00000
     55     -10.0384      1.00000
     56      -9.9105      1.00000
     57      -9.5327      1.00000
     58      -9.4326      1.00000
     59      -9.4077      1.00000
     60      -9.3373      1.00000
     61      -9.2640      1.00000
     62      -9.1924      1.00000
     63      -9.0199      1.00000
     64      -9.0054      1.00000
     65      -8.9458      1.00000
     66      -8.8757      1.00000
     67      -8.8608      1.00000
     68      -8.7397      1.00000
     69      -8.7033      1.00000
     70      -8.6673      1.00000
     71      -8.6173      1.00000
     72      -8.2754      1.00000
     73      -7.9686      1.00000
     74      -7.7682      1.00000
     75      -7.5004      1.00000
     76      -7.3234      1.00000
     77      -7.3103      1.00000
     78      -7.2515      1.00000
     79      -7.2351      1.00000
     80      -7.2021      1.00000
     81      -7.1677      1.00000
     82      -7.1098      1.00000
     83      -7.1010      1.00000
     84      -6.9084      1.00000
     85      -6.4785      1.00000
     86      -6.4310      1.00000
     87      -6.3600      1.00000
     88      -6.3037      1.00000
     89      -6.2020      1.00000
     90      -6.0701      1.00000
     91      -5.9981      1.00000
     92      -5.5617      1.00000
     93      -4.4087      1.00000
     94      -4.3487      1.00000
     95      -4.2759      1.00000
     96      -4.1816      1.00000
     97      -3.9387      1.00000
     98      -3.2201      0.99975
     99      -1.8771      0.00000
    100      -1.6990      0.00000
    101      -1.4793      0.00000
    102      -1.3770      0.00000
    103      -1.2347      0.00000
    104      -0.9122      0.00000
    105      -0.7210      0.00000
    106      -0.0695      0.00000
    107       0.1197      0.00000
    108       0.1761      0.00000
    109       0.2507      0.00000
    110       0.4744      0.00000
    111       0.5187      0.00000
    112       0.6217      0.00000
    113       0.7275      0.00000
    114       0.8141      0.00000
    115       0.8680      0.00000
    116       0.9738      0.00000
    117       1.0202      0.00000
    118       1.1787      0.00000
    119       1.3428      0.00000
    120       1.3949      0.00000
    121       1.3965      0.00000
    122       1.4573      0.00000
    123       1.5293      0.00000
    124       1.8107      0.00000
    125       1.9165      0.00000
    126       2.0237      0.00000
    127       2.0876      0.00000
    128       2.0980      0.00000

 k-point     2 :       0.3333   -0.0000    0.0000
  band No.  band energies     occupation 
      1     -51.4119      1.00000
      2     -22.2243      1.00000
      3     -21.9449      1.00000
      4     -21.5602      1.00000
      5     -21.3785      1.00000
      6     -21.0182      1.00000
      7     -20.7858      1.00000
      8     -20.5220      1.00000
      9     -20.3548      1.00000
     10     -20.1051      1.00000
     11     -19.6494      1.00000
     12     -19.3472      1.00000
     13     -19.2383      1.00000
     14     -19.0351      1.00000
     15     -18.7523      1.00000
     16     -18.5529      1.00000
     17     -18.3250      1.00000
     18     -17.8582      1.00000
     19     -17.6984      1.00000
     20     -17.4562      1.00000
     21     -17.4149      1.00000
     22     -17.1461      1.00000
     23     -16.9350      1.00000
     24     -16.4902      1.00000
     25     -16.0918      1.00000
     26     -15.7803      1.00000
     27     -15.3860      1.00000
     28     -15.2410      1.00000
     29     -15.1619      1.00000
     30     -14.8836      1.00000
     31     -14.8068      1.00000
     32     -14.4969      1.00000
     33     -14.3351      1.00000
     34     -14.0517      1.00000
     35     -13.5977      1.00000
     36     -13.0389      1.00000
     37     -12.9808      1.00000
     38     -12.7689      1.00000
     39     -12.6746      1.00000
     40     -12.6605      1.00000
     41     -12.3660      1.00000
     42     -12.0443      1.00000
     43     -11.8723      1.00000
     44     -11.4028      1.00000
     45     -11.2730      1.00000
     46     -11.1034      1.00000
     47     -10.8564      1.00000
     48     -10.7426      1.00000
     49     -10.5321      1.00000
     50     -10.4252      1.00000
     51     -10.3169      1.00000
     52     -10.3106      1.00000
     53     -10.1462      1.00000
     54     -10.0025      1.00000
     55      -9.9605      1.00000
     56      -9.7833      1.00000
     57      -9.5755      1.00000
     58      -9.5533      1.00000
     59      -9.4372      1.00000
     60      -9.4046      1.00000
     61      -9.2650      1.00000
     62      -9.1971      1.00000
     63      -9.1212      1.00000
     64      -8.9262      1.00000
     65      -8.8846      1.00000
     66      -8.8715      1.00000
     67      -8.7269      1.00000
     68      -8.6952      1.00000
     69      -8.4650      1.00000
     70      -8.4063      1.00000
     71      -8.2429      1.00000
     72      -8.1635      1.00000
     73      -8.0221      1.00000
     74      -8.0078      1.00000
     75      -7.9551      1.00000
     76      -7.8463      1.00000
     77      -7.6679      1.00000
     78      -7.4082      1.00000
     79      -7.3659      1.00000
     80      -7.2223      1.00000
     81      -7.1077      1.00000
     82      -6.9775      1.00000
     83      -6.8429      1.00000
     84      -6.7691      1.00000
     85      -6.5924      1.00000
     86      -6.5623      1.00000
     87      -6.2297      1.00000
     88      -6.1392      1.00000
     89      -6.0232      1.00000
     90      -5.6180      1.00000
     91      -5.4864      1.00000
     92      -5.3486      1.00000
     93      -5.0427      1.00000
     94      -4.9283      1.00000
     95      -4.7600      1.00000
     96      -4.1654      1.00000
     97      -3.7327      1.00000
     98      -3.1330      0.84642
     99      -1.8098      0.00000
    100      -1.7669      0.00000
    101      -1.0874      0.00000
    102      -1.0354      0.00000
    103      -0.9709      0.00000
    104      -0.9310      0.00000
    105      -0.7452      0.00000
    106      -0.4979      0.00000
    107      -0.3892      0.00000
    108      -0.0749      0.00000
    109       0.1789      0.00000
    110       0.3740      0.00000
    111       0.6039      0.00000
    112       0.6810      0.00000
    113       0.7701      0.00000
    114       0.8302      0.00000
    115       0.9479      0.00000
    116       0.9612      0.00000
    117       1.0742      0.00000
    118       1.1266      0.00000
    119       1.2502      0.00000
    120       1.3458      0.00000
    121       1.3891      0.00000
    122       1.5117      0.00000
    123       1.5537      0.00000
    124       1.6717      0.00000
    125       1.6842      0.00000
    126       1.7989      0.00000
    127       1.8305      0.00000
    128       1.8370      0.00000

 k-point     3 :       0.0000    0.3333    0.0000
  band No.  band energies     occupation 
      1     -51.4119      1.00000
      2     -22.2231      1.00000
      3     -21.9471      1.00000
      4     -21.5682      1.00000
      5     -21.3640      1.00000
      6     -21.0214      1.00000
      7     -20.7878      1.00000
      8     -20.5174      1.00000
      9     -20.3571      1.00000
     10     -20.1133      1.00000
     11     -19.6494      1.00000
     12     -19.3474      1.00000
     13     -19.2282      1.00000
     14     -19.0418      1.00000
     15     -18.7390      1.00000
     16     -18.5572      1.00000
     17     -18.3301      1.00000
     18     -17.8579      1.00000
     19     -17.6944      1.00000
     20     -17.4546      1.00000
     21     -17.4205      1.00000
     22     -17.1494      1.00000
     23     -16.9379      1.00000
     24     -16.4979      1.00000
     25     -16.0849      1.00000
     26     -15.7750      1.00000
     27     -15.3837      1.00000
     28     -15.2437      1.00000
     29     -15.1523      1.00000
     30     -14.8825      1.00000
     31     -14.8070      1.00000
     32     -14.5029      1.00000
     33     -14.3417      1.00000
     34     -14.0479      1.00000
     35     -13.5995      1.00000
     36     -13.0417      1.00000
     37     -12.9805      1.00000
     38     -12.7662      1.00000
     39     -12.6802      1.00000
     40     -12.6550      1.00000
     41     -12.3681      1.00000
     42     -12.0450      1.00000
     43     -11.8706      1.00000
     44     -11.4052      1.00000
     45     -11.2739      1.00000
     46     -11.1018      1.00000
     47     -10.8582      1.00000
     48     -10.7367      1.00000
     49     -10.5363      1.00000
     50     -10.4207      1.00000
     51     -10.3221      1.00000
     52     -10.3083      1.00000
     53     -10.1441      1.00000
     54     -10.0028      1.00000
     55      -9.9651      1.00000
     56      -9.7797      1.00000
     57      -9.5907      1.00000
     58      -9.5476      1.00000
     59      -9.4301      1.00000
     60      -9.3845      1.00000
     61      -9.2662      1.00000
     62      -9.1965      1.00000
     63      -9.1262      1.00000
     64      -8.9332      1.00000
     65      -8.8947      1.00000
     66      -8.8662      1.00000
     67      -8.7206      1.00000
     68      -8.6952      1.00000
     69      -8.4718      1.00000
     70      -8.3953      1.00000
     71      -8.2365      1.00000
     72      -8.1774      1.00000
     73      -8.0289      1.00000
     74      -8.0061      1.00000
     75      -7.9626      1.00000
     76      -7.8461      1.00000
     77      -7.6640      1.00000
     78      -7.4144      1.00000
     79      -7.3716      1.00000
     80      -7.2213      1.00000
     81      -7.1015      1.00000
     82      -6.9637      1.00000
     83      -6.8423      1.00000
     84      -6.7738      1.00000
     85      -6.5771      1.00000
     86      -6.5628      1.00000
     87      -6.2276      1.00000
     88      -6.1523      1.00000
     89      -6.0248      1.00000
     90      -5.6093      1.00000
     91      -5.4925      1.00000
     92      -5.3449      1.00000
     93      -5.0553      1.00000
     94      -4.9291      1.00000
     95      -4.7698      1.00000
     96      -4.1613      1.00000
     97      -3.7083      1.00000
     98      -3.1430      0.90370
     99      -1.8309      0.00000
    100      -1.7478      0.00000
    101      -1.1056      0.00000
    102      -1.0517      0.00000
    103      -0.9877      0.00000
    104      -0.8770      0.00000
    105      -0.7574      0.00000
    106      -0.5040      0.00000
    107      -0.3676      0.00000
    108      -0.0792      0.00000
    109       0.1976      0.00000
    110       0.3602      0.00000
    111       0.5808      0.00000
    112       0.6860      0.00000
    113       0.7683      0.00000
    114       0.8580      0.00000
    115       0.9393      0.00000
    116       0.9623      0.00000
    117       1.0801      0.00000
    118       1.1285      0.00000
    119       1.2761      0.00000
    120       1.3373      0.00000
    121       1.3874      0.00000
    122       1.5157      0.00000
    123       1.5518      0.00000
    124       1.6573      0.00000
    125       1.6757      0.00000
    126       1.7974      0.00000
    127       1.8287      0.00000
    128       1.8379      0.00000

 k-point     4 :       0.3333    0.3333    0.0000
  band No.  band energies     occupation 
      1     -51.4119      1.00000
      2     -22.1566      1.00000
      3     -22.0021      1.00000
      4     -21.7535      1.00000
      5     -21.1211      1.00000
      6     -21.0729      1.00000
      7     -20.7636      1.00000
      8     -20.3006      1.00000
      9     -20.1515      1.00000
     10     -20.0842      1.00000
     11     -20.0320      1.00000
     12     -19.9173      1.00000
     13     -19.4860      1.00000
     14     -18.4835      1.00000
     15     -18.3747      1.00000
     16     -18.3181      1.00000
     17     -18.2431      1.00000
     18     -17.9806      1.00000
     19     -17.7980      1.00000
     20     -17.5969      1.00000
     21     -17.3494      1.00000
     22     -17.2098      1.00000
     23     -16.9360      1.00000
     24     -16.5900      1.00000
     25     -16.2829      1.00000
     26     -15.8686      1.00000
     27     -15.8139      1.00000
     28     -15.5740      1.00000
     29     -14.9860      1.00000
     30     -14.8006      1.00000
     31     -14.0214      1.00000
     32     -13.9975      1.00000
     33     -13.9107      1.00000
     34     -13.7107      1.00000
     35     -13.6881      1.00000
     36     -13.6259      1.00000
     37     -13.5348      1.00000
     38     -13.0824      1.00000
     39     -12.9066      1.00000
     40     -12.2618      1.00000
     41     -12.1660      1.00000
     42     -12.0306      1.00000
     43     -11.8336      1.00000
     44     -11.5676      1.00000
     45     -11.5286      1.00000
     46     -11.2249      1.00000
     47     -11.1715      1.00000
     48     -10.6189      1.00000
     49     -10.5704      1.00000
     50     -10.3042      1.00000
     51     -10.1982      1.00000
     52     -10.0959      1.00000
     53     -10.0721      1.00000
     54     -10.0577      1.00000
     55      -9.9472      1.00000
     56      -9.8657      1.00000
     57      -9.8404      1.00000
     58      -9.6602      1.00000
     59      -9.2874      1.00000
     60      -9.1826      1.00000
     61      -9.1095      1.00000
     62      -9.0980      1.00000
     63      -9.0221      1.00000
     64      -8.9739      1.00000
     65      -8.7468      1.00000
     66      -8.6877      1.00000
     67      -8.6703      1.00000
     68      -8.5810      1.00000
     69      -8.5063      1.00000
     70      -8.4213      1.00000
     71      -8.2671      1.00000
     72      -8.1857      1.00000
     73      -8.0400      1.00000
     74      -8.0269      1.00000
     75      -7.9387      1.00000
     76      -7.8879      1.00000
     77      -7.8379      1.00000
     78      -7.8117      1.00000
     79      -7.4586      1.00000
     80      -7.4038      1.00000
     81      -7.2740      1.00000
     82      -6.9200      1.00000
     83      -6.8054      1.00000
     84      -6.7773      1.00000
     85      -6.4821      1.00000
     86      -6.1548      1.00000
     87      -6.0789      1.00000
     88      -6.0037      1.00000
     89      -5.9030      1.00000
     90      -5.6582      1.00000
     91      -5.5692      1.00000
     92      -5.2083      1.00000
     93      -5.1363      1.00000
     94      -5.0531      1.00000
     95      -4.8481      1.00000
     96      -4.6879      1.00000
     97      -3.6695      1.00000
     98      -2.6124      0.00000
     99      -2.5105      0.00000
    100      -1.3043      0.00000
    101      -1.2249      0.00000
    102      -1.1889      0.00000
    103      -0.9006      0.00000
    104      -0.6321      0.00000
    105      -0.5004      0.00000
    106      -0.4643      0.00000
    107      -0.1885      0.00000
    108       0.0005      0.00000
    109       0.0171      0.00000
    110       0.1913      0.00000
    111       0.3447      0.00000
    112       0.3898      0.00000
    113       0.4402      0.00000
    114       0.7412      0.00000
    115       0.8234      0.00000
    116       1.1424      0.00000
    117       1.2200      0.00000
    118       1.2370      0.00000
    119       1.2458      0.00000
    120       1.2894      0.00000
    121       1.3369      0.00000
    122       1.4653      0.00000
    123       1.4869      0.00000
    124       1.5164      0.00000
    125       1.7770      0.00000
    126       1.7789      0.00000
    127       1.7932      0.00000
    128       1.9054      0.00000

 k-point     5 :      -0.3333    0.3333    0.0000
  band No.  band energies     occupation 
      1     -51.4119      1.00000
      2     -22.2595      1.00000
      3     -21.7610      1.00000
      4     -21.6387      1.00000
      5     -21.5499      1.00000
      6     -20.9020      1.00000
      7     -20.8452      1.00000
      8     -20.5425      1.00000
      9     -20.2150      1.00000
     10     -20.0424      1.00000
     11     -19.5948      1.00000
     12     -19.4308      1.00000
     13     -19.4076      1.00000
     14     -19.0057      1.00000
     15     -18.9700      1.00000
     16     -18.4218      1.00000
     17     -18.2809      1.00000
     18     -17.8782      1.00000
     19     -17.6732      1.00000
     20     -17.2580      1.00000
     21     -17.2484      1.00000
     22     -17.0629      1.00000
     23     -17.0062      1.00000
     24     -16.6700      1.00000
     25     -16.3495      1.00000
     26     -15.8238      1.00000
     27     -15.4538      1.00000
     28     -15.2245      1.00000
     29     -15.1986      1.00000
     30     -14.7320      1.00000
     31     -14.6327      1.00000
     32     -14.4308      1.00000
     33     -14.3359      1.00000
     34     -14.1856      1.00000
     35     -13.5761      1.00000
     36     -13.0526      1.00000
     37     -12.9394      1.00000
     38     -12.8764      1.00000
     39     -12.6163      1.00000
     40     -12.4456      1.00000
     41     -12.3918      1.00000
     42     -11.9328      1.00000
     43     -11.8337      1.00000
     44     -11.6274      1.00000
     45     -11.4299      1.00000
     46     -11.1923      1.00000
     47     -10.9799      1.00000
     48     -10.8215      1.00000
     49     -10.5585      1.00000
     50     -10.3588      1.00000
     51     -10.3380      1.00000
     52     -10.2459      1.00000
     53     -10.1595      1.00000
     54      -9.9013      1.00000
     55      -9.8475      1.00000
     56      -9.7106      1.00000
     57      -9.6443      1.00000
     58      -9.5869      1.00000
     59      -9.5505      1.00000
     60      -9.3302      1.00000
     61      -9.2257      1.00000
     62      -9.0528      1.00000
     63      -8.9865      1.00000
     64      -8.9718      1.00000
     65      -8.9213      1.00000
     66      -8.8095      1.00000
     67      -8.7712      1.00000
     68      -8.7418      1.00000
     69      -8.5665      1.00000
     70      -8.4014      1.00000
     71      -8.1788      1.00000
     72      -8.0921      1.00000
     73      -8.0596      1.00000
     74      -8.0227      1.00000
     75      -7.9206      1.00000
     76      -7.8291      1.00000
     77      -7.5961      1.00000
     78      -7.3558      1.00000
     79      -7.2280      1.00000
     80      -7.1700      1.00000
     81      -7.1520      1.00000
     82      -7.1315      1.00000
     83      -7.1115      1.00000
     84      -6.8057      1.00000
     85      -6.6463      1.00000
     86      -6.4394      1.00000
     87      -6.3995      1.00000
     88      -6.0828      1.00000
     89      -5.9878      1.00000
     90      -5.7083      1.00000
     91      -5.4811      1.00000
     92      -5.1152      1.00000
     93      -4.9794      1.00000
     94      -4.8739      1.00000
     95      -4.7791      1.00000
     96      -4.3630      1.00000
     97      -3.9478      1.00000
     98      -2.9093      0.00000
     99      -1.7030      0.00000
    100      -1.6029      0.00000
    101      -1.2037      0.00000
    102      -1.1655      0.00000
    103      -1.0976      0.00000
    104      -0.9426      0.00000
    105      -0.8746      0.00000
    106      -0.4237      0.00000
    107      -0.3731      0.00000
    108       0.0820      0.00000
    109       0.1909      0.00000
    110       0.3401      0.00000
    111       0.4504      0.00000
    112       0.7521      0.00000
    113       0.8099      0.00000
    114       0.9059      0.00000
    115       0.9604      0.00000
    116       1.1130      0.00000
    117       1.1957      0.00000
    118       1.2270      0.00000
    119       1.2993      0.00000
    120       1.3862      0.00000
    121       1.4894      0.00000
    122       1.5494      0.00000
    123       1.5845      0.00000
    124       1.6716      0.00000
    125       1.6976      0.00000
    126       1.7767      0.00000
    127       1.8306      0.00000
    128       1.8367      0.00000

 spin component 2

 k-point     1 :       0.0000    0.0000    0.0000
  band No.  band energies     occupation 
      1     -51.4119      1.00000
      2     -22.3178      1.00000
      3     -21.6216      1.00000
      4     -21.4625      1.00000
      5     -21.3796      1.00000
      6     -21.2877      1.00000
      7     -21.1337      1.00000
      8     -20.8563      1.00000
      9     -19.6576      1.00000
     10     -19.5048      1.00000
     11     -19.4823      1.00000
     12     -19.4146      1.00000
     13     -19.3831      1.00000
     14     -19.1377      1.00000
     15     -18.7907      1.00000
     16     -18.6565      1.00000
     17     -18.5402      1.00000
     18     -18.4941      1.00000
     19     -18.2899      1.00000
     20     -17.7053      1.00000
     21     -16.4965      1.00000
     22     -16.4740      1.00000
     23     -16.4362      1.00000
     24     -16.1939      1.00000
     25     -16.0716      1.00000
     26     -15.9475      1.00000
     27     -15.5285      1.00000
     28     -15.4796      1.00000
     29     -15.2884      1.00000
     30     -15.1218      1.00000
     31     -15.0366      1.00000
     32     -14.5834      1.00000
     33     -14.1497      1.00000
     34     -14.0922      1.00000
     35     -13.9624      1.00000
     36     -13.7110      1.00000
     37     -13.5101      1.00000
     38     -12.7318      1.00000
     39     -11.7878      1.00000
     40     -11.6877      1.00000
     41     -11.6752      1.00000
     42     -11.6381      1.00000
     43     -11.5931      1.00000
     44     -11.5132      1.00000
     45     -11.4765      1.00000
     46     -11.3551      1.00000
     47     -11.1780      1.00000
     48     -11.1367      1.00000
     49     -10.7173      1.00000
     50     -10.5742      1.00000
     51     -10.4300      1.00000
     52     -10.2172      1.00000
     53     -10.0769      1.00000
     54     -10.0723      1.00000
     55     -10.0384      1.00000
     56      -9.9105      1.00000
     57      -9.5327      1.00000
     58      -9.4326      1.00000
     59      -9.4077      1.00000
     60      -9.3373      1.00000
     61      -9.2640      1.00000
     62      -9.1924      1.00000
     63      -9.0199      1.00000
     64      -9.0054      1.00000
     65      -8.9458      1.00000
     66      -8.8757      1.00000
     67      -8.8608      1.00000
     68      -8.7397      1.00000
     69      -8.7033      1.00000
     70      -8.6673      1.00000
     71      -8.6173      1.00000
     72      -8.2754      1.00000
     73      -7.9686      1.00000
     74      -7.7682      1.00000
     75      -7.5004      1.00000
     76      -7.3234      1.00000
     77      -7.3103      1.00000
     78      -7.2515      1.00000
     79      -7.2351      1.00000
     80      -7.2021      1.00000
     81      -7.1677      1.00000
     82      -7.1098      1.00000
     83      -7.1010      1.00000
     84      -6.9084      1.00000
     85      -6.4785      1.00000
     86      -6.4310      1.00000
     87      -6.3600      1.00000
     88      -6.3037      1.00000
     89      -6.2020      1.00000
     90      -6.0701      1.00000
     91      -5.9981      1.00000
     92      -5.5617      1.00000
     93      -4.4087      1.00000
     94      -4.3487      1.00000
     95      -4.2759      1.00000
     96      -4.1816      1.00000
     97      -3.9387      1.00000
     98      -3.2201      0.99975
     99      -1.8771      0.00000
    100      -1.6990      0.00000
    101      -1.4793      0.00000
    102      -1.3770      0.00000
    103      -1.2347      0.00000
    104      -0.9121      0.00000
    105      -0.7210      0.00000
    106      -0.0695      0.00000
    107       0.1197      0.00000
    108       0.1761      0.00000
    109       0.2507      0.00000
    110       0.4750      0.00000
    111       0.5187      0.00000
    112       0.6218      0.00000
    113       0.7276      0.00000
    114       0.8253      0.00000
    115       0.8682      0.00000
    116       0.9746      0.00000
    117       1.0337      0.00000
    118       1.1788      0.00000
    119       1.3626      0.00000
    120       1.3953      0.00000
    121       1.3970      0.00000
    122       1.4578      0.00000
    123       1.5452      0.00000
    124       1.8107      0.00000
    125       1.9149      0.00000
    126       2.0279      0.00000
    127       2.0443      0.00000
    128       2.1367      0.00000

 k-point     2 :       0.3333   -0.0000    0.0000
  band No.  band energies     occupation 
      1     -51.4119      1.00000
      2     -22.2243      1.00000
      3     -21.9449      1.00000
      4     -21.5602      1.00000
      5     -21.3785      1.00000
      6     -21.0182      1.00000
      7     -20.7858      1.00000
      8     -20.5220      1.00000
      9     -20.3548      1.00000
     10     -20.1051      1.00000
     11     -19.6494      1.00000
     12     -19.3472      1.00000
     13     -19.2383      1.00000
     14     -19.0351      1.00000
     15     -18.7523      1.00000
     16     -18.5529      1.00000
     17     -18.3250      1.00000
     18     -17.8582      1.00000
     19     -17.6984      1.00000
     20     -17.4562      1.00000
     21     -17.4149      1.00000
     22     -17.1461      1.00000
     23     -16.9350      1.00000
     24     -16.4902      1.00000
     25     -16.0918      1.00000
     26     -15.7803      1.00000
     27     -15.3860      1.00000
     28     -15.2411      1.00000
     29     -15.1619      1.00000
     30     -14.8836      1.00000
     31     -14.8068      1.00000
     32     -14.4969      1.00000
     33     -14.3351      1.00000
     34     -14.0517      1.00000
     35     -13.5977      1.00000
     36     -13.0389      1.00000
     37     -12.9808      1.00000
     38     -12.7689      1.00000
     39     -12.6746      1.00000
     40     -12.6605      1.00000
     41     -12.3660      1.00000
     42     -12.0443      1.00000
     43     -11.8723      1.00000
     44     -11.4028      1.00000
     45     -11.2730      1.00000
     46     -11.1034      1.00000
     47     -10.8564      1.00000
     48     -10.7426      1.00000
     49     -10.5321      1.00000
     50     -10.4252      1.00000
     51     -10.3169      1.00000
     52     -10.3106      1.00000
     53     -10.1462      1.00000
     54     -10.0025      1.00000
     55      -9.9605      1.00000
     56      -9.7833      1.00000
     57      -9.5755      1.00000
     58      -9.5533      1.00000
     59      -9.4372      1.00000
     60      -9.4046      1.00000
     61      -9.2650      1.00000
     62      -9.1971      1.00000
     63      -9.1212      1.00000
     64      -8.9262      1.00000
     65      -8.8846      1.00000
     66      -8.8715      1.00000
     67      -8.7269      1.00000
     68      -8.6952      1.00000
     69      -8.4650      1.00000
     70      -8.4063      1.00000
     71      -8.2429      1.00000
     72      -8.1635      1.00000
     73      -8.0221      1.00000
     74      -8.0078      1.00000
     75      -7.9551      1.00000
     76      -7.8463      1.00000
     77      -7.6679      1.00000
     78      -7.4082      1.00000
     79      -7.3659      1.00000
     80      -7.2223      1.00000
     81      -7.1077      1.00000
     82      -6.9775      1.00000
     83      -6.8429      1.00000
     84      -6.7691      1.00000
     85      -6.5924      1.00000
     86      -6.5623      1.00000
     87      -6.2297      1.00000
     88      -6.1392      1.00000
     89      -6.0232      1.00000
     90      -5.6180      1.00000
     91      -5.4864      1.00000
     92      -5.3486      1.00000
     93      -5.0427      1.00000
     94      -4.9283      1.00000
     95      -4.7600      1.00000
     96      -4.1654      1.00000
     97      -3.7327      1.00000
     98      -3.1330      0.84643
     99      -1.8098      0.00000
    100      -1.7669      0.00000
    101      -1.0874      0.00000
    102      -1.0354      0.00000
    103      -0.9709      0.00000
    104      -0.9310      0.00000
    105      -0.7452      0.00000
    106      -0.4979      0.00000
    107      -0.3892      0.00000
    108      -0.0749      0.00000
    109       0.1789      0.00000
    110       0.3744      0.00000
    111       0.6039      0.00000
    112       0.6811      0.00000
    113       0.7702      0.00000
    114       0.8306      0.00000
    115       0.9488      0.00000
    116       0.9710      0.00000
    117       1.0746      0.00000
    118       1.1372      0.00000
    119       1.2526      0.00000
    120       1.3526      0.00000
    121       1.3979      0.00000
    122       1.5259      0.00000
    123       1.5680      0.00000
    124       1.6798      0.00000
    125       1.6921      0.00000
    126       1.8076      0.00000
    127       1.8411      0.00000
    128       1.8512      0.00000

 k-point     3 :       0.0000    0.3333    0.0000
  band No.  band energies     occupation 
      1     -51.4119      1.00000
      2     -22.2231      1.00000
      3     -21.9471      1.00000
      4     -21.5682      1.00000
      5     -21.3640      1.00000
      6     -21.0214      1.00000
      7     -20.7878      1.00000
      8     -20.5174      1.00000
      9     -20.3571      1.00000
     10     -20.1133      1.00000
     11     -19.6494      1.00000
     12     -19.3474      1.00000
     13     -19.2282      1.00000
     14     -19.0418      1.00000
     15     -18.7390      1.00000
     16     -18.5572      1.00000
     17     -18.3301      1.00000
     18     -17.8579      1.00000
     19     -17.6944      1.00000
     20     -17.4546      1.00000
     21     -17.4205      1.00000
     22     -17.1494      1.00000
     23     -16.9379      1.00000
     24     -16.4979      1.00000
     25     -16.0849      1.00000
     26     -15.7750      1.00000
     27     -15.3837      1.00000
     28     -15.2437      1.00000
     29     -15.1523      1.00000
     30     -14.8825      1.00000
     31     -14.8070      1.00000
     32     -14.5029      1.00000
     33     -14.3417      1.00000
     34     -14.0479      1.00000
     35     -13.5995      1.00000
     36     -13.0417      1.00000
     37     -12.9805      1.00000
     38     -12.7662      1.00000
     39     -12.6802      1.00000
     40     -12.6550      1.00000
     41     -12.3681      1.00000
     42     -12.0450      1.00000
     43     -11.8706      1.00000
     44     -11.4052      1.00000
     45     -11.2739      1.00000
     46     -11.1018      1.00000
     47     -10.8582      1.00000
     48     -10.7367      1.00000
     49     -10.5363      1.00000
     50     -10.4207      1.00000
     51     -10.3221      1.00000
     52     -10.3083      1.00000
     53     -10.1441      1.00000
     54     -10.0028      1.00000
     55      -9.9651      1.00000
     56      -9.7797      1.00000
     57      -9.5907      1.00000
     58      -9.5476      1.00000
     59      -9.4301      1.00000
     60      -9.3845      1.00000
     61      -9.2662      1.00000
     62      -9.1965      1.00000
     63      -9.1262      1.00000
     64      -8.9332      1.00000
     65      -8.8947      1.00000
     66      -8.8662      1.00000
     67      -8.7206      1.00000
     68      -8.6952      1.00000
     69      -8.4718      1.00000
     70      -8.3953      1.00000
     71      -8.2365      1.00000
     72      -8.1774      1.00000
     73      -8.0289      1.00000
     74      -8.0061      1.00000
     75      -7.9626      1.00000
     76      -7.8461      1.00000
     77      -7.6640      1.00000
     78      -7.4144      1.00000
     79      -7.3716      1.00000
     80      -7.2213      1.00000
     81      -7.1015      1.00000
     82      -6.9637      1.00000
     83      -6.8423      1.00000
     84      -6.7738      1.00000
     85      -6.5771      1.00000
     86      -6.5628      1.00000
     87      -6.2276      1.00000
     88      -6.1523      1.00000
     89      -6.0248      1.00000
     90      -5.6093      1.00000
     91      -5.4925      1.00000
     92      -5.3449      1.00000
     93      -5.0553      1.00000
     94      -4.9291      1.00000
     95      -4.7698      1.00000
     96      -4.1613      1.00000
     97      -3.7083      1.00000
     98      -3.1430      0.90370
     99      -1.8309      0.00000
    100      -1.7478      0.00000
    101      -1.1056      0.00000
    102      -1.0517      0.00000
    103      -0.9877      0.00000
    104      -0.8770      0.00000
    105      -0.7574      0.00000
    106      -0.5040      0.00000
    107      -0.3676      0.00000
    108      -0.0792      0.00000
    109       0.1976      0.00000
    110       0.3606      0.00000
    111       0.5808      0.00000
    112       0.6862      0.00000
    113       0.7685      0.00000
    114       0.8584      0.00000
    115       0.9398      0.00000
    116       0.9726      0.00000
    117       1.0803      0.00000
    118       1.1397      0.00000
    119       1.2770      0.00000
    120       1.3454      0.00000
    121       1.3961      0.00000
    122       1.5297      0.00000
    123       1.5660      0.00000
    124       1.6588      0.00000
    125       1.6901      0.00000
    126       1.8063      0.00000
    127       1.8392      0.00000
    128       1.8510      0.00000

 k-point     4 :       0.3333    0.3333    0.0000
  band No.  band energies     occupation 
      1     -51.4119      1.00000
      2     -22.1566      1.00000
      3     -22.0021      1.00000
      4     -21.7535      1.00000
      5     -21.1211      1.00000
      6     -21.0729      1.00000
      7     -20.7636      1.00000
      8     -20.3006      1.00000
      9     -20.1515      1.00000
     10     -20.0842      1.00000
     11     -20.0320      1.00000
     12     -19.9173      1.00000
     13     -19.4860      1.00000
     14     -18.4835      1.00000
     15     -18.3747      1.00000
     16     -18.3181      1.00000
     17     -18.2431      1.00000
     18     -17.9806      1.00000
     19     -17.7980      1.00000
     20     -17.5969      1.00000
     21     -17.3494      1.00000
     22     -17.2098      1.00000
     23     -16.9360      1.00000
     24     -16.5900      1.00000
     25     -16.2829      1.00000
     26     -15.8686      1.00000
     27     -15.8139      1.00000
     28     -15.5740      1.00000
     29     -14.9860      1.00000
     30     -14.8006      1.00000
     31     -14.0214      1.00000
     32     -13.9975      1.00000
     33     -13.9107      1.00000
     34     -13.7107      1.00000
     35     -13.6881      1.00000
     36     -13.6259      1.00000
     37     -13.5348      1.00000
     38     -13.0824      1.00000
     39     -12.9066      1.00000
     40     -12.2618      1.00000
     41     -12.1660      1.00000
     42     -12.0306      1.00000
     43     -11.8336      1.00000
     44     -11.5676      1.00000
     45     -11.5286      1.00000
     46     -11.2249      1.00000
     47     -11.1715      1.00000
     48     -10.6189      1.00000
     49     -10.5704      1.00000
     50     -10.3042      1.00000
     51     -10.1982      1.00000
     52     -10.0959      1.00000
     53     -10.0721      1.00000
     54     -10.0577      1.00000
     55      -9.9472      1.00000
     56      -9.8657      1.00000
     57      -9.8404      1.00000
     58      -9.6602      1.00000
     59      -9.2874      1.00000
     60      -9.1826      1.00000
     61      -9.1095      1.00000
     62      -9.0980      1.00000
     63      -9.0221      1.00000
     64      -8.9739      1.00000
     65      -8.7468      1.00000
     66      -8.6877      1.00000
     67      -8.6703      1.00000
     68      -8.5810      1.00000
     69      -8.5063      1.00000
     70      -8.4213      1.00000
     71      -8.2671      1.00000
     72      -8.1857      1.00000
     73      -8.0400      1.00000
     74      -8.0269      1.00000
     75      -7.9387      1.00000
     76      -7.8879      1.00000
     77      -7.8379      1.00000
     78      -7.8117      1.00000
     79      -7.4586      1.00000
     80      -7.4038      1.00000
     81      -7.2740      1.00000
     82      -6.9200      1.00000
     83      -6.8054      1.00000
     84      -6.7773      1.00000
     85      -6.4821      1.00000
     86      -6.1548      1.00000
     87      -6.0789      1.00000
     88      -6.0037      1.00000
     89      -5.9030      1.00000
     90      -5.6582      1.00000
     91      -5.5692      1.00000
     92      -5.2083      1.00000
     93      -5.1363      1.00000
     94      -5.0531      1.00000
     95      -4.8481      1.00000
     96      -4.6879      1.00000
     97      -3.6695      1.00000
     98      -2.6124      0.00000
     99      -2.5105      0.00000
    100      -1.3043      0.00000
    101      -1.2249      0.00000
    102      -1.1889      0.00000
    103      -0.9006      0.00000
    104      -0.6321      0.00000
    105      -0.5004      0.00000
    106      -0.4643      0.00000
    107      -0.1885      0.00000
    108       0.0005      0.00000
    109       0.0171      0.00000
    110       0.1913      0.00000
    111       0.3448      0.00000
    112       0.3900      0.00000
    113       0.4406      0.00000
    114       0.7413      0.00000
    115       0.8234      0.00000
    116       1.1435      0.00000
    117       1.2215      0.00000
    118       1.2488      0.00000
    119       1.2532      0.00000
    120       1.3004      0.00000
    121       1.3473      0.00000
    122       1.4779      0.00000
    123       1.4977      0.00000
    124       1.5300      0.00000
    125       1.7973      0.00000
    126       1.8007      0.00000
    127       1.8071      0.00000
    128       1.9158      0.00000

 k-point     5 :      -0.3333    0.3333    0.0000
  band No.  band energies     occupation 
      1     -51.4119      1.00000
      2     -22.2595      1.00000
      3     -21.7610      1.00000
      4     -21.6387      1.00000
      5     -21.5499      1.00000
      6     -20.9020      1.00000
      7     -20.8452      1.00000
      8     -20.5425      1.00000
      9     -20.2150      1.00000
     10     -20.0424      1.00000
     11     -19.5948      1.00000
     12     -19.4308      1.00000
     13     -19.4076      1.00000
     14     -19.0057      1.00000
     15     -18.9700      1.00000
     16     -18.4218      1.00000
     17     -18.2809      1.00000
     18     -17.8782      1.00000
     19     -17.6732      1.00000
     20     -17.2580      1.00000
     21     -17.2484      1.00000
     22     -17.0629      1.00000
     23     -17.0062      1.00000
     24     -16.6700      1.00000
     25     -16.3495      1.00000
     26     -15.8238      1.00000
     27     -15.4538      1.00000
     28     -15.2245      1.00000
     29     -15.1986      1.00000
     30     -14.7320      1.00000
     31     -14.6327      1.00000
     32     -14.4308      1.00000
     33     -14.3359      1.00000
     34     -14.1856      1.00000
     35     -13.5761      1.00000
     36     -13.0526      1.00000
     37     -12.9394      1.00000
     38     -12.8764      1.00000
     39     -12.6163      1.00000
     40     -12.4456      1.00000
     41     -12.3918      1.00000
     42     -11.9328      1.00000
     43     -11.8337      1.00000
     44     -11.6274      1.00000
     45     -11.4299      1.00000
     46     -11.1923      1.00000
     47     -10.9799      1.00000
     48     -10.8215      1.00000
     49     -10.5585      1.00000
     50     -10.3588      1.00000
     51     -10.3380      1.00000
     52     -10.2459      1.00000
     53     -10.1595      1.00000
     54      -9.9013      1.00000
     55      -9.8475      1.00000
     56      -9.7106      1.00000
     57      -9.6443      1.00000
     58      -9.5869      1.00000
     59      -9.5505      1.00000
     60      -9.3302      1.00000
     61      -9.2257      1.00000
     62      -9.0528      1.00000
     63      -8.9865      1.00000
     64      -8.9718      1.00000
     65      -8.9213      1.00000
     66      -8.8095      1.00000
     67      -8.7712      1.00000
     68      -8.7418      1.00000
     69      -8.5665      1.00000
     70      -8.4014      1.00000
     71      -8.1788      1.00000
     72      -8.0921      1.00000
     73      -8.0596      1.00000
     74      -8.0227      1.00000
     75      -7.9206      1.00000
     76      -7.8291      1.00000
     77      -7.5961      1.00000
     78      -7.3558      1.00000
     79      -7.2280      1.00000
     80      -7.1700      1.00000
     81      -7.1520      1.00000
     82      -7.1315      1.00000
     83      -7.1115      1.00000
     84      -6.8057      1.00000
     85      -6.6463      1.00000
     86      -6.4394      1.00000
     87      -6.3995      1.00000
     88      -6.0828      1.00000
     89      -5.9878      1.00000
     90      -5.7083      1.00000
     91      -5.4811      1.00000
     92      -5.1152      1.00000
     93      -4.9794      1.00000
     94      -4.8739      1.00000
     95      -4.7791      1.00000
     96      -4.3630      1.00000
     97      -3.9478      1.00000
     98      -2.9093      0.00000
     99      -1.7031      0.00000
    100      -1.6029      0.00000
    101      -1.2037      0.00000
    102      -1.1655      0.00000
    103      -1.0976      0.00000
    104      -0.9426      0.00000
    105      -0.8746      0.00000
    106      -0.4237      0.00000
    107      -0.3731      0.00000
    108       0.0821      0.00000
    109       0.1909      0.00000
    110       0.3404      0.00000
    111       0.4505      0.00000
    112       0.7523      0.00000
    113       0.8105      0.00000
    114       0.9064      0.00000
    115       0.9707      0.00000
    116       1.1216      0.00000
    117       1.1990      0.00000
    118       1.2272      0.00000
    119       1.3053      0.00000
    120       1.3947      0.00000
    121       1.5042      0.00000
    122       1.5637      0.00000
    123       1.5858      0.00000
    124       1.6865      0.00000
    125       1.6988      0.00000
    126       1.7852      0.00000
    127       1.8393      0.00000
    128       1.8498      0.00000


--------------------------------------------------------------------------------------------------------


 soft charge-density along one line, spin component           1
         0         1         2         3         4         5         6         7         8         9
 total charge-density along one line
 
 soft charge-density along one line, spin component           2
         0         1         2         3         4         5         6         7         8         9
 total charge-density along one line
 
 pseudopotential strength for first ion, spin component:           1
 10.231  13.605  -0.001   0.000   0.001   0.001  -0.000  -0.001
 13.605  18.092  -0.001   0.000   0.001   0.001  -0.000  -0.001
 -0.001  -0.001  -4.362  -0.000   0.000   8.532   0.000  -0.001
  0.000   0.000  -0.000  -4.342   0.000   0.000   8.500  -0.000
  0.001   0.001   0.000   0.000  -4.362  -0.001  -0.000   8.533
  0.001   0.001   8.532   0.000  -0.001 -18.827  -0.000   0.001
 -0.000  -0.000   0.000   8.500  -0.000  -0.000 -18.777   0.000
 -0.001  -0.001  -0.001  -0.000   8.533   0.001   0.000 -18.827
 pseudopotential strength for first ion, spin component:           2
 10.231  13.605  -0.001   0.000   0.001   0.001  -0.000  -0.001
 13.605  18.092  -0.001   0.000   0.001   0.001  -0.000  -0.001
 -0.001  -0.001  -4.362  -0.000   0.000   8.532   0.000  -0.001
  0.000   0.000  -0.000  -4.342   0.000   0.000   8.500  -0.000
  0.001   0.001   0.000   0.000  -4.362  -0.001  -0.000   8.533
  0.001   0.001   8.532   0.000  -0.001 -18.827  -0.000   0.001
 -0.000  -0.000   0.000   8.500  -0.000  -0.000 -18.777   0.000
 -0.001  -0.001  -0.001  -0.000   8.533   0.001   0.000 -18.827
 total augmentation occupancy for first ion, spin component:           1
  7.935  -3.498   0.040   0.005  -0.075   0.006   0.001  -0.012
 -3.498   1.599  -0.022  -0.004   0.043  -0.003  -0.000   0.006
  0.040  -0.022   1.785   0.002  -0.014   0.164   0.000   0.000
  0.005  -0.004   0.002   1.195  -0.002   0.000   0.069  -0.000
 -0.075   0.043  -0.014  -0.002   1.803   0.000  -0.000   0.164
  0.006  -0.003   0.164   0.000   0.000   0.016   0.000   0.000
  0.001  -0.000   0.000   0.069  -0.000   0.000   0.004  -0.000
 -0.012   0.006   0.000  -0.000   0.164   0.000  -0.000   0.016
 total augmentation occupancy for first ion, spin component:           2
  0.000  -0.000  -0.000   0.000   0.000   0.000  -0.000   0.000
 -0.000   0.000   0.000  -0.000  -0.000   0.000   0.000  -0.000
 -0.000   0.000   0.000  -0.000  -0.000  -0.000   0.000  -0.000
  0.000  -0.000  -0.000   0.000  -0.000  -0.000  -0.000   0.000
  0.000  -0.000  -0.000  -0.000   0.000   0.000   0.000  -0.000
  0.000   0.000  -0.000  -0.000   0.000  -0.000   0.000   0.000
 -0.000   0.000   0.000  -0.000   0.000   0.000  -0.000   0.000
  0.000  -0.000  -0.000   0.000  -0.000   0.000   0.000  -0.000


------------------------ aborting loop because EDIFF is reached ----------------------------------------


    CHARGE:  cpu time    3.7243: real time    3.7253
    FORLOC:  cpu time    0.2091: real time    0.2091
    FORNL :  cpu time   16.9850: real time   16.9871
    STRESS:  cpu time   45.9317: real time   45.9366
    FORCOR:  cpu time    1.0985: real time    1.0986
    FORHAR:  cpu time    0.2425: real time    0.2425
    MIXING:  cpu time    0.0586: real time    0.0586
    OFIELD:  cpu time    0.0000: real time    0.0000

  FORCE on cell =-STRESS in cart. coord.  units (eV):
  Direction    XX          YY          ZZ          XY          YZ          ZX
  --------------------------------------------------------------------------------------
  Alpha Z    49.28463    49.28463    49.28463
  Ewald   58744.42444 58726.15354-65082.43685   -25.55743    -2.48344    36.08897
  Hartree 57989.46673 58009.03540-57638.88265     9.70949    -1.73674    20.74097
  E(xc)    -721.88349  -721.52766  -747.90879     0.30761    -0.00752     0.06323
  Local  ************************120267.22621     8.70027     4.37920   -56.19455
  n-local  -180.71239  -173.04281  -169.39321     6.40879     0.18969    -0.70120
  augment     0.52632     0.54902     1.88276     0.01443    -0.01167     0.00654
  Kinetic  2906.05196  2859.65217  3320.45733   -39.38982    -0.55980     0.92281
  Fock        0.00000     0.00000     0.00000     0.00000     0.00000     0.00000
  -------------------------------------------------------------------------------------
  Total      -2.78802   -49.30838     0.22943   -39.80665    -0.23027     0.92677
  in kB      -1.13643   -20.09876     0.09352   -16.22573    -0.09386     0.37776
  external pressure =       -7.05 kB  Pullay stress =        0.00 kB


 VOLUME and BASIS-vectors are now :
 -----------------------------------------------------------------------------
  energy-cutoff  :      520.00
  volume of cell :     3930.63
      direct lattice vectors                 reciprocal lattice vectors
    12.300000000  0.000000000  0.000000000     0.081300813  0.046939046  0.000000000
    -6.150000000 10.652112467  0.000000000     0.000000000  0.093878093  0.000000000
     0.000000000  0.000000000 30.000000000     0.000000000  0.000000000  0.033333333

  length of vectors
    12.300000000 12.300000000 30.000000000     0.093878093  0.093878093  0.033333333


 FORCES acting on ions
    electron-ion (+dipol)            ewald-force                    non-local-force                 convergence-correction
 -----------------------------------------------------------------------------------------------
   -.143E+02 0.970E+01 0.477E+01   0.144E+02 -.968E+01 -.482E+01   -.168E+00 -.166E-01 0.624E-01   -.348E-05 0.802E-06 -.577E-05
   -.293E+01 0.250E+01 0.412E+01   0.302E+01 -.257E+01 -.418E+01   -.690E-01 0.652E-01 0.561E-01   -.552E-05 0.318E-05 -.559E-05
   -.784E+01 0.450E+01 0.566E+00   0.798E+01 -.460E+01 -.595E+00   -.237E+00 0.152E+00 0.351E-01   0.234E-05 -.165E-05 -.565E-05
   -.417E+01 -.227E+01 0.485E+00   0.441E+01 0.234E+01 -.521E+00   -.215E+00 -.398E-01 0.399E-01   -.246E-05 0.103E-05 -.553E-05
   0.168E+02 -.289E+02 -.276E+01   -.173E+02 0.294E+02 0.273E+01   0.310E+00 -.307E+00 0.193E-02   0.498E-05 -.762E-06 -.632E-05
   0.102E+02 -.835E+01 -.183E+01   -.101E+02 0.860E+01 0.177E+01   -.534E-01 -.232E+00 0.520E-01   0.188E-05 -.143E-05 -.591E-05
   0.130E+02 0.202E+02 0.132E+02   -.133E+02 -.203E+02 -.136E+02   0.261E+00 -.118E+00 0.432E+00   0.641E-06 0.146E-06 -.766E-05
   0.339E+02 -.206E+00 0.294E+01   -.342E+02 0.840E-01 -.298E+01   0.243E+00 0.113E+00 -.108E-01   0.291E-05 -.343E-05 -.639E-05
   -.190E+02 0.283E+02 0.690E+01   0.191E+02 -.285E+02 -.695E+01   -.117E+00 0.133E+00 0.273E-01   -.488E-05 0.811E-06 -.696E-05
   0.121E+02 -.888E+00 0.483E+01   -.120E+02 0.809E+00 -.489E+01   -.127E+00 0.872E-01 0.607E-01   -.536E-08 0.533E-06 -.635E-05
   -.216E+02 0.134E+02 0.407E+01   0.216E+02 -.135E+02 -.412E+01   -.154E-01 0.683E-01 0.455E-01   -.805E-06 0.923E-06 -.590E-05
   0.801E+01 -.819E+01 0.476E+01   -.795E+01 0.800E+01 -.483E+01   -.861E-01 0.176E+00 0.511E-01   -.575E-06 -.852E-06 -.616E-05
   -.146E+02 0.793E+01 0.249E+01   0.146E+02 -.812E+01 -.255E+01   -.942E-02 0.201E+00 0.424E-01   -.239E-05 0.266E-05 -.562E-05
   -.788E+01 0.101E+02 0.470E+01   0.789E+01 -.103E+02 -.483E+01   -.452E-01 0.229E+00 0.128E+00   -.306E-05 0.245E-05 -.622E-05
   0.453E+01 -.999E+00 -.236E+00   -.464E+01 0.957E+00 0.198E+00   0.117E+00 0.421E-01 0.430E-01   0.494E-05 -.203E-06 -.573E-05
   -.635E+00 0.811E+00 0.139E+01   0.577E+00 -.717E+00 -.144E+01   0.640E-01 -.899E-01 0.543E-01   -.550E-05 -.360E-06 -.588E-05
   0.117E+02 -.813E+01 0.252E+00   -.119E+02 0.830E+01 -.311E+00   0.203E+00 -.177E+00 0.586E-01   0.324E-05 -.193E-05 -.581E-05
   0.169E+02 -.741E+01 0.110E+01   -.170E+02 0.754E+01 -.114E+01   0.149E+00 -.132E+00 0.465E-01   0.216E-05 -.263E-05 -.554E-05
   -.740E+01 0.107E+02 0.333E+01   0.730E+01 -.107E+02 -.339E+01   0.110E+00 0.108E-01 0.580E-01   0.773E-06 0.507E-06 -.614E-05
   0.219E+02 -.120E+02 0.305E+01   -.220E+02 0.119E+02 -.308E+01   0.425E-01 0.305E-01 0.400E-01   0.162E-05 -.545E-06 -.578E-05
   -.124E+02 0.306E+01 0.464E+01   0.124E+02 -.305E+01 -.472E+01   0.906E-01 -.117E-01 0.753E-01   -.734E-06 -.130E-05 -.608E-05
   0.165E+02 -.272E+02 0.631E+01   -.165E+02 0.273E+02 -.635E+01   0.125E-01 -.142E+00 0.385E-01   0.403E-05 -.205E-05 -.657E-05
   -.316E+02 0.450E+01 0.842E+01   0.317E+02 -.465E+01 -.856E+01   -.683E-01 0.136E+00 0.149E+00   -.466E-05 0.341E-05 -.690E-05
   -.127E+02 -.107E+02 0.263E+02   0.129E+02 0.979E+01 -.277E+02   -.177E+00 0.695E+00 0.137E+01   -.271E-05 -.452E-06 -.857E-05
   -.509E+01 0.884E+01 0.339E+01   0.472E+01 -.910E+01 -.353E+01   0.320E+00 0.271E+00 0.155E+00   -.101E-05 -.700E-08 -.628E-05
   -.880E+01 0.271E+02 0.837E+01   0.869E+01 -.272E+02 -.875E+01   -.516E-01 0.220E+00 0.341E+00   -.581E-05 0.228E-06 -.661E-05
   0.716E+01 0.191E+01 0.147E+01   -.748E+01 -.194E+01 -.151E+01   0.330E+00 0.396E-01 0.330E-01   0.192E-05 -.147E-05 -.580E-05
   0.103E+02 -.634E+01 0.383E+01   -.107E+02 0.656E+01 -.387E+01   0.333E+00 -.195E+00 0.562E-01   -.289E-05 0.170E-05 -.604E-05
   0.404E+01 -.183E+01 0.288E+01   -.411E+01 0.187E+01 -.293E+01   0.908E-01 -.425E-01 0.498E-01   0.411E-05 -.235E-05 -.550E-05
   0.146E+02 -.104E+02 0.380E+01   -.148E+02 0.104E+02 -.385E+01   0.178E+00 -.132E-01 0.552E-01   0.345E-05 -.756E-06 -.588E-05
   0.121E+02 -.487E+01 0.388E+01   -.123E+02 0.489E+01 -.394E+01   0.198E+00 -.170E-01 0.704E-01   0.395E-05 -.219E-05 -.616E-05
   0.114E+02 -.404E+01 0.769E+00   -.115E+02 0.387E+01 -.828E+00   0.139E+00 0.189E+00 0.400E-01   0.300E-05 -.910E-06 -.634E-05
   -.134E+02 -.171E+02 0.191E+02   0.135E+02 0.172E+02 -.199E+02   0.974E-01 0.543E-01 0.877E+00   0.133E-05 -.152E-05 -.794E-05
   0.479E+02 -.802E+02 0.132E+02   -.479E+02 0.802E+02 -.139E+02   -.792E-01 0.272E+00 0.764E+00   0.339E-05 -.261E-05 -.768E-05
   -.878E+02 0.629E+01 0.401E+02   0.873E+02 -.639E+01 -.417E+02   0.316E+00 0.288E+00 0.106E+01   -.467E-05 0.210E-05 -.867E-05
   0.858E+00 -.195E+01 0.759E+01   -.116E+01 0.222E+01 -.790E+01   0.297E+00 -.266E+00 0.302E+00   -.299E-05 0.157E-05 -.627E-05
   -.322E+02 -.593E+01 0.747E+01   0.325E+02 0.602E+01 -.768E+01   -.359E+00 -.107E+00 0.192E+00   -.123E-05 0.343E-05 -.704E-05
   0.134E+01 -.692E+01 0.387E+01   -.145E+01 0.720E+01 -.390E+01   0.126E+00 -.304E+00 0.476E-01   0.241E-05 -.769E-06 -.603E-05
   -.191E+01 0.763E+00 0.402E+01   0.185E+01 -.788E+00 -.407E+01   0.655E-01 0.969E-02 0.538E-01   -.268E-05 0.515E-05 -.624E-05
   0.239E+01 -.288E+01 0.269E+01   -.236E+01 0.299E+01 -.273E+01   -.105E-01 -.107E+00 0.409E-01   0.209E-05 -.410E-05 -.613E-05
   -.261E+00 0.537E+01 0.284E+01   0.322E+00 -.563E+01 -.288E+01   -.680E-01 0.227E+00 0.409E-01   -.220E-05 0.180E-05 -.574E-05
   0.318E+02 -.296E+00 -.107E+01   -.323E+02 0.381E+00 0.107E+01   0.356E+00 -.121E+00 -.228E-02   0.415E-05 -.469E-05 -.629E-05
   0.302E+01 -.220E+01 -.457E+00   -.279E+01 0.210E+01 0.349E+00   -.148E+00 0.440E-01 0.148E+00   0.404E-05 -.270E-05 -.581E-05
   0.949E+02 -.591E+01 0.101E+02   -.947E+02 0.633E+01 -.106E+02   -.258E+00 -.372E+00 0.553E+00   0.394E-05 -.491E-06 -.802E-05
   -.580E+02 0.712E+02 0.274E+02   0.585E+02 -.702E+02 -.285E+02   -.386E+00 -.104E+01 0.123E+01   -.128E-05 0.344E-05 -.891E-05
   0.498E+01 0.209E+02 0.176E+02   -.432E+01 -.211E+02 -.182E+02   -.586E+00 0.102E+00 0.652E+00   -.185E-05 0.722E-07 -.814E-05
   -.120E+02 0.145E+01 0.441E+01   0.121E+02 -.104E+01 -.447E+01   -.130E+00 -.367E+00 0.758E-01   -.949E-06 0.947E-06 -.660E-05
   -.132E+02 0.416E+01 0.574E+01   0.135E+02 -.417E+01 -.583E+01   -.270E+00 0.136E-01 0.901E-01   -.338E-05 0.182E-05 -.641E-05
   -.251E+02 0.358E+01 -.311E+03   0.239E+02 -.296E+01 0.307E+03   0.175E+01 -.767E+00 0.452E+01   -.206E-05 0.148E-05 -.306E-05
 -----------------------------------------------------------------------------------------------
   -.248E+01 0.110E+01 -.144E+02   -.416E-12 -.568E-13 -.568E-13   0.247E+01 -.112E+01 0.144E+02   -.252E-05 -.200E-05 -.313E-03
 
 
 POSITION                                       TOTAL-FORCE (eV/Angst)
 -----------------------------------------------------------------------------------
     -6.11330     10.60329     14.99958        -0.025041      0.002721      0.013049
      1.26764      0.69553     15.00086         0.015986     -0.011097      0.002435
     -1.13860      2.08474     15.01758        -0.096523      0.048340      0.005264
      0.06807      2.82922     15.01715         0.018920      0.033001      0.003645
      9.85523      4.17325     15.03023        -0.119641      0.148320     -0.023582
     -1.25077      4.94169     15.02628        -0.004429      0.020301     -0.004832
      8.45235      6.13739     14.99222         0.005870     -0.216935      0.049106
     -2.58867      6.98310     15.00775        -0.039977     -0.008823     -0.050095
      7.31109      8.37042     14.99365        -0.011758     -0.094962     -0.020506
     -3.73913      9.16446     14.99712         0.021058      0.008767     -0.002257
     -3.66461     10.64529     14.99889        -0.015636      0.003577     -0.005129
      3.73071      0.79803     14.99922        -0.020035     -0.013294     -0.015234
      1.29764      2.13362     15.00871        -0.008585      0.015798     -0.013102
      2.51680      2.89819     15.00666        -0.035564      0.000781     -0.002369
      0.00195      4.25415     15.02141         0.007146      0.000261      0.004828
      1.20383      5.00488     15.01691         0.006107      0.004911      0.002990
     -1.31124      6.36138     15.01750         0.001827     -0.007595     -0.001252
     -0.09216      7.12567     15.01319         0.018487     -0.002137      0.000812
     -2.52473      8.46255     15.00243         0.005006      0.004227     -0.005822
     -1.27935      9.26736     15.00303        -0.020348     -0.005164      0.004739
      4.94500      0.09640     14.99961         0.038393     -0.001342     -0.009109
      6.19396      0.89116     14.99944        -0.028500     -0.059844     -0.003841
      3.79432      2.27734     14.99808        -0.014526     -0.014012      0.017092
      5.05319      3.12364     14.98410         0.024005     -0.179798     -0.005656
      2.45683      4.31810     15.01410        -0.050766      0.012959      0.020287
      3.65043      5.08765     15.01342        -0.170730      0.061017     -0.040481
      1.13746      6.43021     15.01393         0.011912      0.014550     -0.003830
      2.34380      7.17546     15.00785        -0.048074      0.026724      0.011766
     -0.06188      8.56399     15.00566         0.020799     -0.001068      0.001809
      1.16827      9.30964     15.00349        -0.010120     -0.009380      0.007511
      7.37085      0.09570     15.00500        -0.005756      0.000041      0.004200
      8.63053      0.75385     15.01516         0.015223      0.019909     -0.018895
      6.29755      2.40508     14.98791         0.208054      0.086794      0.079380
      7.63042      3.10268     15.00780        -0.053438      0.271279      0.099495
      4.99122      4.62786     14.99650        -0.186316      0.187002     -0.567681
      3.54328      6.48362     15.00695        -0.008255      0.003838     -0.003322
      4.80531      7.08997     15.00660        -0.036220     -0.024028     -0.017229
      2.38541      8.59277     15.00429         0.010927     -0.021938      0.011420
      3.65249      9.24853     15.00386         0.012659     -0.014727      0.004284
      9.85201      0.01250     15.00828         0.014102     -0.004368     -0.002363
     11.11952      0.66769     15.00772        -0.007106     -0.031532      0.006859
      8.69965      2.17213     15.02491        -0.131079     -0.035669     -0.004048
      9.96193      2.77731     15.02494         0.078552     -0.055319      0.040270
      8.51458      4.63400     15.01098        -0.147054      0.046562      0.029520
      5.87481      6.15988     14.99260         0.134856     -0.072612      0.085638
      7.20794      6.85703     14.98296         0.076631     -0.040326      0.030332
      4.87420      8.50813     15.00339         0.002305      0.039703      0.009083
      6.13394      9.16576     14.99700        -0.017876      0.008744      0.002750
      5.96977      4.62976     16.70619         0.564527     -0.144154      0.272074
 -----------------------------------------------------------------------------------
    total drift:                               -0.008561     -0.016445      0.016008


--------------------------------------------------------------------------------------------------------



  FREE ENERGIE OF THE ION-ELECTRON SYSTEM (eV)
  ---------------------------------------------------
  free  energy   TOTEN  =      -437.33132914 eV

  energy  without entropy=     -437.32491779  energy(sigma->0) =     -437.32812346
 


--------------------------------------------------------------------------------------------------------


    POTLOK:  cpu time    2.0338: real time    2.0338


--------------------------------------------------------------------------------------------------------


     LOOP+:  cpu time 1697.7181: real time 1698.0838
    4ORBIT:  cpu time    0.0000: real time    0.0000

 total amount of memory used by VASP on root node   460771. kBytes
========================================================================

   base      :      30000. kBytes
   nonlr-proj:       4562. kBytes
   fftplans  :     165810. kBytes
   grid      :     124231. kBytes
   one-center:         79. kBytes
   wavefun   :     136089. kBytes
 
  
  
 General timing and accounting informations for this job:
 ========================================================
  
                  Total CPU time used (sec):     1721.788
                            User time (sec):     1647.237
                          System time (sec):       74.551
                         Elapsed time (sec):     1724.022
  
                   Maximum memory used (kb):      865132.
                   Average memory used (kb):           0.
  
                          Minor page faults:       176266
                          Major page faults:          532
                 Voluntary context switches:         2488
