<?xml version="1.0" encoding="ISO-8859-1"?>
<modeling>
 <generator>
  <i name="program" type="string">vasp </i>
  <i name="version" type="string">5.4.1  </i>
  <i name="subversion" type="string">24Jun15 (build Jul 23 2024 06:15:33) complex                          parallel </i>
  <i name="platform" type="string">IFC91_ompi </i>
  <i name="date" type="string">2026 05 05 </i>
  <i name="time" type="string">14:58:12 </i>
 </generator>
 <incar>
  <i type="string" name="SYSTEM"> Li defective graphene MACE training lab</i>
  <i type="int" name="ISTART">     0</i>
  <i type="string" name="PREC">accurate</i>
  <i type="string" name="ALGO"> Normal</i>
  <i type="logical" name="ADDGRID"> T  </i>
  <i type="int" name="ISPIN">     2</i>
  <i type="int" name="ICHARG">     2</i>
  <i type="int" name="NELM">   120</i>
  <i type="int" name="IBRION">    -1</i>
  <i name="EDIFF">      0.00000100</i>
  <i type="int" name="NSW">     0</i>
  <i type="int" name="ISIF">     2</i>
  <i type="int" name="ISYM">     0</i>
  <i name="ENCUT">    520.00000000</i>
  <v name="MAGMOM">      0.10000000      0.10000000      0.10000000      0.10000000      0.10000000      0.10000000      0.10000000      0.10000000      0.10000000      0.10000000      0.10000000      0.10000000      0.10000000      0.10000000      0.10000000      0.10000000      0.10000000      0.10000000      0.10000000      0.10000000
      0.10000000      0.10000000      0.10000000      0.10000000      0.10000000      0.10000000      0.10000000      0.10000000      0.10000000      0.10000000      0.10000000      0.10000000      0.10000000      0.10000000      0.10000000      0.10000000      0.10000000      0.10000000      0.10000000      0.10000000
      0.10000000      0.10000000      0.10000000      0.10000000      0.10000000      0.10000000      0.10000000      0.10000000      1.00000000</v>
  <i type="string" name="LREAL"> Auto</i>
  <i type="int" name="ISMEAR">     0</i>
  <i name="SIGMA">      0.05000000</i>
  <i type="logical" name="LWAVE"> F  </i>
  <i type="logical" name="LCHARG"> F  </i>
  <i type="logical" name="LASPH"> T  </i>
  <v type="int" name="KPOINT_BSE">    -1     0     0     0</v>
  <i type="int" name="NELM">   120</i>
  <i type="logical" name="LASPH"> T  </i>
 </incar>
 <kpoints>
  <generation param="Gamma">
   <v type="int" name="divisions">       3        3        1 </v>
   <v name="usershift">      0.00000000       0.00000000       0.00000000 </v>
   <v name="genvec1">      0.33333333       0.00000000       0.00000000 </v>
   <v name="genvec2">      0.00000000       0.33333333       0.00000000 </v>
   <v name="genvec3">      0.00000000       0.00000000       1.00000000 </v>
   <v name="shift">      0.00000000       0.00000000       0.00000000 </v>
  </generation>
  <varray name="kpointlist" >
   <v>       0.00000000       0.00000000       0.00000000 </v>
   <v>       0.33333333      -0.00000000       0.00000000 </v>
   <v>       0.00000000       0.33333333       0.00000000 </v>
   <v>       0.33333333       0.33333333       0.00000000 </v>
   <v>      -0.33333333       0.33333333       0.00000000 </v>
  </varray>
  <varray name="weights" >
   <v>       0.11111111 </v>
   <v>       0.22222222 </v>
   <v>       0.22222222 </v>
   <v>       0.22222222 </v>
   <v>       0.22222222 </v>
  </varray>
 </kpoints>
 <parameters>
  <separator name="general" >
   <i type="string" name="SYSTEM">Li defective graphene MACE training lab</i>
   <i type="logical" name="LCOMPAT"> F  </i>
  </separator>
  <separator name="electronic" >
   <i type="string" name="PREC">accura</i>
   <i name="ENMAX">    520.00000000</i>
   <i name="ENAUG">    644.87300000</i>
   <i name="EDIFF">      0.00000100</i>
   <i type="int" name="IALGO">    38</i>
   <i type="int" name="IWAVPR">    10</i>
   <i type="int" name="NBANDS">   128</i>
   <i name="NELECT">    195.00000000</i>
   <i type="int" name="TURBO">     0</i>
   <i type="int" name="IRESTART">     0</i>
   <i type="int" name="NREBOOT">     0</i>
   <i type="int" name="NMIN">     0</i>
   <i name="EREF">      0.00000000</i>
   <separator name="electronic smearing" >
    <i type="int" name="ISMEAR">     0</i>
    <i name="SIGMA">      0.05000000</i>
    <i name="KSPACING">      0.50000000</i>
    <i type="logical" name="KGAMMA"> T  </i>
   </separator>
   <separator name="electronic projectors" >
    <i type="logical" name="LREAL"> T  </i>
    <v name="ROPT">     -0.00025000     -0.00025000</v>
    <i type="int" name="LMAXPAW">  -100</i>
    <i type="int" name="LMAXMIX">     2</i>
    <i type="logical" name="NLSPLINE"> F  </i>
   </separator>
   <separator name="electronic startup" >
    <i type="int" name="ISTART">     0</i>
    <i type="int" name="ICHARG">     2</i>
    <i type="int" name="INIWAV">     1</i>
   </separator>
   <separator name="electronic spin" >
    <i type="int" name="ISPIN">     2</i>
    <i type="logical" name="LNONCOLLINEAR"> F  </i>
    <v name="MAGMOM">      0.10000000      0.10000000      0.10000000      0.10000000      0.10000000      0.10000000      0.10000000      0.10000000      0.10000000      0.10000000      0.10000000      0.10000000      0.10000000      0.10000000      0.10000000      0.10000000      0.10000000      0.10000000      0.10000000      0.10000000
      0.10000000      0.10000000      0.10000000      0.10000000      0.10000000      0.10000000      0.10000000      0.10000000      0.10000000      0.10000000      0.10000000      0.10000000      0.10000000      0.10000000      0.10000000      0.10000000      0.10000000      0.10000000      0.10000000      0.10000000
      0.10000000      0.10000000      0.10000000      0.10000000      0.10000000      0.10000000      0.10000000      0.10000000      1.00000000</v>
    <i name="NUPDOWN">     -1.00000000</i>
    <i type="logical" name="LSORBIT"> F  </i>
    <v name="SAXIS">      0.00000000      0.00000000      1.00000000</v>
    <i type="logical" name="LSPIRAL"> F  </i>
    <v name="QSPIRAL">      0.00000000      0.00000000      0.00000000</v>
    <i type="logical" name="LZEROZ"> F  </i>
   </separator>
   <separator name="electronic exchange-correlation" >
    <i type="logical" name="LASPH"> T  </i>
    <i type="logical" name="LMETAGGA"> F  </i>
   </separator>
   <separator name="electronic convergence" >
    <i type="int" name="NELM">   120</i>
    <i type="int" name="NELMDL">    -5</i>
    <i type="int" name="NELMIN">     2</i>
    <i name="ENINI">    520.00000000</i>
    <separator name="electronic convergence detail" >
     <i type="logical" name="LDIAG"> T  </i>
     <i type="logical" name="LSUBROT"> F  </i>
     <i name="WEIMIN">      0.00000000</i>
     <i name="EBREAK">      0.00000000</i>
     <i name="DEPER">      0.30000000</i>
     <i type="int" name="NRMM">     4</i>
     <i name="TIME">      0.40000000</i>
    </separator>
   </separator>
   <separator name="electronic mixer" >
    <i name="AMIX">      0.40000000</i>
    <i name="BMIX">      1.00000000</i>
    <i name="AMIN">      0.10000000</i>
    <i name="AMIX_MAG">      1.60000000</i>
    <i name="BMIX_MAG">      1.00000000</i>
    <separator name="electronic mixer details" >
     <i type="int" name="IMIX">     4</i>
     <i type="logical" name="MIXFIRST"> F  </i>
     <i type="int" name="MAXMIX">   -45</i>
     <i name="WC">    100.00000000</i>
     <i type="int" name="INIMIX">     1</i>
     <i type="int" name="MIXPRE">     1</i>
     <i type="int" name="MREMOVE">     5</i>
    </separator>
   </separator>
   <separator name="electronic dipolcorrection" >
    <i type="logical" name="LDIPOL"> F  </i>
    <i type="logical" name="LMONO"> F  </i>
    <i type="int" name="IDIPOL">     0</i>
    <i name="EPSILON">      1.00000000</i>
    <v name="DIPOL">   -100.00000000   -100.00000000   -100.00000000</v>
    <i name="EFIELD">      0.00000000</i>
   </separator>
  </separator>
  <separator name="grids" >
   <i type="int" name="NGX">    96</i>
   <i type="int" name="NGY">    96</i>
   <i type="int" name="NGZ">   224</i>
   <i type="int" name="NGXF">   192</i>
   <i type="int" name="NGYF">   192</i>
   <i type="int" name="NGZF">   448</i>
   <i type="logical" name="ADDGRID"> T  </i>
  </separator>
  <separator name="ionic" >
   <i type="int" name="NSW">     0</i>
   <i type="int" name="IBRION">    -1</i>
   <i type="int" name="ISIF">     2</i>
   <i name="PSTRESS">      0.00000000</i>
   <i name="EDIFFG">      0.00001000</i>
   <i type="int" name="NFREE">     0</i>
   <i name="POTIM">      0.50000000</i>
   <i name="SMASS">     -3.00000000</i>
   <i name="SCALEE">      1.00000000</i>
  </separator>
  <separator name="ionic md" >
   <i name="TEBEG">      0.00010000</i>
   <i name="TEEND">      0.00010000</i>
   <i type="int" name="NBLOCK">     1</i>
   <i type="int" name="KBLOCK">     1</i>
   <i type="int" name="NPACO">   256</i>
   <i name="APACO">     16.00000000</i>
  </separator>
  <separator name="symmetry" >
   <i type="int" name="ISYM">     0</i>
   <i name="SYMPREC">      0.00001000</i>
  </separator>
  <separator name="dos" >
   <i type="logical" name="LORBIT"> F  </i>
   <v name="RWIGS">     -1.00000000     -1.00000000</v>
   <i type="int" name="NEDOS">   301</i>
   <i name="EMIN">     10.00000000</i>
   <i name="EMAX">    -10.00000000</i>
   <i name="EFERMI">      0.00000000</i>
  </separator>
  <separator name="writing" >
   <i type="int" name="NWRITE">     2</i>
   <i type="logical" name="LWAVE"> F  </i>
   <i type="logical" name="LCHARG"> F  </i>
   <i type="logical" name="LPARD"> F  </i>
   <i type="logical" name="LVTOT"> F  </i>
   <i type="logical" name="LVHAR"> F  </i>
   <i type="logical" name="LELF"> F  </i>
   <i type="logical" name="LOPTICS"> F  </i>
   <v name="STM">      0.00000000      0.00000000      0.00000000      0.00000000      0.00000000      0.00000000      0.00000000</v>
  </separator>
  <separator name="performance" >
   <i type="int" name="NPAR">     4</i>
   <i type="int" name="NSIM">     4</i>
   <i type="int" name="NBLK">    -1</i>
   <i type="logical" name="LPLANE"> T  </i>
   <i type="logical" name="LSCALAPACK"> T  </i>
   <i type="logical" name="LSCAAWARE"> F  </i>
   <i type="logical" name="LSCALU"> F  </i>
   <i type="logical" name="LASYNC"> F  </i>
   <i type="logical" name="LORBITALREAL"> F  </i>
  </separator>
  <separator name="miscellaneous" >
   <i type="int" name="IDIOT">     3</i>
   <i type="logical" name="LMUSIC"> F  </i>
   <v name="POMASS">     12.01100000      7.01000000</v>
   <v name="DARWINR">      0.00000000      0.00000000</v>
   <v name="DARWINV">      1.00000000      1.00000000</v>
   <i type="logical" name="LCORR"> T  </i>
  </separator>
  <i type="logical" name="GGA_COMPAT"> T  </i>
  <i type="logical" name="LBERRY"> F  </i>
  <i type="int" name="ICORELEVEL">     0</i>
  <i type="logical" name="LDAU"> F  </i>
  <i type="int" name="I_CONSTRAINED_M">     0</i>
  <separator name="electronic exchange-correlation" >
   <i type="string" name="GGA">--</i>
   <i type="int" name="VOSKOWN">     0</i>
   <i type="logical" name="LHFCALC"> F  </i>
   <i type="string" name="PRECFOCK"></i>
   <i type="logical" name="LSYMGRAD"> F  </i>
   <i type="logical" name="LHFONE"> F  </i>
   <i type="logical" name="LRHFCALC"> F  </i>
   <i type="logical" name="LTHOMAS"> F  </i>
   <i type="logical" name="LMODELHF"> F  </i>
   <i name="ENCUT4O">     -1.00000000</i>
   <i type="int" name="EXXOEP">     0</i>
   <i type="int" name="FOURORBIT">     0</i>
   <i name="AEXX">      0.00000000</i>
   <i name="HFALPHA">      0.00000000</i>
   <i name="MCALPHA">      0.00000000</i>
   <i name="ALDAX">      1.00000000</i>
   <i name="AGGAX">      1.00000000</i>
   <i name="ALDAC">      1.00000000</i>
   <i name="AGGAC">      1.00000000</i>
   <i type="int" name="NKREDX">     1</i>
   <i type="int" name="NKREDY">     1</i>
   <i type="int" name="NKREDZ">     1</i>
   <i type="logical" name="SHIFTRED"> F  </i>
   <i type="logical" name="ODDONLY"> F  </i>
   <i type="logical" name="EVENONLY"> F  </i>
   <i type="int" name="LMAXFOCK">     0</i>
   <i type="int" name="NMAXFOCKAE">     0</i>
   <i type="logical" name="LFOCKAEDFT"> F  </i>
   <i name="HFSCREEN">      0.00000000</i>
   <i name="HFSCREENC">      0.00000000</i>
   <i type="int" name="NBANDSGWLOW">     0</i>
  </separator>
  <separator name="vdW DFT" >
   <i type="logical" name="LUSE_VDW"> F  </i>
   <i name="Zab_VDW">     -0.84910000</i>
   <i name="PARAM1">      0.12340000</i>
   <i name="PARAM2">      1.00000000</i>
   <i name="PARAM3">      0.00000000</i>
  </separator>
  <separator name="model GW" >
   <i type="int" name="MODEL_GW">     0</i>
   <i name="MODEL_EPS0">     48.13015714</i>
   <i name="MODEL_ALPHA">      1.00000000</i>
  </separator>
  <separator name="linear response parameters" >
   <i type="logical" name="LEPSILON"> F  </i>
   <i type="logical" name="LRPA"> F  </i>
   <i type="logical" name="LNABLA"> F  </i>
   <i type="logical" name="LVEL"> F  </i>
   <i type="int" name="KINTER">     0</i>
   <i name="CSHIFT">      0.10000000</i>
   <i name="OMEGAMAX">     -1.00000000</i>
   <i name="DEG_THRESHOLD">      0.00200000</i>
  </separator>
  <separator name="orbital magnetization" >
   <i type="logical" name="NUCIND"> F  </i>
   <v name="MAGPOS">      0.00000000      0.00000000      0.00000000</v>
   <i type="logical" name="LNICSALL"> T  </i>
   <i type="logical" name="ORBITALMAG"> F  </i>
   <i type="logical" name="LMAGBLOCH"> F  </i>
   <i type="logical" name="LCHIMAG"> F  </i>
   <i type="logical" name="LGAUGE"> T  </i>
   <i type="int" name="MAGATOM">     0</i>
   <v name="MAGDIPOL">      0.00000000      0.00000000      0.00000000</v>
   <v name="AVECCONST">      0.00000000      0.00000000      0.00000000</v>
  </separator>
  <separator name="response functions" >
   <i type="logical" name="LADDER"> F  </i>
   <i type="logical" name="LFXC"> F  </i>
   <i type="logical" name="LHARTREE"> T  </i>
   <i type="int" name="IBSE">     0</i>
   <v type="int" name="KPOINT">    -1     0     0     0</v>
   <i type="logical" name="LTCTE"> F  </i>
   <i type="logical" name="LTETE"> F  </i>
   <i type="logical" name="LTRIPLET"> F  </i>
   <i type="logical" name="LFXCEPS"> F  </i>
   <i type="logical" name="LFXHEG"> F  </i>
   <i type="int" name="NATURALO">     0</i>
   <i type="logical" name="L2ORDER"> F  </i>
   <i type="logical" name="LUSEW"> F  </i>
   <i name="ENCUTGW">     -2.00000000</i>
   <i name="ENCUTGWSOFT">     -2.00000000</i>
   <i name="ENCUTLF">     -1.00000000</i>
   <i type="int" name="LMAXMP2">    -1</i>
   <i name="SCISSOR">      0.00000000</i>
   <i type="int" name="NOMEGA">     0</i>
   <i type="int" name="NOMEGAR">     0</i>
   <i type="int" name="NBANDSGW">    -1</i>
   <i type="int" name="NBANDSO">    -1</i>
   <i type="int" name="NBANDSV">    -1</i>
   <i type="int" name="NELM">   120</i>
   <i type="int" name="NELMHF">     1</i>
   <i type="int" name="DIM">     3</i>
   <i type="int" name="ANTIRES">     0</i>
   <i name="OMEGAMAX">    -30.00000000</i>
   <i name="OMEGAMIN">    -30.00000000</i>
   <i name="OMEGATL">   -200.00000000</i>
   <i type="int" name="OMEGAGRID">     0</i>
   <i name="CSHIFT">     -0.10000000</i>
   <i type="logical" name="SELFENERGY"> F  </i>
   <i type="logical" name="LSPECTRAL"> F  </i>
   <i type="logical" name="LSPECTRALGW"> F  </i>
   <i type="logical" name="LSINGLES"> F  </i>
   <i type="logical" name="LFERMIGW"> F  </i>
   <i type="logical" name="ODDONLYGW"> F  </i>
   <i type="logical" name="EVENONLYGW"> F  </i>
   <i type="int" name="NKREDLFX">     1</i>
   <i type="int" name="NKREDLFY">     1</i>
   <i type="int" name="NKREDLFZ">     1</i>
   <i type="int" name="MAXMEM">  1800</i>
   <i type="int" name="TELESCOPE">     0</i>
   <i type="int" name="TAUPAR">     1</i>
   <i type="int" name="OMEGAPAR">    -1</i>
   <i name="LAMBDA">      1.00000000</i>
  </separator>
  <separator name="External order field" >
   <i name="OFIELD_KAPPA">      0.00000000</i>
   <v name="OFIELD_K">      0.00000000      0.00000000      0.00000000</v>
   <i name="OFIELD_Q6_NEAR">      0.00000000</i>
   <i name="OFIELD_Q6_FAR">      0.00000000</i>
   <i name="OFIELD_A">      0.00000000</i>
  </separator>
 </parameters>
 <atominfo>
  <atoms>      49 </atoms>
  <types>       2 </types>
  <array name="atoms" >
   <dimension dim="1">ion</dimension>
   <field type="string">element</field>
   <field type="int">atomtype</field>
   <set>
    <rc><c>C </c><c>   1</c></rc>
    <rc><c>C </c><c>   1</c></rc>
    <rc><c>C </c><c>   1</c></rc>
    <rc><c>C </c><c>   1</c></rc>
    <rc><c>C </c><c>   1</c></rc>
    <rc><c>C </c><c>   1</c></rc>
    <rc><c>C </c><c>   1</c></rc>
    <rc><c>C </c><c>   1</c></rc>
    <rc><c>C </c><c>   1</c></rc>
    <rc><c>C </c><c>   1</c></rc>
    <rc><c>C </c><c>   1</c></rc>
    <rc><c>C </c><c>   1</c></rc>
    <rc><c>C </c><c>   1</c></rc>
    <rc><c>C </c><c>   1</c></rc>
    <rc><c>C </c><c>   1</c></rc>
    <rc><c>C </c><c>   1</c></rc>
    <rc><c>C </c><c>   1</c></rc>
    <rc><c>C </c><c>   1</c></rc>
    <rc><c>C </c><c>   1</c></rc>
    <rc><c>C </c><c>   1</c></rc>
    <rc><c>C </c><c>   1</c></rc>
    <rc><c>C </c><c>   1</c></rc>
    <rc><c>C </c><c>   1</c></rc>
    <rc><c>C </c><c>   1</c></rc>
    <rc><c>C </c><c>   1</c></rc>
    <rc><c>C </c><c>   1</c></rc>
    <rc><c>C </c><c>   1</c></rc>
    <rc><c>C </c><c>   1</c></rc>
    <rc><c>C </c><c>   1</c></rc>
    <rc><c>C </c><c>   1</c></rc>
    <rc><c>C </c><c>   1</c></rc>
    <rc><c>C </c><c>   1</c></rc>
    <rc><c>C </c><c>   1</c></rc>
    <rc><c>C </c><c>   1</c></rc>
    <rc><c>C </c><c>   1</c></rc>
    <rc><c>C </c><c>   1</c></rc>
    <rc><c>C </c><c>   1</c></rc>
    <rc><c>C </c><c>   1</c></rc>
    <rc><c>C </c><c>   1</c></rc>
    <rc><c>C </c><c>   1</c></rc>
    <rc><c>C </c><c>   1</c></rc>
    <rc><c>C </c><c>   1</c></rc>
    <rc><c>C </c><c>   1</c></rc>
    <rc><c>C </c><c>   1</c></rc>
    <rc><c>C </c><c>   1</c></rc>
    <rc><c>C </c><c>   1</c></rc>
    <rc><c>C </c><c>   1</c></rc>
    <rc><c>C </c><c>   1</c></rc>
    <rc><c>Li</c><c>   2</c></rc>
   </set>
  </array>
  <array name="atomtypes" >
   <dimension dim="1">type</dimension>
   <field type="int">atomspertype</field>
   <field type="string">element</field>
   <field>mass</field>
   <field>valence</field>
   <field type="string">pseudopotential</field>
   <set>
    <rc><c>  48</c><c>C </c><c>     12.01100000</c><c>      4.00000000</c><c>  PAW_PBE C 08Apr2002                   </c></rc>
    <rc><c>   1</c><c>Li</c><c>      7.01000000</c><c>      3.00000000</c><c>  PAW_PBE Li_sv 10Sep2004               </c></rc>
   </set>
  </array>
 </atominfo>
 <structure name="initialpos" >
  <crystal>
   <varray name="basis" >
    <v>      12.30000000       0.00000000       0.00000000 </v>
    <v>      -6.15000000      10.65211247       0.00000000 </v>
    <v>       0.00000000       0.00000000      30.00000000 </v>
   </varray>
   <i name="volume">   3930.62950016 </i>
   <varray name="rec_basis" >
    <v>       0.08130081       0.04693905       0.00000000 </v>
    <v>       0.00000000       0.09387809       0.00000000 </v>
    <v>       0.00000000       0.00000000       0.03333333 </v>
   </varray>
  </crystal>
  <varray name="positions" >
   <v>       0.00069168       0.99541666       0.49998612 </v>
   <v>       0.13570752       0.06529461       0.50002869 </v>
   <v>       0.00528682       0.19571106       0.50058609 </v>
   <v>       0.13833518       0.26560218       0.50057170 </v>
   <v>       0.99712702       0.39177707       0.50100754 </v>
   <v>       0.13026968       0.46391674       0.50087604 </v>
   <v>       0.97526623       0.57616636       0.49974051 </v>
   <v>       0.11731876       0.65556017       0.50025836 </v>
   <v>       0.98729726       0.78579945       0.49978844 </v>
   <v>       0.12617716       0.86034230       0.49990407 </v>
   <v>       0.20174420       0.99935984       0.49996315 </v>
   <v>       0.34076841       0.07491797       0.49997416 </v>
   <v>       0.20564900       0.20029985       0.50029029 </v>
   <v>       0.34065624       0.27207656       0.50022199 </v>
   <v>       0.19984457       0.39937158       0.50071372 </v>
   <v>       0.33279713       0.46984879       0.50056375 </v>
   <v>       0.19199209       0.59719431       0.50058322 </v>
   <v>       0.32697969       0.66894440       0.50043978 </v>
   <v>       0.19196150       0.79444851       0.50008107 </v>
   <v>       0.33098870       0.87000208       0.50010093 </v>
   <v>       0.40655756       0.00904940       0.49998696 </v>
   <v>       0.54540405       0.08366039       0.49998134 </v>
   <v>       0.41537712       0.21379237       0.49993588 </v>
   <v>       0.55744946       0.29324157       0.49946986 </v>
   <v>       0.40242993       0.40537510       0.50047012 </v>
   <v>       0.53559216       0.47761928       0.50044748 </v>
   <v>       0.39430443       0.60365582       0.50046434 </v>
   <v>       0.52736225       0.67361877       0.50026175 </v>
   <v>       0.39695450       0.80397139       0.50018869 </v>
   <v>       0.53196727       0.87397152       0.50011628 </v>
   <v>       0.60374810       0.00898380       0.50016676 </v>
   <v>       0.73705382       0.07076953       0.50050530 </v>
   <v>       0.62488765       0.22578393       0.49959691 </v>
   <v>       0.76599571       0.29127341       0.50025991 </v>
   <v>       0.62301774       0.43445421       0.49988325 </v>
   <v>       0.59240615       0.60866974       0.50023153 </v>
   <v>       0.72347200       0.66559306       0.50021997 </v>
   <v>       0.59727190       0.80667286       0.50014313 </v>
   <v>       0.73106729       0.86823424       0.50012855 </v>
   <v>       0.80156259       0.00117311       0.50027601 </v>
   <v>       0.93536716       0.06268160       0.50025728 </v>
   <v>       0.80924606       0.20391568       0.50083025 </v>
   <v>       0.94027672       0.26072818       0.50083145 </v>
   <v>       0.90975834       0.43503138       0.50036590 </v>
   <v>       0.76676574       0.57827823       0.49975349 </v>
   <v>       0.90787378       0.64372456       0.49943208 </v>
   <v>       0.79564026       0.79872732       0.50011285 </v>
   <v>       0.92892615       0.86046430       0.49989995 </v>
   <v>       0.70266384       0.43463288       0.55687285 </v>
  </varray>
 </structure>
 <calculation>
  <scstep>
   <time name="dav">   43.71   43.77</time>
   <time name="total">   46.61   46.67</time>
   <energy>
    <i name="alphaZ">     49.28462660 </i>
    <i name="ewald">  52388.16410050 </i>
    <i name="hartreedc"> -57476.56842480 </i>
    <i name="XCdc">    641.30521758 </i>
    <i name="pawpsdc">   5288.51619703 </i>
    <i name="pawaedc">  -5331.18329077 </i>
    <i name="eentropy">     -0.02834462 </i>
    <i name="bandstr">   -977.04153628 </i>
    <i name="atom">   7265.91972593 </i>
    <i name="e_fr_energy">   1848.36827118 </i>
    <i name="e_wo_entrp">   1848.39661580 </i>
    <i name="e_0_energy">   1848.38244349 </i>
   </energy>
  </scstep>
  <scstep>
   <time name="dav">   52.79   52.80</time>
   <time name="total">   52.79   52.81</time>
   <energy>
    <i name="e_fr_energy">     46.49544513 </i>
    <i name="e_wo_entrp">     46.50147047 </i>
    <i name="e_0_energy">     46.49845780 </i>
   </energy>
  </scstep>
  <scstep>
   <time name="dav">   46.14   46.14</time>
   <time name="total">   46.14   46.15</time>
   <energy>
    <i name="e_fr_energy">   -438.47211175 </i>
    <i name="e_wo_entrp">   -438.46897378 </i>
    <i name="e_0_energy">   -438.47054277 </i>
   </energy>
  </scstep>
  <scstep>
   <time name="dav">   45.83   45.84</time>
   <time name="total">   45.83   45.84</time>
   <energy>
    <i name="e_fr_energy">   -465.23955928 </i>
    <i name="e_wo_entrp">   -465.23464582 </i>
    <i name="e_0_energy">   -465.23710255 </i>
   </energy>
  </scstep>
  <scstep>
   <time name="dav">   53.95   53.95</time>
   <time name="total">   57.98   57.98</time>
   <energy>
    <i name="e_fr_energy">   -466.29798780 </i>
    <i name="e_wo_entrp">   -466.29296778 </i>
    <i name="e_0_energy">   -466.29547779 </i>
   </energy>
  </scstep>
  <scstep>
   <time name="dav">   41.18   41.18</time>
   <time name="total">   47.99   47.99</time>
   <energy>
    <i name="e_fr_energy">   -443.68926467 </i>
    <i name="e_wo_entrp">   -443.68245140 </i>
    <i name="e_0_energy">   -443.68585804 </i>
   </energy>
  </scstep>
  <scstep>
   <time name="dav">   42.98   42.99</time>
   <time name="total">   49.56   49.57</time>
   <energy>
    <i name="e_fr_energy">   -432.70883841 </i>
    <i name="e_wo_entrp">   -432.70361155 </i>
    <i name="e_0_energy">   -432.70622498 </i>
   </energy>
  </scstep>
  <scstep>
   <time name="dav">   42.24   42.24</time>
   <time name="total">   48.87   48.88</time>
   <energy>
    <i name="e_fr_energy">   -432.25283029 </i>
    <i name="e_wo_entrp">   -432.24780635 </i>
    <i name="e_0_energy">   -432.25031832 </i>
   </energy>
  </scstep>
  <scstep>
   <time name="dav">   49.96   49.97</time>
   <time name="total">   56.58   56.59</time>
   <energy>
    <i name="e_fr_energy">   -433.43379124 </i>
    <i name="e_wo_entrp">   -433.42875174 </i>
    <i name="e_0_energy">   -433.43127149 </i>
   </energy>
  </scstep>
  <scstep>
   <time name="dav">   41.03   41.03</time>
   <time name="total">   47.53   47.54</time>
   <energy>
    <i name="e_fr_energy">   -433.94239795 </i>
    <i name="e_wo_entrp">   -433.93728087 </i>
    <i name="e_0_energy">   -433.93983941 </i>
   </energy>
  </scstep>
  <scstep>
   <time name="dav">   43.04   43.04</time>
   <time name="total">   50.02   50.02</time>
   <energy>
    <i name="e_fr_energy">   -434.35444464 </i>
    <i name="e_wo_entrp">   -434.34926117 </i>
    <i name="e_0_energy">   -434.35185290 </i>
   </energy>
  </scstep>
  <scstep>
   <time name="dav">   40.49   40.50</time>
   <time name="total">   47.24   47.25</time>
   <energy>
    <i name="e_fr_energy">   -435.12972545 </i>
    <i name="e_wo_entrp">   -435.12433101 </i>
    <i name="e_0_energy">   -435.12702823 </i>
   </energy>
  </scstep>
  <scstep>
   <time name="dav">   39.61   39.62</time>
   <time name="total">   46.31   46.32</time>
   <energy>
    <i name="e_fr_energy">   -435.23416782 </i>
    <i name="e_wo_entrp">   -435.22836529 </i>
    <i name="e_0_energy">   -435.23126655 </i>
   </energy>
  </scstep>
  <scstep>
   <time name="dav">   40.59   40.59</time>
   <time name="total">   47.25   47.26</time>
   <energy>
    <i name="e_fr_energy">   -435.64690253 </i>
    <i name="e_wo_entrp">   -435.64075904 </i>
    <i name="e_0_energy">   -435.64383078 </i>
   </energy>
  </scstep>
  <scstep>
   <time name="dav">   40.90   40.90</time>
   <time name="total">   47.51   47.52</time>
   <energy>
    <i name="e_fr_energy">   -436.38229351 </i>
    <i name="e_wo_entrp">   -436.37596798 </i>
    <i name="e_0_energy">   -436.37913074 </i>
   </energy>
  </scstep>
  <scstep>
   <time name="dav">   41.51   41.51</time>
   <time name="total">   48.02   48.03</time>
   <energy>
    <i name="e_fr_energy">   -436.77756792 </i>
    <i name="e_wo_entrp">   -436.77119232 </i>
    <i name="e_0_energy">   -436.77438012 </i>
   </energy>
  </scstep>
  <scstep>
   <time name="dav">   40.04   40.05</time>
   <time name="total">   46.67   46.68</time>
   <energy>
    <i name="e_fr_energy">   -437.08869684 </i>
    <i name="e_wo_entrp">   -437.08229836 </i>
    <i name="e_0_energy">   -437.08549760 </i>
   </energy>
  </scstep>
  <scstep>
   <time name="dav">   40.59   40.60</time>
   <time name="total">   47.23   47.24</time>
   <energy>
    <i name="e_fr_energy">   -437.20976729 </i>
    <i name="e_wo_entrp">   -437.20336015 </i>
    <i name="e_0_energy">   -437.20656372 </i>
   </energy>
  </scstep>
  <scstep>
   <time name="dav">   40.95   40.95</time>
   <time name="total">   47.58   47.59</time>
   <energy>
    <i name="e_fr_energy">   -437.25239434 </i>
    <i name="e_wo_entrp">   -437.24598494 </i>
    <i name="e_0_energy">   -437.24918964 </i>
   </energy>
  </scstep>
  <scstep>
   <time name="dav">   40.23   40.23</time>
   <time name="total">   46.88   46.89</time>
   <energy>
    <i name="e_fr_energy">   -437.26420070 </i>
    <i name="e_wo_entrp">   -437.25779012 </i>
    <i name="e_0_energy">   -437.26099541 </i>
   </energy>
  </scstep>
  <scstep>
   <time name="dav">   40.43   40.43</time>
   <time name="total">   47.23   47.24</time>
   <energy>
    <i name="e_fr_energy">   -437.27642574 </i>
    <i name="e_wo_entrp">   -437.27001456 </i>
    <i name="e_0_energy">   -437.27322015 </i>
   </energy>
  </scstep>
  <scstep>
   <time name="dav">   40.16   40.17</time>
   <time name="total">   47.02   47.03</time>
   <energy>
    <i name="e_fr_energy">   -437.30191949 </i>
    <i name="e_wo_entrp">   -437.29550832 </i>
    <i name="e_0_energy">   -437.29871391 </i>
   </energy>
  </scstep>
  <scstep>
   <time name="dav">   40.63   40.64</time>
   <time name="total">   47.51   47.52</time>
   <energy>
    <i name="e_fr_energy">   -437.32241413 </i>
    <i name="e_wo_entrp">   -437.31600298 </i>
    <i name="e_0_energy">   -437.31920855 </i>
   </energy>
  </scstep>
  <scstep>
   <time name="dav">   37.09   37.09</time>
   <time name="total">   44.39   44.39</time>
   <energy>
    <i name="e_fr_energy">   -437.32681594 </i>
    <i name="e_wo_entrp">   -437.32040461 </i>
    <i name="e_0_energy">   -437.32361027 </i>
   </energy>
  </scstep>
  <scstep>
   <time name="dav">   35.77   35.78</time>
   <time name="total">   43.07   43.07</time>
   <energy>
    <i name="e_fr_energy">   -437.32942850 </i>
    <i name="e_wo_entrp">   -437.32301711 </i>
    <i name="e_0_energy">   -437.32622281 </i>
   </energy>
  </scstep>
  <scstep>
   <time name="dav">   34.81   34.82</time>
   <time name="total">   42.14   42.15</time>
   <energy>
    <i name="e_fr_energy">   -437.33045530 </i>
    <i name="e_wo_entrp">   -437.32404399 </i>
    <i name="e_0_energy">   -437.32724965 </i>
   </energy>
  </scstep>
  <scstep>
   <time name="dav">   34.18   34.18</time>
   <time name="total">   41.50   41.50</time>
   <energy>
    <i name="e_fr_energy">   -437.33084148 </i>
    <i name="e_wo_entrp">   -437.32443016 </i>
    <i name="e_0_energy">   -437.32763582 </i>
   </energy>
  </scstep>
  <scstep>
   <time name="dav">   33.28   33.29</time>
   <time name="total">   40.61   40.62</time>
   <energy>
    <i name="e_fr_energy">   -437.33108164 </i>
    <i name="e_wo_entrp">   -437.32467025 </i>
    <i name="e_0_energy">   -437.32787595 </i>
   </energy>
  </scstep>
  <scstep>
   <time name="dav">   33.47   33.47</time>
   <time name="total">   40.82   40.83</time>
   <energy>
    <i name="e_fr_energy">   -437.33119861 </i>
    <i name="e_wo_entrp">   -437.32478724 </i>
    <i name="e_0_energy">   -437.32799293 </i>
   </energy>
  </scstep>
  <scstep>
   <time name="dav">   29.78   29.79</time>
   <time name="total">   37.12   37.13</time>
   <energy>
    <i name="e_fr_energy">   -437.33125938 </i>
    <i name="e_wo_entrp">   -437.32484803 </i>
    <i name="e_0_energy">   -437.32805370 </i>
   </energy>
  </scstep>
  <scstep>
   <time name="dav">   30.05   30.05</time>
   <time name="total">   37.42   37.43</time>
   <energy>
    <i name="e_fr_energy">   -437.33130281 </i>
    <i name="e_wo_entrp">   -437.32489146 </i>
    <i name="e_0_energy">   -437.32809713 </i>
   </energy>
  </scstep>
  <scstep>
   <time name="dav">   30.40   30.40</time>
   <time name="total">   37.76   37.76</time>
   <energy>
    <i name="e_fr_energy">   -437.33131980 </i>
    <i name="e_wo_entrp">   -437.32490845 </i>
    <i name="e_0_energy">   -437.32811412 </i>
   </energy>
  </scstep>
  <scstep>
   <time name="dav">   30.75   30.76</time>
   <time name="total">   38.13   38.13</time>
   <energy>
    <i name="e_fr_energy">   -437.33132477 </i>
    <i name="e_wo_entrp">   -437.32491341 </i>
    <i name="e_0_energy">   -437.32811909 </i>
   </energy>
  </scstep>
  <scstep>
   <time name="dav">   29.33   29.34</time>
   <time name="total">   36.68   36.68</time>
   <energy>
    <i name="e_fr_energy">   -437.33132743 </i>
    <i name="e_wo_entrp">   -437.32491608 </i>
    <i name="e_0_energy">   -437.32812175 </i>
   </energy>
  </scstep>
  <scstep>
   <time name="dav">   29.71   29.71</time>
   <time name="total">   37.07   37.08</time>
   <energy>
    <i name="e_fr_energy">   -437.33132866 </i>
    <i name="e_wo_entrp">   -437.32491731 </i>
    <i name="e_0_energy">   -437.32812299 </i>
   </energy>
  </scstep>
  <scstep>
   <time name="dav">   30.08   30.08</time>
   <time name="total">   32.99   33.00</time>
   <energy>
    <i name="alphaZ">     49.28462660 </i>
    <i name="ewald">  52388.16410050 </i>
    <i name="hartreedc"> -58359.61478251 </i>
    <i name="XCdc">    668.59589962 </i>
    <i name="pawpsdc">  19105.83916166 </i>
    <i name="pawaedc"> -19154.10029366 </i>
    <i name="eentropy">     -0.00641135 </i>
    <i name="bandstr">  -2401.41335593 </i>
    <i name="atom">   7265.91972593 </i>
    <i name="e_fr_energy">   -437.33132914 </i>
    <i name="e_wo_entrp">   -437.32491779 </i>
    <i name="e_0_energy">   -437.32812346 </i>
   </energy>
  </scstep>
  <structure>
   <crystal>
    <varray name="basis" >
     <v>      12.30000000       0.00000000       0.00000000 </v>
     <v>      -6.15000000      10.65211247       0.00000000 </v>
     <v>       0.00000000       0.00000000      30.00000000 </v>
    </varray>
    <i name="volume">   3930.62950016 </i>
    <varray name="rec_basis" >
     <v>       0.08130081       0.04693905       0.00000000 </v>
     <v>       0.00000000       0.09387809       0.00000000 </v>
     <v>       0.00000000       0.00000000       0.03333333 </v>
    </varray>
   </crystal>
   <varray name="positions" >
    <v>       0.00069168       0.99541666       0.49998612 </v>
    <v>       0.13570752       0.06529461       0.50002869 </v>
    <v>       0.00528682       0.19571106       0.50058609 </v>
    <v>       0.13833518       0.26560218       0.50057170 </v>
    <v>       0.99712702       0.39177707       0.50100754 </v>
    <v>       0.13026968       0.46391674       0.50087604 </v>
    <v>       0.97526623       0.57616636       0.49974051 </v>
    <v>       0.11731876       0.65556017       0.50025836 </v>
    <v>       0.98729726       0.78579945       0.49978844 </v>
    <v>       0.12617716       0.86034230       0.49990407 </v>
    <v>       0.20174420       0.99935984       0.49996315 </v>
    <v>       0.34076841       0.07491797       0.49997416 </v>
    <v>       0.20564900       0.20029985       0.50029029 </v>
    <v>       0.34065624       0.27207656       0.50022199 </v>
    <v>       0.19984457       0.39937158       0.50071372 </v>
    <v>       0.33279713       0.46984879       0.50056375 </v>
    <v>       0.19199209       0.59719431       0.50058322 </v>
    <v>       0.32697969       0.66894440       0.50043978 </v>
    <v>       0.19196150       0.79444851       0.50008107 </v>
    <v>       0.33098870       0.87000208       0.50010093 </v>
    <v>       0.40655756       0.00904940       0.49998696 </v>
    <v>       0.54540405       0.08366039       0.49998134 </v>
    <v>       0.41537712       0.21379237       0.49993588 </v>
    <v>       0.55744946       0.29324157       0.49946986 </v>
    <v>       0.40242993       0.40537510       0.50047012 </v>
    <v>       0.53559216       0.47761928       0.50044748 </v>
    <v>       0.39430443       0.60365582       0.50046434 </v>
    <v>       0.52736225       0.67361877       0.50026175 </v>
    <v>       0.39695450       0.80397139       0.50018869 </v>
    <v>       0.53196727       0.87397152       0.50011628 </v>
    <v>       0.60374810       0.00898380       0.50016676 </v>
    <v>       0.73705382       0.07076953       0.50050530 </v>
    <v>       0.62488765       0.22578393       0.49959691 </v>
    <v>       0.76599571       0.29127341       0.50025991 </v>
    <v>       0.62301774       0.43445421       0.49988325 </v>
    <v>       0.59240615       0.60866974       0.50023153 </v>
    <v>       0.72347200       0.66559306       0.50021997 </v>
    <v>       0.59727190       0.80667286       0.50014313 </v>
    <v>       0.73106729       0.86823424       0.50012855 </v>
    <v>       0.80156259       0.00117311       0.50027601 </v>
    <v>       0.93536716       0.06268160       0.50025728 </v>
    <v>       0.80924606       0.20391568       0.50083025 </v>
    <v>       0.94027672       0.26072818       0.50083145 </v>
    <v>       0.90975834       0.43503138       0.50036590 </v>
    <v>       0.76676574       0.57827823       0.49975349 </v>
    <v>       0.90787378       0.64372456       0.49943208 </v>
    <v>       0.79564026       0.79872732       0.50011285 </v>
    <v>       0.92892615       0.86046430       0.49989995 </v>
    <v>       0.70266384       0.43463288       0.55687285 </v>
   </varray>
  </structure>
  <varray name="forces" >
   <v>      -0.02504066       0.00272086       0.01304856 </v>
   <v>       0.01598569      -0.01109693       0.00243464 </v>
   <v>      -0.09652302       0.04833967       0.00526408 </v>
   <v>       0.01892006       0.03300118       0.00364531 </v>
   <v>      -0.11964070       0.14831963      -0.02358249 </v>
   <v>      -0.00442856       0.02030073      -0.00483235 </v>
   <v>       0.00587035      -0.21693495       0.04910560 </v>
   <v>      -0.03997675      -0.00882319      -0.05009468 </v>
   <v>      -0.01175779      -0.09496233      -0.02050565 </v>
   <v>       0.02105841       0.00876723      -0.00225658 </v>
   <v>      -0.01563609       0.00357651      -0.00512943 </v>
   <v>      -0.02003451      -0.01329358      -0.01523448 </v>
   <v>      -0.00858534       0.01579774      -0.01310189 </v>
   <v>      -0.03556400       0.00078122      -0.00236896 </v>
   <v>       0.00714598       0.00026068       0.00482783 </v>
   <v>       0.00610683       0.00491108       0.00298996 </v>
   <v>       0.00182650      -0.00759504      -0.00125214 </v>
   <v>       0.01848746      -0.00213726       0.00081155 </v>
   <v>       0.00500621       0.00422705      -0.00582198 </v>
   <v>      -0.02034755      -0.00516436       0.00473895 </v>
   <v>       0.03839265      -0.00134217      -0.00910918 </v>
   <v>      -0.02850001      -0.05984449      -0.00384069 </v>
   <v>      -0.01452592      -0.01401190       0.01709200 </v>
   <v>       0.02400495      -0.17979823      -0.00565644 </v>
   <v>      -0.05076633       0.01295868       0.02028672 </v>
   <v>      -0.17072972       0.06101693      -0.04048104 </v>
   <v>       0.01191201       0.01454974      -0.00382978 </v>
   <v>      -0.04807430       0.02672383       0.01176606 </v>
   <v>       0.02079869      -0.00106798       0.00180945 </v>
   <v>      -0.01012021      -0.00937969       0.00751133 </v>
   <v>      -0.00575558       0.00004066       0.00419980 </v>
   <v>       0.01522286       0.01990858      -0.01889517 </v>
   <v>       0.20805428       0.08679373       0.07938014 </v>
   <v>      -0.05343769       0.27127889       0.09949504 </v>
   <v>      -0.18631616       0.18700232      -0.56768074 </v>
   <v>      -0.00825505       0.00383835      -0.00332227 </v>
   <v>      -0.03622025      -0.02402760      -0.01722922 </v>
   <v>       0.01092706      -0.02193771       0.01141979 </v>
   <v>       0.01265947      -0.01472658       0.00428374 </v>
   <v>       0.01410179      -0.00436826      -0.00236306 </v>
   <v>      -0.00710636      -0.03153205       0.00685921 </v>
   <v>      -0.13107933      -0.03566925      -0.00404801 </v>
   <v>       0.07855235      -0.05531878       0.04027041 </v>
   <v>      -0.14705404       0.04656175       0.02952044 </v>
   <v>       0.13485559      -0.07261242       0.08563815 </v>
   <v>       0.07663110      -0.04032570       0.03033151 </v>
   <v>       0.00230505       0.03970329       0.00908285 </v>
   <v>      -0.01787623       0.00874403       0.00274951 </v>
   <v>       0.56452683      -0.14415391       0.27207363 </v>
  </varray>
  <varray name="stress" >
   <v>      -1.13643429     -16.22572578       0.37776469 </v>
   <v>     -16.22572580     -20.09875545      -0.09386224 </v>
   <v>       0.37776467      -0.09386218       0.09351698 </v>
  </varray>
  <energy>
   <i name="e_fr_energy">   -437.33132914 </i>
   <i name="e_wo_entrp">   -437.32812346 </i>
   <i name="e_0_energy">     -0.00641135 </i>
  </energy>
  <time name="totalsc"> 1697.72 1698.08</time>
  <eigenvalues>
   <array>
    <dimension dim="1">band</dimension>
    <dimension dim="2">kpoint</dimension>
    <dimension dim="3">spin</dimension>
    <field>eigene</field>
    <field>occ</field>
    <set>
     <set comment="spin 1">
      <set comment="kpoint 1">
       <r>  -51.4119    1.0000 </r>
       <r>  -22.3178    1.0000 </r>
       <r>  -21.6216    1.0000 </r>
       <r>  -21.4625    1.0000 </r>
       <r>  -21.3796    1.0000 </r>
       <r>  -21.2877    1.0000 </r>
       <r>  -21.1337    1.0000 </r>
       <r>  -20.8563    1.0000 </r>
       <r>  -19.6576    1.0000 </r>
       <r>  -19.5048    1.0000 </r>
       <r>  -19.4823    1.0000 </r>
       <r>  -19.4146    1.0000 </r>
       <r>  -19.3831    1.0000 </r>
       <r>  -19.1377    1.0000 </r>
       <r>  -18.7907    1.0000 </r>
       <r>  -18.6565    1.0000 </r>
       <r>  -18.5402    1.0000 </r>
       <r>  -18.4941    1.0000 </r>
       <r>  -18.2899    1.0000 </r>
       <r>  -17.7053    1.0000 </r>
       <r>  -16.4965    1.0000 </r>
       <r>  -16.4740    1.0000 </r>
       <r>  -16.4362    1.0000 </r>
       <r>  -16.1939    1.0000 </r>
       <r>  -16.0716    1.0000 </r>
       <r>  -15.9475    1.0000 </r>
       <r>  -15.5285    1.0000 </r>
       <r>  -15.4796    1.0000 </r>
       <r>  -15.2884    1.0000 </r>
       <r>  -15.1218    1.0000 </r>
       <r>  -15.0366    1.0000 </r>
       <r>  -14.5834    1.0000 </r>
       <r>  -14.1497    1.0000 </r>
       <r>  -14.0922    1.0000 </r>
       <r>  -13.9624    1.0000 </r>
       <r>  -13.7110    1.0000 </r>
       <r>  -13.5101    1.0000 </r>
       <r>  -12.7318    1.0000 </r>
       <r>  -11.7878    1.0000 </r>
       <r>  -11.6877    1.0000 </r>
       <r>  -11.6752    1.0000 </r>
       <r>  -11.6381    1.0000 </r>
       <r>  -11.5931    1.0000 </r>
       <r>  -11.5132    1.0000 </r>
       <r>  -11.4765    1.0000 </r>
       <r>  -11.3551    1.0000 </r>
       <r>  -11.1780    1.0000 </r>
       <r>  -11.1367    1.0000 </r>
       <r>  -10.7173    1.0000 </r>
       <r>  -10.5742    1.0000 </r>
       <r>  -10.4300    1.0000 </r>
       <r>  -10.2172    1.0000 </r>
       <r>  -10.0769    1.0000 </r>
       <r>  -10.0723    1.0000 </r>
       <r>  -10.0384    1.0000 </r>
       <r>   -9.9105    1.0000 </r>
       <r>   -9.5327    1.0000 </r>
       <r>   -9.4326    1.0000 </r>
       <r>   -9.4077    1.0000 </r>
       <r>   -9.3373    1.0000 </r>
       <r>   -9.2640    1.0000 </r>
       <r>   -9.1924    1.0000 </r>
       <r>   -9.0199    1.0000 </r>
       <r>   -9.0054    1.0000 </r>
       <r>   -8.9458    1.0000 </r>
       <r>   -8.8757    1.0000 </r>
       <r>   -8.8608    1.0000 </r>
       <r>   -8.7397    1.0000 </r>
       <r>   -8.7033    1.0000 </r>
       <r>   -8.6673    1.0000 </r>
       <r>   -8.6173    1.0000 </r>
       <r>   -8.2754    1.0000 </r>
       <r>   -7.9686    1.0000 </r>
       <r>   -7.7682    1.0000 </r>
       <r>   -7.5004    1.0000 </r>
       <r>   -7.3234    1.0000 </r>
       <r>   -7.3103    1.0000 </r>
       <r>   -7.2515    1.0000 </r>
       <r>   -7.2351    1.0000 </r>
       <r>   -7.2021    1.0000 </r>
       <r>   -7.1677    1.0000 </r>
       <r>   -7.1098    1.0000 </r>
       <r>   -7.1010    1.0000 </r>
       <r>   -6.9084    1.0000 </r>
       <r>   -6.4785    1.0000 </r>
       <r>   -6.4310    1.0000 </r>
       <r>   -6.3600    1.0000 </r>
       <r>   -6.3037    1.0000 </r>
       <r>   -6.2020    1.0000 </r>
       <r>   -6.0701    1.0000 </r>
       <r>   -5.9981    1.0000 </r>
       <r>   -5.5617    1.0000 </r>
       <r>   -4.4087    1.0000 </r>
       <r>   -4.3487    1.0000 </r>
       <r>   -4.2759    1.0000 </r>
       <r>   -4.1816    1.0000 </r>
       <r>   -3.9387    1.0000 </r>
       <r>   -3.2201    0.9998 </r>
       <r>   -1.8771    0.0000 </r>
       <r>   -1.6990    0.0000 </r>
       <r>   -1.4793    0.0000 </r>
       <r>   -1.3770    0.0000 </r>
       <r>   -1.2347    0.0000 </r>
       <r>   -0.9122    0.0000 </r>
       <r>   -0.7210    0.0000 </r>
       <r>   -0.0695    0.0000 </r>
       <r>    0.1197    0.0000 </r>
       <r>    0.1761    0.0000 </r>
       <r>    0.2507    0.0000 </r>
       <r>    0.4744    0.0000 </r>
       <r>    0.5187    0.0000 </r>
       <r>    0.6217    0.0000 </r>
       <r>    0.7275    0.0000 </r>
       <r>    0.8141    0.0000 </r>
       <r>    0.8680    0.0000 </r>
       <r>    0.9738    0.0000 </r>
       <r>    1.0202    0.0000 </r>
       <r>    1.1787    0.0000 </r>
       <r>    1.3428    0.0000 </r>
       <r>    1.3949    0.0000 </r>
       <r>    1.3965    0.0000 </r>
       <r>    1.4573    0.0000 </r>
       <r>    1.5293    0.0000 </r>
       <r>    1.8107    0.0000 </r>
       <r>    1.9165    0.0000 </r>
       <r>    2.0237    0.0000 </r>
       <r>    2.0876    0.0000 </r>
       <r>    2.0980    0.0000 </r>
      </set>
      <set comment="kpoint 2">
       <r>  -51.4119    1.0000 </r>
       <r>  -22.2243    1.0000 </r>
       <r>  -21.9449    1.0000 </r>
       <r>  -21.5602    1.0000 </r>
       <r>  -21.3785    1.0000 </r>
       <r>  -21.0182    1.0000 </r>
       <r>  -20.7858    1.0000 </r>
       <r>  -20.5220    1.0000 </r>
       <r>  -20.3548    1.0000 </r>
       <r>  -20.1051    1.0000 </r>
       <r>  -19.6494    1.0000 </r>
       <r>  -19.3472    1.0000 </r>
       <r>  -19.2383    1.0000 </r>
       <r>  -19.0351    1.0000 </r>
       <r>  -18.7523    1.0000 </r>
       <r>  -18.5529    1.0000 </r>
       <r>  -18.3250    1.0000 </r>
       <r>  -17.8582    1.0000 </r>
       <r>  -17.6984    1.0000 </r>
       <r>  -17.4562    1.0000 </r>
       <r>  -17.4149    1.0000 </r>
       <r>  -17.1461    1.0000 </r>
       <r>  -16.9350    1.0000 </r>
       <r>  -16.4902    1.0000 </r>
       <r>  -16.0918    1.0000 </r>
       <r>  -15.7803    1.0000 </r>
       <r>  -15.3860    1.0000 </r>
       <r>  -15.2410    1.0000 </r>
       <r>  -15.1619    1.0000 </r>
       <r>  -14.8836    1.0000 </r>
       <r>  -14.8068    1.0000 </r>
       <r>  -14.4969    1.0000 </r>
       <r>  -14.3351    1.0000 </r>
       <r>  -14.0517    1.0000 </r>
       <r>  -13.5977    1.0000 </r>
       <r>  -13.0389    1.0000 </r>
       <r>  -12.9808    1.0000 </r>
       <r>  -12.7689    1.0000 </r>
       <r>  -12.6746    1.0000 </r>
       <r>  -12.6605    1.0000 </r>
       <r>  -12.3660    1.0000 </r>
       <r>  -12.0443    1.0000 </r>
       <r>  -11.8723    1.0000 </r>
       <r>  -11.4028    1.0000 </r>
       <r>  -11.2730    1.0000 </r>
       <r>  -11.1034    1.0000 </r>
       <r>  -10.8564    1.0000 </r>
       <r>  -10.7426    1.0000 </r>
       <r>  -10.5321    1.0000 </r>
       <r>  -10.4252    1.0000 </r>
       <r>  -10.3169    1.0000 </r>
       <r>  -10.3106    1.0000 </r>
       <r>  -10.1462    1.0000 </r>
       <r>  -10.0025    1.0000 </r>
       <r>   -9.9605    1.0000 </r>
       <r>   -9.7833    1.0000 </r>
       <r>   -9.5755    1.0000 </r>
       <r>   -9.5533    1.0000 </r>
       <r>   -9.4372    1.0000 </r>
       <r>   -9.4046    1.0000 </r>
       <r>   -9.2650    1.0000 </r>
       <r>   -9.1971    1.0000 </r>
       <r>   -9.1212    1.0000 </r>
       <r>   -8.9262    1.0000 </r>
       <r>   -8.8846    1.0000 </r>
       <r>   -8.8715    1.0000 </r>
       <r>   -8.7269    1.0000 </r>
       <r>   -8.6952    1.0000 </r>
       <r>   -8.4650    1.0000 </r>
       <r>   -8.4063    1.0000 </r>
       <r>   -8.2429    1.0000 </r>
       <r>   -8.1635    1.0000 </r>
       <r>   -8.0221    1.0000 </r>
       <r>   -8.0078    1.0000 </r>
       <r>   -7.9551    1.0000 </r>
       <r>   -7.8463    1.0000 </r>
       <r>   -7.6679    1.0000 </r>
       <r>   -7.4082    1.0000 </r>
       <r>   -7.3659    1.0000 </r>
       <r>   -7.2223    1.0000 </r>
       <r>   -7.1077    1.0000 </r>
       <r>   -6.9775    1.0000 </r>
       <r>   -6.8429    1.0000 </r>
       <r>   -6.7691    1.0000 </r>
       <r>   -6.5924    1.0000 </r>
       <r>   -6.5623    1.0000 </r>
       <r>   -6.2297    1.0000 </r>
       <r>   -6.1392    1.0000 </r>
       <r>   -6.0232    1.0000 </r>
       <r>   -5.6180    1.0000 </r>
       <r>   -5.4864    1.0000 </r>
       <r>   -5.3486    1.0000 </r>
       <r>   -5.0427    1.0000 </r>
       <r>   -4.9283    1.0000 </r>
       <r>   -4.7600    1.0000 </r>
       <r>   -4.1654    1.0000 </r>
       <r>   -3.7327    1.0000 </r>
       <r>   -3.1330    0.8464 </r>
       <r>   -1.8098    0.0000 </r>
       <r>   -1.7669    0.0000 </r>
       <r>   -1.0874    0.0000 </r>
       <r>   -1.0354    0.0000 </r>
       <r>   -0.9709    0.0000 </r>
       <r>   -0.9310    0.0000 </r>
       <r>   -0.7452    0.0000 </r>
       <r>   -0.4979    0.0000 </r>
       <r>   -0.3892    0.0000 </r>
       <r>   -0.0749    0.0000 </r>
       <r>    0.1789    0.0000 </r>
       <r>    0.3740    0.0000 </r>
       <r>    0.6039    0.0000 </r>
       <r>    0.6810    0.0000 </r>
       <r>    0.7701    0.0000 </r>
       <r>    0.8302    0.0000 </r>
       <r>    0.9479    0.0000 </r>
       <r>    0.9612    0.0000 </r>
       <r>    1.0742    0.0000 </r>
       <r>    1.1266    0.0000 </r>
       <r>    1.2502    0.0000 </r>
       <r>    1.3458    0.0000 </r>
       <r>    1.3891    0.0000 </r>
       <r>    1.5117    0.0000 </r>
       <r>    1.5537    0.0000 </r>
       <r>    1.6717    0.0000 </r>
       <r>    1.6842    0.0000 </r>
       <r>    1.7989    0.0000 </r>
       <r>    1.8305    0.0000 </r>
       <r>    1.8370    0.0000 </r>
      </set>
      <set comment="kpoint 3">
       <r>  -51.4119    1.0000 </r>
       <r>  -22.2231    1.0000 </r>
       <r>  -21.9471    1.0000 </r>
       <r>  -21.5682    1.0000 </r>
       <r>  -21.3640    1.0000 </r>
       <r>  -21.0214    1.0000 </r>
       <r>  -20.7878    1.0000 </r>
       <r>  -20.5174    1.0000 </r>
       <r>  -20.3571    1.0000 </r>
       <r>  -20.1133    1.0000 </r>
       <r>  -19.6494    1.0000 </r>
       <r>  -19.3474    1.0000 </r>
       <r>  -19.2282    1.0000 </r>
       <r>  -19.0418    1.0000 </r>
       <r>  -18.7390    1.0000 </r>
       <r>  -18.5572    1.0000 </r>
       <r>  -18.3301    1.0000 </r>
       <r>  -17.8579    1.0000 </r>
       <r>  -17.6944    1.0000 </r>
       <r>  -17.4546    1.0000 </r>
       <r>  -17.4205    1.0000 </r>
       <r>  -17.1494    1.0000 </r>
       <r>  -16.9379    1.0000 </r>
       <r>  -16.4979    1.0000 </r>
       <r>  -16.0849    1.0000 </r>
       <r>  -15.7750    1.0000 </r>
       <r>  -15.3837    1.0000 </r>
       <r>  -15.2437    1.0000 </r>
       <r>  -15.1523    1.0000 </r>
       <r>  -14.8825    1.0000 </r>
       <r>  -14.8070    1.0000 </r>
       <r>  -14.5029    1.0000 </r>
       <r>  -14.3417    1.0000 </r>
       <r>  -14.0479    1.0000 </r>
       <r>  -13.5995    1.0000 </r>
       <r>  -13.0417    1.0000 </r>
       <r>  -12.9805    1.0000 </r>
       <r>  -12.7662    1.0000 </r>
       <r>  -12.6802    1.0000 </r>
       <r>  -12.6550    1.0000 </r>
       <r>  -12.3681    1.0000 </r>
       <r>  -12.0450    1.0000 </r>
       <r>  -11.8706    1.0000 </r>
       <r>  -11.4052    1.0000 </r>
       <r>  -11.2739    1.0000 </r>
       <r>  -11.1018    1.0000 </r>
       <r>  -10.8582    1.0000 </r>
       <r>  -10.7367    1.0000 </r>
       <r>  -10.5363    1.0000 </r>
       <r>  -10.4207    1.0000 </r>
       <r>  -10.3221    1.0000 </r>
       <r>  -10.3083    1.0000 </r>
       <r>  -10.1441    1.0000 </r>
       <r>  -10.0028    1.0000 </r>
       <r>   -9.9651    1.0000 </r>
       <r>   -9.7797    1.0000 </r>
       <r>   -9.5907    1.0000 </r>
       <r>   -9.5476    1.0000 </r>
       <r>   -9.4301    1.0000 </r>
       <r>   -9.3845    1.0000 </r>
       <r>   -9.2662    1.0000 </r>
       <r>   -9.1965    1.0000 </r>
       <r>   -9.1262    1.0000 </r>
       <r>   -8.9332    1.0000 </r>
       <r>   -8.8947    1.0000 </r>
       <r>   -8.8662    1.0000 </r>
       <r>   -8.7206    1.0000 </r>
       <r>   -8.6952    1.0000 </r>
       <r>   -8.4718    1.0000 </r>
       <r>   -8.3953    1.0000 </r>
       <r>   -8.2365    1.0000 </r>
       <r>   -8.1774    1.0000 </r>
       <r>   -8.0289    1.0000 </r>
       <r>   -8.0061    1.0000 </r>
       <r>   -7.9626    1.0000 </r>
       <r>   -7.8461    1.0000 </r>
       <r>   -7.6640    1.0000 </r>
       <r>   -7.4144    1.0000 </r>
       <r>   -7.3716    1.0000 </r>
       <r>   -7.2213    1.0000 </r>
       <r>   -7.1015    1.0000 </r>
       <r>   -6.9637    1.0000 </r>
       <r>   -6.8423    1.0000 </r>
       <r>   -6.7738    1.0000 </r>
       <r>   -6.5771    1.0000 </r>
       <r>   -6.5628    1.0000 </r>
       <r>   -6.2276    1.0000 </r>
       <r>   -6.1523    1.0000 </r>
       <r>   -6.0248    1.0000 </r>
       <r>   -5.6093    1.0000 </r>
       <r>   -5.4925    1.0000 </r>
       <r>   -5.3449    1.0000 </r>
       <r>   -5.0553    1.0000 </r>
       <r>   -4.9291    1.0000 </r>
       <r>   -4.7698    1.0000 </r>
       <r>   -4.1613    1.0000 </r>
       <r>   -3.7083    1.0000 </r>
       <r>   -3.1430    0.9037 </r>
       <r>   -1.8309    0.0000 </r>
       <r>   -1.7478    0.0000 </r>
       <r>   -1.1056    0.0000 </r>
       <r>   -1.0517    0.0000 </r>
       <r>   -0.9877    0.0000 </r>
       <r>   -0.8770    0.0000 </r>
       <r>   -0.7574    0.0000 </r>
       <r>   -0.5040    0.0000 </r>
       <r>   -0.3676    0.0000 </r>
       <r>   -0.0792    0.0000 </r>
       <r>    0.1976    0.0000 </r>
       <r>    0.3602    0.0000 </r>
       <r>    0.5808    0.0000 </r>
       <r>    0.6860    0.0000 </r>
       <r>    0.7683    0.0000 </r>
       <r>    0.8580    0.0000 </r>
       <r>    0.9393    0.0000 </r>
       <r>    0.9623    0.0000 </r>
       <r>    1.0801    0.0000 </r>
       <r>    1.1285    0.0000 </r>
       <r>    1.2761    0.0000 </r>
       <r>    1.3373    0.0000 </r>
       <r>    1.3874    0.0000 </r>
       <r>    1.5157    0.0000 </r>
       <r>    1.5518    0.0000 </r>
       <r>    1.6573    0.0000 </r>
       <r>    1.6757    0.0000 </r>
       <r>    1.7974    0.0000 </r>
       <r>    1.8287    0.0000 </r>
       <r>    1.8379    0.0000 </r>
      </set>
      <set comment="kpoint 4">
       <r>  -51.4119    1.0000 </r>
       <r>  -22.1566    1.0000 </r>
       <r>  -22.0021    1.0000 </r>
       <r>  -21.7535    1.0000 </r>
       <r>  -21.1211    1.0000 </r>
       <r>  -21.0729    1.0000 </r>
       <r>  -20.7636    1.0000 </r>
       <r>  -20.3006    1.0000 </r>
       <r>  -20.1515    1.0000 </r>
       <r>  -20.0842    1.0000 </r>
       <r>  -20.0320    1.0000 </r>
       <r>  -19.9173    1.0000 </r>
       <r>  -19.4860    1.0000 </r>
       <r>  -18.4835    1.0000 </r>
       <r>  -18.3747    1.0000 </r>
       <r>  -18.3181    1.0000 </r>
       <r>  -18.2431    1.0000 </r>
       <r>  -17.9806    1.0000 </r>
       <r>  -17.7980    1.0000 </r>
       <r>  -17.5969    1.0000 </r>
       <r>  -17.3494    1.0000 </r>
       <r>  -17.2098    1.0000 </r>
       <r>  -16.9360    1.0000 </r>
       <r>  -16.5900    1.0000 </r>
       <r>  -16.2829    1.0000 </r>
       <r>  -15.8686    1.0000 </r>
       <r>  -15.8139    1.0000 </r>
       <r>  -15.5740    1.0000 </r>
       <r>  -14.9860    1.0000 </r>
       <r>  -14.8006    1.0000 </r>
       <r>  -14.0214    1.0000 </r>
       <r>  -13.9975    1.0000 </r>
       <r>  -13.9107    1.0000 </r>
       <r>  -13.7107    1.0000 </r>
       <r>  -13.6881    1.0000 </r>
       <r>  -13.6259    1.0000 </r>
       <r>  -13.5348    1.0000 </r>
       <r>  -13.0824    1.0000 </r>
       <r>  -12.9066    1.0000 </r>
       <r>  -12.2618    1.0000 </r>
       <r>  -12.1660    1.0000 </r>
       <r>  -12.0306    1.0000 </r>
       <r>  -11.8336    1.0000 </r>
       <r>  -11.5676    1.0000 </r>
       <r>  -11.5286    1.0000 </r>
       <r>  -11.2249    1.0000 </r>
       <r>  -11.1715    1.0000 </r>
       <r>  -10.6189    1.0000 </r>
       <r>  -10.5704    1.0000 </r>
       <r>  -10.3042    1.0000 </r>
       <r>  -10.1982    1.0000 </r>
       <r>  -10.0959    1.0000 </r>
       <r>  -10.0721    1.0000 </r>
       <r>  -10.0577    1.0000 </r>
       <r>   -9.9472    1.0000 </r>
       <r>   -9.8657    1.0000 </r>
       <r>   -9.8404    1.0000 </r>
       <r>   -9.6602    1.0000 </r>
       <r>   -9.2874    1.0000 </r>
       <r>   -9.1826    1.0000 </r>
       <r>   -9.1095    1.0000 </r>
       <r>   -9.0980    1.0000 </r>
       <r>   -9.0221    1.0000 </r>
       <r>   -8.9739    1.0000 </r>
       <r>   -8.7468    1.0000 </r>
       <r>   -8.6877    1.0000 </r>
       <r>   -8.6703    1.0000 </r>
       <r>   -8.5810    1.0000 </r>
       <r>   -8.5063    1.0000 </r>
       <r>   -8.4213    1.0000 </r>
       <r>   -8.2671    1.0000 </r>
       <r>   -8.1857    1.0000 </r>
       <r>   -8.0400    1.0000 </r>
       <r>   -8.0269    1.0000 </r>
       <r>   -7.9387    1.0000 </r>
       <r>   -7.8879    1.0000 </r>
       <r>   -7.8379    1.0000 </r>
       <r>   -7.8117    1.0000 </r>
       <r>   -7.4586    1.0000 </r>
       <r>   -7.4038    1.0000 </r>
       <r>   -7.2740    1.0000 </r>
       <r>   -6.9200    1.0000 </r>
       <r>   -6.8054    1.0000 </r>
       <r>   -6.7773    1.0000 </r>
       <r>   -6.4821    1.0000 </r>
       <r>   -6.1548    1.0000 </r>
       <r>   -6.0789    1.0000 </r>
       <r>   -6.0037    1.0000 </r>
       <r>   -5.9030    1.0000 </r>
       <r>   -5.6582    1.0000 </r>
       <r>   -5.5692    1.0000 </r>
       <r>   -5.2083    1.0000 </r>
       <r>   -5.1363    1.0000 </r>
       <r>   -5.0531    1.0000 </r>
       <r>   -4.8481    1.0000 </r>
       <r>   -4.6879    1.0000 </r>
       <r>   -3.6695    1.0000 </r>
       <r>   -2.6124    0.0000 </r>
       <r>   -2.5105    0.0000 </r>
       <r>   -1.3043    0.0000 </r>
       <r>   -1.2249    0.0000 </r>
       <r>   -1.1889    0.0000 </r>
       <r>   -0.9006    0.0000 </r>
       <r>   -0.6321    0.0000 </r>
       <r>   -0.5004    0.0000 </r>
       <r>   -0.4643    0.0000 </r>
       <r>   -0.1885    0.0000 </r>
       <r>    0.0005    0.0000 </r>
       <r>    0.0171    0.0000 </r>
       <r>    0.1913    0.0000 </r>
       <r>    0.3447    0.0000 </r>
       <r>    0.3898    0.0000 </r>
       <r>    0.4402    0.0000 </r>
       <r>    0.7412    0.0000 </r>
       <r>    0.8234    0.0000 </r>
       <r>    1.1424    0.0000 </r>
       <r>    1.2200    0.0000 </r>
       <r>    1.2370    0.0000 </r>
       <r>    1.2458    0.0000 </r>
       <r>    1.2894    0.0000 </r>
       <r>    1.3369    0.0000 </r>
       <r>    1.4653    0.0000 </r>
       <r>    1.4869    0.0000 </r>
       <r>    1.5164    0.0000 </r>
       <r>    1.7770    0.0000 </r>
       <r>    1.7789    0.0000 </r>
       <r>    1.7932    0.0000 </r>
       <r>    1.9054    0.0000 </r>
      </set>
      <set comment="kpoint 5">
       <r>  -51.4119    1.0000 </r>
       <r>  -22.2595    1.0000 </r>
       <r>  -21.7610    1.0000 </r>
       <r>  -21.6387    1.0000 </r>
       <r>  -21.5499    1.0000 </r>
       <r>  -20.9020    1.0000 </r>
       <r>  -20.8452    1.0000 </r>
       <r>  -20.5425    1.0000 </r>
       <r>  -20.2150    1.0000 </r>
       <r>  -20.0424    1.0000 </r>
       <r>  -19.5948    1.0000 </r>
       <r>  -19.4308    1.0000 </r>
       <r>  -19.4076    1.0000 </r>
       <r>  -19.0057    1.0000 </r>
       <r>  -18.9700    1.0000 </r>
       <r>  -18.4218    1.0000 </r>
       <r>  -18.2809    1.0000 </r>
       <r>  -17.8782    1.0000 </r>
       <r>  -17.6732    1.0000 </r>
       <r>  -17.2580    1.0000 </r>
       <r>  -17.2484    1.0000 </r>
       <r>  -17.0629    1.0000 </r>
       <r>  -17.0062    1.0000 </r>
       <r>  -16.6700    1.0000 </r>
       <r>  -16.3495    1.0000 </r>
       <r>  -15.8238    1.0000 </r>
       <r>  -15.4538    1.0000 </r>
       <r>  -15.2245    1.0000 </r>
       <r>  -15.1986    1.0000 </r>
       <r>  -14.7320    1.0000 </r>
       <r>  -14.6327    1.0000 </r>
       <r>  -14.4308    1.0000 </r>
       <r>  -14.3359    1.0000 </r>
       <r>  -14.1856    1.0000 </r>
       <r>  -13.5761    1.0000 </r>
       <r>  -13.0526    1.0000 </r>
       <r>  -12.9394    1.0000 </r>
       <r>  -12.8764    1.0000 </r>
       <r>  -12.6163    1.0000 </r>
       <r>  -12.4456    1.0000 </r>
       <r>  -12.3918    1.0000 </r>
       <r>  -11.9328    1.0000 </r>
       <r>  -11.8337    1.0000 </r>
       <r>  -11.6274    1.0000 </r>
       <r>  -11.4299    1.0000 </r>
       <r>  -11.1923    1.0000 </r>
       <r>  -10.9799    1.0000 </r>
       <r>  -10.8215    1.0000 </r>
       <r>  -10.5585    1.0000 </r>
       <r>  -10.3588    1.0000 </r>
       <r>  -10.3380    1.0000 </r>
       <r>  -10.2459    1.0000 </r>
       <r>  -10.1595    1.0000 </r>
       <r>   -9.9013    1.0000 </r>
       <r>   -9.8475    1.0000 </r>
       <r>   -9.7106    1.0000 </r>
       <r>   -9.6443    1.0000 </r>
       <r>   -9.5869    1.0000 </r>
       <r>   -9.5505    1.0000 </r>
       <r>   -9.3302    1.0000 </r>
       <r>   -9.2257    1.0000 </r>
       <r>   -9.0528    1.0000 </r>
       <r>   -8.9865    1.0000 </r>
       <r>   -8.9718    1.0000 </r>
       <r>   -8.9213    1.0000 </r>
       <r>   -8.8095    1.0000 </r>
       <r>   -8.7712    1.0000 </r>
       <r>   -8.7418    1.0000 </r>
       <r>   -8.5665    1.0000 </r>
       <r>   -8.4014    1.0000 </r>
       <r>   -8.1788    1.0000 </r>
       <r>   -8.0921    1.0000 </r>
       <r>   -8.0596    1.0000 </r>
       <r>   -8.0227    1.0000 </r>
       <r>   -7.9206    1.0000 </r>
       <r>   -7.8291    1.0000 </r>
       <r>   -7.5961    1.0000 </r>
       <r>   -7.3558    1.0000 </r>
       <r>   -7.2280    1.0000 </r>
       <r>   -7.1700    1.0000 </r>
       <r>   -7.1520    1.0000 </r>
       <r>   -7.1315    1.0000 </r>
       <r>   -7.1115    1.0000 </r>
       <r>   -6.8057    1.0000 </r>
       <r>   -6.6463    1.0000 </r>
       <r>   -6.4394    1.0000 </r>
       <r>   -6.3995    1.0000 </r>
       <r>   -6.0828    1.0000 </r>
       <r>   -5.9878    1.0000 </r>
       <r>   -5.7083    1.0000 </r>
       <r>   -5.4811    1.0000 </r>
       <r>   -5.1152    1.0000 </r>
       <r>   -4.9794    1.0000 </r>
       <r>   -4.8739    1.0000 </r>
       <r>   -4.7791    1.0000 </r>
       <r>   -4.3630    1.0000 </r>
       <r>   -3.9478    1.0000 </r>
       <r>   -2.9093    0.0000 </r>
       <r>   -1.7030    0.0000 </r>
       <r>   -1.6029    0.0000 </r>
       <r>   -1.2037    0.0000 </r>
       <r>   -1.1655    0.0000 </r>
       <r>   -1.0976    0.0000 </r>
       <r>   -0.9426    0.0000 </r>
       <r>   -0.8746    0.0000 </r>
       <r>   -0.4237    0.0000 </r>
       <r>   -0.3731    0.0000 </r>
       <r>    0.0820    0.0000 </r>
       <r>    0.1909    0.0000 </r>
       <r>    0.3401    0.0000 </r>
       <r>    0.4504    0.0000 </r>
       <r>    0.7521    0.0000 </r>
       <r>    0.8099    0.0000 </r>
       <r>    0.9059    0.0000 </r>
       <r>    0.9604    0.0000 </r>
       <r>    1.1130    0.0000 </r>
       <r>    1.1957    0.0000 </r>
       <r>    1.2270    0.0000 </r>
       <r>    1.2993    0.0000 </r>
       <r>    1.3862    0.0000 </r>
       <r>    1.4894    0.0000 </r>
       <r>    1.5494    0.0000 </r>
       <r>    1.5845    0.0000 </r>
       <r>    1.6716    0.0000 </r>
       <r>    1.6976    0.0000 </r>
       <r>    1.7767    0.0000 </r>
       <r>    1.8306    0.0000 </r>
       <r>    1.8367    0.0000 </r>
      </set>
     </set>
     <set comment="spin 2">
      <set comment="kpoint 1">
       <r>  -51.4119    1.0000 </r>
       <r>  -22.3178    1.0000 </r>
       <r>  -21.6216    1.0000 </r>
       <r>  -21.4625    1.0000 </r>
       <r>  -21.3796    1.0000 </r>
       <r>  -21.2877    1.0000 </r>
       <r>  -21.1337    1.0000 </r>
       <r>  -20.8563    1.0000 </r>
       <r>  -19.6576    1.0000 </r>
       <r>  -19.5048    1.0000 </r>
       <r>  -19.4823    1.0000 </r>
       <r>  -19.4146    1.0000 </r>
       <r>  -19.3831    1.0000 </r>
       <r>  -19.1377    1.0000 </r>
       <r>  -18.7907    1.0000 </r>
       <r>  -18.6565    1.0000 </r>
       <r>  -18.5402    1.0000 </r>
       <r>  -18.4941    1.0000 </r>
       <r>  -18.2899    1.0000 </r>
       <r>  -17.7053    1.0000 </r>
       <r>  -16.4965    1.0000 </r>
       <r>  -16.4740    1.0000 </r>
       <r>  -16.4362    1.0000 </r>
       <r>  -16.1939    1.0000 </r>
       <r>  -16.0716    1.0000 </r>
       <r>  -15.9475    1.0000 </r>
       <r>  -15.5285    1.0000 </r>
       <r>  -15.4796    1.0000 </r>
       <r>  -15.2884    1.0000 </r>
       <r>  -15.1218    1.0000 </r>
       <r>  -15.0366    1.0000 </r>
       <r>  -14.5834    1.0000 </r>
       <r>  -14.1497    1.0000 </r>
       <r>  -14.0922    1.0000 </r>
       <r>  -13.9624    1.0000 </r>
       <r>  -13.7110    1.0000 </r>
       <r>  -13.5101    1.0000 </r>
       <r>  -12.7318    1.0000 </r>
       <r>  -11.7878    1.0000 </r>
       <r>  -11.6877    1.0000 </r>
       <r>  -11.6752    1.0000 </r>
       <r>  -11.6381    1.0000 </r>
       <r>  -11.5931    1.0000 </r>
       <r>  -11.5132    1.0000 </r>
       <r>  -11.4765    1.0000 </r>
       <r>  -11.3551    1.0000 </r>
       <r>  -11.1780    1.0000 </r>
       <r>  -11.1367    1.0000 </r>
       <r>  -10.7173    1.0000 </r>
       <r>  -10.5742    1.0000 </r>
       <r>  -10.4300    1.0000 </r>
       <r>  -10.2172    1.0000 </r>
       <r>  -10.0769    1.0000 </r>
       <r>  -10.0723    1.0000 </r>
       <r>  -10.0384    1.0000 </r>
       <r>   -9.9105    1.0000 </r>
       <r>   -9.5327    1.0000 </r>
       <r>   -9.4326    1.0000 </r>
       <r>   -9.4077    1.0000 </r>
       <r>   -9.3373    1.0000 </r>
       <r>   -9.2640    1.0000 </r>
       <r>   -9.1924    1.0000 </r>
       <r>   -9.0199    1.0000 </r>
       <r>   -9.0054    1.0000 </r>
       <r>   -8.9458    1.0000 </r>
       <r>   -8.8757    1.0000 </r>
       <r>   -8.8608    1.0000 </r>
       <r>   -8.7397    1.0000 </r>
       <r>   -8.7033    1.0000 </r>
       <r>   -8.6673    1.0000 </r>
       <r>   -8.6173    1.0000 </r>
       <r>   -8.2754    1.0000 </r>
       <r>   -7.9686    1.0000 </r>
       <r>   -7.7682    1.0000 </r>
       <r>   -7.5004    1.0000 </r>
       <r>   -7.3234    1.0000 </r>
       <r>   -7.3103    1.0000 </r>
       <r>   -7.2515    1.0000 </r>
       <r>   -7.2351    1.0000 </r>
       <r>   -7.2021    1.0000 </r>
       <r>   -7.1677    1.0000 </r>
       <r>   -7.1098    1.0000 </r>
       <r>   -7.1010    1.0000 </r>
       <r>   -6.9084    1.0000 </r>
       <r>   -6.4785    1.0000 </r>
       <r>   -6.4310    1.0000 </r>
       <r>   -6.3600    1.0000 </r>
       <r>   -6.3037    1.0000 </r>
       <r>   -6.2020    1.0000 </r>
       <r>   -6.0701    1.0000 </r>
       <r>   -5.9981    1.0000 </r>
       <r>   -5.5617    1.0000 </r>
       <r>   -4.4087    1.0000 </r>
       <r>   -4.3487    1.0000 </r>
       <r>   -4.2759    1.0000 </r>
       <r>   -4.1816    1.0000 </r>
       <r>   -3.9387    1.0000 </r>
       <r>   -3.2201    0.9998 </r>
       <r>   -1.8771    0.0000 </r>
       <r>   -1.6990    0.0000 </r>
       <r>   -1.4793    0.0000 </r>
       <r>   -1.3770    0.0000 </r>
       <r>   -1.2347    0.0000 </r>
       <r>   -0.9121    0.0000 </r>
       <r>   -0.7210    0.0000 </r>
       <r>   -0.0695    0.0000 </r>
       <r>    0.1197    0.0000 </r>
       <r>    0.1761    0.0000 </r>
       <r>    0.2507    0.0000 </r>
       <r>    0.4750    0.0000 </r>
       <r>    0.5187    0.0000 </r>
       <r>    0.6218    0.0000 </r>
       <r>    0.7276    0.0000 </r>
       <r>    0.8253    0.0000 </r>
       <r>    0.8682    0.0000 </r>
       <r>    0.9746    0.0000 </r>
       <r>    1.0337    0.0000 </r>
       <r>    1.1788    0.0000 </r>
       <r>    1.3626    0.0000 </r>
       <r>    1.3953    0.0000 </r>
       <r>    1.3970    0.0000 </r>
       <r>    1.4578    0.0000 </r>
       <r>    1.5452    0.0000 </r>
       <r>    1.8107    0.0000 </r>
       <r>    1.9149    0.0000 </r>
       <r>    2.0279    0.0000 </r>
       <r>    2.0443    0.0000 </r>
       <r>    2.1367    0.0000 </r>
      </set>
      <set comment="kpoint 2">
       <r>  -51.4119    1.0000 </r>
       <r>  -22.2243    1.0000 </r>
       <r>  -21.9449    1.0000 </r>
       <r>  -21.5602    1.0000 </r>
       <r>  -21.3785    1.0000 </r>
       <r>  -21.0182    1.0000 </r>
       <r>  -20.7858    1.0000 </r>
       <r>  -20.5220    1.0000 </r>
       <r>  -20.3548    1.0000 </r>
       <r>  -20.1051    1.0000 </r>
       <r>  -19.6494    1.0000 </r>
       <r>  -19.3472    1.0000 </r>
       <r>  -19.2383    1.0000 </r>
       <r>  -19.0351    1.0000 </r>
       <r>  -18.7523    1.0000 </r>
       <r>  -18.5529    1.0000 </r>
       <r>  -18.3250    1.0000 </r>
       <r>  -17.8582    1.0000 </r>
       <r>  -17.6984    1.0000 </r>
       <r>  -17.4562    1.0000 </r>
       <r>  -17.4149    1.0000 </r>
       <r>  -17.1461    1.0000 </r>
       <r>  -16.9350    1.0000 </r>
       <r>  -16.4902    1.0000 </r>
       <r>  -16.0918    1.0000 </r>
       <r>  -15.7803    1.0000 </r>
       <r>  -15.3860    1.0000 </r>
       <r>  -15.2411    1.0000 </r>
       <r>  -15.1619    1.0000 </r>
       <r>  -14.8836    1.0000 </r>
       <r>  -14.8068    1.0000 </r>
       <r>  -14.4969    1.0000 </r>
       <r>  -14.3351    1.0000 </r>
       <r>  -14.0517    1.0000 </r>
       <r>  -13.5977    1.0000 </r>
       <r>  -13.0389    1.0000 </r>
       <r>  -12.9808    1.0000 </r>
       <r>  -12.7689    1.0000 </r>
       <r>  -12.6746    1.0000 </r>
       <r>  -12.6605    1.0000 </r>
       <r>  -12.3660    1.0000 </r>
       <r>  -12.0443    1.0000 </r>
       <r>  -11.8723    1.0000 </r>
       <r>  -11.4028    1.0000 </r>
       <r>  -11.2730    1.0000 </r>
       <r>  -11.1034    1.0000 </r>
       <r>  -10.8564    1.0000 </r>
       <r>  -10.7426    1.0000 </r>
       <r>  -10.5321    1.0000 </r>
       <r>  -10.4252    1.0000 </r>
       <r>  -10.3169    1.0000 </r>
       <r>  -10.3106    1.0000 </r>
       <r>  -10.1462    1.0000 </r>
       <r>  -10.0025    1.0000 </r>
       <r>   -9.9605    1.0000 </r>
       <r>   -9.7833    1.0000 </r>
       <r>   -9.5755    1.0000 </r>
       <r>   -9.5533    1.0000 </r>
       <r>   -9.4372    1.0000 </r>
       <r>   -9.4046    1.0000 </r>
       <r>   -9.2650    1.0000 </r>
       <r>   -9.1971    1.0000 </r>
       <r>   -9.1212    1.0000 </r>
       <r>   -8.9262    1.0000 </r>
       <r>   -8.8846    1.0000 </r>
       <r>   -8.8715    1.0000 </r>
       <r>   -8.7269    1.0000 </r>
       <r>   -8.6952    1.0000 </r>
       <r>   -8.4650    1.0000 </r>
       <r>   -8.4063    1.0000 </r>
       <r>   -8.2429    1.0000 </r>
       <r>   -8.1635    1.0000 </r>
       <r>   -8.0221    1.0000 </r>
       <r>   -8.0078    1.0000 </r>
       <r>   -7.9551    1.0000 </r>
       <r>   -7.8463    1.0000 </r>
       <r>   -7.6679    1.0000 </r>
       <r>   -7.4082    1.0000 </r>
       <r>   -7.3659    1.0000 </r>
       <r>   -7.2223    1.0000 </r>
       <r>   -7.1077    1.0000 </r>
       <r>   -6.9775    1.0000 </r>
       <r>   -6.8429    1.0000 </r>
       <r>   -6.7691    1.0000 </r>
       <r>   -6.5924    1.0000 </r>
       <r>   -6.5623    1.0000 </r>
       <r>   -6.2297    1.0000 </r>
       <r>   -6.1392    1.0000 </r>
       <r>   -6.0232    1.0000 </r>
       <r>   -5.6180    1.0000 </r>
       <r>   -5.4864    1.0000 </r>
       <r>   -5.3486    1.0000 </r>
       <r>   -5.0427    1.0000 </r>
       <r>   -4.9283    1.0000 </r>
       <r>   -4.7600    1.0000 </r>
       <r>   -4.1654    1.0000 </r>
       <r>   -3.7327    1.0000 </r>
       <r>   -3.1330    0.8464 </r>
       <r>   -1.8098    0.0000 </r>
       <r>   -1.7669    0.0000 </r>
       <r>   -1.0874    0.0000 </r>
       <r>   -1.0354    0.0000 </r>
       <r>   -0.9709    0.0000 </r>
       <r>   -0.9310    0.0000 </r>
       <r>   -0.7452    0.0000 </r>
       <r>   -0.4979    0.0000 </r>
       <r>   -0.3892    0.0000 </r>
       <r>   -0.0749    0.0000 </r>
       <r>    0.1789    0.0000 </r>
       <r>    0.3744    0.0000 </r>
       <r>    0.6039    0.0000 </r>
       <r>    0.6811    0.0000 </r>
       <r>    0.7702    0.0000 </r>
       <r>    0.8306    0.0000 </r>
       <r>    0.9488    0.0000 </r>
       <r>    0.9710    0.0000 </r>
       <r>    1.0746    0.0000 </r>
       <r>    1.1372    0.0000 </r>
       <r>    1.2526    0.0000 </r>
       <r>    1.3526    0.0000 </r>
       <r>    1.3979    0.0000 </r>
       <r>    1.5259    0.0000 </r>
       <r>    1.5680    0.0000 </r>
       <r>    1.6798    0.0000 </r>
       <r>    1.6921    0.0000 </r>
       <r>    1.8076    0.0000 </r>
       <r>    1.8411    0.0000 </r>
       <r>    1.8512    0.0000 </r>
      </set>
      <set comment="kpoint 3">
       <r>  -51.4119    1.0000 </r>
       <r>  -22.2231    1.0000 </r>
       <r>  -21.9471    1.0000 </r>
       <r>  -21.5682    1.0000 </r>
       <r>  -21.3640    1.0000 </r>
       <r>  -21.0214    1.0000 </r>
       <r>  -20.7878    1.0000 </r>
       <r>  -20.5174    1.0000 </r>
       <r>  -20.3571    1.0000 </r>
       <r>  -20.1133    1.0000 </r>
       <r>  -19.6494    1.0000 </r>
       <r>  -19.3474    1.0000 </r>
       <r>  -19.2282    1.0000 </r>
       <r>  -19.0418    1.0000 </r>
       <r>  -18.7390    1.0000 </r>
       <r>  -18.5572    1.0000 </r>
       <r>  -18.3301    1.0000 </r>
       <r>  -17.8579    1.0000 </r>
       <r>  -17.6944    1.0000 </r>
       <r>  -17.4546    1.0000 </r>
       <r>  -17.4205    1.0000 </r>
       <r>  -17.1494    1.0000 </r>
       <r>  -16.9379    1.0000 </r>
       <r>  -16.4979    1.0000 </r>
       <r>  -16.0849    1.0000 </r>
       <r>  -15.7750    1.0000 </r>
       <r>  -15.3837    1.0000 </r>
       <r>  -15.2437    1.0000 </r>
       <r>  -15.1523    1.0000 </r>
       <r>  -14.8825    1.0000 </r>
       <r>  -14.8070    1.0000 </r>
       <r>  -14.5029    1.0000 </r>
       <r>  -14.3417    1.0000 </r>
       <r>  -14.0479    1.0000 </r>
       <r>  -13.5995    1.0000 </r>
       <r>  -13.0417    1.0000 </r>
       <r>  -12.9805    1.0000 </r>
       <r>  -12.7662    1.0000 </r>
       <r>  -12.6802    1.0000 </r>
       <r>  -12.6550    1.0000 </r>
       <r>  -12.3681    1.0000 </r>
       <r>  -12.0450    1.0000 </r>
       <r>  -11.8706    1.0000 </r>
       <r>  -11.4052    1.0000 </r>
       <r>  -11.2739    1.0000 </r>
       <r>  -11.1018    1.0000 </r>
       <r>  -10.8582    1.0000 </r>
       <r>  -10.7367    1.0000 </r>
       <r>  -10.5363    1.0000 </r>
       <r>  -10.4207    1.0000 </r>
       <r>  -10.3221    1.0000 </r>
       <r>  -10.3083    1.0000 </r>
       <r>  -10.1441    1.0000 </r>
       <r>  -10.0028    1.0000 </r>
       <r>   -9.9651    1.0000 </r>
       <r>   -9.7797    1.0000 </r>
       <r>   -9.5907    1.0000 </r>
       <r>   -9.5476    1.0000 </r>
       <r>   -9.4301    1.0000 </r>
       <r>   -9.3845    1.0000 </r>
       <r>   -9.2662    1.0000 </r>
       <r>   -9.1965    1.0000 </r>
       <r>   -9.1262    1.0000 </r>
       <r>   -8.9332    1.0000 </r>
       <r>   -8.8947    1.0000 </r>
       <r>   -8.8662    1.0000 </r>
       <r>   -8.7206    1.0000 </r>
       <r>   -8.6952    1.0000 </r>
       <r>   -8.4718    1.0000 </r>
       <r>   -8.3953    1.0000 </r>
       <r>   -8.2365    1.0000 </r>
       <r>   -8.1774    1.0000 </r>
       <r>   -8.0289    1.0000 </r>
       <r>   -8.0061    1.0000 </r>
       <r>   -7.9626    1.0000 </r>
       <r>   -7.8461    1.0000 </r>
       <r>   -7.6640    1.0000 </r>
       <r>   -7.4144    1.0000 </r>
       <r>   -7.3716    1.0000 </r>
       <r>   -7.2213    1.0000 </r>
       <r>   -7.1015    1.0000 </r>
       <r>   -6.9637    1.0000 </r>
       <r>   -6.8423    1.0000 </r>
       <r>   -6.7738    1.0000 </r>
       <r>   -6.5771    1.0000 </r>
       <r>   -6.5628    1.0000 </r>
       <r>   -6.2276    1.0000 </r>
       <r>   -6.1523    1.0000 </r>
       <r>   -6.0248    1.0000 </r>
       <r>   -5.6093    1.0000 </r>
       <r>   -5.4925    1.0000 </r>
       <r>   -5.3449    1.0000 </r>
       <r>   -5.0553    1.0000 </r>
       <r>   -4.9291    1.0000 </r>
       <r>   -4.7698    1.0000 </r>
       <r>   -4.1613    1.0000 </r>
       <r>   -3.7083    1.0000 </r>
       <r>   -3.1430    0.9037 </r>
       <r>   -1.8309    0.0000 </r>
       <r>   -1.7478    0.0000 </r>
       <r>   -1.1056    0.0000 </r>
       <r>   -1.0517    0.0000 </r>
       <r>   -0.9877    0.0000 </r>
       <r>   -0.8770    0.0000 </r>
       <r>   -0.7574    0.0000 </r>
       <r>   -0.5040    0.0000 </r>
       <r>   -0.3676    0.0000 </r>
       <r>   -0.0792    0.0000 </r>
       <r>    0.1976    0.0000 </r>
       <r>    0.3606    0.0000 </r>
       <r>    0.5808    0.0000 </r>
       <r>    0.6862    0.0000 </r>
       <r>    0.7685    0.0000 </r>
       <r>    0.8584    0.0000 </r>
       <r>    0.9398    0.0000 </r>
       <r>    0.9726    0.0000 </r>
       <r>    1.0803    0.0000 </r>
       <r>    1.1397    0.0000 </r>
       <r>    1.2770    0.0000 </r>
       <r>    1.3454    0.0000 </r>
       <r>    1.3961    0.0000 </r>
       <r>    1.5297    0.0000 </r>
       <r>    1.5660    0.0000 </r>
       <r>    1.6588    0.0000 </r>
       <r>    1.6901    0.0000 </r>
       <r>    1.8063    0.0000 </r>
       <r>    1.8392    0.0000 </r>
       <r>    1.8510    0.0000 </r>
      </set>
      <set comment="kpoint 4">
       <r>  -51.4119    1.0000 </r>
       <r>  -22.1566    1.0000 </r>
       <r>  -22.0021    1.0000 </r>
       <r>  -21.7535    1.0000 </r>
       <r>  -21.1211    1.0000 </r>
       <r>  -21.0729    1.0000 </r>
       <r>  -20.7636    1.0000 </r>
       <r>  -20.3006    1.0000 </r>
       <r>  -20.1515    1.0000 </r>
       <r>  -20.0842    1.0000 </r>
       <r>  -20.0320    1.0000 </r>
       <r>  -19.9173    1.0000 </r>
       <r>  -19.4860    1.0000 </r>
       <r>  -18.4835    1.0000 </r>
       <r>  -18.3747    1.0000 </r>
       <r>  -18.3181    1.0000 </r>
       <r>  -18.2431    1.0000 </r>
       <r>  -17.9806    1.0000 </r>
       <r>  -17.7980    1.0000 </r>
       <r>  -17.5969    1.0000 </r>
       <r>  -17.3494    1.0000 </r>
       <r>  -17.2098    1.0000 </r>
       <r>  -16.9360    1.0000 </r>
       <r>  -16.5900    1.0000 </r>
       <r>  -16.2829    1.0000 </r>
       <r>  -15.8686    1.0000 </r>
       <r>  -15.8139    1.0000 </r>
       <r>  -15.5740    1.0000 </r>
       <r>  -14.9860    1.0000 </r>
       <r>  -14.8006    1.0000 </r>
       <r>  -14.0214    1.0000 </r>
       <r>  -13.9975    1.0000 </r>
       <r>  -13.9107    1.0000 </r>
       <r>  -13.7107    1.0000 </r>
       <r>  -13.6881    1.0000 </r>
       <r>  -13.6259    1.0000 </r>
       <r>  -13.5348    1.0000 </r>
       <r>  -13.0824    1.0000 </r>
       <r>  -12.9066    1.0000 </r>
       <r>  -12.2618    1.0000 </r>
       <r>  -12.1660    1.0000 </r>
       <r>  -12.0306    1.0000 </r>
       <r>  -11.8336    1.0000 </r>
       <r>  -11.5676    1.0000 </r>
       <r>  -11.5286    1.0000 </r>
       <r>  -11.2249    1.0000 </r>
       <r>  -11.1715    1.0000 </r>
       <r>  -10.6189    1.0000 </r>
       <r>  -10.5704    1.0000 </r>
       <r>  -10.3042    1.0000 </r>
       <r>  -10.1982    1.0000 </r>
       <r>  -10.0959    1.0000 </r>
       <r>  -10.0721    1.0000 </r>
       <r>  -10.0577    1.0000 </r>
       <r>   -9.9472    1.0000 </r>
       <r>   -9.8657    1.0000 </r>
       <r>   -9.8404    1.0000 </r>
       <r>   -9.6602    1.0000 </r>
       <r>   -9.2874    1.0000 </r>
       <r>   -9.1826    1.0000 </r>
       <r>   -9.1095    1.0000 </r>
       <r>   -9.0980    1.0000 </r>
       <r>   -9.0221    1.0000 </r>
       <r>   -8.9739    1.0000 </r>
       <r>   -8.7468    1.0000 </r>
       <r>   -8.6877    1.0000 </r>
       <r>   -8.6703    1.0000 </r>
       <r>   -8.5810    1.0000 </r>
       <r>   -8.5063    1.0000 </r>
       <r>   -8.4213    1.0000 </r>
       <r>   -8.2671    1.0000 </r>
       <r>   -8.1857    1.0000 </r>
       <r>   -8.0400    1.0000 </r>
       <r>   -8.0269    1.0000 </r>
       <r>   -7.9387    1.0000 </r>
       <r>   -7.8879    1.0000 </r>
       <r>   -7.8379    1.0000 </r>
       <r>   -7.8117    1.0000 </r>
       <r>   -7.4586    1.0000 </r>
       <r>   -7.4038    1.0000 </r>
       <r>   -7.2740    1.0000 </r>
       <r>   -6.9200    1.0000 </r>
       <r>   -6.8054    1.0000 </r>
       <r>   -6.7773    1.0000 </r>
       <r>   -6.4821    1.0000 </r>
       <r>   -6.1548    1.0000 </r>
       <r>   -6.0789    1.0000 </r>
       <r>   -6.0037    1.0000 </r>
       <r>   -5.9030    1.0000 </r>
       <r>   -5.6582    1.0000 </r>
       <r>   -5.5692    1.0000 </r>
       <r>   -5.2083    1.0000 </r>
       <r>   -5.1363    1.0000 </r>
       <r>   -5.0531    1.0000 </r>
       <r>   -4.8481    1.0000 </r>
       <r>   -4.6879    1.0000 </r>
       <r>   -3.6695    1.0000 </r>
       <r>   -2.6124    0.0000 </r>
       <r>   -2.5105    0.0000 </r>
       <r>   -1.3043    0.0000 </r>
       <r>   -1.2249    0.0000 </r>
       <r>   -1.1889    0.0000 </r>
       <r>   -0.9006    0.0000 </r>
       <r>   -0.6321    0.0000 </r>
       <r>   -0.5004    0.0000 </r>
       <r>   -0.4643    0.0000 </r>
       <r>   -0.1885    0.0000 </r>
       <r>    0.0005    0.0000 </r>
       <r>    0.0171    0.0000 </r>
       <r>    0.1913    0.0000 </r>
       <r>    0.3448    0.0000 </r>
       <r>    0.3900    0.0000 </r>
       <r>    0.4406    0.0000 </r>
       <r>    0.7413    0.0000 </r>
       <r>    0.8234    0.0000 </r>
       <r>    1.1435    0.0000 </r>
       <r>    1.2215    0.0000 </r>
       <r>    1.2488    0.0000 </r>
       <r>    1.2532    0.0000 </r>
       <r>    1.3004    0.0000 </r>
       <r>    1.3473    0.0000 </r>
       <r>    1.4779    0.0000 </r>
       <r>    1.4977    0.0000 </r>
       <r>    1.5300    0.0000 </r>
       <r>    1.7973    0.0000 </r>
       <r>    1.8007    0.0000 </r>
       <r>    1.8071    0.0000 </r>
       <r>    1.9158    0.0000 </r>
      </set>
      <set comment="kpoint 5">
       <r>  -51.4119    1.0000 </r>
       <r>  -22.2595    1.0000 </r>
       <r>  -21.7610    1.0000 </r>
       <r>  -21.6387    1.0000 </r>
       <r>  -21.5499    1.0000 </r>
       <r>  -20.9020    1.0000 </r>
       <r>  -20.8452    1.0000 </r>
       <r>  -20.5425    1.0000 </r>
       <r>  -20.2150    1.0000 </r>
       <r>  -20.0424    1.0000 </r>
       <r>  -19.5948    1.0000 </r>
       <r>  -19.4308    1.0000 </r>
       <r>  -19.4076    1.0000 </r>
       <r>  -19.0057    1.0000 </r>
       <r>  -18.9700    1.0000 </r>
       <r>  -18.4218    1.0000 </r>
       <r>  -18.2809    1.0000 </r>
       <r>  -17.8782    1.0000 </r>
       <r>  -17.6732    1.0000 </r>
       <r>  -17.2580    1.0000 </r>
       <r>  -17.2484    1.0000 </r>
       <r>  -17.0629    1.0000 </r>
       <r>  -17.0062    1.0000 </r>
       <r>  -16.6700    1.0000 </r>
       <r>  -16.3495    1.0000 </r>
       <r>  -15.8238    1.0000 </r>
       <r>  -15.4538    1.0000 </r>
       <r>  -15.2245    1.0000 </r>
       <r>  -15.1986    1.0000 </r>
       <r>  -14.7320    1.0000 </r>
       <r>  -14.6327    1.0000 </r>
       <r>  -14.4308    1.0000 </r>
       <r>  -14.3359    1.0000 </r>
       <r>  -14.1856    1.0000 </r>
       <r>  -13.5761    1.0000 </r>
       <r>  -13.0526    1.0000 </r>
       <r>  -12.9394    1.0000 </r>
       <r>  -12.8764    1.0000 </r>
       <r>  -12.6163    1.0000 </r>
       <r>  -12.4456    1.0000 </r>
       <r>  -12.3918    1.0000 </r>
       <r>  -11.9328    1.0000 </r>
       <r>  -11.8337    1.0000 </r>
       <r>  -11.6274    1.0000 </r>
       <r>  -11.4299    1.0000 </r>
       <r>  -11.1923    1.0000 </r>
       <r>  -10.9799    1.0000 </r>
       <r>  -10.8215    1.0000 </r>
       <r>  -10.5585    1.0000 </r>
       <r>  -10.3588    1.0000 </r>
       <r>  -10.3380    1.0000 </r>
       <r>  -10.2459    1.0000 </r>
       <r>  -10.1595    1.0000 </r>
       <r>   -9.9013    1.0000 </r>
       <r>   -9.8475    1.0000 </r>
       <r>   -9.7106    1.0000 </r>
       <r>   -9.6443    1.0000 </r>
       <r>   -9.5869    1.0000 </r>
       <r>   -9.5505    1.0000 </r>
       <r>   -9.3302    1.0000 </r>
       <r>   -9.2257    1.0000 </r>
       <r>   -9.0528    1.0000 </r>
       <r>   -8.9865    1.0000 </r>
       <r>   -8.9718    1.0000 </r>
       <r>   -8.9213    1.0000 </r>
       <r>   -8.8095    1.0000 </r>
       <r>   -8.7712    1.0000 </r>
       <r>   -8.7418    1.0000 </r>
       <r>   -8.5665    1.0000 </r>
       <r>   -8.4014    1.0000 </r>
       <r>   -8.1788    1.0000 </r>
       <r>   -8.0921    1.0000 </r>
       <r>   -8.0596    1.0000 </r>
       <r>   -8.0227    1.0000 </r>
       <r>   -7.9206    1.0000 </r>
       <r>   -7.8291    1.0000 </r>
       <r>   -7.5961    1.0000 </r>
       <r>   -7.3558    1.0000 </r>
       <r>   -7.2280    1.0000 </r>
       <r>   -7.1700    1.0000 </r>
       <r>   -7.1520    1.0000 </r>
       <r>   -7.1315    1.0000 </r>
       <r>   -7.1115    1.0000 </r>
       <r>   -6.8057    1.0000 </r>
       <r>   -6.6463    1.0000 </r>
       <r>   -6.4394    1.0000 </r>
       <r>   -6.3995    1.0000 </r>
       <r>   -6.0828    1.0000 </r>
       <r>   -5.9878    1.0000 </r>
       <r>   -5.7083    1.0000 </r>
       <r>   -5.4811    1.0000 </r>
       <r>   -5.1152    1.0000 </r>
       <r>   -4.9794    1.0000 </r>
       <r>   -4.8739    1.0000 </r>
       <r>   -4.7791    1.0000 </r>
       <r>   -4.3630    1.0000 </r>
       <r>   -3.9478    1.0000 </r>
       <r>   -2.9093    0.0000 </r>
       <r>   -1.7031    0.0000 </r>
       <r>   -1.6029    0.0000 </r>
       <r>   -1.2037    0.0000 </r>
       <r>   -1.1655    0.0000 </r>
       <r>   -1.0976    0.0000 </r>
       <r>   -0.9426    0.0000 </r>
       <r>   -0.8746    0.0000 </r>
       <r>   -0.4237    0.0000 </r>
       <r>   -0.3731    0.0000 </r>
       <r>    0.0821    0.0000 </r>
       <r>    0.1909    0.0000 </r>
       <r>    0.3404    0.0000 </r>
       <r>    0.4505    0.0000 </r>
       <r>    0.7523    0.0000 </r>
       <r>    0.8105    0.0000 </r>
       <r>    0.9064    0.0000 </r>
       <r>    0.9707    0.0000 </r>
       <r>    1.1216    0.0000 </r>
       <r>    1.1990    0.0000 </r>
       <r>    1.2272    0.0000 </r>
       <r>    1.3053    0.0000 </r>
       <r>    1.3947    0.0000 </r>
       <r>    1.5042    0.0000 </r>
       <r>    1.5637    0.0000 </r>
       <r>    1.5858    0.0000 </r>
       <r>    1.6865    0.0000 </r>
       <r>    1.6988    0.0000 </r>
       <r>    1.7852    0.0000 </r>
       <r>    1.8393    0.0000 </r>
       <r>    1.8498    0.0000 </r>
      </set>
     </set>
    </set>
   </array>
  </eigenvalues>
  <separator name="orbital magnetization" >
   <v name="MAGDIPOLOUT">      0.00000000      0.00000000      0.00000000</v>
  </separator>
  <dos>
   <i name="efermi">     -3.09689250 </i>
   <total>
    <array>
     <dimension dim="1">gridpoints</dimension>
     <dimension dim="2">spin</dimension>
     <field>energy</field>
     <field>total</field>
     <field>integrated</field>
     <set>
      <set comment="spin 1">
       <r>   -54.0893     0.0000     0.0000 </r>
       <r>   -53.8930     0.0000     0.0000 </r>
       <r>   -53.6966     0.0000     0.0000 </r>
       <r>   -53.5003     0.0000     0.0000 </r>
       <r>   -53.3039     0.0000     0.0000 </r>
       <r>   -53.1076     0.0000     0.0000 </r>
       <r>   -52.9112     0.0000     0.0000 </r>
       <r>   -52.7149     0.0000     0.0000 </r>
       <r>   -52.5185     0.0000     0.0000 </r>
       <r>   -52.3222     0.0000     0.0000 </r>
       <r>   -52.1259     0.0000     0.0000 </r>
       <r>   -51.9295     0.0000     0.0000 </r>
       <r>   -51.7332     0.0000     0.0000 </r>
       <r>   -51.5368     0.0010     0.0002 </r>
       <r>   -51.3405     4.9814     0.9783 </r>
       <r>   -51.1441     0.1106     1.0000 </r>
       <r>   -50.9478     0.0000     1.0000 </r>
       <r>   -50.7514     0.0000     1.0000 </r>
       <r>   -50.5551     0.0000     1.0000 </r>
       <r>   -50.3588     0.0000     1.0000 </r>
       <r>   -50.1624     0.0000     1.0000 </r>
       <r>   -49.9661     0.0000     1.0000 </r>
       <r>   -49.7697     0.0000     1.0000 </r>
       <r>   -49.5734     0.0000     1.0000 </r>
       <r>   -49.3770     0.0000     1.0000 </r>
       <r>   -49.1807     0.0000     1.0000 </r>
       <r>   -48.9843     0.0000     1.0000 </r>
       <r>   -48.7880     0.0000     1.0000 </r>
       <r>   -48.5917     0.0000     1.0000 </r>
       <r>   -48.3953     0.0000     1.0000 </r>
       <r>   -48.1990     0.0000     1.0000 </r>
       <r>   -48.0026     0.0000     1.0000 </r>
       <r>   -47.8063     0.0000     1.0000 </r>
       <r>   -47.6099     0.0000     1.0000 </r>
       <r>   -47.4136     0.0000     1.0000 </r>
       <r>   -47.2172     0.0000     1.0000 </r>
       <r>   -47.0209     0.0000     1.0000 </r>
       <r>   -46.8245     0.0000     1.0000 </r>
       <r>   -46.6282     0.0000     1.0000 </r>
       <r>   -46.4319     0.0000     1.0000 </r>
       <r>   -46.2355     0.0000     1.0000 </r>
       <r>   -46.0392     0.0000     1.0000 </r>
       <r>   -45.8428     0.0000     1.0000 </r>
       <r>   -45.6465     0.0000     1.0000 </r>
       <r>   -45.4501     0.0000     1.0000 </r>
       <r>   -45.2538     0.0000     1.0000 </r>
       <r>   -45.0574     0.0000     1.0000 </r>
       <r>   -44.8611     0.0000     1.0000 </r>
       <r>   -44.6648     0.0000     1.0000 </r>
       <r>   -44.4684     0.0000     1.0000 </r>
       <r>   -44.2721     0.0000     1.0000 </r>
       <r>   -44.0757     0.0000     1.0000 </r>
       <r>   -43.8794     0.0000     1.0000 </r>
       <r>   -43.6830     0.0000     1.0000 </r>
       <r>   -43.4867     0.0000     1.0000 </r>
       <r>   -43.2903     0.0000     1.0000 </r>
       <r>   -43.0940     0.0000     1.0000 </r>
       <r>   -42.8976     0.0000     1.0000 </r>
       <r>   -42.7013     0.0000     1.0000 </r>
       <r>   -42.5050     0.0000     1.0000 </r>
       <r>   -42.3086     0.0000     1.0000 </r>
       <r>   -42.1123     0.0000     1.0000 </r>
       <r>   -41.9159     0.0000     1.0000 </r>
       <r>   -41.7196     0.0000     1.0000 </r>
       <r>   -41.5232     0.0000     1.0000 </r>
       <r>   -41.3269     0.0000     1.0000 </r>
       <r>   -41.1305     0.0000     1.0000 </r>
       <r>   -40.9342     0.0000     1.0000 </r>
       <r>   -40.7379     0.0000     1.0000 </r>
       <r>   -40.5415     0.0000     1.0000 </r>
       <r>   -40.3452     0.0000     1.0000 </r>
       <r>   -40.1488     0.0000     1.0000 </r>
       <r>   -39.9525     0.0000     1.0000 </r>
       <r>   -39.7561     0.0000     1.0000 </r>
       <r>   -39.5598     0.0000     1.0000 </r>
       <r>   -39.3634     0.0000     1.0000 </r>
       <r>   -39.1671     0.0000     1.0000 </r>
       <r>   -38.9708     0.0000     1.0000 </r>
       <r>   -38.7744     0.0000     1.0000 </r>
       <r>   -38.5781     0.0000     1.0000 </r>
       <r>   -38.3817     0.0000     1.0000 </r>
       <r>   -38.1854     0.0000     1.0000 </r>
       <r>   -37.9890     0.0000     1.0000 </r>
       <r>   -37.7927     0.0000     1.0000 </r>
       <r>   -37.5963     0.0000     1.0000 </r>
       <r>   -37.4000     0.0000     1.0000 </r>
       <r>   -37.2036     0.0000     1.0000 </r>
       <r>   -37.0073     0.0000     1.0000 </r>
       <r>   -36.8110     0.0000     1.0000 </r>
       <r>   -36.6146     0.0000     1.0000 </r>
       <r>   -36.4183     0.0000     1.0000 </r>
       <r>   -36.2219     0.0000     1.0000 </r>
       <r>   -36.0256     0.0000     1.0000 </r>
       <r>   -35.8292     0.0000     1.0000 </r>
       <r>   -35.6329     0.0000     1.0000 </r>
       <r>   -35.4365     0.0000     1.0000 </r>
       <r>   -35.2402     0.0000     1.0000 </r>
       <r>   -35.0439     0.0000     1.0000 </r>
       <r>   -34.8475     0.0000     1.0000 </r>
       <r>   -34.6512     0.0000     1.0000 </r>
       <r>   -34.4548     0.0000     1.0000 </r>
       <r>   -34.2585     0.0000     1.0000 </r>
       <r>   -34.0621     0.0000     1.0000 </r>
       <r>   -33.8658     0.0000     1.0000 </r>
       <r>   -33.6694     0.0000     1.0000 </r>
       <r>   -33.4731     0.0000     1.0000 </r>
       <r>   -33.2767     0.0000     1.0000 </r>
       <r>   -33.0804     0.0000     1.0000 </r>
       <r>   -32.8841     0.0000     1.0000 </r>
       <r>   -32.6877     0.0000     1.0000 </r>
       <r>   -32.4914     0.0000     1.0000 </r>
       <r>   -32.2950     0.0000     1.0000 </r>
       <r>   -32.0987     0.0000     1.0000 </r>
       <r>   -31.9023     0.0000     1.0000 </r>
       <r>   -31.7060     0.0000     1.0000 </r>
       <r>   -31.5096     0.0000     1.0000 </r>
       <r>   -31.3133     0.0000     1.0000 </r>
       <r>   -31.1170     0.0000     1.0000 </r>
       <r>   -30.9206     0.0000     1.0000 </r>
       <r>   -30.7243     0.0000     1.0000 </r>
       <r>   -30.5279     0.0000     1.0000 </r>
       <r>   -30.3316     0.0000     1.0000 </r>
       <r>   -30.1352     0.0000     1.0000 </r>
       <r>   -29.9389     0.0000     1.0000 </r>
       <r>   -29.7425     0.0000     1.0000 </r>
       <r>   -29.5462     0.0000     1.0000 </r>
       <r>   -29.3499     0.0000     1.0000 </r>
       <r>   -29.1535     0.0000     1.0000 </r>
       <r>   -28.9572     0.0000     1.0000 </r>
       <r>   -28.7608     0.0000     1.0000 </r>
       <r>   -28.5645     0.0000     1.0000 </r>
       <r>   -28.3681     0.0000     1.0000 </r>
       <r>   -28.1718     0.0000     1.0000 </r>
       <r>   -27.9754     0.0000     1.0000 </r>
       <r>   -27.7791     0.0000     1.0000 </r>
       <r>   -27.5827     0.0000     1.0000 </r>
       <r>   -27.3864     0.0000     1.0000 </r>
       <r>   -27.1901     0.0000     1.0000 </r>
       <r>   -26.9937     0.0000     1.0000 </r>
       <r>   -26.7974     0.0000     1.0000 </r>
       <r>   -26.6010     0.0000     1.0000 </r>
       <r>   -26.4047     0.0000     1.0000 </r>
       <r>   -26.2083     0.0000     1.0000 </r>
       <r>   -26.0120     0.0000     1.0000 </r>
       <r>   -25.8156     0.0000     1.0000 </r>
       <r>   -25.6193     0.0000     1.0000 </r>
       <r>   -25.4230     0.0000     1.0000 </r>
       <r>   -25.2266     0.0000     1.0000 </r>
       <r>   -25.0303     0.0000     1.0000 </r>
       <r>   -24.8339     0.0000     1.0000 </r>
       <r>   -24.6376     0.0000     1.0000 </r>
       <r>   -24.4412     0.0000     1.0000 </r>
       <r>   -24.2449     0.0000     1.0000 </r>
       <r>   -24.0485     0.0000     1.0000 </r>
       <r>   -23.8522     0.0000     1.0000 </r>
       <r>   -23.6558     0.0000     1.0000 </r>
       <r>   -23.4595     0.0000     1.0000 </r>
       <r>   -23.2632     0.0000     1.0000 </r>
       <r>   -23.0668     0.0000     1.0000 </r>
       <r>   -22.8705     0.0000     1.0000 </r>
       <r>   -22.6741     0.0000     1.0000 </r>
       <r>   -22.4778     0.0000     1.0000 </r>
       <r>   -22.2814     0.8992     1.1765 </r>
       <r>   -22.0851     4.1802     1.9973 </r>
       <r>   -21.8887     3.2892     2.6431 </r>
       <r>   -21.6924     2.3924     3.1129 </r>
       <r>   -21.4961     5.0466     4.1038 </r>
       <r>   -21.2997     3.5802     4.8067 </r>
       <r>   -21.1034     1.8975     5.1793 </r>
       <r>   -20.9070     4.2031     6.0045 </r>
       <r>   -20.7107     5.5243     7.0892 </r>
       <r>   -20.5143     2.2703     7.5349 </r>
       <r>   -20.3180     3.5340     8.2288 </r>
       <r>   -20.1216     4.1377     9.0412 </r>
       <r>   -19.9253     5.3455    10.0908 </r>
       <r>   -19.7289     0.7094    10.2301 </r>
       <r>   -19.5326     4.1502    11.0450 </r>
       <r>   -19.3363     6.7544    12.3711 </r>
       <r>   -19.1399     3.4664    13.0518 </r>
       <r>   -18.9436     4.5187    13.9390 </r>
       <r>   -18.7472     1.9088    14.3138 </r>
       <r>   -18.5509     3.3127    14.9642 </r>
       <r>   -18.3545     5.6380    16.0712 </r>
       <r>   -18.1582     5.8527    17.2203 </r>
       <r>   -17.9618     0.8182    17.3810 </r>
       <r>   -17.7655     4.7251    18.3087 </r>
       <r>   -17.5692     4.9732    19.2852 </r>
       <r>   -17.3728     4.8059    20.2288 </r>
       <r>   -17.1765     4.7354    21.1586 </r>
       <r>   -16.9801     4.3790    22.0184 </r>
       <r>   -16.7838     3.3025    22.6668 </r>
       <r>   -16.5874     1.7311    23.0067 </r>
       <r>   -16.3911     4.5621    23.9024 </r>
       <r>   -16.1947     2.4683    24.3871 </r>
       <r>   -15.9984     3.1407    25.0037 </r>
       <r>   -15.8021     3.7425    25.7385 </r>
       <r>   -15.6057     2.6809    26.2649 </r>
       <r>   -15.4094     3.5990    26.9716 </r>
       <r>   -15.2130     5.4345    28.0386 </r>
       <r>   -15.0167     4.9517    29.0108 </r>
       <r>   -14.8203     4.3858    29.8720 </r>
       <r>   -14.6240     4.2279    30.7021 </r>
       <r>   -14.4276     3.7925    31.4467 </r>
       <r>   -14.2313     4.0617    32.2442 </r>
       <r>   -14.0349     4.1940    33.0677 </r>
       <r>   -13.8386     4.1591    33.8843 </r>
       <r>   -13.6423     3.3438    34.5409 </r>
       <r>   -13.4459     5.7073    35.6614 </r>
       <r>   -13.2496     0.0266    35.6667 </r>
       <r>   -13.0532     2.3140    36.1210 </r>
       <r>   -12.8569     7.4551    37.5848 </r>
       <r>   -12.6605     5.9573    38.7544 </r>
       <r>   -12.4642     3.3166    39.4057 </r>
       <r>   -12.2678     4.6442    40.3175 </r>
       <r>   -12.0715     2.4213    40.7929 </r>
       <r>   -11.8752     5.1394    41.8020 </r>
       <r>   -11.6788     4.5947    42.7042 </r>
       <r>   -11.4825     5.5940    43.8025 </r>
       <r>   -11.2861     5.2530    44.8339 </r>
       <r>   -11.0898     7.3226    46.2717 </r>
       <r>   -10.8934     2.3750    46.7380 </r>
       <r>   -10.6971     5.4558    47.8092 </r>
       <r>   -10.5007     6.1886    49.0243 </r>
       <r>   -10.3044     8.6607    50.7248 </r>
       <r>   -10.1080     9.2251    52.5361 </r>
       <r>    -9.9117    10.8108    54.6587 </r>
       <r>    -9.7154     7.3584    56.1035 </r>
       <r>    -9.5190     9.2969    57.9289 </r>
       <r>    -9.3227     7.8906    59.4782 </r>
       <r>    -9.1263    11.0008    61.6381 </r>
       <r>    -8.9300    11.8313    63.9612 </r>
       <r>    -8.7336    12.8343    66.4811 </r>
       <r>    -8.5373    10.4805    68.5389 </r>
       <r>    -8.3409     7.8814    70.0864 </r>
       <r>    -8.1446     7.8326    71.6243 </r>
       <r>    -7.9483    13.3342    74.2424 </r>
       <r>    -7.7519     9.8331    76.1731 </r>
       <r>    -7.5556     3.5382    76.8678 </r>
       <r>    -7.3592     6.9581    78.2340 </r>
       <r>    -7.1629    10.6248    80.3201 </r>
       <r>    -6.9665     8.2267    81.9354 </r>
       <r>    -6.7702     8.5356    83.6113 </r>
       <r>    -6.5738     5.3440    84.6605 </r>
       <r>    -6.3775     6.6205    85.9605 </r>
       <r>    -6.1812     4.4348    86.8312 </r>
       <r>    -5.9848     9.6781    88.7315 </r>
       <r>    -5.7885     2.5121    89.2247 </r>
       <r>    -5.5921     4.2694    90.0630 </r>
       <r>    -5.3958     5.5080    91.1444 </r>
       <r>    -5.1994     2.8238    91.6989 </r>
       <r>    -5.0031     6.0685    92.8904 </r>
       <r>    -4.8067     6.0002    94.0685 </r>
       <r>    -4.6104     4.1622    94.8857 </r>
       <r>    -4.4140     0.3676    94.9579 </r>
       <r>    -4.2177     2.6780    95.4837 </r>
       <r>    -4.0214     2.6561    96.0052 </r>
       <r>    -3.8250     1.6761    96.3343 </r>
       <r>    -3.6287     3.2342    96.9693 </r>
       <r>    -3.4323     0.1562    97.0000 </r>
       <r>    -3.2360     0.1918    97.0377 </r>
       <r>    -3.0396     2.6312    97.5543 </r>
       <r>    -2.8433     1.1033    97.7709 </r>
       <r>    -2.6469     0.2213    97.8144 </r>
       <r>    -2.4506     2.0261    98.2122 </r>
       <r>    -2.2543     0.0512    98.2222 </r>
       <r>    -2.0579     0.0000    98.2222 </r>
       <r>    -1.8616     0.6835    98.3564 </r>
       <r>    -1.6652     5.8809    99.5111 </r>
       <r>    -1.4689     1.7094    99.8467 </r>
       <r>    -1.2725     1.9251   100.2247 </r>
       <r>    -1.0762     7.9321   101.7822 </r>
       <r>    -0.8798     9.5104   103.6495 </r>
       <r>    -0.6835     4.5496   104.5428 </r>
       <r>    -0.4871     3.7411   105.2773 </r>
       <r>    -0.2908     6.4810   106.5498 </r>
       <r>    -0.0945     2.0023   106.9430 </r>
       <r>     0.1019     5.2643   107.9766 </r>
       <r>     0.2982     6.5975   109.2720 </r>
       <r>     0.4946     8.0318   110.8490 </r>
       <r>     0.6909     5.1461   111.8594 </r>
       <r>     0.8873    11.4756   114.1126 </r>
       <r>     1.0836     9.7174   116.0205 </r>
       <r>     1.2800    13.2392   118.6200 </r>
       <r>     1.4763    13.4632   121.2634 </r>
       <r>     1.6726    13.1068   123.8369 </r>
       <r>     1.8690    16.8333   127.1420 </r>
       <r>     2.0653     3.4208   127.8136 </r>
       <r>     2.2617     0.9491   128.0000 </r>
       <r>     2.4580     0.0000   128.0000 </r>
       <r>     2.6544     0.0000   128.0000 </r>
       <r>     2.8507     0.0000   128.0000 </r>
       <r>     3.0471     0.0000   128.0000 </r>
       <r>     3.2434     0.0000   128.0000 </r>
       <r>     3.4398     0.0000   128.0000 </r>
       <r>     3.6361     0.0000   128.0000 </r>
       <r>     3.8324     0.0000   128.0000 </r>
       <r>     4.0288     0.0000   128.0000 </r>
       <r>     4.2251     0.0000   128.0000 </r>
       <r>     4.4215     0.0000   128.0000 </r>
       <r>     4.6178     0.0000   128.0000 </r>
       <r>     4.8142     0.0000   128.0000 </r>
      </set>
      <set comment="spin 2">
       <r>   -54.0893     0.0000     0.0000 </r>
       <r>   -53.8930     0.0000     0.0000 </r>
       <r>   -53.6966     0.0000     0.0000 </r>
       <r>   -53.5003     0.0000     0.0000 </r>
       <r>   -53.3039     0.0000     0.0000 </r>
       <r>   -53.1076     0.0000     0.0000 </r>
       <r>   -52.9112     0.0000     0.0000 </r>
       <r>   -52.7149     0.0000     0.0000 </r>
       <r>   -52.5185     0.0000     0.0000 </r>
       <r>   -52.3222     0.0000     0.0000 </r>
       <r>   -52.1259     0.0000     0.0000 </r>
       <r>   -51.9295     0.0000     0.0000 </r>
       <r>   -51.7332     0.0000     0.0000 </r>
       <r>   -51.5368     0.0010     0.0002 </r>
       <r>   -51.3405     4.9814     0.9783 </r>
       <r>   -51.1441     0.1106     1.0000 </r>
       <r>   -50.9478     0.0000     1.0000 </r>
       <r>   -50.7514     0.0000     1.0000 </r>
       <r>   -50.5551     0.0000     1.0000 </r>
       <r>   -50.3588     0.0000     1.0000 </r>
       <r>   -50.1624     0.0000     1.0000 </r>
       <r>   -49.9661     0.0000     1.0000 </r>
       <r>   -49.7697     0.0000     1.0000 </r>
       <r>   -49.5734     0.0000     1.0000 </r>
       <r>   -49.3770     0.0000     1.0000 </r>
       <r>   -49.1807     0.0000     1.0000 </r>
       <r>   -48.9843     0.0000     1.0000 </r>
       <r>   -48.7880     0.0000     1.0000 </r>
       <r>   -48.5917     0.0000     1.0000 </r>
       <r>   -48.3953     0.0000     1.0000 </r>
       <r>   -48.1990     0.0000     1.0000 </r>
       <r>   -48.0026     0.0000     1.0000 </r>
       <r>   -47.8063     0.0000     1.0000 </r>
       <r>   -47.6099     0.0000     1.0000 </r>
       <r>   -47.4136     0.0000     1.0000 </r>
       <r>   -47.2172     0.0000     1.0000 </r>
       <r>   -47.0209     0.0000     1.0000 </r>
       <r>   -46.8245     0.0000     1.0000 </r>
       <r>   -46.6282     0.0000     1.0000 </r>
       <r>   -46.4319     0.0000     1.0000 </r>
       <r>   -46.2355     0.0000     1.0000 </r>
       <r>   -46.0392     0.0000     1.0000 </r>
       <r>   -45.8428     0.0000     1.0000 </r>
       <r>   -45.6465     0.0000     1.0000 </r>
       <r>   -45.4501     0.0000     1.0000 </r>
       <r>   -45.2538     0.0000     1.0000 </r>
       <r>   -45.0574     0.0000     1.0000 </r>
       <r>   -44.8611     0.0000     1.0000 </r>
       <r>   -44.6648     0.0000     1.0000 </r>
       <r>   -44.4684     0.0000     1.0000 </r>
       <r>   -44.2721     0.0000     1.0000 </r>
       <r>   -44.0757     0.0000     1.0000 </r>
       <r>   -43.8794     0.0000     1.0000 </r>
       <r>   -43.6830     0.0000     1.0000 </r>
       <r>   -43.4867     0.0000     1.0000 </r>
       <r>   -43.2903     0.0000     1.0000 </r>
       <r>   -43.0940     0.0000     1.0000 </r>
       <r>   -42.8976     0.0000     1.0000 </r>
       <r>   -42.7013     0.0000     1.0000 </r>
       <r>   -42.5050     0.0000     1.0000 </r>
       <r>   -42.3086     0.0000     1.0000 </r>
       <r>   -42.1123     0.0000     1.0000 </r>
       <r>   -41.9159     0.0000     1.0000 </r>
       <r>   -41.7196     0.0000     1.0000 </r>
       <r>   -41.5232     0.0000     1.0000 </r>
       <r>   -41.3269     0.0000     1.0000 </r>
       <r>   -41.1305     0.0000     1.0000 </r>
       <r>   -40.9342     0.0000     1.0000 </r>
       <r>   -40.7379     0.0000     1.0000 </r>
       <r>   -40.5415     0.0000     1.0000 </r>
       <r>   -40.3452     0.0000     1.0000 </r>
       <r>   -40.1488     0.0000     1.0000 </r>
       <r>   -39.9525     0.0000     1.0000 </r>
       <r>   -39.7561     0.0000     1.0000 </r>
       <r>   -39.5598     0.0000     1.0000 </r>
       <r>   -39.3634     0.0000     1.0000 </r>
       <r>   -39.1671     0.0000     1.0000 </r>
       <r>   -38.9708     0.0000     1.0000 </r>
       <r>   -38.7744     0.0000     1.0000 </r>
       <r>   -38.5781     0.0000     1.0000 </r>
       <r>   -38.3817     0.0000     1.0000 </r>
       <r>   -38.1854     0.0000     1.0000 </r>
       <r>   -37.9890     0.0000     1.0000 </r>
       <r>   -37.7927     0.0000     1.0000 </r>
       <r>   -37.5963     0.0000     1.0000 </r>
       <r>   -37.4000     0.0000     1.0000 </r>
       <r>   -37.2036     0.0000     1.0000 </r>
       <r>   -37.0073     0.0000     1.0000 </r>
       <r>   -36.8110     0.0000     1.0000 </r>
       <r>   -36.6146     0.0000     1.0000 </r>
       <r>   -36.4183     0.0000     1.0000 </r>
       <r>   -36.2219     0.0000     1.0000 </r>
       <r>   -36.0256     0.0000     1.0000 </r>
       <r>   -35.8292     0.0000     1.0000 </r>
       <r>   -35.6329     0.0000     1.0000 </r>
       <r>   -35.4365     0.0000     1.0000 </r>
       <r>   -35.2402     0.0000     1.0000 </r>
       <r>   -35.0439     0.0000     1.0000 </r>
       <r>   -34.8475     0.0000     1.0000 </r>
       <r>   -34.6512     0.0000     1.0000 </r>
       <r>   -34.4548     0.0000     1.0000 </r>
       <r>   -34.2585     0.0000     1.0000 </r>
       <r>   -34.0621     0.0000     1.0000 </r>
       <r>   -33.8658     0.0000     1.0000 </r>
       <r>   -33.6694     0.0000     1.0000 </r>
       <r>   -33.4731     0.0000     1.0000 </r>
       <r>   -33.2767     0.0000     1.0000 </r>
       <r>   -33.0804     0.0000     1.0000 </r>
       <r>   -32.8841     0.0000     1.0000 </r>
       <r>   -32.6877     0.0000     1.0000 </r>
       <r>   -32.4914     0.0000     1.0000 </r>
       <r>   -32.2950     0.0000     1.0000 </r>
       <r>   -32.0987     0.0000     1.0000 </r>
       <r>   -31.9023     0.0000     1.0000 </r>
       <r>   -31.7060     0.0000     1.0000 </r>
       <r>   -31.5096     0.0000     1.0000 </r>
       <r>   -31.3133     0.0000     1.0000 </r>
       <r>   -31.1170     0.0000     1.0000 </r>
       <r>   -30.9206     0.0000     1.0000 </r>
       <r>   -30.7243     0.0000     1.0000 </r>
       <r>   -30.5279     0.0000     1.0000 </r>
       <r>   -30.3316     0.0000     1.0000 </r>
       <r>   -30.1352     0.0000     1.0000 </r>
       <r>   -29.9389     0.0000     1.0000 </r>
       <r>   -29.7425     0.0000     1.0000 </r>
       <r>   -29.5462     0.0000     1.0000 </r>
       <r>   -29.3499     0.0000     1.0000 </r>
       <r>   -29.1535     0.0000     1.0000 </r>
       <r>   -28.9572     0.0000     1.0000 </r>
       <r>   -28.7608     0.0000     1.0000 </r>
       <r>   -28.5645     0.0000     1.0000 </r>
       <r>   -28.3681     0.0000     1.0000 </r>
       <r>   -28.1718     0.0000     1.0000 </r>
       <r>   -27.9754     0.0000     1.0000 </r>
       <r>   -27.7791     0.0000     1.0000 </r>
       <r>   -27.5827     0.0000     1.0000 </r>
       <r>   -27.3864     0.0000     1.0000 </r>
       <r>   -27.1901     0.0000     1.0000 </r>
       <r>   -26.9937     0.0000     1.0000 </r>
       <r>   -26.7974     0.0000     1.0000 </r>
       <r>   -26.6010     0.0000     1.0000 </r>
       <r>   -26.4047     0.0000     1.0000 </r>
       <r>   -26.2083     0.0000     1.0000 </r>
       <r>   -26.0120     0.0000     1.0000 </r>
       <r>   -25.8156     0.0000     1.0000 </r>
       <r>   -25.6193     0.0000     1.0000 </r>
       <r>   -25.4230     0.0000     1.0000 </r>
       <r>   -25.2266     0.0000     1.0000 </r>
       <r>   -25.0303     0.0000     1.0000 </r>
       <r>   -24.8339     0.0000     1.0000 </r>
       <r>   -24.6376     0.0000     1.0000 </r>
       <r>   -24.4412     0.0000     1.0000 </r>
       <r>   -24.2449     0.0000     1.0000 </r>
       <r>   -24.0485     0.0000     1.0000 </r>
       <r>   -23.8522     0.0000     1.0000 </r>
       <r>   -23.6558     0.0000     1.0000 </r>
       <r>   -23.4595     0.0000     1.0000 </r>
       <r>   -23.2632     0.0000     1.0000 </r>
       <r>   -23.0668     0.0000     1.0000 </r>
       <r>   -22.8705     0.0000     1.0000 </r>
       <r>   -22.6741     0.0000     1.0000 </r>
       <r>   -22.4778     0.0000     1.0000 </r>
       <r>   -22.2814     0.8992     1.1766 </r>
       <r>   -22.0851     4.1802     1.9973 </r>
       <r>   -21.8887     3.2892     2.6431 </r>
       <r>   -21.6924     2.3924     3.1129 </r>
       <r>   -21.4961     5.0466     4.1038 </r>
       <r>   -21.2997     3.5802     4.8067 </r>
       <r>   -21.1034     1.8975     5.1793 </r>
       <r>   -20.9070     4.2030     6.0045 </r>
       <r>   -20.7107     5.5243     7.0892 </r>
       <r>   -20.5143     2.2703     7.5349 </r>
       <r>   -20.3180     3.5340     8.2288 </r>
       <r>   -20.1216     4.1377     9.0412 </r>
       <r>   -19.9253     5.3455    10.0908 </r>
       <r>   -19.7289     0.7094    10.2301 </r>
       <r>   -19.5326     4.1502    11.0450 </r>
       <r>   -19.3363     6.7544    12.3711 </r>
       <r>   -19.1399     3.4664    13.0518 </r>
       <r>   -18.9436     4.5187    13.9390 </r>
       <r>   -18.7472     1.9088    14.3138 </r>
       <r>   -18.5509     3.3127    14.9642 </r>
       <r>   -18.3545     5.6380    16.0712 </r>
       <r>   -18.1582     5.8527    17.2203 </r>
       <r>   -17.9618     0.8182    17.3810 </r>
       <r>   -17.7655     4.7251    18.3087 </r>
       <r>   -17.5692     4.9732    19.2852 </r>
       <r>   -17.3728     4.8059    20.2288 </r>
       <r>   -17.1765     4.7354    21.1586 </r>
       <r>   -16.9801     4.3790    22.0184 </r>
       <r>   -16.7838     3.3025    22.6668 </r>
       <r>   -16.5874     1.7311    23.0067 </r>
       <r>   -16.3911     4.5621    23.9024 </r>
       <r>   -16.1947     2.4683    24.3871 </r>
       <r>   -15.9984     3.1407    25.0037 </r>
       <r>   -15.8021     3.7425    25.7385 </r>
       <r>   -15.6057     2.6809    26.2649 </r>
       <r>   -15.4094     3.5990    26.9716 </r>
       <r>   -15.2130     5.4345    28.0386 </r>
       <r>   -15.0167     4.9517    29.0108 </r>
       <r>   -14.8203     4.3858    29.8720 </r>
       <r>   -14.6240     4.2279    30.7021 </r>
       <r>   -14.4276     3.7925    31.4467 </r>
       <r>   -14.2313     4.0617    32.2442 </r>
       <r>   -14.0349     4.1940    33.0677 </r>
       <r>   -13.8386     4.1591    33.8843 </r>
       <r>   -13.6423     3.3438    34.5409 </r>
       <r>   -13.4459     5.7073    35.6614 </r>
       <r>   -13.2496     0.0266    35.6667 </r>
       <r>   -13.0532     2.3140    36.1210 </r>
       <r>   -12.8569     7.4551    37.5848 </r>
       <r>   -12.6605     5.9573    38.7545 </r>
       <r>   -12.4642     3.3166    39.4057 </r>
       <r>   -12.2678     4.6442    40.3175 </r>
       <r>   -12.0715     2.4213    40.7929 </r>
       <r>   -11.8752     5.1394    41.8020 </r>
       <r>   -11.6788     4.5947    42.7042 </r>
       <r>   -11.4825     5.5940    43.8025 </r>
       <r>   -11.2861     5.2530    44.8339 </r>
       <r>   -11.0898     7.3226    46.2717 </r>
       <r>   -10.8934     2.3750    46.7380 </r>
       <r>   -10.6971     5.4558    47.8092 </r>
       <r>   -10.5007     6.1886    49.0243 </r>
       <r>   -10.3044     8.6607    50.7248 </r>
       <r>   -10.1080     9.2251    52.5361 </r>
       <r>    -9.9117    10.8108    54.6587 </r>
       <r>    -9.7154     7.3584    56.1035 </r>
       <r>    -9.5190     9.2969    57.9289 </r>
       <r>    -9.3227     7.8906    59.4782 </r>
       <r>    -9.1263    11.0008    61.6381 </r>
       <r>    -8.9300    11.8313    63.9612 </r>
       <r>    -8.7336    12.8343    66.4811 </r>
       <r>    -8.5373    10.4805    68.5389 </r>
       <r>    -8.3409     7.8814    70.0864 </r>
       <r>    -8.1446     7.8326    71.6243 </r>
       <r>    -7.9483    13.3342    74.2424 </r>
       <r>    -7.7519     9.8331    76.1731 </r>
       <r>    -7.5556     3.5382    76.8678 </r>
       <r>    -7.3592     6.9581    78.2340 </r>
       <r>    -7.1629    10.6248    80.3201 </r>
       <r>    -6.9665     8.2267    81.9354 </r>
       <r>    -6.7702     8.5356    83.6113 </r>
       <r>    -6.5738     5.3440    84.6606 </r>
       <r>    -6.3775     6.6205    85.9605 </r>
       <r>    -6.1812     4.4348    86.8312 </r>
       <r>    -5.9848     9.6782    88.7315 </r>
       <r>    -5.7885     2.5121    89.2247 </r>
       <r>    -5.5921     4.2694    90.0630 </r>
       <r>    -5.3958     5.5079    91.1444 </r>
       <r>    -5.1994     2.8238    91.6989 </r>
       <r>    -5.0031     6.0685    92.8904 </r>
       <r>    -4.8067     6.0002    94.0685 </r>
       <r>    -4.6104     4.1622    94.8857 </r>
       <r>    -4.4140     0.3676    94.9579 </r>
       <r>    -4.2177     2.6780    95.4837 </r>
       <r>    -4.0214     2.6561    96.0052 </r>
       <r>    -3.8250     1.6761    96.3343 </r>
       <r>    -3.6287     3.2342    96.9693 </r>
       <r>    -3.4323     0.1562    97.0000 </r>
       <r>    -3.2360     0.1918    97.0377 </r>
       <r>    -3.0396     2.6312    97.5543 </r>
       <r>    -2.8433     1.1033    97.7709 </r>
       <r>    -2.6469     0.2213    97.8144 </r>
       <r>    -2.4506     2.0261    98.2122 </r>
       <r>    -2.2543     0.0512    98.2222 </r>
       <r>    -2.0579     0.0000    98.2222 </r>
       <r>    -1.8616     0.6835    98.3564 </r>
       <r>    -1.6652     5.8809    99.5111 </r>
       <r>    -1.4689     1.7094    99.8467 </r>
       <r>    -1.2725     1.9251   100.2247 </r>
       <r>    -1.0762     7.9321   101.7822 </r>
       <r>    -0.8798     9.5097   103.6493 </r>
       <r>    -0.6835     4.5504   104.5428 </r>
       <r>    -0.4871     3.7411   105.2773 </r>
       <r>    -0.2908     6.4810   106.5498 </r>
       <r>    -0.0945     2.0021   106.9429 </r>
       <r>     0.1019     5.2643   107.9766 </r>
       <r>     0.2982     6.5936   109.2712 </r>
       <r>     0.4946     8.0312   110.8481 </r>
       <r>     0.6909     5.1458   111.8584 </r>
       <r>     0.8873    11.4195   114.1006 </r>
       <r>     1.0836     9.5672   115.9790 </r>
       <r>     1.2800    12.9831   118.5282 </r>
       <r>     1.4763    13.1705   121.1142 </r>
       <r>     1.6726    13.2749   123.7206 </r>
       <r>     1.8690    16.6101   126.9819 </r>
       <r>     2.0653     4.3935   127.8446 </r>
       <r>     2.2617     0.7916   128.0000 </r>
       <r>     2.4580     0.0001   128.0000 </r>
       <r>     2.6544     0.0000   128.0000 </r>
       <r>     2.8507     0.0000   128.0000 </r>
       <r>     3.0471     0.0000   128.0000 </r>
       <r>     3.2434     0.0000   128.0000 </r>
       <r>     3.4398     0.0000   128.0000 </r>
       <r>     3.6361     0.0000   128.0000 </r>
       <r>     3.8324     0.0000   128.0000 </r>
       <r>     4.0288     0.0000   128.0000 </r>
       <r>     4.2251     0.0000   128.0000 </r>
       <r>     4.4215     0.0000   128.0000 </r>
       <r>     4.6178     0.0000   128.0000 </r>
       <r>     4.8142     0.0000   128.0000 </r>
      </set>
     </set>
    </array>
   </total>
  </dos>
 </calculation>
 <structure name="finalpos" >
  <crystal>
   <varray name="basis" >
    <v>      12.30000000       0.00000000       0.00000000 </v>
    <v>      -6.15000000      10.65211247       0.00000000 </v>
    <v>       0.00000000       0.00000000      30.00000000 </v>
   </varray>
   <i name="volume">   3930.62950016 </i>
   <varray name="rec_basis" >
    <v>       0.08130081       0.04693905       0.00000000 </v>
    <v>       0.00000000       0.09387809       0.00000000 </v>
    <v>       0.00000000       0.00000000       0.03333333 </v>
   </varray>
  </crystal>
  <varray name="positions" >
   <v>       0.00069168       0.99541666       0.49998612 </v>
   <v>       0.13570752       0.06529461       0.50002869 </v>
   <v>       0.00528682       0.19571106       0.50058609 </v>
   <v>       0.13833518       0.26560218       0.50057170 </v>
   <v>       0.99712702       0.39177707       0.50100754 </v>
   <v>       0.13026968       0.46391674       0.50087604 </v>
   <v>       0.97526623       0.57616636       0.49974051 </v>
   <v>       0.11731876       0.65556017       0.50025836 </v>
   <v>       0.98729726       0.78579945       0.49978844 </v>
   <v>       0.12617716       0.86034230       0.49990407 </v>
   <v>       0.20174420       0.99935984       0.49996315 </v>
   <v>       0.34076841       0.07491797       0.49997416 </v>
   <v>       0.20564900       0.20029985       0.50029029 </v>
   <v>       0.34065624       0.27207656       0.50022199 </v>
   <v>       0.19984457       0.39937158       0.50071372 </v>
   <v>       0.33279713       0.46984879       0.50056375 </v>
   <v>       0.19199209       0.59719431       0.50058322 </v>
   <v>       0.32697969       0.66894440       0.50043978 </v>
   <v>       0.19196150       0.79444851       0.50008107 </v>
   <v>       0.33098870       0.87000208       0.50010093 </v>
   <v>       0.40655756       0.00904940       0.49998696 </v>
   <v>       0.54540405       0.08366039       0.49998134 </v>
   <v>       0.41537712       0.21379237       0.49993588 </v>
   <v>       0.55744946       0.29324157       0.49946986 </v>
   <v>       0.40242993       0.40537510       0.50047012 </v>
   <v>       0.53559216       0.47761928       0.50044748 </v>
   <v>       0.39430443       0.60365582       0.50046434 </v>
   <v>       0.52736225       0.67361877       0.50026175 </v>
   <v>       0.39695450       0.80397139       0.50018869 </v>
   <v>       0.53196727       0.87397152       0.50011628 </v>
   <v>       0.60374810       0.00898380       0.50016676 </v>
   <v>       0.73705382       0.07076953       0.50050530 </v>
   <v>       0.62488765       0.22578393       0.49959691 </v>
   <v>       0.76599571       0.29127341       0.50025991 </v>
   <v>       0.62301774       0.43445421       0.49988325 </v>
   <v>       0.59240615       0.60866974       0.50023153 </v>
   <v>       0.72347200       0.66559306       0.50021997 </v>
   <v>       0.59727190       0.80667286       0.50014313 </v>
   <v>       0.73106729       0.86823424       0.50012855 </v>
   <v>       0.80156259       0.00117311       0.50027601 </v>
   <v>       0.93536716       0.06268160       0.50025728 </v>
   <v>       0.80924606       0.20391568       0.50083025 </v>
   <v>       0.94027672       0.26072818       0.50083145 </v>
   <v>       0.90975834       0.43503138       0.50036590 </v>
   <v>       0.76676574       0.57827823       0.49975349 </v>
   <v>       0.90787378       0.64372456       0.49943208 </v>
   <v>       0.79564026       0.79872732       0.50011285 </v>
   <v>       0.92892615       0.86046430       0.49989995 </v>
   <v>       0.70266384       0.43463288       0.55687285 </v>
  </varray>
 </structure>
</modeling>
