<?xml version="1.0" encoding="ISO-8859-1"?>
<modeling>
 <generator>
  <i name="program" type="string">vasp </i>
  <i name="version" type="string">5.4.1  </i>
  <i name="subversion" type="string">24Jun15 (build Jul 23 2024 06:15:33) complex                          parallel </i>
  <i name="platform" type="string">IFC91_ompi </i>
  <i name="date" type="string">2026 05 05 </i>
  <i name="time" type="string">12:46:44 </i>
 </generator>
 <incar>
  <i type="string" name="SYSTEM"> Li defective graphene MACE training lab</i>
  <i type="int" name="ISTART">     0</i>
  <i type="string" name="PREC">accurate</i>
  <i type="string" name="ALGO"> Normal</i>
  <i type="logical" name="ADDGRID"> T  </i>
  <i type="int" name="ISPIN">     2</i>
  <i type="int" name="ICHARG">     2</i>
  <i type="int" name="NELM">   120</i>
  <i type="int" name="IBRION">    -1</i>
  <i name="EDIFF">      0.00000100</i>
  <i type="int" name="NSW">     0</i>
  <i type="int" name="ISIF">     2</i>
  <i type="int" name="ISYM">     0</i>
  <i name="ENCUT">    520.00000000</i>
  <v name="MAGMOM">      0.10000000      0.10000000      0.10000000      0.10000000      0.10000000      0.10000000      0.10000000      0.10000000      0.10000000      0.10000000      0.10000000      0.10000000      0.10000000      0.10000000      0.10000000      0.10000000      0.10000000      0.10000000      0.10000000      0.10000000
      0.10000000      0.10000000      0.10000000      0.10000000      0.10000000      0.10000000      0.10000000      0.10000000      0.10000000      0.10000000      0.10000000      0.10000000      0.10000000      0.10000000      0.10000000      0.10000000      0.10000000      0.10000000      0.10000000      0.10000000
      0.10000000      0.10000000      0.10000000      0.10000000      0.10000000      0.10000000      0.10000000      0.10000000      0.10000000      0.10000000      1.00000000</v>
  <i type="string" name="LREAL"> Auto</i>
  <i type="int" name="ISMEAR">     0</i>
  <i name="SIGMA">      0.05000000</i>
  <i type="logical" name="LWAVE"> F  </i>
  <i type="logical" name="LCHARG"> F  </i>
  <i type="logical" name="LASPH"> T  </i>
  <v type="int" name="KPOINT_BSE">    -1     0     0     0</v>
  <i type="int" name="NELM">   120</i>
  <i type="logical" name="LASPH"> T  </i>
 </incar>
 <kpoints>
  <generation param="Gamma">
   <v type="int" name="divisions">       3        3        1 </v>
   <v name="usershift">      0.00000000       0.00000000       0.00000000 </v>
   <v name="genvec1">      0.33333333       0.00000000       0.00000000 </v>
   <v name="genvec2">      0.00000000       0.33333333       0.00000000 </v>
   <v name="genvec3">      0.00000000       0.00000000       1.00000000 </v>
   <v name="shift">      0.00000000       0.00000000       0.00000000 </v>
  </generation>
  <varray name="kpointlist" >
   <v>       0.00000000       0.00000000       0.00000000 </v>
   <v>       0.33333333      -0.00000000       0.00000000 </v>
   <v>       0.00000000       0.33333333       0.00000000 </v>
   <v>       0.33333333       0.33333333       0.00000000 </v>
   <v>      -0.33333333       0.33333333       0.00000000 </v>
  </varray>
  <varray name="weights" >
   <v>       0.11111111 </v>
   <v>       0.22222222 </v>
   <v>       0.22222222 </v>
   <v>       0.22222222 </v>
   <v>       0.22222222 </v>
  </varray>
 </kpoints>
 <parameters>
  <separator name="general" >
   <i type="string" name="SYSTEM">Li defective graphene MACE training lab</i>
   <i type="logical" name="LCOMPAT"> F  </i>
  </separator>
  <separator name="electronic" >
   <i type="string" name="PREC">accura</i>
   <i name="ENMAX">    520.00000000</i>
   <i name="ENAUG">    644.87300000</i>
   <i name="EDIFF">      0.00000100</i>
   <i type="int" name="IALGO">    38</i>
   <i type="int" name="IWAVPR">    10</i>
   <i type="int" name="NBANDS">   132</i>
   <i name="NELECT">    203.00000000</i>
   <i type="int" name="TURBO">     0</i>
   <i type="int" name="IRESTART">     0</i>
   <i type="int" name="NREBOOT">     0</i>
   <i type="int" name="NMIN">     0</i>
   <i name="EREF">      0.00000000</i>
   <separator name="electronic smearing" >
    <i type="int" name="ISMEAR">     0</i>
    <i name="SIGMA">      0.05000000</i>
    <i name="KSPACING">      0.50000000</i>
    <i type="logical" name="KGAMMA"> T  </i>
   </separator>
   <separator name="electronic projectors" >
    <i type="logical" name="LREAL"> T  </i>
    <v name="ROPT">     -0.00025000     -0.00025000</v>
    <i type="int" name="LMAXPAW">  -100</i>
    <i type="int" name="LMAXMIX">     2</i>
    <i type="logical" name="NLSPLINE"> F  </i>
   </separator>
   <separator name="electronic startup" >
    <i type="int" name="ISTART">     0</i>
    <i type="int" name="ICHARG">     2</i>
    <i type="int" name="INIWAV">     1</i>
   </separator>
   <separator name="electronic spin" >
    <i type="int" name="ISPIN">     2</i>
    <i type="logical" name="LNONCOLLINEAR"> F  </i>
    <v name="MAGMOM">      0.10000000      0.10000000      0.10000000      0.10000000      0.10000000      0.10000000      0.10000000      0.10000000      0.10000000      0.10000000      0.10000000      0.10000000      0.10000000      0.10000000      0.10000000      0.10000000      0.10000000      0.10000000      0.10000000      0.10000000
      0.10000000      0.10000000      0.10000000      0.10000000      0.10000000      0.10000000      0.10000000      0.10000000      0.10000000      0.10000000      0.10000000      0.10000000      0.10000000      0.10000000      0.10000000      0.10000000      0.10000000      0.10000000      0.10000000      0.10000000
      0.10000000      0.10000000      0.10000000      0.10000000      0.10000000      0.10000000      0.10000000      0.10000000      0.10000000      0.10000000      1.00000000</v>
    <i name="NUPDOWN">     -1.00000000</i>
    <i type="logical" name="LSORBIT"> F  </i>
    <v name="SAXIS">      0.00000000      0.00000000      1.00000000</v>
    <i type="logical" name="LSPIRAL"> F  </i>
    <v name="QSPIRAL">      0.00000000      0.00000000      0.00000000</v>
    <i type="logical" name="LZEROZ"> F  </i>
   </separator>
   <separator name="electronic exchange-correlation" >
    <i type="logical" name="LASPH"> T  </i>
    <i type="logical" name="LMETAGGA"> F  </i>
   </separator>
   <separator name="electronic convergence" >
    <i type="int" name="NELM">   120</i>
    <i type="int" name="NELMDL">    -5</i>
    <i type="int" name="NELMIN">     2</i>
    <i name="ENINI">    520.00000000</i>
    <separator name="electronic convergence detail" >
     <i type="logical" name="LDIAG"> T  </i>
     <i type="logical" name="LSUBROT"> F  </i>
     <i name="WEIMIN">      0.00000000</i>
     <i name="EBREAK">      0.00000000</i>
     <i name="DEPER">      0.30000000</i>
     <i type="int" name="NRMM">     4</i>
     <i name="TIME">      0.40000000</i>
    </separator>
   </separator>
   <separator name="electronic mixer" >
    <i name="AMIX">      0.40000000</i>
    <i name="BMIX">      1.00000000</i>
    <i name="AMIN">      0.10000000</i>
    <i name="AMIX_MAG">      1.60000000</i>
    <i name="BMIX_MAG">      1.00000000</i>
    <separator name="electronic mixer details" >
     <i type="int" name="IMIX">     4</i>
     <i type="logical" name="MIXFIRST"> F  </i>
     <i type="int" name="MAXMIX">   -45</i>
     <i name="WC">    100.00000000</i>
     <i type="int" name="INIMIX">     1</i>
     <i type="int" name="MIXPRE">     1</i>
     <i type="int" name="MREMOVE">     5</i>
    </separator>
   </separator>
   <separator name="electronic dipolcorrection" >
    <i type="logical" name="LDIPOL"> F  </i>
    <i type="logical" name="LMONO"> F  </i>
    <i type="int" name="IDIPOL">     0</i>
    <i name="EPSILON">      1.00000000</i>
    <v name="DIPOL">   -100.00000000   -100.00000000   -100.00000000</v>
    <i name="EFIELD">      0.00000000</i>
   </separator>
  </separator>
  <separator name="grids" >
   <i type="int" name="NGX">    96</i>
   <i type="int" name="NGY">    96</i>
   <i type="int" name="NGZ">   224</i>
   <i type="int" name="NGXF">   192</i>
   <i type="int" name="NGYF">   192</i>
   <i type="int" name="NGZF">   448</i>
   <i type="logical" name="ADDGRID"> T  </i>
  </separator>
  <separator name="ionic" >
   <i type="int" name="NSW">     0</i>
   <i type="int" name="IBRION">    -1</i>
   <i type="int" name="ISIF">     2</i>
   <i name="PSTRESS">      0.00000000</i>
   <i name="EDIFFG">      0.00001000</i>
   <i type="int" name="NFREE">     0</i>
   <i name="POTIM">      0.50000000</i>
   <i name="SMASS">     -3.00000000</i>
   <i name="SCALEE">      1.00000000</i>
  </separator>
  <separator name="ionic md" >
   <i name="TEBEG">      0.00010000</i>
   <i name="TEEND">      0.00010000</i>
   <i type="int" name="NBLOCK">     1</i>
   <i type="int" name="KBLOCK">     1</i>
   <i type="int" name="NPACO">   256</i>
   <i name="APACO">     16.00000000</i>
  </separator>
  <separator name="symmetry" >
   <i type="int" name="ISYM">     0</i>
   <i name="SYMPREC">      0.00001000</i>
  </separator>
  <separator name="dos" >
   <i type="logical" name="LORBIT"> F  </i>
   <v name="RWIGS">     -1.00000000     -1.00000000</v>
   <i type="int" name="NEDOS">   301</i>
   <i name="EMIN">     10.00000000</i>
   <i name="EMAX">    -10.00000000</i>
   <i name="EFERMI">      0.00000000</i>
  </separator>
  <separator name="writing" >
   <i type="int" name="NWRITE">     2</i>
   <i type="logical" name="LWAVE"> F  </i>
   <i type="logical" name="LCHARG"> F  </i>
   <i type="logical" name="LPARD"> F  </i>
   <i type="logical" name="LVTOT"> F  </i>
   <i type="logical" name="LVHAR"> F  </i>
   <i type="logical" name="LELF"> F  </i>
   <i type="logical" name="LOPTICS"> F  </i>
   <v name="STM">      0.00000000      0.00000000      0.00000000      0.00000000      0.00000000      0.00000000      0.00000000</v>
  </separator>
  <separator name="performance" >
   <i type="int" name="NPAR">     4</i>
   <i type="int" name="NSIM">     4</i>
   <i type="int" name="NBLK">    -1</i>
   <i type="logical" name="LPLANE"> T  </i>
   <i type="logical" name="LSCALAPACK"> T  </i>
   <i type="logical" name="LSCAAWARE"> F  </i>
   <i type="logical" name="LSCALU"> F  </i>
   <i type="logical" name="LASYNC"> F  </i>
   <i type="logical" name="LORBITALREAL"> F  </i>
  </separator>
  <separator name="miscellaneous" >
   <i type="int" name="IDIOT">     3</i>
   <i type="logical" name="LMUSIC"> F  </i>
   <v name="POMASS">     12.01100000      7.01000000</v>
   <v name="DARWINR">      0.00000000      0.00000000</v>
   <v name="DARWINV">      1.00000000      1.00000000</v>
   <i type="logical" name="LCORR"> T  </i>
  </separator>
  <i type="logical" name="GGA_COMPAT"> T  </i>
  <i type="logical" name="LBERRY"> F  </i>
  <i type="int" name="ICORELEVEL">     0</i>
  <i type="logical" name="LDAU"> F  </i>
  <i type="int" name="I_CONSTRAINED_M">     0</i>
  <separator name="electronic exchange-correlation" >
   <i type="string" name="GGA">--</i>
   <i type="int" name="VOSKOWN">     0</i>
   <i type="logical" name="LHFCALC"> F  </i>
   <i type="string" name="PRECFOCK"></i>
   <i type="logical" name="LSYMGRAD"> F  </i>
   <i type="logical" name="LHFONE"> F  </i>
   <i type="logical" name="LRHFCALC"> F  </i>
   <i type="logical" name="LTHOMAS"> F  </i>
   <i type="logical" name="LMODELHF"> F  </i>
   <i name="ENCUT4O">     -1.00000000</i>
   <i type="int" name="EXXOEP">     0</i>
   <i type="int" name="FOURORBIT">     0</i>
   <i name="AEXX">      0.00000000</i>
   <i name="HFALPHA">      0.00000000</i>
   <i name="MCALPHA">      0.00000000</i>
   <i name="ALDAX">      1.00000000</i>
   <i name="AGGAX">      1.00000000</i>
   <i name="ALDAC">      1.00000000</i>
   <i name="AGGAC">      1.00000000</i>
   <i type="int" name="NKREDX">     1</i>
   <i type="int" name="NKREDY">     1</i>
   <i type="int" name="NKREDZ">     1</i>
   <i type="logical" name="SHIFTRED"> F  </i>
   <i type="logical" name="ODDONLY"> F  </i>
   <i type="logical" name="EVENONLY"> F  </i>
   <i type="int" name="LMAXFOCK">     0</i>
   <i type="int" name="NMAXFOCKAE">     0</i>
   <i type="logical" name="LFOCKAEDFT"> F  </i>
   <i name="HFSCREEN">      0.00000000</i>
   <i name="HFSCREENC">      0.00000000</i>
   <i type="int" name="NBANDSGWLOW">     0</i>
  </separator>
  <separator name="vdW DFT" >
   <i type="logical" name="LUSE_VDW"> F  </i>
   <i name="Zab_VDW">     -0.84910000</i>
   <i name="PARAM1">      0.12340000</i>
   <i name="PARAM2">      1.00000000</i>
   <i name="PARAM3">      0.00000000</i>
  </separator>
  <separator name="model GW" >
   <i type="int" name="MODEL_GW">     0</i>
   <i name="MODEL_EPS0">     46.24270000</i>
   <i name="MODEL_ALPHA">      1.00000000</i>
  </separator>
  <separator name="linear response parameters" >
   <i type="logical" name="LEPSILON"> F  </i>
   <i type="logical" name="LRPA"> F  </i>
   <i type="logical" name="LNABLA"> F  </i>
   <i type="logical" name="LVEL"> F  </i>
   <i type="int" name="KINTER">     0</i>
   <i name="CSHIFT">      0.10000000</i>
   <i name="OMEGAMAX">     -1.00000000</i>
   <i name="DEG_THRESHOLD">      0.00200000</i>
  </separator>
  <separator name="orbital magnetization" >
   <i type="logical" name="NUCIND"> F  </i>
   <v name="MAGPOS">      0.00000000      0.00000000      0.00000000</v>
   <i type="logical" name="LNICSALL"> T  </i>
   <i type="logical" name="ORBITALMAG"> F  </i>
   <i type="logical" name="LMAGBLOCH"> F  </i>
   <i type="logical" name="LCHIMAG"> F  </i>
   <i type="logical" name="LGAUGE"> T  </i>
   <i type="int" name="MAGATOM">     0</i>
   <v name="MAGDIPOL">      0.00000000      0.00000000      0.00000000</v>
   <v name="AVECCONST">      0.00000000      0.00000000      0.00000000</v>
  </separator>
  <separator name="response functions" >
   <i type="logical" name="LADDER"> F  </i>
   <i type="logical" name="LFXC"> F  </i>
   <i type="logical" name="LHARTREE"> T  </i>
   <i type="int" name="IBSE">     0</i>
   <v type="int" name="KPOINT">    -1     0     0     0</v>
   <i type="logical" name="LTCTE"> F  </i>
   <i type="logical" name="LTETE"> F  </i>
   <i type="logical" name="LTRIPLET"> F  </i>
   <i type="logical" name="LFXCEPS"> F  </i>
   <i type="logical" name="LFXHEG"> F  </i>
   <i type="int" name="NATURALO">     0</i>
   <i type="logical" name="L2ORDER"> F  </i>
   <i type="logical" name="LUSEW"> F  </i>
   <i name="ENCUTGW">     -2.00000000</i>
   <i name="ENCUTGWSOFT">     -2.00000000</i>
   <i name="ENCUTLF">     -1.00000000</i>
   <i type="int" name="LMAXMP2">    -1</i>
   <i name="SCISSOR">      0.00000000</i>
   <i type="int" name="NOMEGA">     0</i>
   <i type="int" name="NOMEGAR">     0</i>
   <i type="int" name="NBANDSGW">    -1</i>
   <i type="int" name="NBANDSO">    -1</i>
   <i type="int" name="NBANDSV">    -1</i>
   <i type="int" name="NELM">   120</i>
   <i type="int" name="NELMHF">     1</i>
   <i type="int" name="DIM">     3</i>
   <i type="int" name="ANTIRES">     0</i>
   <i name="OMEGAMAX">    -30.00000000</i>
   <i name="OMEGAMIN">    -30.00000000</i>
   <i name="OMEGATL">   -200.00000000</i>
   <i type="int" name="OMEGAGRID">     0</i>
   <i name="CSHIFT">     -0.10000000</i>
   <i type="logical" name="SELFENERGY"> F  </i>
   <i type="logical" name="LSPECTRAL"> F  </i>
   <i type="logical" name="LSPECTRALGW"> F  </i>
   <i type="logical" name="LSINGLES"> F  </i>
   <i type="logical" name="LFERMIGW"> F  </i>
   <i type="logical" name="ODDONLYGW"> F  </i>
   <i type="logical" name="EVENONLYGW"> F  </i>
   <i type="int" name="NKREDLFX">     1</i>
   <i type="int" name="NKREDLFY">     1</i>
   <i type="int" name="NKREDLFZ">     1</i>
   <i type="int" name="MAXMEM">  1800</i>
   <i type="int" name="TELESCOPE">     0</i>
   <i type="int" name="TAUPAR">     1</i>
   <i type="int" name="OMEGAPAR">    -1</i>
   <i name="LAMBDA">      1.00000000</i>
  </separator>
  <separator name="External order field" >
   <i name="OFIELD_KAPPA">      0.00000000</i>
   <v name="OFIELD_K">      0.00000000      0.00000000      0.00000000</v>
   <i name="OFIELD_Q6_NEAR">      0.00000000</i>
   <i name="OFIELD_Q6_FAR">      0.00000000</i>
   <i name="OFIELD_A">      0.00000000</i>
  </separator>
 </parameters>
 <atominfo>
  <atoms>      51 </atoms>
  <types>       2 </types>
  <array name="atoms" >
   <dimension dim="1">ion</dimension>
   <field type="string">element</field>
   <field type="int">atomtype</field>
   <set>
    <rc><c>C </c><c>   1</c></rc>
    <rc><c>C </c><c>   1</c></rc>
    <rc><c>C </c><c>   1</c></rc>
    <rc><c>C </c><c>   1</c></rc>
    <rc><c>C </c><c>   1</c></rc>
    <rc><c>C </c><c>   1</c></rc>
    <rc><c>C </c><c>   1</c></rc>
    <rc><c>C </c><c>   1</c></rc>
    <rc><c>C </c><c>   1</c></rc>
    <rc><c>C </c><c>   1</c></rc>
    <rc><c>C </c><c>   1</c></rc>
    <rc><c>C </c><c>   1</c></rc>
    <rc><c>C </c><c>   1</c></rc>
    <rc><c>C </c><c>   1</c></rc>
    <rc><c>C </c><c>   1</c></rc>
    <rc><c>C </c><c>   1</c></rc>
    <rc><c>C </c><c>   1</c></rc>
    <rc><c>C </c><c>   1</c></rc>
    <rc><c>C </c><c>   1</c></rc>
    <rc><c>C </c><c>   1</c></rc>
    <rc><c>C </c><c>   1</c></rc>
    <rc><c>C </c><c>   1</c></rc>
    <rc><c>C </c><c>   1</c></rc>
    <rc><c>C </c><c>   1</c></rc>
    <rc><c>C </c><c>   1</c></rc>
    <rc><c>C </c><c>   1</c></rc>
    <rc><c>C </c><c>   1</c></rc>
    <rc><c>C </c><c>   1</c></rc>
    <rc><c>C </c><c>   1</c></rc>
    <rc><c>C </c><c>   1</c></rc>
    <rc><c>C </c><c>   1</c></rc>
    <rc><c>C </c><c>   1</c></rc>
    <rc><c>C </c><c>   1</c></rc>
    <rc><c>C </c><c>   1</c></rc>
    <rc><c>C </c><c>   1</c></rc>
    <rc><c>C </c><c>   1</c></rc>
    <rc><c>C </c><c>   1</c></rc>
    <rc><c>C </c><c>   1</c></rc>
    <rc><c>C </c><c>   1</c></rc>
    <rc><c>C </c><c>   1</c></rc>
    <rc><c>C </c><c>   1</c></rc>
    <rc><c>C </c><c>   1</c></rc>
    <rc><c>C </c><c>   1</c></rc>
    <rc><c>C </c><c>   1</c></rc>
    <rc><c>C </c><c>   1</c></rc>
    <rc><c>C </c><c>   1</c></rc>
    <rc><c>C </c><c>   1</c></rc>
    <rc><c>C </c><c>   1</c></rc>
    <rc><c>C </c><c>   1</c></rc>
    <rc><c>C </c><c>   1</c></rc>
    <rc><c>Li</c><c>   2</c></rc>
   </set>
  </array>
  <array name="atomtypes" >
   <dimension dim="1">type</dimension>
   <field type="int">atomspertype</field>
   <field type="string">element</field>
   <field>mass</field>
   <field>valence</field>
   <field type="string">pseudopotential</field>
   <set>
    <rc><c>  50</c><c>C </c><c>     12.01100000</c><c>      4.00000000</c><c>  PAW_PBE C 08Apr2002                   </c></rc>
    <rc><c>   1</c><c>Li</c><c>      7.01000000</c><c>      3.00000000</c><c>  PAW_PBE Li_sv 10Sep2004               </c></rc>
   </set>
  </array>
 </atominfo>
 <structure name="initialpos" >
  <crystal>
   <varray name="basis" >
    <v>      12.30000000       0.00000000       0.00000000 </v>
    <v>      -6.15000000      10.65211247       0.00000000 </v>
    <v>       0.00000000       0.00000000      30.00000000 </v>
   </varray>
   <i name="volume">   3930.62950016 </i>
   <varray name="rec_basis" >
    <v>       0.08130081       0.04693905       0.00000000 </v>
    <v>       0.00000000       0.09387809       0.00000000 </v>
    <v>       0.00000000       0.00000000       0.03333333 </v>
   </varray>
  </crystal>
  <varray name="positions" >
   <v>       0.99988345       0.99976655       0.50070365 </v>
   <v>       0.13313835       0.06628113       0.50076414 </v>
   <v>       0.99986462       0.19951048       0.50066204 </v>
   <v>       0.13305819       0.26611600       0.50076947 </v>
   <v>       0.99990120       0.39942212       0.49998752 </v>
   <v>       0.13338012       0.46632027       0.50055545 </v>
   <v>       0.00048883       0.59983601       0.49930029 </v>
   <v>       0.13338223       0.66639362       0.50027805 </v>
   <v>       0.00013167       0.80005692       0.50007430 </v>
   <v>       0.13342895       0.86639370       0.50062777 </v>
   <v>       0.19988452       0.99968809       0.50070413 </v>
   <v>       0.53269490       0.26567077       0.49881187 </v>
   <v>       0.39952012       0.39942278       0.49998743 </v>
   <v>       0.33300586       0.26609951       0.50014356 </v>
   <v>       0.19981037       0.39962309       0.50075225 </v>
   <v>       0.33294004       0.46632029       0.50055536 </v>
   <v>       0.19997977       0.59953607       0.50060301 </v>
   <v>       0.33310144       0.66620258       0.50078017 </v>
   <v>       0.19991176       0.79974914       0.50056953 </v>
   <v>       0.33323385       0.86627322       0.50060775 </v>
   <v>       0.39973654       0.99953012       0.50025629 </v>
   <v>       0.53301150       0.06602273       0.49980551 </v>
   <v>       0.39946049       0.19938192       0.49980423 </v>
   <v>       0.33298763       0.06605684       0.50031679 </v>
   <v>       0.19964609       0.19951040       0.50066207 </v>
   <v>       0.53246359       0.46605661       0.49899750 </v>
   <v>       0.59983768       0.79974909       0.50056930 </v>
   <v>       0.53301162       0.66639344       0.50027784 </v>
   <v>       0.39984966       0.79969901       0.50068206 </v>
   <v>       0.53303957       0.86627318       0.50060762 </v>
   <v>       0.59979394       0.99953014       0.50025619 </v>
   <v>       0.73306943       0.06605683       0.50031666 </v>
   <v>       0.59959923       0.19919799       0.49887261 </v>
   <v>       0.73297608       0.26567075       0.49881183 </v>
   <v>       0.59905631       0.39903661       0.49790284 </v>
   <v>       0.73285164       0.46570284       0.49584713 </v>
   <v>       0.59934769       0.59983616       0.49930013 </v>
   <v>       0.93325060       0.86650095       0.50020757 </v>
   <v>       0.39955622       0.59953654       0.50060288 </v>
   <v>       0.73296500       0.86639367       0.50062756 </v>
   <v>       0.79980395       0.99968811       0.50070396 </v>
   <v>       0.93314298       0.06628108       0.50076405 </v>
   <v>       0.79992187       0.19938193       0.49980417 </v>
   <v>       0.93309373       0.26609919       0.50014357 </v>
   <v>       0.79998080       0.39903666       0.49790285 </v>
   <v>       0.93359301       0.46605671       0.49899760 </v>
   <v>       0.80010598       0.60021136       0.49686686 </v>
   <v>       0.93384667       0.66677439       0.49886028 </v>
   <v>       0.79992566       0.80005696       0.50007418 </v>
   <v>       0.73292796       0.66677434       0.49886021 </v>
   <v>       0.90034749       0.63326246       0.55656547 </v>
  </varray>
 </structure>
 <calculation>
  <scstep>
   <time name="dav">   45.55   45.60</time>
   <time name="total">   48.39   48.45</time>
   <energy>
    <i name="alphaZ">     53.42782116 </i>
    <i name="ewald">  56964.96479291 </i>
    <i name="hartreedc"> -62197.49752627 </i>
    <i name="XCdc">    672.93686474 </i>
    <i name="pawpsdc">   5505.55773403 </i>
    <i name="pawaedc">  -5549.36347127 </i>
    <i name="eentropy">     -0.02657234 </i>
    <i name="bandstr">  -1070.85138975 </i>
    <i name="atom">   7560.21751256 </i>
    <i name="e_fr_energy">   1939.36576576 </i>
    <i name="e_wo_entrp">   1939.39233810 </i>
    <i name="e_0_energy">   1939.37905193 </i>
   </energy>
  </scstep>
  <scstep>
   <time name="dav">   54.73   54.73</time>
   <time name="total">   54.73   54.74</time>
   <energy>
    <i name="e_fr_energy">     36.69192218 </i>
    <i name="e_wo_entrp">     36.70226299 </i>
    <i name="e_0_energy">     36.69709259 </i>
   </energy>
  </scstep>
  <scstep>
   <time name="dav">   48.69   48.69</time>
   <time name="total">   48.69   48.69</time>
   <energy>
    <i name="e_fr_energy">   -468.16781592 </i>
    <i name="e_wo_entrp">   -468.16383942 </i>
    <i name="e_0_energy">   -468.16582767 </i>
   </energy>
  </scstep>
  <scstep>
   <time name="dav">   47.39   47.39</time>
   <time name="total">   47.39   47.40</time>
   <energy>
    <i name="e_fr_energy">   -494.88424931 </i>
    <i name="e_wo_entrp">   -494.87194191 </i>
    <i name="e_0_energy">   -494.87809561 </i>
   </energy>
  </scstep>
  <scstep>
   <time name="dav">   55.51   55.52</time>
   <time name="total">   59.74   59.75</time>
   <energy>
    <i name="e_fr_energy">   -495.91297834 </i>
    <i name="e_wo_entrp">   -495.90046466 </i>
    <i name="e_0_energy">   -495.90672150 </i>
   </energy>
  </scstep>
  <scstep>
   <time name="dav">   42.46   42.47</time>
   <time name="total">   49.39   49.40</time>
   <energy>
    <i name="e_fr_energy">   -470.69400436 </i>
    <i name="e_wo_entrp">   -470.67860870 </i>
    <i name="e_0_energy">   -470.68630653 </i>
   </energy>
  </scstep>
  <scstep>
   <time name="dav">   42.89   42.89</time>
   <time name="total">   49.81   49.81</time>
   <energy>
    <i name="e_fr_energy">   -458.03507750 </i>
    <i name="e_wo_entrp">   -458.01811503 </i>
    <i name="e_0_energy">   -458.02659627 </i>
   </energy>
  </scstep>
  <scstep>
   <time name="dav">   42.52   42.52</time>
   <time name="total">   49.51   49.52</time>
   <energy>
    <i name="e_fr_energy">   -457.47685120 </i>
    <i name="e_wo_entrp">   -457.46106335 </i>
    <i name="e_0_energy">   -457.46895728 </i>
   </energy>
  </scstep>
  <scstep>
   <time name="dav">   48.21   48.22</time>
   <time name="total">   55.12   55.13</time>
   <energy>
    <i name="e_fr_energy">   -458.65106594 </i>
    <i name="e_wo_entrp">   -458.63641824 </i>
    <i name="e_0_energy">   -458.64374209 </i>
   </energy>
  </scstep>
  <scstep>
   <time name="dav">   42.05   42.05</time>
   <time name="total">   48.97   48.97</time>
   <energy>
    <i name="e_fr_energy">   -458.94568034 </i>
    <i name="e_wo_entrp">   -458.93016755 </i>
    <i name="e_0_energy">   -458.93792394 </i>
   </energy>
  </scstep>
  <scstep>
   <time name="dav">   44.67   44.68</time>
   <time name="total">   51.66   51.66</time>
   <energy>
    <i name="e_fr_energy">   -459.25560772 </i>
    <i name="e_wo_entrp">   -459.23949005 </i>
    <i name="e_0_energy">   -459.24754889 </i>
   </energy>
  </scstep>
  <scstep>
   <time name="dav">   41.62   41.62</time>
   <time name="total">   48.35   48.36</time>
   <energy>
    <i name="e_fr_energy">   -459.78546377 </i>
    <i name="e_wo_entrp">   -459.76844611 </i>
    <i name="e_0_energy">   -459.77695494 </i>
   </energy>
  </scstep>
  <scstep>
   <time name="dav">   41.48   41.48</time>
   <time name="total">   48.41   48.42</time>
   <energy>
    <i name="e_fr_energy">   -459.79049822 </i>
    <i name="e_wo_entrp">   -459.77231682 </i>
    <i name="e_0_energy">   -459.78140752 </i>
   </energy>
  </scstep>
  <scstep>
   <time name="dav">   41.73   41.74</time>
   <time name="total">   48.62   48.62</time>
   <energy>
    <i name="e_fr_energy">   -460.61578083 </i>
    <i name="e_wo_entrp">   -460.59584988 </i>
    <i name="e_0_energy">   -460.60581535 </i>
   </energy>
  </scstep>
  <scstep>
   <time name="dav">   41.84   41.85</time>
   <time name="total">   48.76   48.77</time>
   <energy>
    <i name="e_fr_energy">   -461.34138555 </i>
    <i name="e_wo_entrp">   -461.32024574 </i>
    <i name="e_0_energy">   -461.33081565 </i>
   </energy>
  </scstep>
  <scstep>
   <time name="dav">   42.84   42.84</time>
   <time name="total">   49.50   49.51</time>
   <energy>
    <i name="e_fr_energy">   -461.61901083 </i>
    <i name="e_wo_entrp">   -461.59742139 </i>
    <i name="e_0_energy">   -461.60821611 </i>
   </energy>
  </scstep>
  <scstep>
   <time name="dav">   40.32   40.33</time>
   <time name="total">   47.07   47.07</time>
   <energy>
    <i name="e_fr_energy">   -461.92116123 </i>
    <i name="e_wo_entrp">   -461.89900149 </i>
    <i name="e_0_energy">   -461.91008136 </i>
   </energy>
  </scstep>
  <scstep>
   <time name="dav">   42.40   42.40</time>
   <time name="total">   49.17   49.17</time>
   <energy>
    <i name="e_fr_energy">   -462.00814409 </i>
    <i name="e_wo_entrp">   -461.98564983 </i>
    <i name="e_0_energy">   -461.99689696 </i>
   </energy>
  </scstep>
  <scstep>
   <time name="dav">   43.35   43.36</time>
   <time name="total">   50.16   50.17</time>
   <energy>
    <i name="e_fr_energy">   -462.03321332 </i>
    <i name="e_wo_entrp">   -462.01049729 </i>
    <i name="e_0_energy">   -462.02185531 </i>
   </energy>
  </scstep>
  <scstep>
   <time name="dav">   41.74   41.75</time>
   <time name="total">   48.71   48.72</time>
   <energy>
    <i name="e_fr_energy">   -462.06218357 </i>
    <i name="e_wo_entrp">   -462.03929525 </i>
    <i name="e_0_energy">   -462.05073941 </i>
   </energy>
  </scstep>
  <scstep>
   <time name="dav">   41.71   41.71</time>
   <time name="total">   48.71   48.71</time>
   <energy>
    <i name="e_fr_energy">   -462.09956632 </i>
    <i name="e_wo_entrp">   -462.07659971 </i>
    <i name="e_0_energy">   -462.08808301 </i>
   </energy>
  </scstep>
  <scstep>
   <time name="dav">   41.76   41.76</time>
   <time name="total">   48.72   48.73</time>
   <energy>
    <i name="e_fr_energy">   -462.12682714 </i>
    <i name="e_wo_entrp">   -462.10381053 </i>
    <i name="e_0_energy">   -462.11531883 </i>
   </energy>
  </scstep>
  <scstep>
   <time name="dav">   41.74   41.74</time>
   <time name="total">   48.76   48.77</time>
   <energy>
    <i name="e_fr_energy">   -462.13097308 </i>
    <i name="e_wo_entrp">   -462.10794854 </i>
    <i name="e_0_energy">   -462.11946081 </i>
   </energy>
  </scstep>
  <scstep>
   <time name="dav">   39.22   39.22</time>
   <time name="total">   46.68   46.68</time>
   <energy>
    <i name="e_fr_energy">   -462.13223518 </i>
    <i name="e_wo_entrp">   -462.10920661 </i>
    <i name="e_0_energy">   -462.12072089 </i>
   </energy>
  </scstep>
  <scstep>
   <time name="dav">   37.18   37.18</time>
   <time name="total">   44.65   44.66</time>
   <energy>
    <i name="e_fr_energy">   -462.13263314 </i>
    <i name="e_wo_entrp">   -462.10960016 </i>
    <i name="e_0_energy">   -462.12111665 </i>
   </energy>
  </scstep>
  <scstep>
   <time name="dav">   37.24   37.24</time>
   <time name="total">   44.69   44.69</time>
   <energy>
    <i name="e_fr_energy">   -462.13271766 </i>
    <i name="e_wo_entrp">   -462.10968181 </i>
    <i name="e_0_energy">   -462.12119973 </i>
   </energy>
  </scstep>
  <scstep>
   <time name="dav">   36.28   36.28</time>
   <time name="total">   43.79   43.80</time>
   <energy>
    <i name="e_fr_energy">   -462.13277283 </i>
    <i name="e_wo_entrp">   -462.10973569 </i>
    <i name="e_0_energy">   -462.12125426 </i>
   </energy>
  </scstep>
  <scstep>
   <time name="dav">   36.03   36.04</time>
   <time name="total">   43.51   43.51</time>
   <energy>
    <i name="e_fr_energy">   -462.13283976 </i>
    <i name="e_wo_entrp">   -462.10980156 </i>
    <i name="e_0_energy">   -462.12132066 </i>
   </energy>
  </scstep>
  <scstep>
   <time name="dav">   33.68   33.69</time>
   <time name="total">   41.14   41.15</time>
   <energy>
    <i name="e_fr_energy">   -462.13289422 </i>
    <i name="e_wo_entrp">   -462.10985508 </i>
    <i name="e_0_energy">   -462.12137465 </i>
   </energy>
  </scstep>
  <scstep>
   <time name="dav">   31.04   31.05</time>
   <time name="total">   38.50   38.50</time>
   <energy>
    <i name="e_fr_energy">   -462.13291344 </i>
    <i name="e_wo_entrp">   -462.10987389 </i>
    <i name="e_0_energy">   -462.12139366 </i>
   </energy>
  </scstep>
  <scstep>
   <time name="dav">   30.98   30.98</time>
   <time name="total">   38.46   38.47</time>
   <energy>
    <i name="e_fr_energy">   -462.13292083 </i>
    <i name="e_wo_entrp">   -462.10988106 </i>
    <i name="e_0_energy">   -462.12140095 </i>
   </energy>
  </scstep>
  <scstep>
   <time name="dav">   31.74   31.74</time>
   <time name="total">   39.25   39.26</time>
   <energy>
    <i name="e_fr_energy">   -462.13292257 </i>
    <i name="e_wo_entrp">   -462.10988271 </i>
    <i name="e_0_energy">   -462.12140264 </i>
   </energy>
  </scstep>
  <scstep>
   <time name="dav">   31.41   31.41</time>
   <time name="total">   38.92   38.93</time>
   <energy>
    <i name="e_fr_energy">   -462.13293114 </i>
    <i name="e_wo_entrp">   -462.10989120 </i>
    <i name="e_0_energy">   -462.12141117 </i>
   </energy>
  </scstep>
  <scstep>
   <time name="dav">   31.55   31.56</time>
   <time name="total">   39.07   39.07</time>
   <energy>
    <i name="e_fr_energy">   -462.13294350 </i>
    <i name="e_wo_entrp">   -462.10990353 </i>
    <i name="e_0_energy">   -462.12142351 </i>
   </energy>
  </scstep>
  <scstep>
   <time name="dav">   32.18   32.18</time>
   <time name="total">   39.71   39.71</time>
   <energy>
    <i name="e_fr_energy">   -462.13294847 </i>
    <i name="e_wo_entrp">   -462.10990851 </i>
    <i name="e_0_energy">   -462.12142849 </i>
   </energy>
  </scstep>
  <scstep>
   <time name="dav">   31.58   31.58</time>
   <time name="total">   39.13   39.13</time>
   <energy>
    <i name="e_fr_energy">   -462.13295040 </i>
    <i name="e_wo_entrp">   -462.10991044 </i>
    <i name="e_0_energy">   -462.12143042 </i>
   </energy>
  </scstep>
  <scstep>
   <time name="dav">   30.99   31.00</time>
   <time name="total">   38.50   38.50</time>
   <energy>
    <i name="e_fr_energy">   -462.13295161 </i>
    <i name="e_wo_entrp">   -462.10991164 </i>
    <i name="e_0_energy">   -462.12143163 </i>
   </energy>
  </scstep>
  <scstep>
   <time name="dav">   30.53   30.53</time>
   <time name="total">   33.43   33.43</time>
   <energy>
    <i name="alphaZ">     53.42782116 </i>
    <i name="ewald">  56964.96479291 </i>
    <i name="hartreedc"> -63191.17986943 </i>
    <i name="XCdc">    703.31826311 </i>
    <i name="pawpsdc">  21278.94541953 </i>
    <i name="pawaedc"> -21328.96202981 </i>
    <i name="eentropy">     -0.02303996 </i>
    <i name="bandstr">  -2502.84182227 </i>
    <i name="atom">   7560.21751256 </i>
    <i name="e_fr_energy">   -462.13295221 </i>
    <i name="e_wo_entrp">   -462.10991226 </i>
    <i name="e_0_energy">   -462.12143224 </i>
   </energy>
  </scstep>
  <structure>
   <crystal>
    <varray name="basis" >
     <v>      12.30000000       0.00000000       0.00000000 </v>
     <v>      -6.15000000      10.65211247       0.00000000 </v>
     <v>       0.00000000       0.00000000      30.00000000 </v>
    </varray>
    <i name="volume">   3930.62950016 </i>
    <varray name="rec_basis" >
     <v>       0.08130081       0.04693905       0.00000000 </v>
     <v>       0.00000000       0.09387809       0.00000000 </v>
     <v>       0.00000000       0.00000000       0.03333333 </v>
    </varray>
   </crystal>
   <varray name="positions" >
    <v>       0.99988345       0.99976655       0.50070365 </v>
    <v>       0.13313835       0.06628113       0.50076414 </v>
    <v>       0.99986462       0.19951048       0.50066204 </v>
    <v>       0.13305819       0.26611600       0.50076947 </v>
    <v>       0.99990120       0.39942212       0.49998752 </v>
    <v>       0.13338012       0.46632027       0.50055545 </v>
    <v>       0.00048883       0.59983601       0.49930029 </v>
    <v>       0.13338223       0.66639362       0.50027805 </v>
    <v>       0.00013167       0.80005692       0.50007430 </v>
    <v>       0.13342895       0.86639370       0.50062777 </v>
    <v>       0.19988452       0.99968809       0.50070413 </v>
    <v>       0.53269490       0.26567077       0.49881187 </v>
    <v>       0.39952012       0.39942278       0.49998743 </v>
    <v>       0.33300586       0.26609951       0.50014356 </v>
    <v>       0.19981037       0.39962309       0.50075225 </v>
    <v>       0.33294004       0.46632029       0.50055536 </v>
    <v>       0.19997977       0.59953607       0.50060301 </v>
    <v>       0.33310144       0.66620258       0.50078017 </v>
    <v>       0.19991176       0.79974914       0.50056953 </v>
    <v>       0.33323385       0.86627322       0.50060775 </v>
    <v>       0.39973654       0.99953012       0.50025629 </v>
    <v>       0.53301150       0.06602273       0.49980551 </v>
    <v>       0.39946049       0.19938192       0.49980423 </v>
    <v>       0.33298763       0.06605684       0.50031679 </v>
    <v>       0.19964609       0.19951040       0.50066207 </v>
    <v>       0.53246359       0.46605661       0.49899750 </v>
    <v>       0.59983768       0.79974909       0.50056930 </v>
    <v>       0.53301162       0.66639344       0.50027784 </v>
    <v>       0.39984966       0.79969901       0.50068206 </v>
    <v>       0.53303957       0.86627318       0.50060762 </v>
    <v>       0.59979394       0.99953014       0.50025619 </v>
    <v>       0.73306943       0.06605683       0.50031666 </v>
    <v>       0.59959923       0.19919799       0.49887261 </v>
    <v>       0.73297608       0.26567075       0.49881183 </v>
    <v>       0.59905631       0.39903661       0.49790284 </v>
    <v>       0.73285164       0.46570284       0.49584713 </v>
    <v>       0.59934769       0.59983616       0.49930013 </v>
    <v>       0.93325060       0.86650095       0.50020757 </v>
    <v>       0.39955622       0.59953654       0.50060288 </v>
    <v>       0.73296500       0.86639367       0.50062756 </v>
    <v>       0.79980395       0.99968811       0.50070396 </v>
    <v>       0.93314298       0.06628108       0.50076405 </v>
    <v>       0.79992187       0.19938193       0.49980417 </v>
    <v>       0.93309373       0.26609919       0.50014357 </v>
    <v>       0.79998080       0.39903666       0.49790285 </v>
    <v>       0.93359301       0.46605671       0.49899760 </v>
    <v>       0.80010598       0.60021136       0.49686686 </v>
    <v>       0.93384667       0.66677439       0.49886028 </v>
    <v>       0.79992566       0.80005696       0.50007418 </v>
    <v>       0.73292796       0.66677434       0.49886021 </v>
    <v>       0.90034749       0.63326246       0.55656547 </v>
   </varray>
  </structure>
  <varray name="forces" >
   <v>       0.06831850      -0.07699973      -0.00222267 </v>
   <v>       0.02575603      -0.05455171      -0.01255185 </v>
   <v>      -0.09428950      -0.03275854       0.00227557 </v>
   <v>       0.06425941       0.10666309      -0.00524403 </v>
   <v>       0.07120256       0.08021152       0.00925896 </v>
   <v>      -0.08106734      -0.00592742      -0.01573095 </v>
   <v>       0.03949494      -0.20408569       0.05564250 </v>
   <v>       0.25862873       0.09830706       0.06237610 </v>
   <v>       0.02506800       0.17879777       0.08106479 </v>
   <v>       0.00240495       0.14471348       0.03400751 </v>
   <v>      -0.10685565      -0.04642085      -0.00643804 </v>
   <v>       0.08227975       0.03492335      -0.02582932 </v>
   <v>      -0.11026272      -0.01132404       0.00778580 </v>
   <v>      -0.07899609       0.02618098       0.00916116 </v>
   <v>       0.02988280      -0.11144955      -0.00021868 </v>
   <v>       0.07632029      -0.05660189      -0.00299102 </v>
   <v>      -0.09319882      -0.02676721      -0.00623377 </v>
   <v>       0.05276996       0.12777628      -0.01276739 </v>
   <v>       0.16250744      -0.00328462      -0.02009715 </v>
   <v>      -0.06191854      -0.02557008       0.00035193 </v>
   <v>       0.00598364       0.03515481       0.00316156 </v>
   <v>       0.00330317      -0.01556511      -0.00329481 </v>
   <v>       0.05666449      -0.09130602       0.00431977 </v>
   <v>       0.08264093       0.10865969      -0.00285206 </v>
   <v>       0.03794598       0.07512145       0.00455254 </v>
   <v>       0.23098864       0.12882868      -0.05364998 </v>
   <v>      -0.07327817      -0.11217756       0.00320445 </v>
   <v>      -0.11254126       0.09551767       0.00248357 </v>
   <v>       0.00027196      -0.11579186       0.00497936 </v>
   <v>       0.03808278       0.06296105      -0.00164552 </v>
   <v>      -0.06263952      -0.06382828       0.00324926 </v>
   <v>       0.04719338       0.07725595       0.00117308 </v>
   <v>      -0.10450052       0.05388100       0.03162661 </v>
   <v>      -0.01304022       0.24288489      -0.02428786 </v>
   <v>       0.14187138       0.19337226      -0.15736865 </v>
   <v>      -0.11102264       0.08681017       0.60277929 </v>
   <v>       0.19875461      -0.19883791      -0.00735082 </v>
   <v>      -0.02994188       0.18399425       0.06333066 </v>
   <v>       0.05141661       0.04328365      -0.00033463 </v>
   <v>       0.14905828      -0.03533254      -0.00507158 </v>
   <v>       0.01875226       0.03924404      -0.00448778 </v>
   <v>      -0.08425191       0.04032211      -0.00655014 </v>
   <v>       0.03232402      -0.06320442       0.00651825 </v>
   <v>       0.01765172      -0.08619830       0.00458717 </v>
   <v>      -0.21329234      -0.14999062      -0.15659821 </v>
   <v>      -0.02346481      -0.07618104       0.04491068 </v>
   <v>      -0.36466941      -0.43279357      -0.02231885 </v>
   <v>       0.12234890       0.37983453      -2.46655910 </v>
   <v>      -0.22577410       0.00030513      -0.03161989 </v>
   <v>      -0.00586666      -0.08823828      -0.03804554 </v>
   <v>      -0.14327402      -0.45981802       2.04955976 </v>
  </varray>
  <varray name="stress" >
   <v>       6.34748325       0.15094850      -0.08194361 </v>
   <v>       0.15094851       6.11519283      -0.31494171 </v>
   <v>      -0.08194377      -0.31494185       1.31147019 </v>
  </varray>
  <energy>
   <i name="e_fr_energy">   -462.13295221 </i>
   <i name="e_wo_entrp">   -462.12143224 </i>
   <i name="e_0_energy">     -0.02303996 </i>
  </energy>
  <time name="totalsc"> 1837.64 1837.92</time>
  <eigenvalues>
   <array>
    <dimension dim="1">band</dimension>
    <dimension dim="2">kpoint</dimension>
    <dimension dim="3">spin</dimension>
    <field>eigene</field>
    <field>occ</field>
    <set>
     <set comment="spin 1">
      <set comment="kpoint 1">
       <r>  -51.5229    1.0000 </r>
       <r>  -22.4324    1.0000 </r>
       <r>  -21.6420    1.0000 </r>
       <r>  -21.4837    1.0000 </r>
       <r>  -21.4656    1.0000 </r>
       <r>  -21.3734    1.0000 </r>
       <r>  -21.3704    1.0000 </r>
       <r>  -21.3384    1.0000 </r>
       <r>  -19.6756    1.0000 </r>
       <r>  -19.6219    1.0000 </r>
       <r>  -19.6097    1.0000 </r>
       <r>  -19.5653    1.0000 </r>
       <r>  -19.5568    1.0000 </r>
       <r>  -19.5558    1.0000 </r>
       <r>  -18.7228    1.0000 </r>
       <r>  -18.7020    1.0000 </r>
       <r>  -18.6924    1.0000 </r>
       <r>  -18.6666    1.0000 </r>
       <r>  -18.6599    1.0000 </r>
       <r>  -18.6342    1.0000 </r>
       <r>  -16.5762    1.0000 </r>
       <r>  -16.5409    1.0000 </r>
       <r>  -16.5313    1.0000 </r>
       <r>  -16.5030    1.0000 </r>
       <r>  -16.4356    1.0000 </r>
       <r>  -16.4349    1.0000 </r>
       <r>  -15.5644    1.0000 </r>
       <r>  -15.5577    1.0000 </r>
       <r>  -15.5370    1.0000 </r>
       <r>  -15.5039    1.0000 </r>
       <r>  -15.5010    1.0000 </r>
       <r>  -15.4907    1.0000 </r>
       <r>  -14.1853    1.0000 </r>
       <r>  -14.1739    1.0000 </r>
       <r>  -14.1690    1.0000 </r>
       <r>  -14.1472    1.0000 </r>
       <r>  -14.1450    1.0000 </r>
       <r>  -14.1421    1.0000 </r>
       <r>  -11.8149    1.0000 </r>
       <r>  -11.8117    1.0000 </r>
       <r>  -11.7901    1.0000 </r>
       <r>  -11.7687    1.0000 </r>
       <r>  -11.7410    1.0000 </r>
       <r>  -11.7371    1.0000 </r>
       <r>  -11.7170    1.0000 </r>
       <r>  -11.7138    1.0000 </r>
       <r>  -11.6367    1.0000 </r>
       <r>  -11.6304    1.0000 </r>
       <r>  -11.6283    1.0000 </r>
       <r>  -11.6186    1.0000 </r>
       <r>  -10.6031    1.0000 </r>
       <r>  -10.3184    1.0000 </r>
       <r>  -10.3135    1.0000 </r>
       <r>  -10.2917    1.0000 </r>
       <r>  -10.2814    1.0000 </r>
       <r>  -10.2768    1.0000 </r>
       <r>  -10.2740    1.0000 </r>
       <r>   -9.6878    1.0000 </r>
       <r>   -9.4615    1.0000 </r>
       <r>   -9.4440    1.0000 </r>
       <r>   -9.3037    1.0000 </r>
       <r>   -9.3002    1.0000 </r>
       <r>   -9.2618    1.0000 </r>
       <r>   -9.0680    1.0000 </r>
       <r>   -9.0595    1.0000 </r>
       <r>   -9.0335    1.0000 </r>
       <r>   -8.9809    1.0000 </r>
       <r>   -8.9694    1.0000 </r>
       <r>   -8.9647    1.0000 </r>
       <r>   -8.9472    1.0000 </r>
       <r>   -8.9445    1.0000 </r>
       <r>   -8.9391    1.0000 </r>
       <r>   -8.9145    1.0000 </r>
       <r>   -8.9085    1.0000 </r>
       <r>   -8.8880    1.0000 </r>
       <r>   -7.4217    1.0000 </r>
       <r>   -7.4003    1.0000 </r>
       <r>   -7.3627    1.0000 </r>
       <r>   -7.3478    1.0000 </r>
       <r>   -7.3219    1.0000 </r>
       <r>   -7.3073    1.0000 </r>
       <r>   -7.2997    1.0000 </r>
       <r>   -7.2930    1.0000 </r>
       <r>   -7.2693    1.0000 </r>
       <r>   -7.2223    1.0000 </r>
       <r>   -7.2084    1.0000 </r>
       <r>   -7.2008    1.0000 </r>
       <r>   -6.4285    1.0000 </r>
       <r>   -6.4114    1.0000 </r>
       <r>   -6.3818    1.0000 </r>
       <r>   -6.3032    1.0000 </r>
       <r>   -6.2874    1.0000 </r>
       <r>   -6.2640    1.0000 </r>
       <r>   -5.8302    1.0000 </r>
       <r>   -5.8119    1.0000 </r>
       <r>   -4.4598    1.0000 </r>
       <r>   -4.4279    1.0000 </r>
       <r>   -4.3994    1.0000 </r>
       <r>   -4.3482    1.0000 </r>
       <r>   -4.2602    1.0000 </r>
       <r>   -4.2547    1.0000 </r>
       <r>   -1.7151    0.0000 </r>
       <r>   -1.6873    0.0000 </r>
       <r>   -1.6327    0.0000 </r>
       <r>   -1.5423    0.0000 </r>
       <r>   -1.4832    0.0000 </r>
       <r>   -1.4518    0.0000 </r>
       <r>   -1.0722    0.0000 </r>
       <r>    0.1214    0.0000 </r>
       <r>    0.1429    0.0000 </r>
       <r>    0.2270    0.0000 </r>
       <r>    0.3745    0.0000 </r>
       <r>    0.3891    0.0000 </r>
       <r>    0.3924    0.0000 </r>
       <r>    0.5327    0.0000 </r>
       <r>    0.7519    0.0000 </r>
       <r>    0.7575    0.0000 </r>
       <r>    0.8268    0.0000 </r>
       <r>    1.0615    0.0000 </r>
       <r>    1.3851    0.0000 </r>
       <r>    1.4389    0.0000 </r>
       <r>    1.4398    0.0000 </r>
       <r>    1.5381    0.0000 </r>
       <r>    1.5464    0.0000 </r>
       <r>    1.9592    0.0000 </r>
       <r>    1.9732    0.0000 </r>
       <r>    2.0198    0.0000 </r>
       <r>    2.0821    0.0000 </r>
       <r>    2.0900    0.0000 </r>
       <r>    2.1265    0.0000 </r>
       <r>    2.1500    0.0000 </r>
       <r>    2.1542    0.0000 </r>
      </set>
      <set comment="kpoint 2">
       <r>  -51.5229    1.0000 </r>
       <r>  -22.3444    1.0000 </r>
       <r>  -21.9818    1.0000 </r>
       <r>  -21.6554    1.0000 </r>
       <r>  -21.6413    1.0000 </r>
       <r>  -21.0637    1.0000 </r>
       <r>  -21.0057    1.0000 </r>
       <r>  -20.6932    1.0000 </r>
       <r>  -20.4391    1.0000 </r>
       <r>  -20.3880    1.0000 </r>
       <r>  -19.7816    1.0000 </r>
       <r>  -19.5082    1.0000 </r>
       <r>  -19.4986    1.0000 </r>
       <r>  -19.1731    1.0000 </r>
       <r>  -19.1673    1.0000 </r>
       <r>  -18.6217    1.0000 </r>
       <r>  -18.5742    1.0000 </r>
       <r>  -18.0050    1.0000 </r>
       <r>  -18.0001    1.0000 </r>
       <r>  -17.5145    1.0000 </r>
       <r>  -17.4360    1.0000 </r>
       <r>  -17.4299    1.0000 </r>
       <r>  -17.1860    1.0000 </r>
       <r>  -17.1817    1.0000 </r>
       <r>  -16.3919    1.0000 </r>
       <r>  -16.3814    1.0000 </r>
       <r>  -15.6856    1.0000 </r>
       <r>  -15.4347    1.0000 </r>
       <r>  -15.4264    1.0000 </r>
       <r>  -14.9241    1.0000 </r>
       <r>  -14.9149    1.0000 </r>
       <r>  -14.8648    1.0000 </r>
       <r>  -14.8527    1.0000 </r>
       <r>  -14.4959    1.0000 </r>
       <r>  -14.4556    1.0000 </r>
       <r>  -13.2789    1.0000 </r>
       <r>  -13.2724    1.0000 </r>
       <r>  -13.0758    1.0000 </r>
       <r>  -13.0325    1.0000 </r>
       <r>  -12.7945    1.0000 </r>
       <r>  -12.7860    1.0000 </r>
       <r>  -12.4589    1.0000 </r>
       <r>  -12.3339    1.0000 </r>
       <r>  -12.3273    1.0000 </r>
       <r>  -11.5696    1.0000 </r>
       <r>  -11.5307    1.0000 </r>
       <r>  -11.1181    1.0000 </r>
       <r>  -11.0953    1.0000 </r>
       <r>  -10.7477    1.0000 </r>
       <r>  -10.7367    1.0000 </r>
       <r>  -10.6904    1.0000 </r>
       <r>  -10.5099    1.0000 </r>
       <r>  -10.4663    1.0000 </r>
       <r>  -10.4579    1.0000 </r>
       <r>  -10.0486    1.0000 </r>
       <r>   -9.8392    1.0000 </r>
       <r>   -9.8305    1.0000 </r>
       <r>   -9.7913    1.0000 </r>
       <r>   -9.7853    1.0000 </r>
       <r>   -9.6531    1.0000 </r>
       <r>   -9.6331    1.0000 </r>
       <r>   -9.4722    1.0000 </r>
       <r>   -9.4629    1.0000 </r>
       <r>   -9.2103    1.0000 </r>
       <r>   -9.1902    1.0000 </r>
       <r>   -9.1760    1.0000 </r>
       <r>   -9.0801    1.0000 </r>
       <r>   -9.0722    1.0000 </r>
       <r>   -8.9771    1.0000 </r>
       <r>   -8.8806    1.0000 </r>
       <r>   -8.5803    1.0000 </r>
       <r>   -8.5204    1.0000 </r>
       <r>   -8.2676    1.0000 </r>
       <r>   -8.2502    1.0000 </r>
       <r>   -8.2299    1.0000 </r>
       <r>   -8.1634    1.0000 </r>
       <r>   -8.0304    1.0000 </r>
       <r>   -7.9896    1.0000 </r>
       <r>   -7.9516    1.0000 </r>
       <r>   -7.5030    1.0000 </r>
       <r>   -7.4211    1.0000 </r>
       <r>   -7.2240    1.0000 </r>
       <r>   -7.2176    1.0000 </r>
       <r>   -7.2003    1.0000 </r>
       <r>   -7.1769    1.0000 </r>
       <r>   -6.8276    1.0000 </r>
       <r>   -6.8218    1.0000 </r>
       <r>   -6.6122    1.0000 </r>
       <r>   -6.2639    1.0000 </r>
       <r>   -6.2376    1.0000 </r>
       <r>   -6.1381    1.0000 </r>
       <r>   -6.0374    1.0000 </r>
       <r>   -5.7102    1.0000 </r>
       <r>   -5.7028    1.0000 </r>
       <r>   -5.4096    1.0000 </r>
       <r>   -5.1076    1.0000 </r>
       <r>   -5.0548    1.0000 </r>
       <r>   -4.9294    1.0000 </r>
       <r>   -4.9159    1.0000 </r>
       <r>   -3.9459    1.0000 </r>
       <r>   -3.9309    1.0000 </r>
       <r>   -1.8699    0.4711 </r>
       <r>   -1.8039    0.0262 </r>
       <r>   -1.2875    0.0000 </r>
       <r>   -1.1729    0.0000 </r>
       <r>   -1.1052    0.0000 </r>
       <r>   -0.9480    0.0000 </r>
       <r>   -0.7582    0.0000 </r>
       <r>   -0.7483    0.0000 </r>
       <r>   -0.4823    0.0000 </r>
       <r>   -0.4569    0.0000 </r>
       <r>    0.3388    0.0000 </r>
       <r>    0.5494    0.0000 </r>
       <r>    0.6098    0.0000 </r>
       <r>    0.6455    0.0000 </r>
       <r>    0.8421    0.0000 </r>
       <r>    0.9684    0.0000 </r>
       <r>    1.0833    0.0000 </r>
       <r>    1.1219    0.0000 </r>
       <r>    1.1729    0.0000 </r>
       <r>    1.3287    0.0000 </r>
       <r>    1.3917    0.0000 </r>
       <r>    1.5268    0.0000 </r>
       <r>    1.6003    0.0000 </r>
       <r>    1.6876    0.0000 </r>
       <r>    1.6938    0.0000 </r>
       <r>    1.7984    0.0000 </r>
       <r>    1.8197    0.0000 </r>
       <r>    1.8340    0.0000 </r>
       <r>    1.8619    0.0000 </r>
       <r>    1.8693    0.0000 </r>
       <r>    2.0447    0.0000 </r>
      </set>
      <set comment="kpoint 3">
       <r>  -51.5229    1.0000 </r>
       <r>  -22.3443    1.0000 </r>
       <r>  -21.9825    1.0000 </r>
       <r>  -21.6582    1.0000 </r>
       <r>  -21.6374    1.0000 </r>
       <r>  -21.0675    1.0000 </r>
       <r>  -21.0022    1.0000 </r>
       <r>  -20.6934    1.0000 </r>
       <r>  -20.4428    1.0000 </r>
       <r>  -20.3842    1.0000 </r>
       <r>  -19.7813    1.0000 </r>
       <r>  -19.5080    1.0000 </r>
       <r>  -19.4987    1.0000 </r>
       <r>  -19.1741    1.0000 </r>
       <r>  -19.1667    1.0000 </r>
       <r>  -18.6263    1.0000 </r>
       <r>  -18.5704    1.0000 </r>
       <r>  -18.0055    1.0000 </r>
       <r>  -17.9993    1.0000 </r>
       <r>  -17.5208    1.0000 </r>
       <r>  -17.4346    1.0000 </r>
       <r>  -17.4266    1.0000 </r>
       <r>  -17.1846    1.0000 </r>
       <r>  -17.1811    1.0000 </r>
       <r>  -16.3920    1.0000 </r>
       <r>  -16.3783    1.0000 </r>
       <r>  -15.6782    1.0000 </r>
       <r>  -15.4357    1.0000 </r>
       <r>  -15.4327    1.0000 </r>
       <r>  -14.9317    1.0000 </r>
       <r>  -14.9219    1.0000 </r>
       <r>  -14.8646    1.0000 </r>
       <r>  -14.8574    1.0000 </r>
       <r>  -14.4887    1.0000 </r>
       <r>  -14.4492    1.0000 </r>
       <r>  -13.2850    1.0000 </r>
       <r>  -13.2737    1.0000 </r>
       <r>  -13.0680    1.0000 </r>
       <r>  -13.0271    1.0000 </r>
       <r>  -12.7882    1.0000 </r>
       <r>  -12.7825    1.0000 </r>
       <r>  -12.4521    1.0000 </r>
       <r>  -12.3420    1.0000 </r>
       <r>  -12.3302    1.0000 </r>
       <r>  -11.5763    1.0000 </r>
       <r>  -11.5393    1.0000 </r>
       <r>  -11.1235    1.0000 </r>
       <r>  -11.1050    1.0000 </r>
       <r>  -10.7438    1.0000 </r>
       <r>  -10.7397    1.0000 </r>
       <r>  -10.6784    1.0000 </r>
       <r>  -10.5070    1.0000 </r>
       <r>  -10.4634    1.0000 </r>
       <r>  -10.4578    1.0000 </r>
       <r>  -10.0469    1.0000 </r>
       <r>   -9.8407    1.0000 </r>
       <r>   -9.8288    1.0000 </r>
       <r>   -9.7892    1.0000 </r>
       <r>   -9.7786    1.0000 </r>
       <r>   -9.6555    1.0000 </r>
       <r>   -9.6318    1.0000 </r>
       <r>   -9.4671    1.0000 </r>
       <r>   -9.4626    1.0000 </r>
       <r>   -9.2152    1.0000 </r>
       <r>   -9.1871    1.0000 </r>
       <r>   -9.1726    1.0000 </r>
       <r>   -9.0812    1.0000 </r>
       <r>   -9.0717    1.0000 </r>
       <r>   -8.9789    1.0000 </r>
       <r>   -8.8812    1.0000 </r>
       <r>   -8.5883    1.0000 </r>
       <r>   -8.5207    1.0000 </r>
       <r>   -8.2713    1.0000 </r>
       <r>   -8.2579    1.0000 </r>
       <r>   -8.2352    1.0000 </r>
       <r>   -8.1655    1.0000 </r>
       <r>   -8.0352    1.0000 </r>
       <r>   -7.9881    1.0000 </r>
       <r>   -7.9517    1.0000 </r>
       <r>   -7.4976    1.0000 </r>
       <r>   -7.4114    1.0000 </r>
       <r>   -7.2212    1.0000 </r>
       <r>   -7.2097    1.0000 </r>
       <r>   -7.1899    1.0000 </r>
       <r>   -7.1851    1.0000 </r>
       <r>   -6.8284    1.0000 </r>
       <r>   -6.8214    1.0000 </r>
       <r>   -6.6256    1.0000 </r>
       <r>   -6.2458    1.0000 </r>
       <r>   -6.2326    1.0000 </r>
       <r>   -6.1420    1.0000 </r>
       <r>   -6.0501    1.0000 </r>
       <r>   -5.7114    1.0000 </r>
       <r>   -5.7065    1.0000 </r>
       <r>   -5.3975    1.0000 </r>
       <r>   -5.1053    1.0000 </r>
       <r>   -5.0649    1.0000 </r>
       <r>   -4.9289    1.0000 </r>
       <r>   -4.9173    1.0000 </r>
       <r>   -3.9460    1.0000 </r>
       <r>   -3.9316    1.0000 </r>
       <r>   -1.8478    0.2428 </r>
       <r>   -1.8348    0.1431 </r>
       <r>   -1.2474    0.0000 </r>
       <r>   -1.1608    0.0000 </r>
       <r>   -1.1201    0.0000 </r>
       <r>   -0.9888    0.0000 </r>
       <r>   -0.7585    0.0000 </r>
       <r>   -0.7480    0.0000 </r>
       <r>   -0.4767    0.0000 </r>
       <r>   -0.4442    0.0000 </r>
       <r>    0.3315    0.0000 </r>
       <r>    0.5489    0.0000 </r>
       <r>    0.6025    0.0000 </r>
       <r>    0.6644    0.0000 </r>
       <r>    0.8391    0.0000 </r>
       <r>    0.9667    0.0000 </r>
       <r>    1.1057    0.0000 </r>
       <r>    1.1179    0.0000 </r>
       <r>    1.1677    0.0000 </r>
       <r>    1.3116    0.0000 </r>
       <r>    1.3915    0.0000 </r>
       <r>    1.5188    0.0000 </r>
       <r>    1.5998    0.0000 </r>
       <r>    1.6900    0.0000 </r>
       <r>    1.7044    0.0000 </r>
       <r>    1.7922    0.0000 </r>
       <r>    1.8138    0.0000 </r>
       <r>    1.8243    0.0000 </r>
       <r>    1.8593    0.0000 </r>
       <r>    1.8679    0.0000 </r>
       <r>    2.0164    0.0000 </r>
      </set>
      <set comment="kpoint 4">
       <r>  -51.5229    1.0000 </r>
       <r>  -22.2574    1.0000 </r>
       <r>  -22.0131    1.0000 </r>
       <r>  -22.0062    1.0000 </r>
       <r>  -21.1720    1.0000 </r>
       <r>  -21.1216    1.0000 </r>
       <r>  -21.1140    1.0000 </r>
       <r>  -20.3007    1.0000 </r>
       <r>  -20.2507    1.0000 </r>
       <r>  -20.2413    1.0000 </r>
       <r>  -20.1384    1.0000 </r>
       <r>  -20.1332    1.0000 </r>
       <r>  -20.1266    1.0000 </r>
       <r>  -18.4980    1.0000 </r>
       <r>  -18.4692    1.0000 </r>
       <r>  -18.4191    1.0000 </r>
       <r>  -18.3430    1.0000 </r>
       <r>  -18.3209    1.0000 </r>
       <r>  -18.3158    1.0000 </r>
       <r>  -17.5675    1.0000 </r>
       <r>  -17.5564    1.0000 </r>
       <r>  -17.4873    1.0000 </r>
       <r>  -17.0388    1.0000 </r>
       <r>  -17.0271    1.0000 </r>
       <r>  -17.0228    1.0000 </r>
       <r>  -16.0311    1.0000 </r>
       <r>  -16.0259    1.0000 </r>
       <r>  -16.0128    1.0000 </r>
       <r>  -15.4302    1.0000 </r>
       <r>  -15.4222    1.0000 </r>
       <r>  -14.0097    1.0000 </r>
       <r>  -13.9972    1.0000 </r>
       <r>  -13.9740    1.0000 </r>
       <r>  -13.9525    1.0000 </r>
       <r>  -13.9161    1.0000 </r>
       <r>  -13.9121    1.0000 </r>
       <r>  -13.8504    1.0000 </r>
       <r>  -13.8436    1.0000 </r>
       <r>  -13.7687    1.0000 </r>
       <r>  -13.4046    1.0000 </r>
       <r>  -12.3433    1.0000 </r>
       <r>  -12.2075    1.0000 </r>
       <r>  -12.1997    1.0000 </r>
       <r>  -11.5979    1.0000 </r>
       <r>  -11.5802    1.0000 </r>
       <r>  -11.5716    1.0000 </r>
       <r>  -11.5240    1.0000 </r>
       <r>  -11.5205    1.0000 </r>
       <r>  -11.5098    1.0000 </r>
       <r>  -10.4266    1.0000 </r>
       <r>  -10.3392    1.0000 </r>
       <r>  -10.2956    1.0000 </r>
       <r>  -10.2742    1.0000 </r>
       <r>  -10.1840    1.0000 </r>
       <r>  -10.1813    1.0000 </r>
       <r>  -10.1608    1.0000 </r>
       <r>  -10.0657    1.0000 </r>
       <r>  -10.0594    1.0000 </r>
       <r>   -9.5830    1.0000 </r>
       <r>   -9.5734    1.0000 </r>
       <r>   -9.5650    1.0000 </r>
       <r>   -9.3555    1.0000 </r>
       <r>   -9.3417    1.0000 </r>
       <r>   -9.3285    1.0000 </r>
       <r>   -9.0985    1.0000 </r>
       <r>   -9.0278    1.0000 </r>
       <r>   -9.0167    1.0000 </r>
       <r>   -8.6925    1.0000 </r>
       <r>   -8.6781    1.0000 </r>
       <r>   -8.6680    1.0000 </r>
       <r>   -8.6313    1.0000 </r>
       <r>   -8.6291    1.0000 </r>
       <r>   -8.6173    1.0000 </r>
       <r>   -8.2081    1.0000 </r>
       <r>   -8.1989    1.0000 </r>
       <r>   -8.1827    1.0000 </r>
       <r>   -8.0992    1.0000 </r>
       <r>   -8.0506    1.0000 </r>
       <r>   -8.0204    1.0000 </r>
       <r>   -7.8787    1.0000 </r>
       <r>   -7.8692    1.0000 </r>
       <r>   -7.8566    1.0000 </r>
       <r>   -7.0264    1.0000 </r>
       <r>   -7.0114    1.0000 </r>
       <r>   -6.9178    1.0000 </r>
       <r>   -6.5192    1.0000 </r>
       <r>   -6.5069    1.0000 </r>
       <r>   -6.4458    1.0000 </r>
       <r>   -6.1854    1.0000 </r>
       <r>   -6.1642    1.0000 </r>
       <r>   -6.0051    1.0000 </r>
       <r>   -5.9527    1.0000 </r>
       <r>   -5.8896    1.0000 </r>
       <r>   -5.8845    1.0000 </r>
       <r>   -5.2369    1.0000 </r>
       <r>   -5.2255    1.0000 </r>
       <r>   -5.0858    1.0000 </r>
       <r>   -4.9656    1.0000 </r>
       <r>   -4.9601    1.0000 </r>
       <r>   -4.9443    1.0000 </r>
       <r>   -2.8643    1.0000 </r>
       <r>   -2.8579    1.0000 </r>
       <r>   -1.3544    0.0000 </r>
       <r>   -1.3238    0.0000 </r>
       <r>   -1.2713    0.0000 </r>
       <r>   -1.0421    0.0000 </r>
       <r>   -0.6833    0.0000 </r>
       <r>   -0.6478    0.0000 </r>
       <r>   -0.5634    0.0000 </r>
       <r>   -0.0370    0.0000 </r>
       <r>    0.0314    0.0000 </r>
       <r>    0.1371    0.0000 </r>
       <r>    0.1884    0.0000 </r>
       <r>    0.2755    0.0000 </r>
       <r>    0.2790    0.0000 </r>
       <r>    0.4185    0.0000 </r>
       <r>    0.4229    0.0000 </r>
       <r>    1.0915    0.0000 </r>
       <r>    1.2330    0.0000 </r>
       <r>    1.2615    0.0000 </r>
       <r>    1.2706    0.0000 </r>
       <r>    1.3273    0.0000 </r>
       <r>    1.3353    0.0000 </r>
       <r>    1.5180    0.0000 </r>
       <r>    1.5209    0.0000 </r>
       <r>    1.5486    0.0000 </r>
       <r>    1.8132    0.0000 </r>
       <r>    1.8363    0.0000 </r>
       <r>    1.8368    0.0000 </r>
       <r>    1.9292    0.0000 </r>
       <r>    2.0317    0.0000 </r>
       <r>    2.0322    0.0000 </r>
      </set>
      <set comment="kpoint 5">
       <r>  -51.5229    1.0000 </r>
       <r>  -22.3437    1.0000 </r>
       <r>  -21.9856    1.0000 </r>
       <r>  -21.6586    1.0000 </r>
       <r>  -21.6322    1.0000 </r>
       <r>  -21.0731    1.0000 </r>
       <r>  -20.9988    1.0000 </r>
       <r>  -20.6929    1.0000 </r>
       <r>  -20.4485    1.0000 </r>
       <r>  -20.3807    1.0000 </r>
       <r>  -19.7816    1.0000 </r>
       <r>  -19.5037    1.0000 </r>
       <r>  -19.4978    1.0000 </r>
       <r>  -19.1727    1.0000 </r>
       <r>  -19.1694    1.0000 </r>
       <r>  -18.6318    1.0000 </r>
       <r>  -18.5669    1.0000 </r>
       <r>  -18.0029    1.0000 </r>
       <r>  -18.0017    1.0000 </r>
       <r>  -17.5227    1.0000 </r>
       <r>  -17.4364    1.0000 </r>
       <r>  -17.4237    1.0000 </r>
       <r>  -17.1835    1.0000 </r>
       <r>  -17.1816    1.0000 </r>
       <r>  -16.3888    1.0000 </r>
       <r>  -16.3828    1.0000 </r>
       <r>  -15.6842    1.0000 </r>
       <r>  -15.4358    1.0000 </r>
       <r>  -15.4268    1.0000 </r>
       <r>  -14.9261    1.0000 </r>
       <r>  -14.9139    1.0000 </r>
       <r>  -14.8659    1.0000 </r>
       <r>  -14.8567    1.0000 </r>
       <r>  -14.4974    1.0000 </r>
       <r>  -14.4503    1.0000 </r>
       <r>  -13.2792    1.0000 </r>
       <r>  -13.2734    1.0000 </r>
       <r>  -13.0786    1.0000 </r>
       <r>  -13.0285    1.0000 </r>
       <r>  -12.7928    1.0000 </r>
       <r>  -12.7856    1.0000 </r>
       <r>  -12.4573    1.0000 </r>
       <r>  -12.3343    1.0000 </r>
       <r>  -12.3285    1.0000 </r>
       <r>  -11.5690    1.0000 </r>
       <r>  -11.5307    1.0000 </r>
       <r>  -11.1197    1.0000 </r>
       <r>  -11.0989    1.0000 </r>
       <r>  -10.7493    1.0000 </r>
       <r>  -10.7361    1.0000 </r>
       <r>  -10.6865    1.0000 </r>
       <r>  -10.5067    1.0000 </r>
       <r>  -10.4669    1.0000 </r>
       <r>  -10.4607    1.0000 </r>
       <r>  -10.0517    1.0000 </r>
       <r>   -9.8405    1.0000 </r>
       <r>   -9.8306    1.0000 </r>
       <r>   -9.7898    1.0000 </r>
       <r>   -9.7841    1.0000 </r>
       <r>   -9.6544    1.0000 </r>
       <r>   -9.6256    1.0000 </r>
       <r>   -9.4733    1.0000 </r>
       <r>   -9.4653    1.0000 </r>
       <r>   -9.2075    1.0000 </r>
       <r>   -9.1867    1.0000 </r>
       <r>   -9.1749    1.0000 </r>
       <r>   -9.0827    1.0000 </r>
       <r>   -9.0702    1.0000 </r>
       <r>   -8.9867    1.0000 </r>
       <r>   -8.8764    1.0000 </r>
       <r>   -8.5814    1.0000 </r>
       <r>   -8.5197    1.0000 </r>
       <r>   -8.2751    1.0000 </r>
       <r>   -8.2532    1.0000 </r>
       <r>   -8.2263    1.0000 </r>
       <r>   -8.1588    1.0000 </r>
       <r>   -8.0313    1.0000 </r>
       <r>   -7.9926    1.0000 </r>
       <r>   -7.9505    1.0000 </r>
       <r>   -7.4988    1.0000 </r>
       <r>   -7.4214    1.0000 </r>
       <r>   -7.2297    1.0000 </r>
       <r>   -7.2160    1.0000 </r>
       <r>   -7.1932    1.0000 </r>
       <r>   -7.1783    1.0000 </r>
       <r>   -6.8310    1.0000 </r>
       <r>   -6.8222    1.0000 </r>
       <r>   -6.6134    1.0000 </r>
       <r>   -6.2536    1.0000 </r>
       <r>   -6.2467    1.0000 </r>
       <r>   -6.1340    1.0000 </r>
       <r>   -6.0392    1.0000 </r>
       <r>   -5.7128    1.0000 </r>
       <r>   -5.7041    1.0000 </r>
       <r>   -5.4011    1.0000 </r>
       <r>   -5.1102    1.0000 </r>
       <r>   -5.0567    1.0000 </r>
       <r>   -4.9291    1.0000 </r>
       <r>   -4.9137    1.0000 </r>
       <r>   -3.9536    1.0000 </r>
       <r>   -3.9293    1.0000 </r>
       <r>   -1.8548    0.3083 </r>
       <r>   -1.8171    0.0586 </r>
       <r>   -1.2649    0.0000 </r>
       <r>   -1.1666    0.0000 </r>
       <r>   -1.1156    0.0000 </r>
       <r>   -0.9699    0.0000 </r>
       <r>   -0.7598    0.0000 </r>
       <r>   -0.7516    0.0000 </r>
       <r>   -0.4828    0.0000 </r>
       <r>   -0.4462    0.0000 </r>
       <r>    0.3396    0.0000 </r>
       <r>    0.5348    0.0000 </r>
       <r>    0.6123    0.0000 </r>
       <r>    0.6562    0.0000 </r>
       <r>    0.8377    0.0000 </r>
       <r>    0.9695    0.0000 </r>
       <r>    1.0908    0.0000 </r>
       <r>    1.1252    0.0000 </r>
       <r>    1.1715    0.0000 </r>
       <r>    1.3239    0.0000 </r>
       <r>    1.3912    0.0000 </r>
       <r>    1.5250    0.0000 </r>
       <r>    1.5999    0.0000 </r>
       <r>    1.6876    0.0000 </r>
       <r>    1.7007    0.0000 </r>
       <r>    1.7994    0.0000 </r>
       <r>    1.8157    0.0000 </r>
       <r>    1.8306    0.0000 </r>
       <r>    1.8564    0.0000 </r>
       <r>    1.8714    0.0000 </r>
       <r>    2.0283    0.0000 </r>
      </set>
     </set>
     <set comment="spin 2">
      <set comment="kpoint 1">
       <r>  -51.5229    1.0000 </r>
       <r>  -22.4324    1.0000 </r>
       <r>  -21.6420    1.0000 </r>
       <r>  -21.4837    1.0000 </r>
       <r>  -21.4656    1.0000 </r>
       <r>  -21.3734    1.0000 </r>
       <r>  -21.3704    1.0000 </r>
       <r>  -21.3384    1.0000 </r>
       <r>  -19.6756    1.0000 </r>
       <r>  -19.6219    1.0000 </r>
       <r>  -19.6097    1.0000 </r>
       <r>  -19.5653    1.0000 </r>
       <r>  -19.5567    1.0000 </r>
       <r>  -19.5558    1.0000 </r>
       <r>  -18.7228    1.0000 </r>
       <r>  -18.7020    1.0000 </r>
       <r>  -18.6924    1.0000 </r>
       <r>  -18.6666    1.0000 </r>
       <r>  -18.6599    1.0000 </r>
       <r>  -18.6342    1.0000 </r>
       <r>  -16.5762    1.0000 </r>
       <r>  -16.5409    1.0000 </r>
       <r>  -16.5313    1.0000 </r>
       <r>  -16.5030    1.0000 </r>
       <r>  -16.4356    1.0000 </r>
       <r>  -16.4349    1.0000 </r>
       <r>  -15.5644    1.0000 </r>
       <r>  -15.5577    1.0000 </r>
       <r>  -15.5370    1.0000 </r>
       <r>  -15.5039    1.0000 </r>
       <r>  -15.5010    1.0000 </r>
       <r>  -15.4907    1.0000 </r>
       <r>  -14.1853    1.0000 </r>
       <r>  -14.1739    1.0000 </r>
       <r>  -14.1690    1.0000 </r>
       <r>  -14.1472    1.0000 </r>
       <r>  -14.1450    1.0000 </r>
       <r>  -14.1421    1.0000 </r>
       <r>  -11.8149    1.0000 </r>
       <r>  -11.8117    1.0000 </r>
       <r>  -11.7901    1.0000 </r>
       <r>  -11.7687    1.0000 </r>
       <r>  -11.7410    1.0000 </r>
       <r>  -11.7371    1.0000 </r>
       <r>  -11.7170    1.0000 </r>
       <r>  -11.7138    1.0000 </r>
       <r>  -11.6367    1.0000 </r>
       <r>  -11.6304    1.0000 </r>
       <r>  -11.6283    1.0000 </r>
       <r>  -11.6186    1.0000 </r>
       <r>  -10.6031    1.0000 </r>
       <r>  -10.3184    1.0000 </r>
       <r>  -10.3135    1.0000 </r>
       <r>  -10.2917    1.0000 </r>
       <r>  -10.2814    1.0000 </r>
       <r>  -10.2768    1.0000 </r>
       <r>  -10.2740    1.0000 </r>
       <r>   -9.6878    1.0000 </r>
       <r>   -9.4615    1.0000 </r>
       <r>   -9.4440    1.0000 </r>
       <r>   -9.3037    1.0000 </r>
       <r>   -9.3002    1.0000 </r>
       <r>   -9.2618    1.0000 </r>
       <r>   -9.0680    1.0000 </r>
       <r>   -9.0595    1.0000 </r>
       <r>   -9.0335    1.0000 </r>
       <r>   -8.9809    1.0000 </r>
       <r>   -8.9694    1.0000 </r>
       <r>   -8.9647    1.0000 </r>
       <r>   -8.9472    1.0000 </r>
       <r>   -8.9445    1.0000 </r>
       <r>   -8.9391    1.0000 </r>
       <r>   -8.9145    1.0000 </r>
       <r>   -8.9085    1.0000 </r>
       <r>   -8.8880    1.0000 </r>
       <r>   -7.4217    1.0000 </r>
       <r>   -7.4003    1.0000 </r>
       <r>   -7.3627    1.0000 </r>
       <r>   -7.3478    1.0000 </r>
       <r>   -7.3219    1.0000 </r>
       <r>   -7.3073    1.0000 </r>
       <r>   -7.2997    1.0000 </r>
       <r>   -7.2930    1.0000 </r>
       <r>   -7.2693    1.0000 </r>
       <r>   -7.2223    1.0000 </r>
       <r>   -7.2084    1.0000 </r>
       <r>   -7.2008    1.0000 </r>
       <r>   -6.4284    1.0000 </r>
       <r>   -6.4114    1.0000 </r>
       <r>   -6.3818    1.0000 </r>
       <r>   -6.3032    1.0000 </r>
       <r>   -6.2874    1.0000 </r>
       <r>   -6.2640    1.0000 </r>
       <r>   -5.8302    1.0000 </r>
       <r>   -5.8119    1.0000 </r>
       <r>   -4.4598    1.0000 </r>
       <r>   -4.4279    1.0000 </r>
       <r>   -4.3994    1.0000 </r>
       <r>   -4.3482    1.0000 </r>
       <r>   -4.2602    1.0000 </r>
       <r>   -4.2547    1.0000 </r>
       <r>   -1.7151    0.0000 </r>
       <r>   -1.6873    0.0000 </r>
       <r>   -1.6327    0.0000 </r>
       <r>   -1.5423    0.0000 </r>
       <r>   -1.4832    0.0000 </r>
       <r>   -1.4518    0.0000 </r>
       <r>   -1.0720    0.0000 </r>
       <r>    0.1215    0.0000 </r>
       <r>    0.1430    0.0000 </r>
       <r>    0.2271    0.0000 </r>
       <r>    0.3745    0.0000 </r>
       <r>    0.3892    0.0000 </r>
       <r>    0.3925    0.0000 </r>
       <r>    0.5346    0.0000 </r>
       <r>    0.7524    0.0000 </r>
       <r>    0.7579    0.0000 </r>
       <r>    0.8272    0.0000 </r>
       <r>    1.0352    0.0000 </r>
       <r>    1.3641    0.0000 </r>
       <r>    1.4408    0.0000 </r>
       <r>    1.4416    0.0000 </r>
       <r>    1.5405    0.0000 </r>
       <r>    1.5429    0.0000 </r>
       <r>    1.9602    0.0000 </r>
       <r>    1.9748    0.0000 </r>
       <r>    2.0195    0.0000 </r>
       <r>    2.0664    0.0000 </r>
       <r>    2.0958    0.0000 </r>
       <r>    2.1158    0.0000 </r>
       <r>    2.1357    0.0000 </r>
       <r>    2.1515    0.0000 </r>
      </set>
      <set comment="kpoint 2">
       <r>  -51.5229    1.0000 </r>
       <r>  -22.3444    1.0000 </r>
       <r>  -21.9818    1.0000 </r>
       <r>  -21.6554    1.0000 </r>
       <r>  -21.6413    1.0000 </r>
       <r>  -21.0637    1.0000 </r>
       <r>  -21.0057    1.0000 </r>
       <r>  -20.6932    1.0000 </r>
       <r>  -20.4391    1.0000 </r>
       <r>  -20.3880    1.0000 </r>
       <r>  -19.7816    1.0000 </r>
       <r>  -19.5082    1.0000 </r>
       <r>  -19.4986    1.0000 </r>
       <r>  -19.1731    1.0000 </r>
       <r>  -19.1673    1.0000 </r>
       <r>  -18.6217    1.0000 </r>
       <r>  -18.5742    1.0000 </r>
       <r>  -18.0050    1.0000 </r>
       <r>  -18.0001    1.0000 </r>
       <r>  -17.5145    1.0000 </r>
       <r>  -17.4360    1.0000 </r>
       <r>  -17.4299    1.0000 </r>
       <r>  -17.1860    1.0000 </r>
       <r>  -17.1817    1.0000 </r>
       <r>  -16.3919    1.0000 </r>
       <r>  -16.3814    1.0000 </r>
       <r>  -15.6856    1.0000 </r>
       <r>  -15.4347    1.0000 </r>
       <r>  -15.4264    1.0000 </r>
       <r>  -14.9241    1.0000 </r>
       <r>  -14.9149    1.0000 </r>
       <r>  -14.8648    1.0000 </r>
       <r>  -14.8527    1.0000 </r>
       <r>  -14.4959    1.0000 </r>
       <r>  -14.4556    1.0000 </r>
       <r>  -13.2789    1.0000 </r>
       <r>  -13.2724    1.0000 </r>
       <r>  -13.0758    1.0000 </r>
       <r>  -13.0325    1.0000 </r>
       <r>  -12.7945    1.0000 </r>
       <r>  -12.7860    1.0000 </r>
       <r>  -12.4589    1.0000 </r>
       <r>  -12.3339    1.0000 </r>
       <r>  -12.3273    1.0000 </r>
       <r>  -11.5696    1.0000 </r>
       <r>  -11.5307    1.0000 </r>
       <r>  -11.1180    1.0000 </r>
       <r>  -11.0953    1.0000 </r>
       <r>  -10.7477    1.0000 </r>
       <r>  -10.7367    1.0000 </r>
       <r>  -10.6904    1.0000 </r>
       <r>  -10.5098    1.0000 </r>
       <r>  -10.4663    1.0000 </r>
       <r>  -10.4579    1.0000 </r>
       <r>  -10.0486    1.0000 </r>
       <r>   -9.8392    1.0000 </r>
       <r>   -9.8305    1.0000 </r>
       <r>   -9.7913    1.0000 </r>
       <r>   -9.7853    1.0000 </r>
       <r>   -9.6531    1.0000 </r>
       <r>   -9.6331    1.0000 </r>
       <r>   -9.4722    1.0000 </r>
       <r>   -9.4629    1.0000 </r>
       <r>   -9.2103    1.0000 </r>
       <r>   -9.1902    1.0000 </r>
       <r>   -9.1760    1.0000 </r>
       <r>   -9.0801    1.0000 </r>
       <r>   -9.0722    1.0000 </r>
       <r>   -8.9771    1.0000 </r>
       <r>   -8.8806    1.0000 </r>
       <r>   -8.5803    1.0000 </r>
       <r>   -8.5204    1.0000 </r>
       <r>   -8.2676    1.0000 </r>
       <r>   -8.2502    1.0000 </r>
       <r>   -8.2299    1.0000 </r>
       <r>   -8.1634    1.0000 </r>
       <r>   -8.0304    1.0000 </r>
       <r>   -7.9896    1.0000 </r>
       <r>   -7.9516    1.0000 </r>
       <r>   -7.5030    1.0000 </r>
       <r>   -7.4211    1.0000 </r>
       <r>   -7.2240    1.0000 </r>
       <r>   -7.2175    1.0000 </r>
       <r>   -7.2003    1.0000 </r>
       <r>   -7.1769    1.0000 </r>
       <r>   -6.8276    1.0000 </r>
       <r>   -6.8218    1.0000 </r>
       <r>   -6.6122    1.0000 </r>
       <r>   -6.2639    1.0000 </r>
       <r>   -6.2376    1.0000 </r>
       <r>   -6.1381    1.0000 </r>
       <r>   -6.0374    1.0000 </r>
       <r>   -5.7102    1.0000 </r>
       <r>   -5.7028    1.0000 </r>
       <r>   -5.4096    1.0000 </r>
       <r>   -5.1076    1.0000 </r>
       <r>   -5.0548    1.0000 </r>
       <r>   -4.9294    1.0000 </r>
       <r>   -4.9159    1.0000 </r>
       <r>   -3.9459    1.0000 </r>
       <r>   -3.9309    1.0000 </r>
       <r>   -1.8699    0.4711 </r>
       <r>   -1.8039    0.0262 </r>
       <r>   -1.2874    0.0000 </r>
       <r>   -1.1729    0.0000 </r>
       <r>   -1.1052    0.0000 </r>
       <r>   -0.9479    0.0000 </r>
       <r>   -0.7582    0.0000 </r>
       <r>   -0.7483    0.0000 </r>
       <r>   -0.4823    0.0000 </r>
       <r>   -0.4569    0.0000 </r>
       <r>    0.3402    0.0000 </r>
       <r>    0.5496    0.0000 </r>
       <r>    0.6103    0.0000 </r>
       <r>    0.6456    0.0000 </r>
       <r>    0.8442    0.0000 </r>
       <r>    0.9688    0.0000 </r>
       <r>    1.0825    0.0000 </r>
       <r>    1.1219    0.0000 </r>
       <r>    1.1558    0.0000 </r>
       <r>    1.3179    0.0000 </r>
       <r>    1.3946    0.0000 </r>
       <r>    1.5108    0.0000 </r>
       <r>    1.5805    0.0000 </r>
       <r>    1.6853    0.0000 </r>
       <r>    1.6921    0.0000 </r>
       <r>    1.7924    0.0000 </r>
       <r>    1.8208    0.0000 </r>
       <r>    1.8302    0.0000 </r>
       <r>    1.8616    0.0000 </r>
       <r>    1.8637    0.0000 </r>
       <r>    2.0209    0.0000 </r>
      </set>
      <set comment="kpoint 3">
       <r>  -51.5229    1.0000 </r>
       <r>  -22.3443    1.0000 </r>
       <r>  -21.9824    1.0000 </r>
       <r>  -21.6582    1.0000 </r>
       <r>  -21.6374    1.0000 </r>
       <r>  -21.0675    1.0000 </r>
       <r>  -21.0022    1.0000 </r>
       <r>  -20.6934    1.0000 </r>
       <r>  -20.4428    1.0000 </r>
       <r>  -20.3842    1.0000 </r>
       <r>  -19.7813    1.0000 </r>
       <r>  -19.5080    1.0000 </r>
       <r>  -19.4987    1.0000 </r>
       <r>  -19.1741    1.0000 </r>
       <r>  -19.1667    1.0000 </r>
       <r>  -18.6263    1.0000 </r>
       <r>  -18.5704    1.0000 </r>
       <r>  -18.0055    1.0000 </r>
       <r>  -17.9993    1.0000 </r>
       <r>  -17.5208    1.0000 </r>
       <r>  -17.4346    1.0000 </r>
       <r>  -17.4266    1.0000 </r>
       <r>  -17.1846    1.0000 </r>
       <r>  -17.1811    1.0000 </r>
       <r>  -16.3920    1.0000 </r>
       <r>  -16.3783    1.0000 </r>
       <r>  -15.6782    1.0000 </r>
       <r>  -15.4357    1.0000 </r>
       <r>  -15.4327    1.0000 </r>
       <r>  -14.9317    1.0000 </r>
       <r>  -14.9219    1.0000 </r>
       <r>  -14.8646    1.0000 </r>
       <r>  -14.8573    1.0000 </r>
       <r>  -14.4887    1.0000 </r>
       <r>  -14.4492    1.0000 </r>
       <r>  -13.2850    1.0000 </r>
       <r>  -13.2737    1.0000 </r>
       <r>  -13.0680    1.0000 </r>
       <r>  -13.0271    1.0000 </r>
       <r>  -12.7882    1.0000 </r>
       <r>  -12.7825    1.0000 </r>
       <r>  -12.4521    1.0000 </r>
       <r>  -12.3420    1.0000 </r>
       <r>  -12.3302    1.0000 </r>
       <r>  -11.5763    1.0000 </r>
       <r>  -11.5393    1.0000 </r>
       <r>  -11.1235    1.0000 </r>
       <r>  -11.1050    1.0000 </r>
       <r>  -10.7438    1.0000 </r>
       <r>  -10.7397    1.0000 </r>
       <r>  -10.6784    1.0000 </r>
       <r>  -10.5070    1.0000 </r>
       <r>  -10.4634    1.0000 </r>
       <r>  -10.4578    1.0000 </r>
       <r>  -10.0469    1.0000 </r>
       <r>   -9.8407    1.0000 </r>
       <r>   -9.8288    1.0000 </r>
       <r>   -9.7892    1.0000 </r>
       <r>   -9.7786    1.0000 </r>
       <r>   -9.6555    1.0000 </r>
       <r>   -9.6318    1.0000 </r>
       <r>   -9.4671    1.0000 </r>
       <r>   -9.4626    1.0000 </r>
       <r>   -9.2152    1.0000 </r>
       <r>   -9.1871    1.0000 </r>
       <r>   -9.1726    1.0000 </r>
       <r>   -9.0812    1.0000 </r>
       <r>   -9.0717    1.0000 </r>
       <r>   -8.9789    1.0000 </r>
       <r>   -8.8812    1.0000 </r>
       <r>   -8.5883    1.0000 </r>
       <r>   -8.5207    1.0000 </r>
       <r>   -8.2713    1.0000 </r>
       <r>   -8.2579    1.0000 </r>
       <r>   -8.2352    1.0000 </r>
       <r>   -8.1655    1.0000 </r>
       <r>   -8.0352    1.0000 </r>
       <r>   -7.9881    1.0000 </r>
       <r>   -7.9517    1.0000 </r>
       <r>   -7.4976    1.0000 </r>
       <r>   -7.4114    1.0000 </r>
       <r>   -7.2212    1.0000 </r>
       <r>   -7.2097    1.0000 </r>
       <r>   -7.1899    1.0000 </r>
       <r>   -7.1851    1.0000 </r>
       <r>   -6.8284    1.0000 </r>
       <r>   -6.8213    1.0000 </r>
       <r>   -6.6256    1.0000 </r>
       <r>   -6.2458    1.0000 </r>
       <r>   -6.2326    1.0000 </r>
       <r>   -6.1420    1.0000 </r>
       <r>   -6.0501    1.0000 </r>
       <r>   -5.7114    1.0000 </r>
       <r>   -5.7065    1.0000 </r>
       <r>   -5.3975    1.0000 </r>
       <r>   -5.1053    1.0000 </r>
       <r>   -5.0649    1.0000 </r>
       <r>   -4.9289    1.0000 </r>
       <r>   -4.9173    1.0000 </r>
       <r>   -3.9460    1.0000 </r>
       <r>   -3.9316    1.0000 </r>
       <r>   -1.8478    0.2427 </r>
       <r>   -1.8348    0.1431 </r>
       <r>   -1.2474    0.0000 </r>
       <r>   -1.1608    0.0000 </r>
       <r>   -1.1201    0.0000 </r>
       <r>   -0.9887    0.0000 </r>
       <r>   -0.7585    0.0000 </r>
       <r>   -0.7480    0.0000 </r>
       <r>   -0.4767    0.0000 </r>
       <r>   -0.4442    0.0000 </r>
       <r>    0.3328    0.0000 </r>
       <r>    0.5491    0.0000 </r>
       <r>    0.6028    0.0000 </r>
       <r>    0.6647    0.0000 </r>
       <r>    0.8412    0.0000 </r>
       <r>    0.9672    0.0000 </r>
       <r>    1.1041    0.0000 </r>
       <r>    1.1180    0.0000 </r>
       <r>    1.1525    0.0000 </r>
       <r>    1.3002    0.0000 </r>
       <r>    1.3945    0.0000 </r>
       <r>    1.5027    0.0000 </r>
       <r>    1.5802    0.0000 </r>
       <r>    1.6840    0.0000 </r>
       <r>    1.7056    0.0000 </r>
       <r>    1.7839    0.0000 </r>
       <r>    1.8141    0.0000 </r>
       <r>    1.8243    0.0000 </r>
       <r>    1.8598    0.0000 </r>
       <r>    1.8642    0.0000 </r>
       <r>    2.0281    0.0000 </r>
      </set>
      <set comment="kpoint 4">
       <r>  -51.5229    1.0000 </r>
       <r>  -22.2574    1.0000 </r>
       <r>  -22.0131    1.0000 </r>
       <r>  -22.0062    1.0000 </r>
       <r>  -21.1720    1.0000 </r>
       <r>  -21.1216    1.0000 </r>
       <r>  -21.1140    1.0000 </r>
       <r>  -20.3007    1.0000 </r>
       <r>  -20.2507    1.0000 </r>
       <r>  -20.2413    1.0000 </r>
       <r>  -20.1384    1.0000 </r>
       <r>  -20.1332    1.0000 </r>
       <r>  -20.1266    1.0000 </r>
       <r>  -18.4980    1.0000 </r>
       <r>  -18.4692    1.0000 </r>
       <r>  -18.4191    1.0000 </r>
       <r>  -18.3430    1.0000 </r>
       <r>  -18.3209    1.0000 </r>
       <r>  -18.3158    1.0000 </r>
       <r>  -17.5675    1.0000 </r>
       <r>  -17.5564    1.0000 </r>
       <r>  -17.4873    1.0000 </r>
       <r>  -17.0388    1.0000 </r>
       <r>  -17.0271    1.0000 </r>
       <r>  -17.0228    1.0000 </r>
       <r>  -16.0311    1.0000 </r>
       <r>  -16.0259    1.0000 </r>
       <r>  -16.0128    1.0000 </r>
       <r>  -15.4302    1.0000 </r>
       <r>  -15.4222    1.0000 </r>
       <r>  -14.0097    1.0000 </r>
       <r>  -13.9972    1.0000 </r>
       <r>  -13.9740    1.0000 </r>
       <r>  -13.9525    1.0000 </r>
       <r>  -13.9161    1.0000 </r>
       <r>  -13.9120    1.0000 </r>
       <r>  -13.8504    1.0000 </r>
       <r>  -13.8436    1.0000 </r>
       <r>  -13.7687    1.0000 </r>
       <r>  -13.4046    1.0000 </r>
       <r>  -12.3433    1.0000 </r>
       <r>  -12.2075    1.0000 </r>
       <r>  -12.1997    1.0000 </r>
       <r>  -11.5979    1.0000 </r>
       <r>  -11.5802    1.0000 </r>
       <r>  -11.5716    1.0000 </r>
       <r>  -11.5240    1.0000 </r>
       <r>  -11.5205    1.0000 </r>
       <r>  -11.5098    1.0000 </r>
       <r>  -10.4266    1.0000 </r>
       <r>  -10.3392    1.0000 </r>
       <r>  -10.2956    1.0000 </r>
       <r>  -10.2742    1.0000 </r>
       <r>  -10.1840    1.0000 </r>
       <r>  -10.1813    1.0000 </r>
       <r>  -10.1608    1.0000 </r>
       <r>  -10.0657    1.0000 </r>
       <r>  -10.0594    1.0000 </r>
       <r>   -9.5830    1.0000 </r>
       <r>   -9.5734    1.0000 </r>
       <r>   -9.5650    1.0000 </r>
       <r>   -9.3555    1.0000 </r>
       <r>   -9.3417    1.0000 </r>
       <r>   -9.3285    1.0000 </r>
       <r>   -9.0985    1.0000 </r>
       <r>   -9.0278    1.0000 </r>
       <r>   -9.0167    1.0000 </r>
       <r>   -8.6925    1.0000 </r>
       <r>   -8.6781    1.0000 </r>
       <r>   -8.6680    1.0000 </r>
       <r>   -8.6313    1.0000 </r>
       <r>   -8.6291    1.0000 </r>
       <r>   -8.6173    1.0000 </r>
       <r>   -8.2081    1.0000 </r>
       <r>   -8.1989    1.0000 </r>
       <r>   -8.1827    1.0000 </r>
       <r>   -8.0992    1.0000 </r>
       <r>   -8.0506    1.0000 </r>
       <r>   -8.0204    1.0000 </r>
       <r>   -7.8787    1.0000 </r>
       <r>   -7.8692    1.0000 </r>
       <r>   -7.8566    1.0000 </r>
       <r>   -7.0264    1.0000 </r>
       <r>   -7.0114    1.0000 </r>
       <r>   -6.9178    1.0000 </r>
       <r>   -6.5192    1.0000 </r>
       <r>   -6.5069    1.0000 </r>
       <r>   -6.4458    1.0000 </r>
       <r>   -6.1854    1.0000 </r>
       <r>   -6.1642    1.0000 </r>
       <r>   -6.0051    1.0000 </r>
       <r>   -5.9527    1.0000 </r>
       <r>   -5.8896    1.0000 </r>
       <r>   -5.8845    1.0000 </r>
       <r>   -5.2369    1.0000 </r>
       <r>   -5.2255    1.0000 </r>
       <r>   -5.0858    1.0000 </r>
       <r>   -4.9656    1.0000 </r>
       <r>   -4.9601    1.0000 </r>
       <r>   -4.9443    1.0000 </r>
       <r>   -2.8643    1.0000 </r>
       <r>   -2.8579    1.0000 </r>
       <r>   -1.3544    0.0000 </r>
       <r>   -1.3238    0.0000 </r>
       <r>   -1.2712    0.0000 </r>
       <r>   -1.0420    0.0000 </r>
       <r>   -0.6833    0.0000 </r>
       <r>   -0.6478    0.0000 </r>
       <r>   -0.5634    0.0000 </r>
       <r>   -0.0370    0.0000 </r>
       <r>    0.0314    0.0000 </r>
       <r>    0.1372    0.0000 </r>
       <r>    0.1884    0.0000 </r>
       <r>    0.2755    0.0000 </r>
       <r>    0.2790    0.0000 </r>
       <r>    0.4198    0.0000 </r>
       <r>    0.4241    0.0000 </r>
       <r>    1.0941    0.0000 </r>
       <r>    1.2292    0.0000 </r>
       <r>    1.2644    0.0000 </r>
       <r>    1.2740    0.0000 </r>
       <r>    1.3243    0.0000 </r>
       <r>    1.3311    0.0000 </r>
       <r>    1.4947    0.0000 </r>
       <r>    1.4982    0.0000 </r>
       <r>    1.5202    0.0000 </r>
       <r>    1.7969    0.0000 </r>
       <r>    1.8157    0.0000 </r>
       <r>    1.8163    0.0000 </r>
       <r>    1.9235    0.0000 </r>
       <r>    2.0299    0.0000 </r>
       <r>    2.0304    0.0000 </r>
      </set>
      <set comment="kpoint 5">
       <r>  -51.5229    1.0000 </r>
       <r>  -22.3437    1.0000 </r>
       <r>  -21.9856    1.0000 </r>
       <r>  -21.6586    1.0000 </r>
       <r>  -21.6322    1.0000 </r>
       <r>  -21.0731    1.0000 </r>
       <r>  -20.9988    1.0000 </r>
       <r>  -20.6929    1.0000 </r>
       <r>  -20.4485    1.0000 </r>
       <r>  -20.3807    1.0000 </r>
       <r>  -19.7816    1.0000 </r>
       <r>  -19.5037    1.0000 </r>
       <r>  -19.4978    1.0000 </r>
       <r>  -19.1727    1.0000 </r>
       <r>  -19.1694    1.0000 </r>
       <r>  -18.6318    1.0000 </r>
       <r>  -18.5669    1.0000 </r>
       <r>  -18.0029    1.0000 </r>
       <r>  -18.0017    1.0000 </r>
       <r>  -17.5227    1.0000 </r>
       <r>  -17.4364    1.0000 </r>
       <r>  -17.4237    1.0000 </r>
       <r>  -17.1835    1.0000 </r>
       <r>  -17.1816    1.0000 </r>
       <r>  -16.3888    1.0000 </r>
       <r>  -16.3828    1.0000 </r>
       <r>  -15.6842    1.0000 </r>
       <r>  -15.4358    1.0000 </r>
       <r>  -15.4268    1.0000 </r>
       <r>  -14.9261    1.0000 </r>
       <r>  -14.9139    1.0000 </r>
       <r>  -14.8659    1.0000 </r>
       <r>  -14.8567    1.0000 </r>
       <r>  -14.4974    1.0000 </r>
       <r>  -14.4503    1.0000 </r>
       <r>  -13.2792    1.0000 </r>
       <r>  -13.2734    1.0000 </r>
       <r>  -13.0786    1.0000 </r>
       <r>  -13.0285    1.0000 </r>
       <r>  -12.7928    1.0000 </r>
       <r>  -12.7856    1.0000 </r>
       <r>  -12.4573    1.0000 </r>
       <r>  -12.3343    1.0000 </r>
       <r>  -12.3285    1.0000 </r>
       <r>  -11.5690    1.0000 </r>
       <r>  -11.5307    1.0000 </r>
       <r>  -11.1197    1.0000 </r>
       <r>  -11.0989    1.0000 </r>
       <r>  -10.7493    1.0000 </r>
       <r>  -10.7361    1.0000 </r>
       <r>  -10.6865    1.0000 </r>
       <r>  -10.5067    1.0000 </r>
       <r>  -10.4669    1.0000 </r>
       <r>  -10.4607    1.0000 </r>
       <r>  -10.0517    1.0000 </r>
       <r>   -9.8405    1.0000 </r>
       <r>   -9.8306    1.0000 </r>
       <r>   -9.7898    1.0000 </r>
       <r>   -9.7841    1.0000 </r>
       <r>   -9.6544    1.0000 </r>
       <r>   -9.6256    1.0000 </r>
       <r>   -9.4733    1.0000 </r>
       <r>   -9.4653    1.0000 </r>
       <r>   -9.2075    1.0000 </r>
       <r>   -9.1867    1.0000 </r>
       <r>   -9.1749    1.0000 </r>
       <r>   -9.0827    1.0000 </r>
       <r>   -9.0702    1.0000 </r>
       <r>   -8.9867    1.0000 </r>
       <r>   -8.8764    1.0000 </r>
       <r>   -8.5814    1.0000 </r>
       <r>   -8.5197    1.0000 </r>
       <r>   -8.2751    1.0000 </r>
       <r>   -8.2532    1.0000 </r>
       <r>   -8.2263    1.0000 </r>
       <r>   -8.1588    1.0000 </r>
       <r>   -8.0313    1.0000 </r>
       <r>   -7.9926    1.0000 </r>
       <r>   -7.9505    1.0000 </r>
       <r>   -7.4988    1.0000 </r>
       <r>   -7.4214    1.0000 </r>
       <r>   -7.2297    1.0000 </r>
       <r>   -7.2160    1.0000 </r>
       <r>   -7.1932    1.0000 </r>
       <r>   -7.1783    1.0000 </r>
       <r>   -6.8310    1.0000 </r>
       <r>   -6.8222    1.0000 </r>
       <r>   -6.6134    1.0000 </r>
       <r>   -6.2536    1.0000 </r>
       <r>   -6.2467    1.0000 </r>
       <r>   -6.1340    1.0000 </r>
       <r>   -6.0392    1.0000 </r>
       <r>   -5.7128    1.0000 </r>
       <r>   -5.7041    1.0000 </r>
       <r>   -5.4010    1.0000 </r>
       <r>   -5.1102    1.0000 </r>
       <r>   -5.0567    1.0000 </r>
       <r>   -4.9291    1.0000 </r>
       <r>   -4.9137    1.0000 </r>
       <r>   -3.9536    1.0000 </r>
       <r>   -3.9293    1.0000 </r>
       <r>   -1.8548    0.3082 </r>
       <r>   -1.8171    0.0586 </r>
       <r>   -1.2648    0.0000 </r>
       <r>   -1.1666    0.0000 </r>
       <r>   -1.1156    0.0000 </r>
       <r>   -0.9698    0.0000 </r>
       <r>   -0.7598    0.0000 </r>
       <r>   -0.7516    0.0000 </r>
       <r>   -0.4828    0.0000 </r>
       <r>   -0.4462    0.0000 </r>
       <r>    0.3410    0.0000 </r>
       <r>    0.5350    0.0000 </r>
       <r>    0.6126    0.0000 </r>
       <r>    0.6565    0.0000 </r>
       <r>    0.8398    0.0000 </r>
       <r>    0.9699    0.0000 </r>
       <r>    1.0902    0.0000 </r>
       <r>    1.1245    0.0000 </r>
       <r>    1.1553    0.0000 </r>
       <r>    1.3128    0.0000 </r>
       <r>    1.3941    0.0000 </r>
       <r>    1.5091    0.0000 </r>
       <r>    1.5803    0.0000 </r>
       <r>    1.6827    0.0000 </r>
       <r>    1.7011    0.0000 </r>
       <r>    1.7920    0.0000 </r>
       <r>    1.8157    0.0000 </r>
       <r>    1.8302    0.0000 </r>
       <r>    1.8556    0.0000 </r>
       <r>    1.8681    0.0000 </r>
       <r>    2.0188    0.0000 </r>
      </set>
     </set>
    </set>
   </array>
  </eigenvalues>
  <separator name="orbital magnetization" >
   <v name="MAGDIPOLOUT">      0.00000000      0.00000000      0.00000000</v>
  </separator>
  <dos>
   <i name="efermi">     -1.87248951 </i>
   <total>
    <array>
     <dimension dim="1">gridpoints</dimension>
     <dimension dim="2">spin</dimension>
     <field>energy</field>
     <field>total</field>
     <field>integrated</field>
     <set>
      <set comment="spin 1">
       <r>   -54.2067     0.0000     0.0000 </r>
       <r>   -54.0099     0.0000     0.0000 </r>
       <r>   -53.8131     0.0000     0.0000 </r>
       <r>   -53.6163     0.0000     0.0000 </r>
       <r>   -53.4195     0.0000     0.0000 </r>
       <r>   -53.2227     0.0000     0.0000 </r>
       <r>   -53.0258     0.0000     0.0000 </r>
       <r>   -52.8290     0.0000     0.0000 </r>
       <r>   -52.6322     0.0000     0.0000 </r>
       <r>   -52.4354     0.0000     0.0000 </r>
       <r>   -52.2386     0.0000     0.0000 </r>
       <r>   -52.0418     0.0000     0.0000 </r>
       <r>   -51.8449     0.0000     0.0000 </r>
       <r>   -51.6481     0.0010     0.0002 </r>
       <r>   -51.4513     4.9708     0.9785 </r>
       <r>   -51.2545     0.1091     1.0000 </r>
       <r>   -51.0577     0.0000     1.0000 </r>
       <r>   -50.8609     0.0000     1.0000 </r>
       <r>   -50.6640     0.0000     1.0000 </r>
       <r>   -50.4672     0.0000     1.0000 </r>
       <r>   -50.2704     0.0000     1.0000 </r>
       <r>   -50.0736     0.0000     1.0000 </r>
       <r>   -49.8768     0.0000     1.0000 </r>
       <r>   -49.6800     0.0000     1.0000 </r>
       <r>   -49.4832     0.0000     1.0000 </r>
       <r>   -49.2863     0.0000     1.0000 </r>
       <r>   -49.0895     0.0000     1.0000 </r>
       <r>   -48.8927     0.0000     1.0000 </r>
       <r>   -48.6959     0.0000     1.0000 </r>
       <r>   -48.4991     0.0000     1.0000 </r>
       <r>   -48.3023     0.0000     1.0000 </r>
       <r>   -48.1054     0.0000     1.0000 </r>
       <r>   -47.9086     0.0000     1.0000 </r>
       <r>   -47.7118     0.0000     1.0000 </r>
       <r>   -47.5150     0.0000     1.0000 </r>
       <r>   -47.3182     0.0000     1.0000 </r>
       <r>   -47.1214     0.0000     1.0000 </r>
       <r>   -46.9245     0.0000     1.0000 </r>
       <r>   -46.7277     0.0000     1.0000 </r>
       <r>   -46.5309     0.0000     1.0000 </r>
       <r>   -46.3341     0.0000     1.0000 </r>
       <r>   -46.1373     0.0000     1.0000 </r>
       <r>   -45.9405     0.0000     1.0000 </r>
       <r>   -45.7436     0.0000     1.0000 </r>
       <r>   -45.5468     0.0000     1.0000 </r>
       <r>   -45.3500     0.0000     1.0000 </r>
       <r>   -45.1532     0.0000     1.0000 </r>
       <r>   -44.9564     0.0000     1.0000 </r>
       <r>   -44.7596     0.0000     1.0000 </r>
       <r>   -44.5628     0.0000     1.0000 </r>
       <r>   -44.3659     0.0000     1.0000 </r>
       <r>   -44.1691     0.0000     1.0000 </r>
       <r>   -43.9723     0.0000     1.0000 </r>
       <r>   -43.7755     0.0000     1.0000 </r>
       <r>   -43.5787     0.0000     1.0000 </r>
       <r>   -43.3819     0.0000     1.0000 </r>
       <r>   -43.1850     0.0000     1.0000 </r>
       <r>   -42.9882     0.0000     1.0000 </r>
       <r>   -42.7914     0.0000     1.0000 </r>
       <r>   -42.5946     0.0000     1.0000 </r>
       <r>   -42.3978     0.0000     1.0000 </r>
       <r>   -42.2010     0.0000     1.0000 </r>
       <r>   -42.0041     0.0000     1.0000 </r>
       <r>   -41.8073     0.0000     1.0000 </r>
       <r>   -41.6105     0.0000     1.0000 </r>
       <r>   -41.4137     0.0000     1.0000 </r>
       <r>   -41.2169     0.0000     1.0000 </r>
       <r>   -41.0201     0.0000     1.0000 </r>
       <r>   -40.8232     0.0000     1.0000 </r>
       <r>   -40.6264     0.0000     1.0000 </r>
       <r>   -40.4296     0.0000     1.0000 </r>
       <r>   -40.2328     0.0000     1.0000 </r>
       <r>   -40.0360     0.0000     1.0000 </r>
       <r>   -39.8392     0.0000     1.0000 </r>
       <r>   -39.6424     0.0000     1.0000 </r>
       <r>   -39.4455     0.0000     1.0000 </r>
       <r>   -39.2487     0.0000     1.0000 </r>
       <r>   -39.0519     0.0000     1.0000 </r>
       <r>   -38.8551     0.0000     1.0000 </r>
       <r>   -38.6583     0.0000     1.0000 </r>
       <r>   -38.4615     0.0000     1.0000 </r>
       <r>   -38.2646     0.0000     1.0000 </r>
       <r>   -38.0678     0.0000     1.0000 </r>
       <r>   -37.8710     0.0000     1.0000 </r>
       <r>   -37.6742     0.0000     1.0000 </r>
       <r>   -37.4774     0.0000     1.0000 </r>
       <r>   -37.2806     0.0000     1.0000 </r>
       <r>   -37.0837     0.0000     1.0000 </r>
       <r>   -36.8869     0.0000     1.0000 </r>
       <r>   -36.6901     0.0000     1.0000 </r>
       <r>   -36.4933     0.0000     1.0000 </r>
       <r>   -36.2965     0.0000     1.0000 </r>
       <r>   -36.0997     0.0000     1.0000 </r>
       <r>   -35.9028     0.0000     1.0000 </r>
       <r>   -35.7060     0.0000     1.0000 </r>
       <r>   -35.5092     0.0000     1.0000 </r>
       <r>   -35.3124     0.0000     1.0000 </r>
       <r>   -35.1156     0.0000     1.0000 </r>
       <r>   -34.9188     0.0000     1.0000 </r>
       <r>   -34.7220     0.0000     1.0000 </r>
       <r>   -34.5251     0.0000     1.0000 </r>
       <r>   -34.3283     0.0000     1.0000 </r>
       <r>   -34.1315     0.0000     1.0000 </r>
       <r>   -33.9347     0.0000     1.0000 </r>
       <r>   -33.7379     0.0000     1.0000 </r>
       <r>   -33.5411     0.0000     1.0000 </r>
       <r>   -33.3442     0.0000     1.0000 </r>
       <r>   -33.1474     0.0000     1.0000 </r>
       <r>   -32.9506     0.0000     1.0000 </r>
       <r>   -32.7538     0.0000     1.0000 </r>
       <r>   -32.5570     0.0000     1.0000 </r>
       <r>   -32.3602     0.0000     1.0000 </r>
       <r>   -32.1633     0.0000     1.0000 </r>
       <r>   -31.9665     0.0000     1.0000 </r>
       <r>   -31.7697     0.0000     1.0000 </r>
       <r>   -31.5729     0.0000     1.0000 </r>
       <r>   -31.3761     0.0000     1.0000 </r>
       <r>   -31.1793     0.0000     1.0000 </r>
       <r>   -30.9825     0.0000     1.0000 </r>
       <r>   -30.7856     0.0000     1.0000 </r>
       <r>   -30.5888     0.0000     1.0000 </r>
       <r>   -30.3920     0.0000     1.0000 </r>
       <r>   -30.1952     0.0000     1.0000 </r>
       <r>   -29.9984     0.0000     1.0000 </r>
       <r>   -29.8016     0.0000     1.0000 </r>
       <r>   -29.6047     0.0000     1.0000 </r>
       <r>   -29.4079     0.0000     1.0000 </r>
       <r>   -29.2111     0.0000     1.0000 </r>
       <r>   -29.0143     0.0000     1.0000 </r>
       <r>   -28.8175     0.0000     1.0000 </r>
       <r>   -28.6207     0.0000     1.0000 </r>
       <r>   -28.4238     0.0000     1.0000 </r>
       <r>   -28.2270     0.0000     1.0000 </r>
       <r>   -28.0302     0.0000     1.0000 </r>
       <r>   -27.8334     0.0000     1.0000 </r>
       <r>   -27.6366     0.0000     1.0000 </r>
       <r>   -27.4398     0.0000     1.0000 </r>
       <r>   -27.2429     0.0000     1.0000 </r>
       <r>   -27.0461     0.0000     1.0000 </r>
       <r>   -26.8493     0.0000     1.0000 </r>
       <r>   -26.6525     0.0000     1.0000 </r>
       <r>   -26.4557     0.0000     1.0000 </r>
       <r>   -26.2589     0.0000     1.0000 </r>
       <r>   -26.0621     0.0000     1.0000 </r>
       <r>   -25.8652     0.0000     1.0000 </r>
       <r>   -25.6684     0.0000     1.0000 </r>
       <r>   -25.4716     0.0000     1.0000 </r>
       <r>   -25.2748     0.0000     1.0000 </r>
       <r>   -25.0780     0.0000     1.0000 </r>
       <r>   -24.8812     0.0000     1.0000 </r>
       <r>   -24.6843     0.0000     1.0000 </r>
       <r>   -24.4875     0.0000     1.0000 </r>
       <r>   -24.2907     0.0000     1.0000 </r>
       <r>   -24.0939     0.0000     1.0000 </r>
       <r>   -23.8971     0.0000     1.0000 </r>
       <r>   -23.7003     0.0000     1.0000 </r>
       <r>   -23.5034     0.0000     1.0000 </r>
       <r>   -23.3066     0.0000     1.0000 </r>
       <r>   -23.1098     0.0000     1.0000 </r>
       <r>   -22.9130     0.0000     1.0000 </r>
       <r>   -22.7162     0.0000     1.0000 </r>
       <r>   -22.5194     0.0039     1.0008 </r>
       <r>   -22.3225     3.0663     1.6043 </r>
       <r>   -22.1257     2.0119     2.0002 </r>
       <r>   -21.9289     5.4073     3.0645 </r>
       <r>   -21.7321     0.3115     3.1258 </r>
       <r>   -21.5353     7.3102     4.5646 </r>
       <r>   -21.3385     2.2996     5.0171 </r>
       <r>   -21.1417     2.0187     5.4145 </r>
       <r>   -20.9448     8.4411     7.0758 </r>
       <r>   -20.7480     0.3839     7.1514 </r>
       <r>   -20.5512     3.1868     7.7786 </r>
       <r>   -20.3544     6.1495     8.9889 </r>
       <r>   -20.1576     4.8168     9.9369 </r>
       <r>   -19.9608     2.5788    10.4444 </r>
       <r>   -19.7639     2.3416    10.9053 </r>
       <r>   -19.5671     3.5755    11.6090 </r>
       <r>   -19.3703     7.6313    13.1110 </r>
       <r>   -19.1735     3.1643    13.7338 </r>
       <r>   -18.9767     3.6109    14.4444 </r>
       <r>   -18.7799     0.0423    14.4528 </r>
       <r>   -18.5830     7.5380    15.9364 </r>
       <r>   -18.3862     5.9454    17.1065 </r>
       <r>   -18.1894     3.4103    17.7777 </r>
       <r>   -17.9926     4.1265    18.5899 </r>
       <r>   -17.7958     2.6484    19.1111 </r>
       <r>   -17.5990     0.3830    19.1865 </r>
       <r>   -17.4021    11.7479    21.4987 </r>
       <r>   -17.2053     3.2128    22.1310 </r>
       <r>   -17.0085     7.4202    23.5914 </r>
       <r>   -16.8117     0.9470    23.7778 </r>
       <r>   -16.6149     0.0930    23.7961 </r>
       <r>   -16.4181     4.1811    24.6190 </r>
       <r>   -16.2213     5.8876    25.7778 </r>
       <r>   -16.0244     1.6504    26.1026 </r>
       <r>   -15.8276     1.7370    26.4445 </r>
       <r>   -15.6308     3.1734    27.0690 </r>
       <r>   -15.4340     7.7112    28.5867 </r>
       <r>   -15.2372     4.9226    29.5556 </r>
       <r>   -15.0404     0.0033    29.5562 </r>
       <r>   -14.8435    11.2880    31.7779 </r>
       <r>   -14.6467     2.2578    32.2222 </r>
       <r>   -14.4499     4.7850    33.1640 </r>
       <r>   -14.2531     2.0190    33.5614 </r>
       <r>   -14.0563     3.5191    34.2540 </r>
       <r>   -13.8595     7.2944    35.6896 </r>
       <r>   -13.6626     2.7046    36.2219 </r>
       <r>   -13.4658     0.0486    36.2315 </r>
       <r>   -13.2690     5.0776    37.2308 </r>
       <r>   -13.0722     4.9309    38.2013 </r>
       <r>   -12.8754     4.6714    39.1207 </r>
       <r>   -12.6786     6.7188    40.4431 </r>
       <r>   -12.4818     0.8024    40.6010 </r>
       <r>   -12.2849     9.8520    42.5400 </r>
       <r>   -12.0881     2.9004    43.1109 </r>
       <r>   -11.8913     0.0182    43.1144 </r>
       <r>   -11.6945     4.1366    43.9286 </r>
       <r>   -11.4977    14.5788    46.7979 </r>
       <r>   -11.3009     1.5913    47.1111 </r>
       <r>   -11.1040     3.8285    47.8646 </r>
       <r>   -10.9072     2.9460    48.4444 </r>
       <r>   -10.7104     6.3225    49.6888 </r>
       <r>   -10.5136     6.3847    50.9454 </r>
       <r>   -10.3168    11.4965    53.2081 </r>
       <r>   -10.1200     7.9453    54.7719 </r>
       <r>    -9.9231     5.7213    55.8979 </r>
       <r>    -9.7263    13.3448    58.5244 </r>
       <r>    -9.5295    10.7955    60.6491 </r>
       <r>    -9.3327    10.2469    62.6659 </r>
       <r>    -9.1359    12.7409    65.1735 </r>
       <r>    -8.9391    17.8202    68.6808 </r>
       <r>    -8.7422     6.2895    69.9186 </r>
       <r>    -8.5454    10.2897    71.9438 </r>
       <r>    -8.3486     3.1723    72.5682 </r>
       <r>    -8.1518    15.2283    75.5654 </r>
       <r>    -7.9550    12.7541    78.0756 </r>
       <r>    -7.7582     5.8216    79.2214 </r>
       <r>    -7.5614     0.1439    79.2497 </r>
       <r>    -7.3645     7.9960    80.8234 </r>
       <r>    -7.1677    16.2580    84.0233 </r>
       <r>    -6.9709     4.8298    84.9739 </r>
       <r>    -6.7741     7.5313    86.4561 </r>
       <r>    -6.5773     3.5225    87.1494 </r>
       <r>    -6.3805     4.9950    88.1325 </r>
       <r>    -6.1836     9.8774    90.0765 </r>
       <r>    -5.9868     8.8547    91.8193 </r>
       <r>    -5.7900     4.7106    92.7464 </r>
       <r>    -5.5932     6.9297    94.1103 </r>
       <r>    -5.3964     1.9367    94.4915 </r>
       <r>    -5.1996     3.3038    95.1417 </r>
       <r>    -5.0027     8.5376    96.8220 </r>
       <r>    -4.8059     9.9328    98.7770 </r>
       <r>    -4.6091     0.0042    98.7778 </r>
       <r>    -4.4123     1.1144    98.9971 </r>
       <r>    -4.2155     2.1394    99.4182 </r>
       <r>    -4.0187     0.2371    99.4648 </r>
       <r>    -3.8218     6.6668   100.7770 </r>
       <r>    -3.6250     0.0042   100.7778 </r>
       <r>    -3.4282     0.0000   100.7778 </r>
       <r>    -3.2314     0.0000   100.7778 </r>
       <r>    -3.0346     0.0000   100.7778 </r>
       <r>    -2.8378     1.6810   101.1086 </r>
       <r>    -2.6410     0.5772   101.2222 </r>
       <r>    -2.4441     0.0000   101.2222 </r>
       <r>    -2.2473     0.0000   101.2222 </r>
       <r>    -2.0505     0.0000   101.2222 </r>
       <r>    -1.8537     2.4275   101.7000 </r>
       <r>    -1.6569     5.4782   102.7782 </r>
       <r>    -1.4601     1.7732   103.1272 </r>
       <r>    -1.2632     5.1696   104.1446 </r>
       <r>    -1.0664     9.1516   105.9458 </r>
       <r>    -0.8696     4.7778   106.8861 </r>
       <r>    -0.6728     7.6795   108.3976 </r>
       <r>    -0.4760     5.1243   109.4061 </r>
       <r>    -0.2792     4.1464   110.2222 </r>
       <r>    -0.0823     0.1133   110.2445 </r>
       <r>     0.1145     2.8067   110.7969 </r>
       <r>     0.3113     6.0053   111.9789 </r>
       <r>     0.5081     7.5430   113.4635 </r>
       <r>     0.7049     9.8552   115.4031 </r>
       <r>     0.9017     5.2488   116.4362 </r>
       <r>     1.0985     7.3962   117.8919 </r>
       <r>     1.2954    11.9314   120.2401 </r>
       <r>     1.4922    11.2805   122.4603 </r>
       <r>     1.6890    13.0792   125.0345 </r>
       <r>     1.8858    21.8723   129.3393 </r>
       <r>     2.0826    10.8479   131.4744 </r>
       <r>     2.2794     2.6704   132.0000 </r>
       <r>     2.4763     0.0002   132.0000 </r>
       <r>     2.6731     0.0000   132.0000 </r>
       <r>     2.8699     0.0000   132.0000 </r>
       <r>     3.0667     0.0000   132.0000 </r>
       <r>     3.2635     0.0000   132.0000 </r>
       <r>     3.4603     0.0000   132.0000 </r>
       <r>     3.6572     0.0000   132.0000 </r>
       <r>     3.8540     0.0000   132.0000 </r>
       <r>     4.0508     0.0000   132.0000 </r>
       <r>     4.2476     0.0000   132.0000 </r>
       <r>     4.4444     0.0000   132.0000 </r>
       <r>     4.6412     0.0000   132.0000 </r>
       <r>     4.8381     0.0000   132.0000 </r>
      </set>
      <set comment="spin 2">
       <r>   -54.2067     0.0000     0.0000 </r>
       <r>   -54.0099     0.0000     0.0000 </r>
       <r>   -53.8131     0.0000     0.0000 </r>
       <r>   -53.6163     0.0000     0.0000 </r>
       <r>   -53.4195     0.0000     0.0000 </r>
       <r>   -53.2227     0.0000     0.0000 </r>
       <r>   -53.0258     0.0000     0.0000 </r>
       <r>   -52.8290     0.0000     0.0000 </r>
       <r>   -52.6322     0.0000     0.0000 </r>
       <r>   -52.4354     0.0000     0.0000 </r>
       <r>   -52.2386     0.0000     0.0000 </r>
       <r>   -52.0418     0.0000     0.0000 </r>
       <r>   -51.8449     0.0000     0.0000 </r>
       <r>   -51.6481     0.0010     0.0002 </r>
       <r>   -51.4513     4.9708     0.9785 </r>
       <r>   -51.2545     0.1091     1.0000 </r>
       <r>   -51.0577     0.0000     1.0000 </r>
       <r>   -50.8609     0.0000     1.0000 </r>
       <r>   -50.6640     0.0000     1.0000 </r>
       <r>   -50.4672     0.0000     1.0000 </r>
       <r>   -50.2704     0.0000     1.0000 </r>
       <r>   -50.0736     0.0000     1.0000 </r>
       <r>   -49.8768     0.0000     1.0000 </r>
       <r>   -49.6800     0.0000     1.0000 </r>
       <r>   -49.4832     0.0000     1.0000 </r>
       <r>   -49.2863     0.0000     1.0000 </r>
       <r>   -49.0895     0.0000     1.0000 </r>
       <r>   -48.8927     0.0000     1.0000 </r>
       <r>   -48.6959     0.0000     1.0000 </r>
       <r>   -48.4991     0.0000     1.0000 </r>
       <r>   -48.3023     0.0000     1.0000 </r>
       <r>   -48.1054     0.0000     1.0000 </r>
       <r>   -47.9086     0.0000     1.0000 </r>
       <r>   -47.7118     0.0000     1.0000 </r>
       <r>   -47.5150     0.0000     1.0000 </r>
       <r>   -47.3182     0.0000     1.0000 </r>
       <r>   -47.1214     0.0000     1.0000 </r>
       <r>   -46.9245     0.0000     1.0000 </r>
       <r>   -46.7277     0.0000     1.0000 </r>
       <r>   -46.5309     0.0000     1.0000 </r>
       <r>   -46.3341     0.0000     1.0000 </r>
       <r>   -46.1373     0.0000     1.0000 </r>
       <r>   -45.9405     0.0000     1.0000 </r>
       <r>   -45.7436     0.0000     1.0000 </r>
       <r>   -45.5468     0.0000     1.0000 </r>
       <r>   -45.3500     0.0000     1.0000 </r>
       <r>   -45.1532     0.0000     1.0000 </r>
       <r>   -44.9564     0.0000     1.0000 </r>
       <r>   -44.7596     0.0000     1.0000 </r>
       <r>   -44.5628     0.0000     1.0000 </r>
       <r>   -44.3659     0.0000     1.0000 </r>
       <r>   -44.1691     0.0000     1.0000 </r>
       <r>   -43.9723     0.0000     1.0000 </r>
       <r>   -43.7755     0.0000     1.0000 </r>
       <r>   -43.5787     0.0000     1.0000 </r>
       <r>   -43.3819     0.0000     1.0000 </r>
       <r>   -43.1850     0.0000     1.0000 </r>
       <r>   -42.9882     0.0000     1.0000 </r>
       <r>   -42.7914     0.0000     1.0000 </r>
       <r>   -42.5946     0.0000     1.0000 </r>
       <r>   -42.3978     0.0000     1.0000 </r>
       <r>   -42.2010     0.0000     1.0000 </r>
       <r>   -42.0041     0.0000     1.0000 </r>
       <r>   -41.8073     0.0000     1.0000 </r>
       <r>   -41.6105     0.0000     1.0000 </r>
       <r>   -41.4137     0.0000     1.0000 </r>
       <r>   -41.2169     0.0000     1.0000 </r>
       <r>   -41.0201     0.0000     1.0000 </r>
       <r>   -40.8232     0.0000     1.0000 </r>
       <r>   -40.6264     0.0000     1.0000 </r>
       <r>   -40.4296     0.0000     1.0000 </r>
       <r>   -40.2328     0.0000     1.0000 </r>
       <r>   -40.0360     0.0000     1.0000 </r>
       <r>   -39.8392     0.0000     1.0000 </r>
       <r>   -39.6424     0.0000     1.0000 </r>
       <r>   -39.4455     0.0000     1.0000 </r>
       <r>   -39.2487     0.0000     1.0000 </r>
       <r>   -39.0519     0.0000     1.0000 </r>
       <r>   -38.8551     0.0000     1.0000 </r>
       <r>   -38.6583     0.0000     1.0000 </r>
       <r>   -38.4615     0.0000     1.0000 </r>
       <r>   -38.2646     0.0000     1.0000 </r>
       <r>   -38.0678     0.0000     1.0000 </r>
       <r>   -37.8710     0.0000     1.0000 </r>
       <r>   -37.6742     0.0000     1.0000 </r>
       <r>   -37.4774     0.0000     1.0000 </r>
       <r>   -37.2806     0.0000     1.0000 </r>
       <r>   -37.0837     0.0000     1.0000 </r>
       <r>   -36.8869     0.0000     1.0000 </r>
       <r>   -36.6901     0.0000     1.0000 </r>
       <r>   -36.4933     0.0000     1.0000 </r>
       <r>   -36.2965     0.0000     1.0000 </r>
       <r>   -36.0997     0.0000     1.0000 </r>
       <r>   -35.9028     0.0000     1.0000 </r>
       <r>   -35.7060     0.0000     1.0000 </r>
       <r>   -35.5092     0.0000     1.0000 </r>
       <r>   -35.3124     0.0000     1.0000 </r>
       <r>   -35.1156     0.0000     1.0000 </r>
       <r>   -34.9188     0.0000     1.0000 </r>
       <r>   -34.7220     0.0000     1.0000 </r>
       <r>   -34.5251     0.0000     1.0000 </r>
       <r>   -34.3283     0.0000     1.0000 </r>
       <r>   -34.1315     0.0000     1.0000 </r>
       <r>   -33.9347     0.0000     1.0000 </r>
       <r>   -33.7379     0.0000     1.0000 </r>
       <r>   -33.5411     0.0000     1.0000 </r>
       <r>   -33.3442     0.0000     1.0000 </r>
       <r>   -33.1474     0.0000     1.0000 </r>
       <r>   -32.9506     0.0000     1.0000 </r>
       <r>   -32.7538     0.0000     1.0000 </r>
       <r>   -32.5570     0.0000     1.0000 </r>
       <r>   -32.3602     0.0000     1.0000 </r>
       <r>   -32.1633     0.0000     1.0000 </r>
       <r>   -31.9665     0.0000     1.0000 </r>
       <r>   -31.7697     0.0000     1.0000 </r>
       <r>   -31.5729     0.0000     1.0000 </r>
       <r>   -31.3761     0.0000     1.0000 </r>
       <r>   -31.1793     0.0000     1.0000 </r>
       <r>   -30.9825     0.0000     1.0000 </r>
       <r>   -30.7856     0.0000     1.0000 </r>
       <r>   -30.5888     0.0000     1.0000 </r>
       <r>   -30.3920     0.0000     1.0000 </r>
       <r>   -30.1952     0.0000     1.0000 </r>
       <r>   -29.9984     0.0000     1.0000 </r>
       <r>   -29.8016     0.0000     1.0000 </r>
       <r>   -29.6047     0.0000     1.0000 </r>
       <r>   -29.4079     0.0000     1.0000 </r>
       <r>   -29.2111     0.0000     1.0000 </r>
       <r>   -29.0143     0.0000     1.0000 </r>
       <r>   -28.8175     0.0000     1.0000 </r>
       <r>   -28.6207     0.0000     1.0000 </r>
       <r>   -28.4238     0.0000     1.0000 </r>
       <r>   -28.2270     0.0000     1.0000 </r>
       <r>   -28.0302     0.0000     1.0000 </r>
       <r>   -27.8334     0.0000     1.0000 </r>
       <r>   -27.6366     0.0000     1.0000 </r>
       <r>   -27.4398     0.0000     1.0000 </r>
       <r>   -27.2429     0.0000     1.0000 </r>
       <r>   -27.0461     0.0000     1.0000 </r>
       <r>   -26.8493     0.0000     1.0000 </r>
       <r>   -26.6525     0.0000     1.0000 </r>
       <r>   -26.4557     0.0000     1.0000 </r>
       <r>   -26.2589     0.0000     1.0000 </r>
       <r>   -26.0621     0.0000     1.0000 </r>
       <r>   -25.8652     0.0000     1.0000 </r>
       <r>   -25.6684     0.0000     1.0000 </r>
       <r>   -25.4716     0.0000     1.0000 </r>
       <r>   -25.2748     0.0000     1.0000 </r>
       <r>   -25.0780     0.0000     1.0000 </r>
       <r>   -24.8812     0.0000     1.0000 </r>
       <r>   -24.6843     0.0000     1.0000 </r>
       <r>   -24.4875     0.0000     1.0000 </r>
       <r>   -24.2907     0.0000     1.0000 </r>
       <r>   -24.0939     0.0000     1.0000 </r>
       <r>   -23.8971     0.0000     1.0000 </r>
       <r>   -23.7003     0.0000     1.0000 </r>
       <r>   -23.5034     0.0000     1.0000 </r>
       <r>   -23.3066     0.0000     1.0000 </r>
       <r>   -23.1098     0.0000     1.0000 </r>
       <r>   -22.9130     0.0000     1.0000 </r>
       <r>   -22.7162     0.0000     1.0000 </r>
       <r>   -22.5194     0.0039     1.0008 </r>
       <r>   -22.3225     3.0662     1.6043 </r>
       <r>   -22.1257     2.0119     2.0002 </r>
       <r>   -21.9289     5.4073     3.0645 </r>
       <r>   -21.7321     0.3115     3.1258 </r>
       <r>   -21.5353     7.3102     4.5646 </r>
       <r>   -21.3385     2.2996     5.0171 </r>
       <r>   -21.1417     2.0187     5.4145 </r>
       <r>   -20.9448     8.4412     7.0758 </r>
       <r>   -20.7480     0.3838     7.1514 </r>
       <r>   -20.5512     3.1868     7.7786 </r>
       <r>   -20.3544     6.1494     8.9889 </r>
       <r>   -20.1576     4.8168     9.9369 </r>
       <r>   -19.9608     2.5788    10.4444 </r>
       <r>   -19.7639     2.3415    10.9053 </r>
       <r>   -19.5671     3.5755    11.6090 </r>
       <r>   -19.3703     7.6314    13.1110 </r>
       <r>   -19.1735     3.1642    13.7337 </r>
       <r>   -18.9767     3.6110    14.4444 </r>
       <r>   -18.7799     0.0423    14.4528 </r>
       <r>   -18.5830     7.5379    15.9364 </r>
       <r>   -18.3862     5.9454    17.1065 </r>
       <r>   -18.1894     3.4103    17.7777 </r>
       <r>   -17.9926     4.1264    18.5899 </r>
       <r>   -17.7958     2.6485    19.1111 </r>
       <r>   -17.5990     0.3830    19.1865 </r>
       <r>   -17.4021    11.7478    21.4986 </r>
       <r>   -17.2053     3.2128    22.1310 </r>
       <r>   -17.0085     7.4202    23.5914 </r>
       <r>   -16.8117     0.9470    23.7778 </r>
       <r>   -16.6149     0.0930    23.7961 </r>
       <r>   -16.4181     4.1811    24.6190 </r>
       <r>   -16.2213     5.8877    25.7778 </r>
       <r>   -16.0244     1.6504    26.1026 </r>
       <r>   -15.8276     1.7370    26.4445 </r>
       <r>   -15.6308     3.1734    27.0690 </r>
       <r>   -15.4340     7.7111    28.5867 </r>
       <r>   -15.2372     4.9227    29.5556 </r>
       <r>   -15.0404     0.0033    29.5562 </r>
       <r>   -14.8435    11.2879    31.7778 </r>
       <r>   -14.6467     2.2578    32.2222 </r>
       <r>   -14.4499     4.7849    33.1640 </r>
       <r>   -14.2531     2.0190    33.5614 </r>
       <r>   -14.0563     3.5191    34.2540 </r>
       <r>   -13.8595     7.2943    35.6896 </r>
       <r>   -13.6626     2.7046    36.2219 </r>
       <r>   -13.4658     0.0486    36.2315 </r>
       <r>   -13.2690     5.0776    37.2308 </r>
       <r>   -13.0722     4.9309    38.2013 </r>
       <r>   -12.8754     4.6714    39.1207 </r>
       <r>   -12.6786     6.7188    40.4431 </r>
       <r>   -12.4818     0.8023    40.6010 </r>
       <r>   -12.2849     9.8520    42.5400 </r>
       <r>   -12.0881     2.9004    43.1109 </r>
       <r>   -11.8913     0.0182    43.1144 </r>
       <r>   -11.6945     4.1366    43.9286 </r>
       <r>   -11.4977    14.5788    46.7979 </r>
       <r>   -11.3009     1.5913    47.1111 </r>
       <r>   -11.1040     3.8285    47.8646 </r>
       <r>   -10.9072     2.9460    48.4444 </r>
       <r>   -10.7104     6.3225    49.6888 </r>
       <r>   -10.5136     6.3846    50.9454 </r>
       <r>   -10.3168    11.4965    53.2081 </r>
       <r>   -10.1200     7.9453    54.7719 </r>
       <r>    -9.9231     5.7213    55.8979 </r>
       <r>    -9.7263    13.3448    58.5244 </r>
       <r>    -9.5295    10.7955    60.6491 </r>
       <r>    -9.3327    10.2469    62.6659 </r>
       <r>    -9.1359    12.7409    65.1735 </r>
       <r>    -8.9391    17.8201    68.6807 </r>
       <r>    -8.7422     6.2896    69.9186 </r>
       <r>    -8.5454    10.2896    71.9438 </r>
       <r>    -8.3486     3.1724    72.5682 </r>
       <r>    -8.1518    15.2282    75.5653 </r>
       <r>    -7.9550    12.7542    78.0756 </r>
       <r>    -7.7582     5.8217    79.2214 </r>
       <r>    -7.5614     0.1439    79.2497 </r>
       <r>    -7.3645     7.9960    80.8234 </r>
       <r>    -7.1677    16.2579    84.0232 </r>
       <r>    -6.9709     4.8300    84.9739 </r>
       <r>    -6.7741     7.5312    86.4561 </r>
       <r>    -6.5773     3.5225    87.1494 </r>
       <r>    -6.3805     4.9949    88.1325 </r>
       <r>    -6.1836     9.8773    90.0765 </r>
       <r>    -5.9868     8.8548    91.8193 </r>
       <r>    -5.7900     4.7106    92.7464 </r>
       <r>    -5.5932     6.9297    94.1103 </r>
       <r>    -5.3964     1.9366    94.4914 </r>
       <r>    -5.1996     3.3038    95.1417 </r>
       <r>    -5.0027     8.5375    96.8220 </r>
       <r>    -4.8059     9.9329    98.7770 </r>
       <r>    -4.6091     0.0042    98.7778 </r>
       <r>    -4.4123     1.1143    98.9971 </r>
       <r>    -4.2155     2.1394    99.4182 </r>
       <r>    -4.0187     0.2370    99.4648 </r>
       <r>    -3.8218     6.6668   100.7770 </r>
       <r>    -3.6250     0.0042   100.7778 </r>
       <r>    -3.4282     0.0000   100.7778 </r>
       <r>    -3.2314     0.0000   100.7778 </r>
       <r>    -3.0346     0.0000   100.7778 </r>
       <r>    -2.8378     1.6809   101.1086 </r>
       <r>    -2.6410     0.5772   101.2222 </r>
       <r>    -2.4441     0.0000   101.2222 </r>
       <r>    -2.2473     0.0000   101.2222 </r>
       <r>    -2.0505     0.0000   101.2222 </r>
       <r>    -1.8537     2.4272   101.6999 </r>
       <r>    -1.6569     5.4784   102.7782 </r>
       <r>    -1.4601     1.7732   103.1272 </r>
       <r>    -1.2632     5.1679   104.1443 </r>
       <r>    -1.0664     9.1509   105.9453 </r>
       <r>    -0.8696     4.7801   106.8861 </r>
       <r>    -0.6728     7.6794   108.3975 </r>
       <r>    -0.4760     5.1241   109.4060 </r>
       <r>    -0.2792     4.1469   110.2222 </r>
       <r>    -0.0823     0.1132   110.2445 </r>
       <r>     0.1145     2.8060   110.7968 </r>
       <r>     0.3113     5.9663   111.9710 </r>
       <r>     0.5081     7.5672   113.4604 </r>
       <r>     0.7049     9.8653   115.4020 </r>
       <r>     0.9017     5.2332   116.4320 </r>
       <r>     1.0985     7.6100   117.9298 </r>
       <r>     1.2954    12.1085   120.3129 </r>
       <r>     1.4922    12.1092   122.6962 </r>
       <r>     1.6890    12.0710   125.0720 </r>
       <r>     1.8858    22.0322   129.4083 </r>
       <r>     2.0826    10.7463   131.5233 </r>
       <r>     2.2794     2.4219   132.0000 </r>
       <r>     2.4763     0.0001   132.0000 </r>
       <r>     2.6731     0.0000   132.0000 </r>
       <r>     2.8699     0.0000   132.0000 </r>
       <r>     3.0667     0.0000   132.0000 </r>
       <r>     3.2635     0.0000   132.0000 </r>
       <r>     3.4603     0.0000   132.0000 </r>
       <r>     3.6572     0.0000   132.0000 </r>
       <r>     3.8540     0.0000   132.0000 </r>
       <r>     4.0508     0.0000   132.0000 </r>
       <r>     4.2476     0.0000   132.0000 </r>
       <r>     4.4444     0.0000   132.0000 </r>
       <r>     4.6412     0.0000   132.0000 </r>
       <r>     4.8381     0.0000   132.0000 </r>
      </set>
     </set>
    </array>
   </total>
  </dos>
 </calculation>
 <structure name="finalpos" >
  <crystal>
   <varray name="basis" >
    <v>      12.30000000       0.00000000       0.00000000 </v>
    <v>      -6.15000000      10.65211247       0.00000000 </v>
    <v>       0.00000000       0.00000000      30.00000000 </v>
   </varray>
   <i name="volume">   3930.62950016 </i>
   <varray name="rec_basis" >
    <v>       0.08130081       0.04693905       0.00000000 </v>
    <v>       0.00000000       0.09387809       0.00000000 </v>
    <v>       0.00000000       0.00000000       0.03333333 </v>
   </varray>
  </crystal>
  <varray name="positions" >
   <v>       0.99988345       0.99976655       0.50070365 </v>
   <v>       0.13313835       0.06628113       0.50076414 </v>
   <v>       0.99986462       0.19951048       0.50066204 </v>
   <v>       0.13305819       0.26611600       0.50076947 </v>
   <v>       0.99990120       0.39942212       0.49998752 </v>
   <v>       0.13338012       0.46632027       0.50055545 </v>
   <v>       0.00048883       0.59983601       0.49930029 </v>
   <v>       0.13338223       0.66639362       0.50027805 </v>
   <v>       0.00013167       0.80005692       0.50007430 </v>
   <v>       0.13342895       0.86639370       0.50062777 </v>
   <v>       0.19988452       0.99968809       0.50070413 </v>
   <v>       0.53269490       0.26567077       0.49881187 </v>
   <v>       0.39952012       0.39942278       0.49998743 </v>
   <v>       0.33300586       0.26609951       0.50014356 </v>
   <v>       0.19981037       0.39962309       0.50075225 </v>
   <v>       0.33294004       0.46632029       0.50055536 </v>
   <v>       0.19997977       0.59953607       0.50060301 </v>
   <v>       0.33310144       0.66620258       0.50078017 </v>
   <v>       0.19991176       0.79974914       0.50056953 </v>
   <v>       0.33323385       0.86627322       0.50060775 </v>
   <v>       0.39973654       0.99953012       0.50025629 </v>
   <v>       0.53301150       0.06602273       0.49980551 </v>
   <v>       0.39946049       0.19938192       0.49980423 </v>
   <v>       0.33298763       0.06605684       0.50031679 </v>
   <v>       0.19964609       0.19951040       0.50066207 </v>
   <v>       0.53246359       0.46605661       0.49899750 </v>
   <v>       0.59983768       0.79974909       0.50056930 </v>
   <v>       0.53301162       0.66639344       0.50027784 </v>
   <v>       0.39984966       0.79969901       0.50068206 </v>
   <v>       0.53303957       0.86627318       0.50060762 </v>
   <v>       0.59979394       0.99953014       0.50025619 </v>
   <v>       0.73306943       0.06605683       0.50031666 </v>
   <v>       0.59959923       0.19919799       0.49887261 </v>
   <v>       0.73297608       0.26567075       0.49881183 </v>
   <v>       0.59905631       0.39903661       0.49790284 </v>
   <v>       0.73285164       0.46570284       0.49584713 </v>
   <v>       0.59934769       0.59983616       0.49930013 </v>
   <v>       0.93325060       0.86650095       0.50020757 </v>
   <v>       0.39955622       0.59953654       0.50060288 </v>
   <v>       0.73296500       0.86639367       0.50062756 </v>
   <v>       0.79980395       0.99968811       0.50070396 </v>
   <v>       0.93314298       0.06628108       0.50076405 </v>
   <v>       0.79992187       0.19938193       0.49980417 </v>
   <v>       0.93309373       0.26609919       0.50014357 </v>
   <v>       0.79998080       0.39903666       0.49790285 </v>
   <v>       0.93359301       0.46605671       0.49899760 </v>
   <v>       0.80010598       0.60021136       0.49686686 </v>
   <v>       0.93384667       0.66677439       0.49886028 </v>
   <v>       0.79992566       0.80005696       0.50007418 </v>
   <v>       0.73292796       0.66677434       0.49886021 </v>
   <v>       0.90034749       0.63326246       0.55656547 </v>
  </varray>
 </structure>
</modeling>
