  51  51   0   0
  0.7707117E+02  0.1230000E-08  0.1230000E-08  0.3000000E-08  0.5000000E-15
  1.000000000000000E-004
  CAR 
 Li defective graphene MACE training lab 
      4.86385999    -54.26956697  301     -1.85963894      1.00000000
    -54.270  0.0000E+00  0.0000E+00  0.0000E+00  0.0000E+00
    -54.072  0.0000E+00  0.0000E+00  0.0000E+00  0.0000E+00
    -53.875  0.0000E+00  0.0000E+00  0.0000E+00  0.0000E+00
    -53.678  0.0000E+00  0.0000E+00  0.0000E+00  0.0000E+00
    -53.481  0.0000E+00  0.0000E+00  0.0000E+00  0.0000E+00
    -53.284  0.0000E+00  0.0000E+00  0.0000E+00  0.0000E+00
    -53.087  0.0000E+00  0.0000E+00  0.0000E+00  0.0000E+00
    -52.890  0.0000E+00  0.0000E+00  0.0000E+00  0.0000E+00
    -52.693  0.0000E+00  0.0000E+00  0.0000E+00  0.0000E+00
    -52.496  0.0000E+00  0.0000E+00  0.0000E+00  0.0000E+00
    -52.298  0.0000E+00  0.0000E+00  0.0000E+00  0.0000E+00
    -52.101  0.0000E+00  0.0000E+00  0.0000E+00  0.0000E+00
    -51.904  0.0000E+00  0.0000E+00  0.0000E+00  0.0000E+00
    -51.707  0.9852E-03  0.9852E-03  0.1942E-03  0.1942E-03
    -51.510  0.4964E+01  0.4964E+01  0.9787E+00  0.9787E+00
    -51.313  0.1081E+00  0.1081E+00  0.1000E+01  0.1000E+01
    -51.116  0.0000E+00  0.0000E+00  0.1000E+01  0.1000E+01
    -50.919  0.0000E+00  0.0000E+00  0.1000E+01  0.1000E+01
    -50.722  0.0000E+00  0.0000E+00  0.1000E+01  0.1000E+01
    -50.524  0.0000E+00  0.0000E+00  0.1000E+01  0.1000E+01
    -50.327  0.0000E+00  0.0000E+00  0.1000E+01  0.1000E+01
    -50.130  0.0000E+00  0.0000E+00  0.1000E+01  0.1000E+01
    -49.933  0.0000E+00  0.0000E+00  0.1000E+01  0.1000E+01
    -49.736  0.0000E+00  0.0000E+00  0.1000E+01  0.1000E+01
    -49.539  0.0000E+00  0.0000E+00  0.1000E+01  0.1000E+01
    -49.342  0.0000E+00  0.0000E+00  0.1000E+01  0.1000E+01
    -49.145  0.0000E+00  0.0000E+00  0.1000E+01  0.1000E+01
    -48.948  0.0000E+00  0.0000E+00  0.1000E+01  0.1000E+01
    -48.750  0.0000E+00  0.0000E+00  0.1000E+01  0.1000E+01
    -48.553  0.0000E+00  0.0000E+00  0.1000E+01  0.1000E+01
    -48.356  0.0000E+00  0.0000E+00  0.1000E+01  0.1000E+01
    -48.159  0.0000E+00  0.0000E+00  0.1000E+01  0.1000E+01
    -47.962  0.0000E+00  0.0000E+00  0.1000E+01  0.1000E+01
    -47.765  0.0000E+00  0.0000E+00  0.1000E+01  0.1000E+01
    -47.568  0.0000E+00  0.0000E+00  0.1000E+01  0.1000E+01
    -47.371  0.0000E+00  0.0000E+00  0.1000E+01  0.1000E+01
    -47.174  0.0000E+00  0.0000E+00  0.1000E+01  0.1000E+01
    -46.976  0.0000E+00  0.0000E+00  0.1000E+01  0.1000E+01
    -46.779  0.0000E+00  0.0000E+00  0.1000E+01  0.1000E+01
    -46.582  0.0000E+00  0.0000E+00  0.1000E+01  0.1000E+01
    -46.385  0.0000E+00  0.0000E+00  0.1000E+01  0.1000E+01
    -46.188  0.0000E+00  0.0000E+00  0.1000E+01  0.1000E+01
    -45.991  0.0000E+00  0.0000E+00  0.1000E+01  0.1000E+01
    -45.794  0.0000E+00  0.0000E+00  0.1000E+01  0.1000E+01
    -45.597  0.0000E+00  0.0000E+00  0.1000E+01  0.1000E+01
    -45.400  0.0000E+00  0.0000E+00  0.1000E+01  0.1000E+01
    -45.202  0.0000E+00  0.0000E+00  0.1000E+01  0.1000E+01
    -45.005  0.0000E+00  0.0000E+00  0.1000E+01  0.1000E+01
    -44.808  0.0000E+00  0.0000E+00  0.1000E+01  0.1000E+01
    -44.611  0.0000E+00  0.0000E+00  0.1000E+01  0.1000E+01
    -44.414  0.0000E+00  0.0000E+00  0.1000E+01  0.1000E+01
    -44.217  0.0000E+00  0.0000E+00  0.1000E+01  0.1000E+01
    -44.020  0.0000E+00  0.0000E+00  0.1000E+01  0.1000E+01
    -43.823  0.0000E+00  0.0000E+00  0.1000E+01  0.1000E+01
    -43.626  0.0000E+00  0.0000E+00  0.1000E+01  0.1000E+01
    -43.428  0.0000E+00  0.0000E+00  0.1000E+01  0.1000E+01
    -43.231  0.0000E+00  0.0000E+00  0.1000E+01  0.1000E+01
    -43.034  0.0000E+00  0.0000E+00  0.1000E+01  0.1000E+01
    -42.837  0.0000E+00  0.0000E+00  0.1000E+01  0.1000E+01
    -42.640  0.0000E+00  0.0000E+00  0.1000E+01  0.1000E+01
    -42.443  0.0000E+00  0.0000E+00  0.1000E+01  0.1000E+01
    -42.246  0.0000E+00  0.0000E+00  0.1000E+01  0.1000E+01
    -42.049  0.0000E+00  0.0000E+00  0.1000E+01  0.1000E+01
    -41.852  0.0000E+00  0.0000E+00  0.1000E+01  0.1000E+01
    -41.654  0.0000E+00  0.0000E+00  0.1000E+01  0.1000E+01
    -41.457  0.0000E+00  0.0000E+00  0.1000E+01  0.1000E+01
    -41.260  0.0000E+00  0.0000E+00  0.1000E+01  0.1000E+01
    -41.063  0.0000E+00  0.0000E+00  0.1000E+01  0.1000E+01
    -40.866  0.0000E+00  0.0000E+00  0.1000E+01  0.1000E+01
    -40.669  0.0000E+00  0.0000E+00  0.1000E+01  0.1000E+01
    -40.472  0.0000E+00  0.0000E+00  0.1000E+01  0.1000E+01
    -40.275  0.0000E+00  0.0000E+00  0.1000E+01  0.1000E+01
    -40.078  0.0000E+00  0.0000E+00  0.1000E+01  0.1000E+01
    -39.880  0.0000E+00  0.0000E+00  0.1000E+01  0.1000E+01
    -39.683  0.0000E+00  0.0000E+00  0.1000E+01  0.1000E+01
    -39.486  0.0000E+00  0.0000E+00  0.1000E+01  0.1000E+01
    -39.289  0.0000E+00  0.0000E+00  0.1000E+01  0.1000E+01
    -39.092  0.0000E+00  0.0000E+00  0.1000E+01  0.1000E+01
    -38.895  0.0000E+00  0.0000E+00  0.1000E+01  0.1000E+01
    -38.698  0.0000E+00  0.0000E+00  0.1000E+01  0.1000E+01
    -38.501  0.0000E+00  0.0000E+00  0.1000E+01  0.1000E+01
    -38.304  0.0000E+00  0.0000E+00  0.1000E+01  0.1000E+01
    -38.106  0.0000E+00  0.0000E+00  0.1000E+01  0.1000E+01
    -37.909  0.0000E+00  0.0000E+00  0.1000E+01  0.1000E+01
    -37.712  0.0000E+00  0.0000E+00  0.1000E+01  0.1000E+01
    -37.515  0.0000E+00  0.0000E+00  0.1000E+01  0.1000E+01
    -37.318  0.0000E+00  0.0000E+00  0.1000E+01  0.1000E+01
    -37.121  0.0000E+00  0.0000E+00  0.1000E+01  0.1000E+01
    -36.924  0.0000E+00  0.0000E+00  0.1000E+01  0.1000E+01
    -36.727  0.0000E+00  0.0000E+00  0.1000E+01  0.1000E+01
    -36.530  0.0000E+00  0.0000E+00  0.1000E+01  0.1000E+01
    -36.332  0.0000E+00  0.0000E+00  0.1000E+01  0.1000E+01
    -36.135  0.0000E+00  0.0000E+00  0.1000E+01  0.1000E+01
    -35.938  0.0000E+00  0.0000E+00  0.1000E+01  0.1000E+01
    -35.741  0.0000E+00  0.0000E+00  0.1000E+01  0.1000E+01
    -35.544  0.0000E+00  0.0000E+00  0.1000E+01  0.1000E+01
    -35.347  0.0000E+00  0.0000E+00  0.1000E+01  0.1000E+01
    -35.150  0.0000E+00  0.0000E+00  0.1000E+01  0.1000E+01
    -34.953  0.0000E+00  0.0000E+00  0.1000E+01  0.1000E+01
    -34.756  0.0000E+00  0.0000E+00  0.1000E+01  0.1000E+01
    -34.558  0.0000E+00  0.0000E+00  0.1000E+01  0.1000E+01
    -34.361  0.0000E+00  0.0000E+00  0.1000E+01  0.1000E+01
    -34.164  0.0000E+00  0.0000E+00  0.1000E+01  0.1000E+01
    -33.967  0.0000E+00  0.0000E+00  0.1000E+01  0.1000E+01
    -33.770  0.0000E+00  0.0000E+00  0.1000E+01  0.1000E+01
    -33.573  0.0000E+00  0.0000E+00  0.1000E+01  0.1000E+01
    -33.376  0.0000E+00  0.0000E+00  0.1000E+01  0.1000E+01
    -33.179  0.0000E+00  0.0000E+00  0.1000E+01  0.1000E+01
    -32.982  0.0000E+00  0.0000E+00  0.1000E+01  0.1000E+01
    -32.784  0.0000E+00  0.0000E+00  0.1000E+01  0.1000E+01
    -32.587  0.0000E+00  0.0000E+00  0.1000E+01  0.1000E+01
    -32.390  0.0000E+00  0.0000E+00  0.1000E+01  0.1000E+01
    -32.193  0.0000E+00  0.0000E+00  0.1000E+01  0.1000E+01
    -31.996  0.0000E+00  0.0000E+00  0.1000E+01  0.1000E+01
    -31.799  0.0000E+00  0.0000E+00  0.1000E+01  0.1000E+01
    -31.602  0.0000E+00  0.0000E+00  0.1000E+01  0.1000E+01
    -31.405  0.0000E+00  0.0000E+00  0.1000E+01  0.1000E+01
    -31.208  0.0000E+00  0.0000E+00  0.1000E+01  0.1000E+01
    -31.010  0.0000E+00  0.0000E+00  0.1000E+01  0.1000E+01
    -30.813  0.0000E+00  0.0000E+00  0.1000E+01  0.1000E+01
    -30.616  0.0000E+00  0.0000E+00  0.1000E+01  0.1000E+01
    -30.419  0.0000E+00  0.0000E+00  0.1000E+01  0.1000E+01
    -30.222  0.0000E+00  0.0000E+00  0.1000E+01  0.1000E+01
    -30.025  0.0000E+00  0.0000E+00  0.1000E+01  0.1000E+01
    -29.828  0.0000E+00  0.0000E+00  0.1000E+01  0.1000E+01
    -29.631  0.0000E+00  0.0000E+00  0.1000E+01  0.1000E+01
    -29.434  0.0000E+00  0.0000E+00  0.1000E+01  0.1000E+01
    -29.236  0.0000E+00  0.0000E+00  0.1000E+01  0.1000E+01
    -29.039  0.0000E+00  0.0000E+00  0.1000E+01  0.1000E+01
    -28.842  0.0000E+00  0.0000E+00  0.1000E+01  0.1000E+01
    -28.645  0.0000E+00  0.0000E+00  0.1000E+01  0.1000E+01
    -28.448  0.0000E+00  0.0000E+00  0.1000E+01  0.1000E+01
    -28.251  0.0000E+00  0.0000E+00  0.1000E+01  0.1000E+01
    -28.054  0.0000E+00  0.0000E+00  0.1000E+01  0.1000E+01
    -27.857  0.0000E+00  0.0000E+00  0.1000E+01  0.1000E+01
    -27.660  0.0000E+00  0.0000E+00  0.1000E+01  0.1000E+01
    -27.462  0.0000E+00  0.0000E+00  0.1000E+01  0.1000E+01
    -27.265  0.0000E+00  0.0000E+00  0.1000E+01  0.1000E+01
    -27.068  0.0000E+00  0.0000E+00  0.1000E+01  0.1000E+01
    -26.871  0.0000E+00  0.0000E+00  0.1000E+01  0.1000E+01
    -26.674  0.0000E+00  0.0000E+00  0.1000E+01  0.1000E+01
    -26.477  0.0000E+00  0.0000E+00  0.1000E+01  0.1000E+01
    -26.280  0.0000E+00  0.0000E+00  0.1000E+01  0.1000E+01
    -26.083  0.0000E+00  0.0000E+00  0.1000E+01  0.1000E+01
    -25.886  0.0000E+00  0.0000E+00  0.1000E+01  0.1000E+01
    -25.688  0.0000E+00  0.0000E+00  0.1000E+01  0.1000E+01
    -25.491  0.0000E+00  0.0000E+00  0.1000E+01  0.1000E+01
    -25.294  0.0000E+00  0.0000E+00  0.1000E+01  0.1000E+01
    -25.097  0.0000E+00  0.0000E+00  0.1000E+01  0.1000E+01
    -24.900  0.0000E+00  0.0000E+00  0.1000E+01  0.1000E+01
    -24.703  0.0000E+00  0.0000E+00  0.1000E+01  0.1000E+01
    -24.506  0.0000E+00  0.0000E+00  0.1000E+01  0.1000E+01
    -24.309  0.0000E+00  0.0000E+00  0.1000E+01  0.1000E+01
    -24.112  0.0000E+00  0.0000E+00  0.1000E+01  0.1000E+01
    -23.914  0.0000E+00  0.0000E+00  0.1000E+01  0.1000E+01
    -23.717  0.0000E+00  0.0000E+00  0.1000E+01  0.1000E+01
    -23.520  0.0000E+00  0.0000E+00  0.1000E+01  0.1000E+01
    -23.323  0.0000E+00  0.0000E+00  0.1000E+01  0.1000E+01
    -23.126  0.0000E+00  0.0000E+00  0.1000E+01  0.1000E+01
    -22.929  0.0000E+00  0.0000E+00  0.1000E+01  0.1000E+01
    -22.732  0.0000E+00  0.0000E+00  0.1000E+01  0.1000E+01
    -22.535  0.4095E-03  0.4095E-03  0.1000E+01  0.1000E+01
    -22.338  0.2060E+01  0.2060E+01  0.1406E+01  0.1406E+01
    -22.140  0.3011E+01  0.3011E+01  0.2000E+01  0.2000E+01
    -21.943  0.4917E+01  0.4917E+01  0.2969E+01  0.2969E+01
    -21.746  0.7326E+00  0.7325E+00  0.3113E+01  0.3113E+01
    -21.549  0.7286E+01  0.7286E+01  0.4549E+01  0.4549E+01
    -21.352  0.2058E+01  0.2059E+01  0.4955E+01  0.4955E+01
    -21.155  0.1669E+01  0.1669E+01  0.5284E+01  0.5284E+01
    -20.958  0.8851E+01  0.8851E+01  0.7029E+01  0.7029E+01
    -20.761  0.4797E+00  0.4797E+00  0.7123E+01  0.7123E+01
    -20.564  0.3320E+01  0.3320E+01  0.7778E+01  0.7778E+01
    -20.366  0.5528E+01  0.5528E+01  0.8867E+01  0.8867E+01
    -20.169  0.4975E+01  0.4975E+01  0.9848E+01  0.9848E+01
    -19.972  0.3026E+01  0.3026E+01  0.1044E+02  0.1044E+02
    -19.775  0.1662E+01  0.1662E+01  0.1077E+02  0.1077E+02
    -19.578  0.3726E+01  0.3726E+01  0.1151E+02  0.1151E+02
    -19.381  0.8136E+01  0.8136E+01  0.1311E+02  0.1311E+02
    -19.184  0.1957E+01  0.1957E+01  0.1350E+02  0.1350E+02
    -18.987  0.4813E+01  0.4813E+01  0.1444E+02  0.1444E+02
    -18.790  0.1243E-01  0.1243E-01  0.1445E+02  0.1445E+02
    -18.592  0.6566E+01  0.6566E+01  0.1574E+02  0.1574E+02
    -18.395  0.6636E+01  0.6636E+01  0.1705E+02  0.1705E+02
    -18.198  0.3694E+01  0.3694E+01  0.1778E+02  0.1778E+02
    -18.001  0.2945E+01  0.2945E+01  0.1836E+02  0.1836E+02
    -17.804  0.3821E+01  0.3821E+01  0.1911E+02  0.1911E+02
    -17.607  0.1646E+00  0.1646E+00  0.1914E+02  0.1914E+02
    -17.410  0.1111E+02  0.1111E+02  0.2133E+02  0.2133E+02
    -17.213  0.3291E+01  0.3291E+01  0.2198E+02  0.2198E+02
    -17.016  0.7686E+01  0.7686E+01  0.2350E+02  0.2350E+02
    -16.818  0.1424E+01  0.1424E+01  0.2378E+02  0.2378E+02
    -16.621  0.2349E-01  0.2349E-01  0.2378E+02  0.2378E+02
    -16.424  0.3546E+01  0.3546E+01  0.2448E+02  0.2448E+02
    -16.227  0.6577E+01  0.6577E+01  0.2578E+02  0.2578E+02
    -16.030  0.1161E+01  0.1161E+01  0.2601E+02  0.2601E+02
    -15.833  0.2222E+01  0.2222E+01  0.2644E+02  0.2644E+02
    -15.636  0.2937E+01  0.2937E+01  0.2702E+02  0.2702E+02
    -15.439  0.6644E+01  0.6644E+01  0.2833E+02  0.2833E+02
    -15.242  0.6203E+01  0.6203E+01  0.2956E+02  0.2956E+02
    -15.044  0.7294E-03  0.7295E-03  0.2956E+02  0.2956E+02
    -14.847  0.1044E+02  0.1044E+02  0.3161E+02  0.3161E+02
    -14.650  0.3083E+01  0.3083E+01  0.3222E+02  0.3222E+02
    -14.453  0.4206E+01  0.4206E+01  0.3305E+02  0.3305E+02
    -14.256  0.2568E+01  0.2568E+01  0.3356E+02  0.3356E+02
    -14.059  0.3410E+01  0.3410E+01  0.3423E+02  0.3423E+02
    -13.862  0.7146E+01  0.7146E+01  0.3564E+02  0.3564E+02
    -13.665  0.2961E+01  0.2961E+01  0.3622E+02  0.3622E+02
    -13.468  0.3058E-01  0.3058E-01  0.3623E+02  0.3623E+02
    -13.270  0.4364E+01  0.4364E+01  0.3709E+02  0.3709E+02
    -13.073  0.4966E+01  0.4966E+01  0.3807E+02  0.3807E+02
    -12.876  0.5322E+01  0.5322E+01  0.3912E+02  0.3912E+02
    -12.679  0.6726E+01  0.6726E+01  0.4044E+02  0.4044E+02
    -12.482  0.5876E+00  0.5877E+00  0.4056E+02  0.4056E+02
    -12.285  0.9708E+01  0.9708E+01  0.4247E+02  0.4247E+02
    -12.088  0.3245E+01  0.3245E+01  0.4311E+02  0.4311E+02
    -11.891  0.5190E-02  0.5190E-02  0.4311E+02  0.4311E+02
    -11.693  0.4047E+01  0.4047E+01  0.4391E+02  0.4391E+02
    -11.496  0.1430E+02  0.1430E+02  0.4673E+02  0.4673E+02
    -11.299  0.1947E+01  0.1947E+01  0.4711E+02  0.4711E+02
    -11.102  0.3417E+01  0.3417E+01  0.4778E+02  0.4778E+02
    -10.905  0.3348E+01  0.3348E+01  0.4844E+02  0.4844E+02
    -10.708  0.5723E+01  0.5723E+01  0.4957E+02  0.4957E+02
    -10.511  0.6579E+01  0.6579E+01  0.5087E+02  0.5087E+02
    -10.314  0.1136E+02  0.1136E+02  0.5311E+02  0.5311E+02
    -10.117  0.8384E+01  0.8384E+01  0.5476E+02  0.5476E+02
     -9.919  0.5750E+01  0.5750E+01  0.5589E+02  0.5589E+02
     -9.722  0.1320E+02  0.1320E+02  0.5850E+02  0.5850E+02
     -9.525  0.1078E+02  0.1078E+02  0.6062E+02  0.6062E+02
     -9.328  0.1021E+02  0.1021E+02  0.6263E+02  0.6263E+02
     -9.131  0.1269E+02  0.1269E+02  0.6514E+02  0.6514E+02
     -8.934  0.1799E+02  0.1799E+02  0.6868E+02  0.6868E+02
     -8.737  0.6227E+01  0.6227E+01  0.6991E+02  0.6991E+02
     -8.540  0.1028E+02  0.1028E+02  0.7194E+02  0.7194E+02
     -8.343  0.3186E+01  0.3186E+01  0.7256E+02  0.7256E+02
     -8.145  0.1539E+02  0.1539E+02  0.7560E+02  0.7560E+02
     -7.948  0.1252E+02  0.1252E+02  0.7807E+02  0.7807E+02
     -7.751  0.5865E+01  0.5865E+01  0.7922E+02  0.7922E+02
     -7.554  0.1505E+00  0.1505E+00  0.7925E+02  0.7925E+02
     -7.357  0.8043E+01  0.8043E+01  0.8084E+02  0.8084E+02
     -7.160  0.1628E+02  0.1628E+02  0.8404E+02  0.8404E+02
     -6.963  0.4719E+01  0.4719E+01  0.8497E+02  0.8497E+02
     -6.766  0.7600E+01  0.7600E+01  0.8647E+02  0.8647E+02
     -6.569  0.3440E+01  0.3440E+01  0.8715E+02  0.8715E+02
     -6.371  0.4980E+01  0.4980E+01  0.8813E+02  0.8813E+02
     -6.174  0.1031E+02  0.1031E+02  0.9016E+02  0.9016E+02
     -5.977  0.8437E+01  0.8437E+01  0.9183E+02  0.9183E+02
     -5.780  0.4730E+01  0.4730E+01  0.9276E+02  0.9276E+02
     -5.583  0.6851E+01  0.6851E+01  0.9411E+02  0.9411E+02
     -5.386  0.2091E+01  0.2091E+01  0.9452E+02  0.9452E+02
     -5.189  0.3248E+01  0.3248E+01  0.9516E+02  0.9516E+02
     -4.992  0.8620E+01  0.8620E+01  0.9686E+02  0.9686E+02
     -4.795  0.9717E+01  0.9717E+01  0.9878E+02  0.9878E+02
     -4.597  0.2394E-02  0.2394E-02  0.9878E+02  0.9878E+02
     -4.400  0.1148E+01  0.1148E+01  0.9900E+02  0.9900E+02
     -4.203  0.2133E+01  0.2133E+01  0.9942E+02  0.9942E+02
     -4.006  0.2566E+00  0.2566E+00  0.9948E+02  0.9948E+02
     -3.809  0.6607E+01  0.6607E+01  0.1008E+03  0.1008E+03
     -3.612  0.2250E-02  0.2249E-02  0.1008E+03  0.1008E+03
     -3.415  0.0000E+00  0.0000E+00  0.1008E+03  0.1008E+03
     -3.218  0.0000E+00  0.0000E+00  0.1008E+03  0.1008E+03
     -3.021  0.3532E-05  0.3532E-05  0.1008E+03  0.1008E+03
     -2.823  0.1781E+01  0.1781E+01  0.1011E+03  0.1011E+03
     -2.626  0.4733E+00  0.4733E+00  0.1012E+03  0.1012E+03
     -2.429  0.0000E+00  0.0000E+00  0.1012E+03  0.1012E+03
     -2.232  0.0000E+00  0.0000E+00  0.1012E+03  0.1012E+03
     -2.035  0.9374E-06  0.9377E-06  0.1012E+03  0.1012E+03
     -1.838  0.2505E+01  0.2505E+01  0.1017E+03  0.1017E+03
     -1.641  0.5280E+01  0.5280E+01  0.1028E+03  0.1028E+03
     -1.444  0.1987E+01  0.1987E+01  0.1031E+03  0.1031E+03
     -1.247  0.4031E+01  0.4032E+01  0.1039E+03  0.1039E+03
     -1.049  0.1017E+02  0.1017E+02  0.1059E+03  0.1059E+03
     -0.852  0.4768E+01  0.4766E+01  0.1069E+03  0.1069E+03
     -0.655  0.7942E+01  0.7942E+01  0.1085E+03  0.1085E+03
     -0.458  0.5179E+01  0.5179E+01  0.1095E+03  0.1095E+03
     -0.261  0.3800E+01  0.3799E+01  0.1102E+03  0.1102E+03
     -0.064  0.4528E-01  0.4530E-01  0.1102E+03  0.1102E+03
      0.133  0.2636E+01  0.2636E+01  0.1108E+03  0.1108E+03
      0.330  0.6938E+01  0.6961E+01  0.1121E+03  0.1121E+03
      0.527  0.7014E+01  0.6998E+01  0.1135E+03  0.1135E+03
      0.725  0.1018E+02  0.1017E+02  0.1155E+03  0.1155E+03
      0.922  0.5110E+01  0.4986E+01  0.1165E+03  0.1165E+03
      1.119  0.8337E+01  0.8040E+01  0.1182E+03  0.1181E+03
      1.316  0.1305E+02  0.1273E+02  0.1207E+03  0.1206E+03
      1.513  0.1200E+02  0.1106E+02  0.1231E+03  0.1228E+03
      1.710  0.1150E+02  0.1284E+02  0.1254E+03  0.1253E+03
      1.907  0.2229E+02  0.2212E+02  0.1298E+03  0.1297E+03
      2.104  0.9451E+01  0.9741E+01  0.1316E+03  0.1316E+03
      2.301  0.1942E+01  0.2159E+01  0.1320E+03  0.1320E+03
      2.499  0.1252E-03  0.3359E-04  0.1320E+03  0.1320E+03
      2.696  0.0000E+00  0.0000E+00  0.1320E+03  0.1320E+03
      2.893  0.0000E+00  0.0000E+00  0.1320E+03  0.1320E+03
      3.090  0.0000E+00  0.0000E+00  0.1320E+03  0.1320E+03
      3.287  0.0000E+00  0.0000E+00  0.1320E+03  0.1320E+03
      3.484  0.0000E+00  0.0000E+00  0.1320E+03  0.1320E+03
      3.681  0.0000E+00  0.0000E+00  0.1320E+03  0.1320E+03
      3.878  0.0000E+00  0.0000E+00  0.1320E+03  0.1320E+03
      4.075  0.0000E+00  0.0000E+00  0.1320E+03  0.1320E+03
      4.273  0.0000E+00  0.0000E+00  0.1320E+03  0.1320E+03
      4.470  0.0000E+00  0.0000E+00  0.1320E+03  0.1320E+03
      4.667  0.0000E+00  0.0000E+00  0.1320E+03  0.1320E+03
      4.864  0.0000E+00  0.0000E+00  0.1320E+03  0.1320E+03
