       N       E                     dE             d eps       ncg     rms          rms(c)
DAV:   1     0.193548371558E+04    0.19355E+04   -0.68118E+04  3272   0.106E+03
DAV:   2     0.376554998322E+02   -0.18978E+04   -0.17557E+04  4080   0.235E+02
DAV:   3    -0.468552288182E+03   -0.50621E+03   -0.50013E+03  3472   0.128E+02
DAV:   4    -0.495148493911E+03   -0.26596E+02   -0.26316E+02  3372   0.384E+01
DAV:   5    -0.496113180492E+03   -0.96469E+00   -0.95614E+00  4096   0.621E+00    0.334E+01
DAV:   6    -0.470956676032E+03    0.25157E+02   -0.24300E+01  2964   0.112E+01    0.194E+01
DAV:   7    -0.458318767030E+03    0.12638E+02   -0.15888E+01  2968   0.923E+00    0.101E+01
DAV:   8    -0.457745074232E+03    0.57369E+00   -0.46805E+00  3012   0.477E+00    0.381E+00
DAV:   9    -0.458963583042E+03   -0.12185E+01   -0.60915E-01  3496   0.178E+00    0.138E+00
DAV:  10    -0.459231504185E+03   -0.26792E+00   -0.16980E-01  2904   0.839E-01    0.934E-01
DAV:  11    -0.459535227519E+03   -0.30372E+00   -0.55278E-02  3164   0.408E-01    0.782E-01
DAV:  12    -0.459978057593E+03   -0.44283E+00   -0.23992E-01  2796   0.767E-01    0.519E-01
DAV:  13    -0.460045212970E+03   -0.67155E-01   -0.61645E-02  2892   0.454E-01    0.410E-01
DAV:  14    -0.460917223930E+03   -0.87201E+00   -0.53352E-02  2888   0.326E-01    0.285E-01
DAV:  15    -0.461634131631E+03   -0.71691E+00   -0.26131E-02  2892   0.234E-01    0.195E-01
DAV:  16    -0.461897280345E+03   -0.26315E+00   -0.38368E-03  2932   0.137E-01    0.157E-01
DAV:  17    -0.462199977144E+03   -0.30270E+00   -0.70844E-03  2768   0.143E-01    0.103E-01
DAV:  18    -0.462287514635E+03   -0.87537E-01   -0.29371E-03  2928   0.873E-02    0.746E-02
DAV:  19    -0.462310164931E+03   -0.22650E-01   -0.11275E-03  3032   0.592E-02    0.554E-02
DAV:  20    -0.462343582441E+03   -0.33418E-01   -0.78500E-04  2876   0.543E-02    0.359E-02
DAV:  21    -0.462378590758E+03   -0.35008E-01   -0.20275E-04  2904   0.399E-02    0.234E-02
DAV:  22    -0.462403224775E+03   -0.24634E-01   -0.10922E-04  2972   0.293E-02    0.130E-02
DAV:  23    -0.462408712501E+03   -0.54877E-02   -0.39240E-05  2836   0.190E-02    0.849E-03
DAV:  24    -0.462411263492E+03   -0.25510E-02   -0.35417E-05  2324   0.154E-02    0.542E-03
DAV:  25    -0.462412296170E+03   -0.10327E-02   -0.25624E-05  2424   0.119E-02    0.328E-03
DAV:  26    -0.462412672576E+03   -0.37641E-03   -0.85558E-06  2340   0.790E-03    0.223E-03
DAV:  27    -0.462412894227E+03   -0.22165E-03   -0.34520E-06  2320   0.472E-03    0.156E-03
DAV:  28    -0.462413078985E+03   -0.18476E-03   -0.16509E-06  2224   0.301E-03    0.104E-03
DAV:  29    -0.462413203593E+03   -0.12461E-03   -0.11222E-06  2076   0.206E-03    0.697E-04
DAV:  30    -0.462413278329E+03   -0.74736E-04   -0.40008E-07  1976   0.137E-03    0.496E-04
DAV:  31    -0.462413330265E+03   -0.51936E-04   -0.38387E-07  1904   0.984E-04    0.318E-04
DAV:  32    -0.462413352060E+03   -0.21794E-04   -0.11761E-07  2000   0.640E-04    0.227E-04
DAV:  33    -0.462413363103E+03   -0.11044E-04   -0.18498E-08  1960   0.428E-04    0.163E-04
DAV:  34    -0.462413368436E+03   -0.53330E-05    0.77670E-09  1980   0.251E-04    0.134E-04
DAV:  35    -0.462413372276E+03   -0.38399E-05    0.75152E-09  1856   0.186E-04    0.121E-04
DAV:  36    -0.462413375038E+03   -0.27619E-05    0.14921E-08  1900   0.129E-04    0.114E-04
DAV:  37    -0.462413377277E+03   -0.22392E-05    0.18252E-08  1912   0.101E-04    0.110E-04
DAV:  38    -0.462413377916E+03   -0.63901E-06    0.20477E-08  1972   0.651E-05
   1 F= -.46241338E+03 E0= -.46240272E+03  d E =-.213142E-01  mag=    -0.0000
