       N       E                     dE             d eps       ncg     rms          rms(c)
DAV:   1     0.193595364836E+04    0.19360E+04   -0.68109E+04  3272   0.106E+03
DAV:   2     0.386646667358E+02   -0.18973E+04   -0.17555E+04  4080   0.235E+02
DAV:   3    -0.468170882542E+03   -0.50684E+03   -0.50031E+03  3480   0.128E+02
DAV:   4    -0.495078599623E+03   -0.26908E+02   -0.26602E+02  3416   0.384E+01
DAV:   5    -0.496059346336E+03   -0.98075E+00   -0.97241E+00  4064   0.623E+00    0.334E+01
DAV:   6    -0.470879094777E+03    0.25180E+02   -0.24423E+01  2968   0.112E+01    0.194E+01
DAV:   7    -0.458229136858E+03    0.12650E+02   -0.15946E+01  3020   0.923E+00    0.101E+01
DAV:   8    -0.457650292171E+03    0.57884E+00   -0.46467E+00  2980   0.476E+00    0.380E+00
DAV:   9    -0.458846695777E+03   -0.11964E+01   -0.60560E-01  3480   0.178E+00    0.142E+00
DAV:  10    -0.459132304846E+03   -0.28561E+00   -0.17470E-01  2912   0.855E-01    0.937E-01
DAV:  11    -0.459436036126E+03   -0.30373E+00   -0.57154E-02  3236   0.416E-01    0.782E-01
DAV:  12    -0.459888011149E+03   -0.45198E+00   -0.23656E-01  2852   0.761E-01    0.520E-01
DAV:  13    -0.459936335759E+03   -0.48325E-01   -0.62170E-02  2900   0.451E-01    0.414E-01
DAV:  14    -0.460807195607E+03   -0.87086E+00   -0.56232E-02  2932   0.337E-01    0.285E-01
DAV:  15    -0.461541723121E+03   -0.73453E+00   -0.28323E-02  2904   0.240E-01    0.194E-01
DAV:  16    -0.461789705457E+03   -0.24798E+00   -0.35225E-03  2944   0.135E-01    0.158E-01
DAV:  17    -0.462098301605E+03   -0.30860E+00   -0.75301E-03  2756   0.150E-01    0.103E-01
DAV:  18    -0.462186704721E+03   -0.88403E-01   -0.30494E-03  2976   0.907E-02    0.761E-02
DAV:  19    -0.462214008363E+03   -0.27304E-01   -0.13366E-03  3016   0.636E-02    0.573E-02
DAV:  20    -0.462241856811E+03   -0.27848E-01   -0.87703E-04  2888   0.596E-02    0.388E-02
DAV:  21    -0.462279096685E+03   -0.37240E-01   -0.34478E-04  2892   0.473E-02    0.253E-02
DAV:  22    -0.462307702959E+03   -0.28606E-01   -0.18494E-04  2952   0.349E-02    0.135E-02
DAV:  23    -0.462313375581E+03   -0.56726E-02   -0.54498E-05  2916   0.223E-02    0.840E-03
DAV:  24    -0.462315388831E+03   -0.20133E-02   -0.34938E-05  2332   0.167E-02    0.533E-03
DAV:  25    -0.462316265778E+03   -0.87695E-03   -0.37578E-05  2424   0.145E-02    0.314E-03
DAV:  26    -0.462316571818E+03   -0.30604E-03   -0.14195E-05  2352   0.109E-02    0.203E-03
DAV:  27    -0.462316730044E+03   -0.15823E-03   -0.49160E-06  2424   0.589E-03    0.136E-03
DAV:  28    -0.462316829459E+03   -0.99415E-04   -0.18428E-06  2324   0.357E-03    0.888E-04
DAV:  29    -0.462316898444E+03   -0.68985E-04   -0.12268E-06  2168   0.228E-03    0.578E-04
DAV:  30    -0.462316930881E+03   -0.32438E-04   -0.39293E-07  1984   0.143E-03    0.414E-04
DAV:  31    -0.462316953991E+03   -0.23110E-04   -0.28275E-07  1984   0.973E-04    0.276E-04
DAV:  32    -0.462316967079E+03   -0.13088E-04   -0.11458E-07  1988   0.651E-04    0.200E-04
DAV:  33    -0.462316974680E+03   -0.76011E-05   -0.19399E-08  1932   0.419E-04    0.150E-04
DAV:  34    -0.462316977535E+03   -0.28544E-05    0.71111E-09  2016   0.246E-04    0.128E-04
DAV:  35    -0.462316978345E+03   -0.81058E-06    0.14213E-08  2012   0.162E-04
   1 F= -.46231698E+03 E0= -.46230660E+03  d E =-.207481E-01  mag=     0.0001
