 vasp.5.4.1 24Jun15 (build Jul 23 2024 06:15:33) complex                        
  
 executed on           IFC91_ompi date 2026.05.04  22:20:02
 running on   16 total cores
 distrk:  each k-point on   16 cores,    1 groups
 distr:  one band on NCORES_PER_BAND=   4 cores,    4 groups


--------------------------------------------------------------------------------------------------------


 INCAR:
 POTCAR:    PAW_PBE C 08Apr2002                   
 POTCAR:    PAW_PBE Li_sv 10Sep2004               
 POTCAR:    PAW_PBE C 08Apr2002                   
   VRHFIN =C: s2p2                                                              
   LEXCH  = PE                                                                  
   EATOM  =   147.1560 eV,   10.8157 Ry                                         
                                                                                
   TITEL  = PAW_PBE C 08Apr2002                                                 
   LULTRA =        F    use ultrasoft PP ?                                      
   IUNSCR =        1    unscreen: 0-lin 1-nonlin 2-no                           
   RPACOR =    1.200    partial core radius                                     
   POMASS =   12.011; ZVAL   =    4.000    mass and valenz                      
   RCORE  =    1.500    outmost cutoff radius                                   
   RWIGS  =    1.630; RWIGS  =    0.863    wigner-seitz radius (au A)           
   ENMAX  =  400.000; ENMIN  =  300.000 eV                                      
   ICORE  =        2    local potential                                         
   LCOR   =        T    correct aug charges                                     
   LPAW   =        T    paw PP                                                  
   EAUG   =  644.873                                                            
   DEXC   =    0.000                                                            
   RMAX   =    1.529    core radius for proj-oper                               
   RAUG   =    1.300    factor for augmentation sphere                          
   RDEP   =    1.501    radius for radial grids                                 
   RDEPT  =    1.300    core radius for aug-charge                              
                                                                                
   Atomic configuration                                                         
    4 entries                                                                   
     n  l   j            E        occ.                                          
     1  0  0.50      -273.3789   2.0000                                         
     2  0  0.50       -13.7508   2.0000                                         
     2  1  0.50        -5.2854   2.0000                                         
     3  2  1.50        -5.4423   0.0000                                         
   Description                                                                  
     l       E           TYP  RCUT    TYP  RCUT                                 
     0    -13.7508458     23  1.200                                             
     0     -8.2022199     23  1.200                                             
     1     -5.2854383     23  1.500                                             
     1     34.0145650     23  1.500                                             
     2     -5.4423304      7  1.500                                             
  local pseudopotential read in
  partial core-charges read in
  partial kinetic energy density read in
  atomic valenz-charges read in
  non local Contribution for L=           0  read in
    real space projection operators read in
  non local Contribution for L=           0  read in
    real space projection operators read in
  non local Contribution for L=           1  read in
    real space projection operators read in
  non local Contribution for L=           1  read in
    real space projection operators read in
    PAW grid and wavefunctions read in
 
   number of l-projection  operators is LMAX  =           4
   number of lm-projection operators is LMMAX =           8
 
 POTCAR:    PAW_PBE Li_sv 10Sep2004               
   VRHFIN =Li: 1s2s2p                                                           
   LEXCH  = PE                                                                  
   EATOM  =   202.7858 eV,   14.9043 Ry                                         
                                                                                
   TITEL  = PAW_PBE Li_sv 10Sep2004                                             
   LULTRA =        F    use ultrasoft PP ?                                      
   IUNSCR =        0    unscreen: 0-lin 1-nonlin 2-no                           
   RPACOR =    0.000    partial core radius                                     
   POMASS =    7.010; ZVAL   =    3.000    mass and valenz                      
   RCORE  =    1.700    outmost cutoff radius                                   
   RWIGS  =    2.050; RWIGS  =    1.085    wigner-seitz radius (au A)           
   ENMAX  =  499.034; ENMIN  =  374.276 eV                                      
   ICORE  =        2    local potential                                         
   LCOR   =        T    correct aug charges                                     
   LPAW   =        T    paw PP                                                  
   EAUG   =  628.945                                                            
   RMAX   =    1.732    core radius for proj-oper                               
   RAUG   =    1.300    factor for augmentation sphere                          
   RDEP   =    1.728    radius for radial grids                                 
   RDEPT  =    1.329    core radius for aug-charge                              
                                                                                
   Atomic configuration                                                         
    4 entries                                                                   
     n  l   j            E        occ.                                          
     1  0  0.50       -51.8549   2.0000                                         
     2  0  0.50        -2.8742   1.0000                                         
     2  1  0.50        -1.3606   0.0000                                         
     3  2  1.50        -1.3606   0.0000                                         
   Description                                                                  
     l       E           TYP  RCUT    TYP  RCUT                                 
     0    -51.8548813     23  1.400                                             
     0     -2.8742052     23  1.700                                             
     1     -1.3605826     23  1.400                                             
     2     -1.3605826     23  1.400                                             
  local pseudopotential read in
  atomic valenz-charges read in
  non local Contribution for L=           0  read in
    real space projection operators read in
  non local Contribution for L=           0  read in
    real space projection operators read in
  non local Contribution for L=           1  read in
    real space projection operators read in
    PAW grid and wavefunctions read in
 
   number of l-projection  operators is LMAX  =           3
   number of lm-projection operators is LMMAX =           5
 
 Optimization of the real space projectors (new method)

 maximal supplied QI-value         = 25.13
 optimisation between [QCUT,QGAM] = [ 11.56, 23.12] = [ 37.43,149.72] Ry 
 Optimized for a Real-space Cutoff    1.04 Angstroem

   l    n(q)    QCUT    max X(q) W(low)/X(q) W(high)/X(q)  e(spline) 
   0      7    11.561   115.676    0.20E-03    0.60E-03    0.21E-06
   0      7    11.561    87.132    0.20E-03    0.59E-03    0.21E-06
   1      7    11.561     4.429    0.23E-03    0.35E-03    0.15E-06
   1      7    11.561     2.733    0.18E-03    0.25E-03    0.12E-06
 Optimization of the real space projectors (new method)

 maximal supplied QI-value         = 22.11
 optimisation between [QCUT,QGAM] = [ 11.50, 23.22] = [ 37.02,150.92] Ry 
 Optimized for a Real-space Cutoff    1.08 Angstroem

   l    n(q)    QCUT    max X(q) W(low)/X(q) W(high)/X(q)  e(spline) 
   0      7    11.497    10.506    0.36E-04    0.62E-04    0.14E-07
   0      7    11.497     8.367    0.65E-04    0.14E-03    0.28E-07
   1      7    11.497     8.983    0.21E-03    0.43E-03    0.90E-07
  PAW_PBE C 08Apr2002                   :
 energy of atom  1       EATOM= -147.1560
 kinetic energy error for atom=    0.0071 (will be added to EATOM!!)
  PAW_PBE Li_sv 10Sep2004               :
 energy of atom  2       EATOM= -202.7858
 kinetic energy error for atom=    0.0130 (will be added to EATOM!!)
 
 
 POSCAR: C  Li                                   
  positions in direct lattice
  velocities in cartesian coordinates
 exchange correlation table for  LEXCH =        8
   RHO(1)=    0.500       N(1)  =     2000
   RHO(2)=  100.500       N(2)  =     4000
 


--------------------------------------------------------------------------------------------------------


 ion  position               nearest neighbor table
   1  1.000  1.000  0.501-   2 1.42  42 1.42  38 1.42
   2  0.133  0.066  0.501-  25 1.42   1 1.42  11 1.42
   3  1.000  0.200  0.501-   4 1.42  42 1.42  44 1.42
   4  0.133  0.266  0.501-  25 1.42   3 1.42  15 1.42
   5  1.000  0.399  0.500-  46 1.42  44 1.42   6 1.42
   6  0.133  0.466  0.501-  15 1.42  17 1.42   5 1.42
   7  0.000  0.600  0.499-   8 1.42  48 1.42  46 1.43
   8  0.133  0.666  0.500-   7 1.42  19 1.42  17 1.42
   9  0.000  0.800  0.500-  10 1.42  38 1.42  48 1.42
  10  0.133  0.866  0.501-  19 1.42  11 1.42   9 1.42
  11  0.200  1.000  0.501-  24 1.42  10 1.42   2 1.42
  12  0.533  0.266  0.499-  23 1.42  33 1.42  35 1.42
  13  0.400  0.399  0.500-  26 1.42  14 1.42  16 1.42
  14  0.333  0.266  0.500-  23 1.42  13 1.42  25 1.42
  15  0.200  0.400  0.501-   6 1.42  16 1.42   4 1.42
  16  0.333  0.466  0.501-  15 1.42  39 1.42  13 1.42
  17  0.200  0.600  0.501-  18 1.42   6 1.42   8 1.42
  18  0.333  0.666  0.501-  39 1.42  17 1.42  29 1.42
  19  0.200  0.800  0.501-  10 1.42  20 1.42   8 1.42
  20  0.333  0.866  0.501-  29 1.42  21 1.42  19 1.42
  21  0.400  1.000  0.500-  20 1.42  24 1.42  22 1.42
  22  0.533  0.066  0.500-  33 1.42  21 1.42  31 1.42
  23  0.399  0.199  0.500-  14 1.42  12 1.42  24 1.42
  24  0.333  0.066  0.500-  11 1.42  21 1.42  23 1.42
  25  0.200  0.200  0.501-   4 1.42   2 1.42  14 1.42
  26  0.532  0.466  0.499-  13 1.42  35 1.42  37 1.43
  27  0.600  0.800  0.501-  40 1.42  30 1.42  28 1.42
  28  0.533  0.666  0.500-  37 1.42  27 1.42  39 1.42
  29  0.400  0.800  0.501-  30 1.42  20 1.42  18 1.42
  30  0.533  0.866  0.501-  29 1.42  31 1.42  27 1.42
  31  0.600  1.000  0.500-  30 1.42  32 1.42  22 1.42
  32  0.733  0.066  0.500-  41 1.42  31 1.42  43 1.42
  33  0.600  0.199  0.499-  22 1.42  34 1.42  12 1.42
  34  0.733  0.266  0.499-  43 1.42  33 1.42  45 1.42
  35  0.599  0.399  0.498-  12 1.42  26 1.42  36 1.43
  36  0.733  0.466  0.496-  35 1.43  45 1.43  47 1.43  51 1.89
  37  0.599  0.600  0.499-  28 1.42  50 1.42  26 1.43
  38  0.933  0.867  0.500-   1 1.42  49 1.42   9 1.42
  39  0.400  0.600  0.501-  18 1.42  16 1.42  28 1.42
  40  0.733  0.866  0.501-  27 1.42  41 1.42  49 1.42
  41  0.800  1.000  0.501-  32 1.42  40 1.42  42 1.42
  42  0.933  0.066  0.501-   3 1.42   1 1.42  41 1.42
  43  0.800  0.199  0.500-  44 1.42  34 1.42  32 1.42
  44  0.933  0.266  0.500-  43 1.42   5 1.42   3 1.42
  45  0.800  0.399  0.498-  34 1.42  46 1.42  36 1.43
  46  0.934  0.466  0.499-   5 1.42  45 1.42   7 1.43
  47  0.800  0.600  0.497-  48 1.43  50 1.43  36 1.43  51 2.03
  48  0.934  0.667  0.499-   9 1.42   7 1.42  47 1.43
  49  0.800  0.800  0.500-  40 1.42  38 1.42  50 1.42
  50  0.733  0.667  0.499-  49 1.42  37 1.42  47 1.43
  51  0.744  0.510  0.557-  36 1.89  47 2.03
 

IMPORTANT INFORMATION: All symmetrisations will be switched off!
NOSYMM: (Re-)initialisation of all symmetry stuff for point group C_1.

 
 
 KPOINTS: Automatic mesh                          

Automatic generation of k-mesh.
Space group operators:
 irot       det(A)        alpha          n_x          n_y          n_z        tau_x        tau_y        tau_z
    1     1.000000     0.000001     1.000000     0.000000     0.000000     0.000000     0.000000     0.000000
 
 Subroutine IBZKPT returns following result:
 ===========================================
 
 Found      5 irreducible k-points:
 
 Following reciprocal coordinates:
            Coordinates               Weight
  0.000000  0.000000  0.000000      1.000000
  0.333333 -0.000000  0.000000      2.000000
  0.000000  0.333333  0.000000      2.000000
  0.333333  0.333333  0.000000      2.000000
 -0.333333  0.333333  0.000000      2.000000
 
 Following cartesian coordinates:
            Coordinates               Weight
  0.000000  0.000000  0.000000      1.000000
  0.027100  0.015646  0.000000      2.000000
  0.000000  0.031293  0.000000      2.000000
  0.027100  0.046939  0.000000      2.000000
 -0.027100  0.015646  0.000000      2.000000
 


--------------------------------------------------------------------------------------------------------




 Dimension of arrays:
   k-points           NKPTS =      5   k-points in BZ     NKDIM =      5   number of bands    NBANDS=    132
   number of dos      NEDOS =    301   number of ions     NIONS =     51
   non local maximal  LDIM  =      4   non local SUM 2l+1 LMDIM =      8
   total plane-waves  NPLWV = ******
   max r-space proj   IRMAX =   2789   max aug-charges    IRDMAX=  51672
   dimension x,y,z NGX =    96 NGY =   96 NGZ =  224
   dimension x,y,z NGXF=   192 NGYF=  192 NGZF=  448
   support grid    NGXF=   384 NGYF=  384 NGZF=  896
   ions per type =              50   1
 NGX,Y,Z   is equivalent  to a cutoff of  12.98, 12.98, 12.41 a.u.
 NGXF,Y,Z  is equivalent  to a cutoff of  25.95, 25.95, 24.83 a.u.


 I would recommend the setting:
   dimension x,y,z NGX =    91 NGY =   91 NGZ =  223
 SYSTEM =  Li defective graphene MACE training lab 
 POSCAR =  C  Li                                   

 Startparameter for this run:
   NWRITE =      2    write-flag & timer
   PREC   = accura    normal or accurate (medium, high low for compatibility)
   ISTART =      0    job   : 0-new  1-cont  2-samecut
   ICHARG =      2    charge: 1-file 2-atom 10-const
   ISPIN  =      2    spin polarized calculation?
   LNONCOLLINEAR =      F non collinear calculations
   LSORBIT =      F    spin-orbit coupling
   INIWAV =      1    electr: 0-lowe 1-rand  2-diag
   LASPH  =      T    aspherical Exc in radial PAW
   METAGGA=      F    non-selfconsistent MetaGGA calc.

 Electronic Relaxation 1
   ENCUT  =  520.0 eV  38.22 Ry    6.18 a.u.  22.87 22.87 55.78*2*pi/ulx,y,z
   ENINI  =  520.0     initial cutoff
   ENAUG  =  644.9 eV  augmentation charge cutoff
   NELM   =    120;   NELMIN=  2; NELMDL= -5     # of ELM steps 
   EDIFF  = 0.1E-05   stopping-criterion for ELM
   LREAL  =      T    real-space projection
   NLSPLINE    = F    spline interpolate recip. space projectors
   LCOMPAT=      F    compatible to vasp.4.4
   GGA_COMPAT  = T    GGA compatible to vasp.4.4-vasp.4.6
   LMAXPAW     = -100 max onsite density
   LMAXMIX     =    2 max onsite mixed and CHGCAR
   VOSKOWN=      0    Vosko Wilk Nusair interpolation
   ROPT   =   -0.00025  -0.00025
 Ionic relaxation
   EDIFFG = 0.1E-04   stopping-criterion for IOM
   NSW    =      0    number of steps for IOM
   NBLOCK =      1;   KBLOCK =      1    inner block; outer block 
   IBRION =     -1    ionic relax: 0-MD 1-quasi-New 2-CG
   NFREE  =      0    steps in history (QN), initial steepest desc. (CG)
   ISIF   =      2    stress and relaxation
   IWAVPR =     10    prediction:  0-non 1-charg 2-wave 3-comb
   ISYM   =      0    0-nonsym 1-usesym 2-fastsym
   LCORR  =      T    Harris-Foulkes like correction to forces

   POTIM  = 0.5000    time-step for ionic-motion
   TEIN   =    0.0    initial temperature
   TEBEG  =    0.0;   TEEND  =   0.0 temperature during run
   SMASS  =  -3.00    Nose mass-parameter (am)
   estimated Nose-frequenzy (Omega)   =  0.10E-29 period in steps =****** mass=  -0.346E-26a.u.
   SCALEE = 1.0000    scale energy and forces
   NPACO  =    256;   APACO  = 16.0  distance and # of slots for P.C.
   PSTRESS=    0.0 pullay stress

  Mass of Ions in am
   POMASS =  12.01  7.01
  Ionic Valenz
   ZVAL   =   4.00  3.00
  Atomic Wigner-Seitz radii
   RWIGS  =  -1.00 -1.00
  virtual crystal weights 
   VCA    =   1.00  1.00
   NELECT =     203.0000    total number of electrons
   NUPDOWN=      -1.0000    fix difference up-down

 DOS related values:
   EMIN   =  10.00;   EMAX   =-10.00  energy-range for DOS
   EFERMI =   0.00
   ISMEAR =     0;   SIGMA  =   0.05  broadening in eV -4-tet -1-fermi 0-gaus

 Electronic relaxation 2 (details)
   IALGO  =     38    algorithm
   LDIAG  =      T    sub-space diagonalisation (order eigenvalues)
   LSUBROT=      F    optimize rotation matrix (better conditioning)
   TURBO    =      0    0=normal 1=particle mesh
   IRESTART =      0    0=no restart 2=restart with 2 vectors
   NREBOOT  =      0    no. of reboots
   NMIN     =      0    reboot dimension
   EREF     =   0.00    reference energy to select bands
   IMIX   =      4    mixing-type and parameters
     AMIX     =   0.40;   BMIX     =  1.00
     AMIX_MAG =   1.60;   BMIX_MAG =  1.00
     AMIN     =   0.10
     WC   =   100.;   INIMIX=   1;  MIXPRE=   1;  MAXMIX= -45

 Intra band minimization:
   WEIMIN = 0.0000     energy-eigenvalue tresh-hold
   EBREAK =  0.19E-08  absolut break condition
   DEPER  =   0.30     relativ break condition  

   TIME   =   0.40     timestep for ELM

  volume/ion in A,a.u.               =      77.07       520.10
  Fermi-wavevector in a.u.,A,eV,Ry     =   0.609658  1.152086  5.057049  0.371683
  Thomas-Fermi vector in A             =   1.664934
 
 Write flags
   LWAVE  =      F    write WAVECAR
   LCHARG =      F    write CHGCAR
   LVTOT  =      F    write LOCPOT, total local potential
   LVHAR  =      F    write LOCPOT, Hartree potential only
   LELF   =      F    write electronic localiz. function (ELF)
   LORBIT =      0    0 simple, 1 ext, 2 COOP (PROOUT)


 Dipole corrections
   LMONO  =      F    monopole corrections only (constant potential shift)
   LDIPOL =      F    correct potential (dipole corrections)
   IDIPOL =      0    1-x, 2-y, 3-z, 4-all directions 
   EPSILON=  1.0000000 bulk dielectric constant

 Exchange correlation treatment:
   GGA     =    --    GGA type
   LEXCH   =     8    internal setting for exchange type
   VOSKOWN=      0    Vosko Wilk Nusair interpolation
   LHFCALC =     F    Hartree Fock is set to
   LHFONE  =     F    Hartree Fock one center treatment
   AEXX    =    0.0000 exact exchange contribution

 Linear response parameters
   LEPSILON=     F    determine dielectric tensor
   LRPA    =     F    only Hartree local field effects (RPA)
   LNABLA  =     F    use nabla operator in PAW spheres
   LVEL    =     F    velocity operator in full k-point grid
   LINTERFAST=   F  fast interpolation
   KINTER  =     0    interpolate to denser k-point grid
   CSHIFT  =0.1000    complex shift for real part using Kramers Kronig
   OMEGAMAX=  -1.0    maximum frequency
   DEG_THRESHOLD= 0.2000000E-02 threshold for treating states as degnerate
   RTIME   =    0.100 relaxation time in fs

 Orbital magnetization related:
   ORBITALMAG=     F  switch on orbital magnetization
   LCHIMAG   =     F  perturbation theory with respect to B field
   DQ        =  0.001000  dq finite difference perturbation B field



--------------------------------------------------------------------------------------------------------


 Static calculation
 charge density and potential will be updated during run
 spin polarized calculation
 Variant of blocked Davidson
 Davidson routine will perform the subspace rotation
 perform sub-space diagonalisation
    after iterative eigenvector-optimisation
 modified Broyden-mixing scheme, WC =      100.0
 initial mixing is a Kerker type mixing with AMIX =  0.4000 and BMIX =      1.0000
 Hartree-type preconditioning will be used
 using additional bands           30
 real space projection scheme for non local part
 use partial core corrections
 calculate Harris-corrections to forces 
   (improved forces if not selfconsistent)
 use gradient corrections 
 use of overlap-Matrix (Vanderbilt PP)
 Gauss-broadening in eV      SIGMA  =   0.05


--------------------------------------------------------------------------------------------------------


  energy-cutoff  :      520.00
  volume of cell :     3930.63
      direct lattice vectors                 reciprocal lattice vectors
    12.300000000  0.000000000  0.000000000     0.081300813  0.046939046  0.000000000
    -6.150000000 10.652112467  0.000000000     0.000000000  0.093878093  0.000000000
     0.000000000  0.000000000 30.000000000     0.000000000  0.000000000  0.033333333

  length of vectors
    12.300000000 12.300000000 30.000000000     0.093878093  0.093878093  0.033333333


 
 k-points in units of 2pi/SCALE and weight: Automatic mesh                          
   0.00000000  0.00000000  0.00000000       0.111
   0.02710027  0.01564635  0.00000000       0.222
   0.00000000  0.03129270  0.00000000       0.222
   0.02710027  0.04693905  0.00000000       0.222
  -0.02710027  0.01564635  0.00000000       0.222
 
 k-points in reciprocal lattice and weights: Automatic mesh                          
   0.00000000  0.00000000  0.00000000       0.111
   0.33333333 -0.00000000  0.00000000       0.222
   0.00000000  0.33333333  0.00000000       0.222
   0.33333333  0.33333333  0.00000000       0.222
  -0.33333333  0.33333333  0.00000000       0.222
 
 position of ions in fractional coordinates (direct lattice) 
   0.99988345  0.99976655  0.50070365
   0.13313835  0.06628113  0.50076414
   0.99986462  0.19951048  0.50066204
   0.13305819  0.26611600  0.50076947
   0.99990120  0.39942212  0.49998752
   0.13338012  0.46632027  0.50055545
   0.00048883  0.59983601  0.49930029
   0.13338223  0.66639362  0.50027805
   0.00013167  0.80005692  0.50007430
   0.13342895  0.86639370  0.50062777
   0.19988452  0.99968809  0.50070413
   0.53269490  0.26567077  0.49881187
   0.39952012  0.39942278  0.49998743
   0.33300586  0.26609951  0.50014356
   0.19981037  0.39962309  0.50075225
   0.33294004  0.46632029  0.50055536
   0.19997977  0.59953607  0.50060301
   0.33310144  0.66620258  0.50078017
   0.19991176  0.79974914  0.50056953
   0.33323385  0.86627322  0.50060775
   0.39973654  0.99953012  0.50025629
   0.53301150  0.06602273  0.49980551
   0.39946049  0.19938192  0.49980423
   0.33298763  0.06605684  0.50031679
   0.19964609  0.19951040  0.50066207
   0.53246359  0.46605661  0.49899750
   0.59983768  0.79974909  0.50056930
   0.53301162  0.66639344  0.50027784
   0.39984966  0.79969901  0.50068206
   0.53303957  0.86627318  0.50060762
   0.59979394  0.99953014  0.50025619
   0.73306943  0.06605683  0.50031666
   0.59959923  0.19919799  0.49887261
   0.73297608  0.26567075  0.49881183
   0.59905631  0.39903661  0.49790284
   0.73285164  0.46570284  0.49584713
   0.59934769  0.59983616  0.49930013
   0.93325060  0.86650095  0.50020757
   0.39955622  0.59953654  0.50060288
   0.73296500  0.86639367  0.50062756
   0.79980395  0.99968811  0.50070396
   0.93314298  0.06628108  0.50076405
   0.79992187  0.19938193  0.49980417
   0.93309373  0.26609919  0.50014357
   0.79998080  0.39903666  0.49790285
   0.93359301  0.46605671  0.49899760
   0.80010598  0.60021136  0.49686686
   0.93384667  0.66677439  0.49886028
   0.79992566  0.80005696  0.50007418
   0.73292796  0.66677434  0.49886021
   0.74405042  0.51043083  0.55656547
 
 position of ions in cartesian coordinates  (Angst):
   6.15000211 10.64962578 15.02110949
   1.22997271  0.70603403 15.02292424
  11.07134542  2.12520807 15.01986130
   0.00000239  2.83469752 15.02308409
   9.84233872  4.25468934 14.99962560
  -1.22729425  4.96729599 15.01666349
  -3.68297885  6.38952063 14.97900858
  -2.45771932  7.09849979 15.00834149
  -4.91873054  8.52229634 15.00222896
  -3.68714513  9.22892316 15.01883306
  -3.68950212 10.64879000 15.02112389
   4.91827198  2.82995495 14.96435597
   2.45764743  4.25469637 14.99962277
   2.45946015  2.83452188 15.00430679
  -0.00001441  4.25683011 15.02256735
   1.22729275  4.96729621 15.01666077
  -1.22739567  6.38632568 15.01809035
   0.00000180  7.09646482 15.02340501
  -2.45954255  8.51901778 15.01708584
  -1.22880397  9.22763977 15.01823262
  -1.23035082 10.64710721 15.00768869
   6.15000161  0.70328155 14.99416520
   3.68716528  2.12383862 14.99412681
   3.68949833  0.70364485 15.00950376
   1.22865795  2.12520724 15.01986198
   3.68305398  4.96448738 14.96992501
   2.45954655  8.51901725 15.01707911
   2.45772319  7.09849792 15.00833506
   0.00000192  8.51848376 15.02046185
   1.22880664  9.22763937 15.01822858
   1.23035510 10.64710749 15.00768564
   8.61050455  0.70364473 15.00949968
   6.15000287  2.12187944 14.96617823
   7.38173073  2.82995467 14.96435504
   4.91431740  4.25058289 14.93708534
   6.15000268  4.96071899 14.87541392
   3.68298417  6.38952219 14.97900395
   6.15000151  9.23006557 15.00622702
   1.22739183  6.38633065 15.01808639
   3.68714850  9.22892279 15.01882683
   3.68950666 10.64879020 15.02111874
  11.07003004  0.70603350 15.02292160
   8.61284012  2.12383879 14.99412524
   9.84054283  2.83451845 15.00430711
   7.38568835  4.25058342 14.93708542
   8.61694531  4.96448846 14.96992788
   6.15000373  6.39351893 14.90600589
   7.38565149  7.10255578 14.96580842
   4.91873534  8.52229670 15.00222554
   4.91435171  7.10255524 14.96580626
   6.01267052  5.43716658 16.69696404
 


--------------------------------------------------------------------------------------------------------


 k-point  1 :   0.0000 0.0000 0.0000  plane waves:  105831
 k-point  2 :   0.3333-0.0000 0.0000  plane waves:  105834
 k-point  3 :   0.0000 0.3333 0.0000  plane waves:  105834
 k-point  4 :   0.3333 0.3333 0.0000  plane waves:  105861
 k-point  5 :  -0.3333 0.3333 0.0000  plane waves:  105834

 maximum and minimum number of plane-waves per node :     26501    26424

 maximum number of plane-waves:    105861
 maximum index in each direction: 
   IXMAX=   23   IYMAX=   22   IZMAX=   55
   IXMIN=  -23   IYMIN=  -23   IZMIN=  -55

 NGX is ok and might be reduce to  94
 NGY is ok and might be reduce to  92
 NGZ is ok and might be reduce to 222

 real space projection operators:
  total allocation   :       7708.61 KBytes
  max/ min on nodes  :       1928.44       1925.37


 parallel 3D FFT for wavefunctions:
    minimum data exchange during FFTs selected (reduces bandwidth)
 parallel 3D FFT for charge:
    minimum data exchange during FFTs selected (reduces bandwidth)


 total amount of memory used by VASP on root node   465216. kBytes
========================================================================

   base      :      30000. kBytes
   nonlr-proj:       4754. kBytes
   fftplans  :     165810. kBytes
   grid      :     124231. kBytes
   one-center:         79. kBytes
   wavefun   :     140342. kBytes
 
     INWAV:  cpu time    0.0000: real time    0.0002
 Broyden mixing: mesh for mixing (old mesh)
   NGX = 45   NGY = 45   NGZ =111
  (NGX  =192   NGY  =192   NGZ  =448)
  gives a total of 224775 points

 initial charge density was supplied:
 charge density of overlapping atoms calculated
 number of electron     203.0000000 magnetization       6.0000000
 keeping initial charge density in first step


--------------------------------------------------------------------------------------------------------


 Maximum index for non-local projection operator          675
 Maximum index for augmentation-charges         3218 (set IRDMAX)


--------------------------------------------------------------------------------------------------------


 First call to EWALD:  gamma=   0.112
 Maximum number of real-space cells 4x 4x 2
 Maximum number of reciprocal cells 2x 2x 5

 FEWALD executed in parallel
    FEWALD:  cpu time    0.0021: real time    0.0021


----------------------------------------- Iteration    1(   1)  ---------------------------------------


    POTLOK:  cpu time    1.4343: real time    1.4345
    SETDIJ:  cpu time    1.3077: real time    1.3100
     EDDAV:  cpu time   45.2111: real time   45.2168
       DOS:  cpu time    0.0010: real time    0.0016
    --------------------------------------------
      LOOP:  cpu time   47.9551: real time   47.9659

 eigenvalue-minimisations  :  3272
 total energy-change (2. order) : 0.1935954E+04  (-0.6810886E+04)
 number of electron     203.0000000 magnetization       6.0000000
 augmentation part      203.0000000 magnetization       6.0000000

 Free energy of the ion-electron system (eV)
  ---------------------------------------------------
  alpha Z        PSCENC =        53.42782116
  Ewald energy   TEWEN  =     56958.67271993
  -Hartree energ DENC   =    -62192.64601394
  -exchange      EXHF   =         0.00000000
  -V(xc)+E(xc)   XCENC  =       672.89731451
  PAW double counting   =      5505.55773403    -5549.36347127
  entropy T*S    EENTRO =        -0.03100058
  eigenvalues    EBANDS =     -1072.77896803
  atomic energy  EATOM  =      7560.21751256
  Solvation  Ediel_sol  =         0.00000000
  ---------------------------------------------------
  free energy    TOTEN  =      1935.95364836 eV

  energy without entropy =     1935.98464894  energy(sigma->0) =     1935.96914865


--------------------------------------------------------------------------------------------------------




----------------------------------------- Iteration    1(   2)  ---------------------------------------


     EDDAV:  cpu time   54.1498: real time   54.1549
       DOS:  cpu time    0.0005: real time    0.0005
    --------------------------------------------
      LOOP:  cpu time   54.1510: real time   54.1779

 eigenvalue-minimisations  :  4080
 total energy-change (2. order) :-0.1897289E+04  (-0.1755465E+04)
 number of electron     203.0000000 magnetization       6.0000000
 augmentation part      203.0000000 magnetization       6.0000000

 Free energy of the ion-electron system (eV)
  ---------------------------------------------------
  alpha Z        PSCENC =        53.42782116
  Ewald energy   TEWEN  =     56958.67271993
  -Hartree energ DENC   =    -62192.64601394
  -exchange      EXHF   =         0.00000000
  -V(xc)+E(xc)   XCENC  =       672.89731451
  PAW double counting   =      5505.55773403    -5549.36347127
  entropy T*S    EENTRO =        -0.00546496
  eigenvalues    EBANDS =     -2970.09348527
  atomic energy  EATOM  =      7560.21751256
  Solvation  Ediel_sol  =         0.00000000
  ---------------------------------------------------
  free energy    TOTEN  =        38.66466674 eV

  energy without entropy =       38.67013170  energy(sigma->0) =       38.66739922


--------------------------------------------------------------------------------------------------------




----------------------------------------- Iteration    1(   3)  ---------------------------------------


     EDDAV:  cpu time   47.6361: real time   47.6394
       DOS:  cpu time    0.0005: real time    0.0005
    --------------------------------------------
      LOOP:  cpu time   47.6372: real time   47.6431

 eigenvalue-minimisations  :  3480
 total energy-change (2. order) :-0.5068355E+03  (-0.5003064E+03)
 number of electron     203.0000000 magnetization       6.0000000
 augmentation part      203.0000000 magnetization       6.0000000

 Free energy of the ion-electron system (eV)
  ---------------------------------------------------
  alpha Z        PSCENC =        53.42782116
  Ewald energy   TEWEN  =     56958.67271993
  -Hartree energ DENC   =    -62192.64601394
  -exchange      EXHF   =         0.00000000
  -V(xc)+E(xc)   XCENC  =       672.89731451
  PAW double counting   =      5505.55773403    -5549.36347127
  entropy T*S    EENTRO =        -0.00880918
  eigenvalues    EBANDS =     -3476.92569033
  atomic energy  EATOM  =      7560.21751256
  Solvation  Ediel_sol  =         0.00000000
  ---------------------------------------------------
  free energy    TOTEN  =      -468.17088254 eV

  energy without entropy =     -468.16207336  energy(sigma->0) =     -468.16647795


--------------------------------------------------------------------------------------------------------




----------------------------------------- Iteration    1(   4)  ---------------------------------------


     EDDAV:  cpu time   47.0096: real time   47.0144
       DOS:  cpu time    0.0006: real time    0.0006
    --------------------------------------------
      LOOP:  cpu time   47.0108: real time   47.0201

 eigenvalue-minimisations  :  3416
 total energy-change (2. order) :-0.2690772E+02  (-0.2660182E+02)
 number of electron     203.0000000 magnetization       6.0000000
 augmentation part      203.0000000 magnetization       6.0000000

 Free energy of the ion-electron system (eV)
  ---------------------------------------------------
  alpha Z        PSCENC =        53.42782116
  Ewald energy   TEWEN  =     56958.67271993
  -Hartree energ DENC   =    -62192.64601394
  -exchange      EXHF   =         0.00000000
  -V(xc)+E(xc)   XCENC  =       672.89731451
  PAW double counting   =      5505.55773403    -5549.36347127
  entropy T*S    EENTRO =        -0.01233933
  eigenvalues    EBANDS =     -3503.82987726
  atomic energy  EATOM  =      7560.21751256
  Solvation  Ediel_sol  =         0.00000000
  ---------------------------------------------------
  free energy    TOTEN  =      -495.07859962 eV

  energy without entropy =     -495.06626029  energy(sigma->0) =     -495.07242996


--------------------------------------------------------------------------------------------------------




----------------------------------------- Iteration    1(   5)  ---------------------------------------


     EDDAV:  cpu time   54.1164: real time   54.1219
       DOS:  cpu time    0.0005: real time    0.0005
    CHARGE:  cpu time    4.4122: real time    4.4138
    MIXING:  cpu time    0.0323: real time    0.0323
    --------------------------------------------
      LOOP:  cpu time   58.5621: real time   58.5729

 eigenvalue-minimisations  :  4064
 total energy-change (2. order) :-0.9807467E+00  (-0.9724117E+00)
 number of electron     203.0000000 magnetization       5.6339028
 augmentation part        6.4858412 magnetization       5.0829936

 Broyden mixing:
  rms(total) = 0.33390E+01    rms(broyden)= 0.33385E+01
  rms(prec ) = 0.34405E+01
  weight for this iteration     100.00

 Free energy of the ion-electron system (eV)
  ---------------------------------------------------
  alpha Z        PSCENC =        53.42782116
  Ewald energy   TEWEN  =     56958.67271993
  -Hartree energ DENC   =    -62192.64601394
  -exchange      EXHF   =         0.00000000
  -V(xc)+E(xc)   XCENC  =       672.89731451
  PAW double counting   =      5505.55773403    -5549.36347127
  entropy T*S    EENTRO =        -0.01257320
  eigenvalues    EBANDS =     -3504.81039011
  atomic energy  EATOM  =      7560.21751256
  Solvation  Ediel_sol  =         0.00000000
  ---------------------------------------------------
  free energy    TOTEN  =      -496.05934634 eV

  energy without entropy =     -496.04677314  energy(sigma->0) =     -496.05305974


--------------------------------------------------------------------------------------------------------




----------------------------------------- Iteration    1(   6)  ---------------------------------------


    POTLOK:  cpu time    1.5123: real time    1.5126
    SETDIJ:  cpu time    1.3861: real time    1.3863
     EDDAV:  cpu time   41.6459: real time   41.6505
       DOS:  cpu time    0.0005: real time    0.0005
    CHARGE:  cpu time    4.4172: real time    4.4185
    MIXING:  cpu time    0.0520: real time    0.0584
    --------------------------------------------
      LOOP:  cpu time   49.0149: real time   49.0316

 eigenvalue-minimisations  :  2968
 total energy-change (2. order) : 0.2518025E+02  (-0.2442345E+01)
 number of electron     203.0000000 magnetization       5.1307454
 augmentation part        6.2304931 magnetization       4.5642084

 Broyden mixing:
  rms(total) = 0.19358E+01    rms(broyden)= 0.19358E+01
  rms(prec ) = 0.19889E+01
  weight for this iteration     100.00

 eigenvalues of (default mixing * dielectric matrix)
  average eigenvalue GAMMA=   0.9868
  0.9868

 Free energy of the ion-electron system (eV)
  ---------------------------------------------------
  alpha Z        PSCENC =        53.42782116
  Ewald energy   TEWEN  =     56958.67271993
  -Hartree energ DENC   =    -62498.21292971
  -exchange      EXHF   =         0.00000000
  -V(xc)+E(xc)   XCENC  =       685.95506721
  PAW double counting   =     10124.36955940   -10172.20366187
  entropy T*S    EENTRO =        -0.01411742
  eigenvalues    EBANDS =     -3183.09106603
  atomic energy  EATOM  =      7560.21751256
  Solvation  Ediel_sol  =         0.00000000
  ---------------------------------------------------
  free energy    TOTEN  =      -470.87909478 eV

  energy without entropy =     -470.86497736  energy(sigma->0) =     -470.87203607


--------------------------------------------------------------------------------------------------------




----------------------------------------- Iteration    1(   7)  ---------------------------------------


    POTLOK:  cpu time    1.4983: real time    1.4987
    SETDIJ:  cpu time    1.3932: real time    1.3935
     EDDAV:  cpu time   42.2930: real time   42.2971
       DOS:  cpu time    0.0006: real time    0.0006
    CHARGE:  cpu time    4.4061: real time    4.4063
    MIXING:  cpu time    0.0459: real time    0.0459
    --------------------------------------------
      LOOP:  cpu time   49.6378: real time   49.6462

 eigenvalue-minimisations  :  3020
 total energy-change (2. order) : 0.1264996E+02  (-0.1594598E+01)
 number of electron     203.0000000 magnetization       4.6732313
 augmentation part        6.0222271 magnetization       4.1324502

 Broyden mixing:
  rms(total) = 0.10060E+01    rms(broyden)= 0.10059E+01
  rms(prec ) = 0.10226E+01
  weight for this iteration     100.00

 eigenvalues of (default mixing * dielectric matrix)
  average eigenvalue GAMMA=   1.4395
  0.6690  2.2100

 Free energy of the ion-electron system (eV)
  ---------------------------------------------------
  alpha Z        PSCENC =        53.42782116
  Ewald energy   TEWEN  =     56958.67271993
  -Hartree energ DENC   =    -62779.72980430
  -exchange      EXHF   =         0.00000000
  -V(xc)+E(xc)   XCENC  =       700.51664759
  PAW double counting   =     15893.13581423   -15943.48125367
  entropy T*S    EENTRO =        -0.01583697
  eigenvalues    EBANDS =     -2900.97275736
  atomic energy  EATOM  =      7560.21751256
  Solvation  Ediel_sol  =         0.00000000
  ---------------------------------------------------
  free energy    TOTEN  =      -458.22913686 eV

  energy without entropy =     -458.21329988  energy(sigma->0) =     -458.22121837


--------------------------------------------------------------------------------------------------------




----------------------------------------- Iteration    1(   8)  ---------------------------------------


    POTLOK:  cpu time    1.4931: real time    1.4943
    SETDIJ:  cpu time    1.3867: real time    1.3869
     EDDAV:  cpu time   41.8542: real time   41.8646
       DOS:  cpu time    0.0005: real time    0.0005
    CHARGE:  cpu time    4.4530: real time    4.4539
    MIXING:  cpu time    0.0600: real time    0.0600
    --------------------------------------------
      LOOP:  cpu time   49.2483: real time   49.2650

 eigenvalue-minimisations  :  2980
 total energy-change (2. order) : 0.5788447E+00  (-0.4646655E+00)
 number of electron     203.0000000 magnetization       4.1495618
 augmentation part        5.8855426 magnetization       3.6131748

 Broyden mixing:
  rms(total) = 0.37960E+00    rms(broyden)= 0.37953E+00
  rms(prec ) = 0.39152E+00
  weight for this iteration     100.00

 eigenvalues of (default mixing * dielectric matrix)
  average eigenvalue GAMMA=   1.4482
  2.3280  1.3580  0.6585

 Free energy of the ion-electron system (eV)
  ---------------------------------------------------
  alpha Z        PSCENC =        53.42782116
  Ewald energy   TEWEN  =     56958.67271993
  -Hartree energ DENC   =    -62949.19560899
  -exchange      EXHF   =         0.00000000
  -V(xc)+E(xc)   XCENC  =       706.26956036
  PAW double counting   =     19997.65266974   -20048.89532473
  entropy T*S    EENTRO =        -0.01467310
  eigenvalues    EBANDS =     -2735.78496909
  atomic energy  EATOM  =      7560.21751256
  Solvation  Ediel_sol  =         0.00000000
  ---------------------------------------------------
  free energy    TOTEN  =      -457.65029217 eV

  energy without entropy =     -457.63561907  energy(sigma->0) =     -457.64295562


--------------------------------------------------------------------------------------------------------




----------------------------------------- Iteration    1(   9)  ---------------------------------------


    POTLOK:  cpu time    1.4874: real time    1.4876
    SETDIJ:  cpu time    1.4041: real time    1.4042
     EDDAV:  cpu time   47.3765: real time   47.3805
       DOS:  cpu time    0.0005: real time    0.0005
    CHARGE:  cpu time    4.3956: real time    4.3958
    MIXING:  cpu time    0.0350: real time    0.0350
    --------------------------------------------
      LOOP:  cpu time   54.6997: real time   54.7070

 eigenvalue-minimisations  :  3480
 total energy-change (2. order) :-0.1196404E+01  (-0.6055961E-01)
 number of electron     203.0000000 magnetization       3.8795154
 augmentation part        5.8581040 magnetization       3.3501823

 Broyden mixing:
  rms(total) = 0.14173E+00    rms(broyden)= 0.14164E+00
  rms(prec ) = 0.15519E+00
  weight for this iteration     100.00

 eigenvalues of (default mixing * dielectric matrix)
  average eigenvalue GAMMA=   1.4386
  2.2529  2.1298  0.7279  0.6437

 Free energy of the ion-electron system (eV)
  ---------------------------------------------------
  alpha Z        PSCENC =        53.42782116
  Ewald energy   TEWEN  =     56958.67271993
  -Hartree energ DENC   =    -63005.38922724
  -exchange      EXHF   =         0.00000000
  -V(xc)+E(xc)   XCENC  =       705.21945117
  PAW double counting   =     21275.36018047   -21325.80426569
  entropy T*S    EENTRO =        -0.01377107
  eigenvalues    EBANDS =     -2680.53711706
  atomic energy  EATOM  =      7560.21751256
  Solvation  Ediel_sol  =         0.00000000
  ---------------------------------------------------
  free energy    TOTEN  =      -458.84669578 eV

  energy without entropy =     -458.83292471  energy(sigma->0) =     -458.83981024


--------------------------------------------------------------------------------------------------------




----------------------------------------- Iteration    1(  10)  ---------------------------------------


    POTLOK:  cpu time    1.4863: real time    1.4863
    SETDIJ:  cpu time    1.3962: real time    1.3963
     EDDAV:  cpu time   41.0443: real time   41.0471
       DOS:  cpu time    0.0006: real time    0.0006
    CHARGE:  cpu time    4.4186: real time    4.4187
    MIXING:  cpu time    0.0555: real time    0.0555
    --------------------------------------------
      LOOP:  cpu time   48.4021: real time   48.4085

 eigenvalue-minimisations  :  2912
 total energy-change (2. order) :-0.2856091E+00  (-0.1747009E-01)
 number of electron     203.0000000 magnetization       3.5584246
 augmentation part        5.8539290 magnetization       3.0551271

 Broyden mixing:
  rms(total) = 0.93695E-01    rms(broyden)= 0.93677E-01
  rms(prec ) = 0.10731E+00
  weight for this iteration     100.00

 eigenvalues of (default mixing * dielectric matrix)
  average eigenvalue GAMMA=   1.3459
  2.2182  2.2182  0.9500  0.6998  0.6432

 Free energy of the ion-electron system (eV)
  ---------------------------------------------------
  alpha Z        PSCENC =        53.42782116
  Ewald energy   TEWEN  =     56958.67271993
  -Hartree energ DENC   =    -63032.38614286
  -exchange      EXHF   =         0.00000000
  -V(xc)+E(xc)   XCENC  =       705.14918136
  PAW double counting   =     21438.10667125   -21488.36832708
  entropy T*S    EENTRO =        -0.01463698
  eigenvalues    EBANDS =     -2653.93710417
  atomic energy  EATOM  =      7560.21751256
  Solvation  Ediel_sol  =         0.00000000
  ---------------------------------------------------
  free energy    TOTEN  =      -459.13230485 eV

  energy without entropy =     -459.11766787  energy(sigma->0) =     -459.12498636


--------------------------------------------------------------------------------------------------------




----------------------------------------- Iteration    1(  11)  ---------------------------------------


    POTLOK:  cpu time    1.4799: real time    1.4802
    SETDIJ:  cpu time    1.3996: real time    1.3997
     EDDAV:  cpu time   44.6347: real time   44.6392
       DOS:  cpu time    0.0006: real time    0.0006
    CHARGE:  cpu time    4.3767: real time    4.3768
    MIXING:  cpu time    0.0479: real time    0.0479
    --------------------------------------------
      LOOP:  cpu time   51.9403: real time   51.9478

 eigenvalue-minimisations  :  3236
 total energy-change (2. order) :-0.3037313E+00  (-0.5715441E-02)
 number of electron     203.0000000 magnetization       2.7264751
 augmentation part        5.8488270 magnetization       2.2429107

 Broyden mixing:
  rms(total) = 0.78241E-01    rms(broyden)= 0.78237E-01
  rms(prec ) = 0.88668E-01
  weight for this iteration     100.00

 eigenvalues of (default mixing * dielectric matrix)
  average eigenvalue GAMMA=   1.4609
  2.4233  2.4233  1.7470  0.8505  0.6837  0.6374

 Free energy of the ion-electron system (eV)
  ---------------------------------------------------
  alpha Z        PSCENC =        53.42782116
  Ewald energy   TEWEN  =     56958.67271993
  -Hartree energ DENC   =    -63062.97088879
  -exchange      EXHF   =         0.00000000
  -V(xc)+E(xc)   XCENC  =       705.18600071
  PAW double counting   =     21383.54412402   -21433.76935153
  entropy T*S    EENTRO =        -0.01526430
  eigenvalues    EBANDS =     -2623.72870987
  atomic energy  EATOM  =      7560.21751256
  Solvation  Ediel_sol  =         0.00000000
  ---------------------------------------------------
  free energy    TOTEN  =      -459.43603613 eV

  energy without entropy =     -459.42077183  energy(sigma->0) =     -459.42840398


--------------------------------------------------------------------------------------------------------




----------------------------------------- Iteration    1(  12)  ---------------------------------------


    POTLOK:  cpu time    1.4821: real time    1.4823
    SETDIJ:  cpu time    1.3922: real time    1.3923
     EDDAV:  cpu time   40.3747: real time   40.3775
       DOS:  cpu time    0.0006: real time    0.0006
    CHARGE:  cpu time    4.4151: real time    4.4163
    MIXING:  cpu time    0.0653: real time    0.0653
    --------------------------------------------
      LOOP:  cpu time   47.7306: real time   47.7378

 eigenvalue-minimisations  :  2852
 total energy-change (2. order) :-0.4519750E+00  (-0.2365610E-01)
 number of electron     203.0000000 magnetization       2.2699852
 augmentation part        5.8421198 magnetization       1.8381204

 Broyden mixing:
  rms(total) = 0.51954E-01    rms(broyden)= 0.51951E-01
  rms(prec ) = 0.55550E-01
  weight for this iteration     100.00

 eigenvalues of (default mixing * dielectric matrix)
  average eigenvalue GAMMA=   1.6260
  3.8862  2.4198  1.9618  1.0241  0.7816  0.6775  0.6306

 Free energy of the ion-electron system (eV)
  ---------------------------------------------------
  alpha Z        PSCENC =        53.42782116
  Ewald energy   TEWEN  =     56958.67271993
  -Hartree energ DENC   =    -63134.22581328
  -exchange      EXHF   =         0.00000000
  -V(xc)+E(xc)   XCENC  =       705.48514794
  PAW double counting   =     21283.69307735   -21333.80404195
  entropy T*S    EENTRO =        -0.01629960
  eigenvalues    EBANDS =     -2553.33813525
  atomic energy  EATOM  =      7560.21751256
  Solvation  Ediel_sol  =         0.00000000
  ---------------------------------------------------
  free energy    TOTEN  =      -459.88801115 eV

  energy without entropy =     -459.87171155  energy(sigma->0) =     -459.87986135


--------------------------------------------------------------------------------------------------------




----------------------------------------- Iteration    1(  13)  ---------------------------------------


    POTLOK:  cpu time    1.4846: real time    1.4846
    SETDIJ:  cpu time    1.3988: real time    1.3995
     EDDAV:  cpu time   40.9462: real time   40.9488
       DOS:  cpu time    0.0006: real time    0.0006
    CHARGE:  cpu time    4.3991: real time    4.3993
    MIXING:  cpu time    0.0385: real time    0.0385
    --------------------------------------------
      LOOP:  cpu time   48.2684: real time   48.2738

 eigenvalue-minimisations  :  2900
 total energy-change (2. order) :-0.4832461E-01  (-0.6217031E-02)
 number of electron     203.0000000 magnetization       1.7135075
 augmentation part        5.8387472 magnetization       1.3444652

 Broyden mixing:
  rms(total) = 0.41397E-01    rms(broyden)= 0.41395E-01
  rms(prec ) = 0.43284E-01
  weight for this iteration     100.00

 eigenvalues of (default mixing * dielectric matrix)
  average eigenvalue GAMMA=   1.7107
  5.0024  2.3138  2.0654  1.2413  1.0082  0.7535  0.6291  0.6722

 Free energy of the ion-electron system (eV)
  ---------------------------------------------------
  alpha Z        PSCENC =        53.42782116
  Ewald energy   TEWEN  =     56958.67271993
  -Hartree energ DENC   =    -63165.03977792
  -exchange      EXHF   =         0.00000000
  -V(xc)+E(xc)   XCENC  =       705.69885297
  PAW double counting   =     21287.25076880   -21337.32914912
  entropy T*S    EENTRO =        -0.01736114
  eigenvalues    EBANDS =     -2522.81772299
  atomic energy  EATOM  =      7560.21751256
  Solvation  Ediel_sol  =         0.00000000
  ---------------------------------------------------
  free energy    TOTEN  =      -459.93633576 eV

  energy without entropy =     -459.91897462  energy(sigma->0) =     -459.92765519


--------------------------------------------------------------------------------------------------------




----------------------------------------- Iteration    1(  14)  ---------------------------------------


    POTLOK:  cpu time    1.4815: real time    1.4818
    SETDIJ:  cpu time    1.3863: real time    1.3865
     EDDAV:  cpu time   41.3174: real time   41.3211
       DOS:  cpu time    0.0005: real time    0.0005
    CHARGE:  cpu time    4.4399: real time    4.4403
    MIXING:  cpu time    0.0584: real time    0.0584
    --------------------------------------------
      LOOP:  cpu time   48.6847: real time   48.6929

 eigenvalue-minimisations  :  2932
 total energy-change (2. order) :-0.8708598E+00  (-0.5623196E-02)
 number of electron     203.0000000 magnetization       1.2253621
 augmentation part        5.8364214 magnetization       0.9405799

 Broyden mixing:
  rms(total) = 0.28463E-01    rms(broyden)= 0.28460E-01
  rms(prec ) = 0.29633E-01
  weight for this iteration     100.00

 eigenvalues of (default mixing * dielectric matrix)
  average eigenvalue GAMMA=   2.0952
  8.0855  2.4784  2.4784  1.8726  1.0890  0.8251  0.7356  0.6261  0.6663

 Free energy of the ion-electron system (eV)
  ---------------------------------------------------
  alpha Z        PSCENC =        53.42782116
  Ewald energy   TEWEN  =     56958.67271993
  -Hartree energ DENC   =    -63190.18587469
  -exchange      EXHF   =         0.00000000
  -V(xc)+E(xc)   XCENC  =       704.95199080
  PAW double counting   =     21269.81738637   -21319.90138699
  entropy T*S    EENTRO =        -0.01873749
  eigenvalues    EBANDS =     -2497.78862724
  atomic energy  EATOM  =      7560.21751256
  Solvation  Ediel_sol  =         0.00000000
  ---------------------------------------------------
  free energy    TOTEN  =      -460.80719561 eV

  energy without entropy =     -460.78845811  energy(sigma->0) =     -460.79782686


--------------------------------------------------------------------------------------------------------




----------------------------------------- Iteration    1(  15)  ---------------------------------------


    POTLOK:  cpu time    1.4838: real time    1.4839
    SETDIJ:  cpu time    1.3981: real time    1.3982
     EDDAV:  cpu time   41.0909: real time   41.0967
       DOS:  cpu time    0.0006: real time    0.0006
    CHARGE:  cpu time    4.4055: real time    4.4056
    MIXING:  cpu time    0.0515: real time    0.0515
    --------------------------------------------
      LOOP:  cpu time   48.4312: real time   48.4401

 eigenvalue-minimisations  :  2904
 total energy-change (2. order) :-0.7345275E+00  (-0.2832345E-02)
 number of electron     203.0000000 magnetization       1.0393050
 augmentation part        5.8345243 magnetization       0.8298741

 Broyden mixing:
  rms(total) = 0.19416E-01    rms(broyden)= 0.19413E-01
  rms(prec ) = 0.21073E-01
  weight for this iteration     100.00

 eigenvalues of (default mixing * dielectric matrix)
  average eigenvalue GAMMA=   2.1553
  9.6061  2.5834  2.5834  1.8831  1.1621  0.9308  0.8007  0.7148  0.6257  0.6629

 Free energy of the ion-electron system (eV)
  ---------------------------------------------------
  alpha Z        PSCENC =        53.42782116
  Ewald energy   TEWEN  =     56958.67271993
  -Hartree energ DENC   =    -63204.58935497
  -exchange      EXHF   =         0.00000000
  -V(xc)+E(xc)   XCENC  =       704.22628235
  PAW double counting   =     21256.10667880   -21306.20255075
  entropy T*S    EENTRO =        -0.01963947
  eigenvalues    EBANDS =     -2483.38119272
  atomic energy  EATOM  =      7560.21751256
  Solvation  Ediel_sol  =         0.00000000
  ---------------------------------------------------
  free energy    TOTEN  =      -461.54172312 eV

  energy without entropy =     -461.52208365  energy(sigma->0) =     -461.53190339


--------------------------------------------------------------------------------------------------------




----------------------------------------- Iteration    1(  16)  ---------------------------------------


    POTLOK:  cpu time    1.4767: real time    1.4778
    SETDIJ:  cpu time    1.3920: real time    1.3920
     EDDAV:  cpu time   41.4526: real time   41.4560
       DOS:  cpu time    0.0005: real time    0.0005
    CHARGE:  cpu time    4.4435: real time    4.4437
    MIXING:  cpu time    0.0698: real time    0.0698
    --------------------------------------------
      LOOP:  cpu time   48.8358: real time   48.8433

 eigenvalue-minimisations  :  2944
 total energy-change (2. order) :-0.2479823E+00  (-0.3522544E-03)
 number of electron     203.0000000 magnetization       0.7165420
 augmentation part        5.8338848 magnetization       0.5338037

 Broyden mixing:
  rms(total) = 0.15759E-01    rms(broyden)= 0.15758E-01
  rms(prec ) = 0.17157E-01
  weight for this iteration     100.00

 eigenvalues of (default mixing * dielectric matrix)
  average eigenvalue GAMMA=   2.2583
 10.8516  2.8692  2.6297  1.8707  1.8707  1.1467  0.8526  0.7739  0.6234  0.6942
  0.6584

 Free energy of the ion-electron system (eV)
  ---------------------------------------------------
  alpha Z        PSCENC =        53.42782116
  Ewald energy   TEWEN  =     56958.67271993
  -Hartree energ DENC   =    -63203.74622528
  -exchange      EXHF   =         0.00000000
  -V(xc)+E(xc)   XCENC  =       703.92519432
  PAW double counting   =     21263.38405021   -21313.48353267
  entropy T*S    EENTRO =        -0.01982770
  eigenvalues    EBANDS =     -2484.16741798
  atomic energy  EATOM  =      7560.21751256
  Solvation  Ediel_sol  =         0.00000000
  ---------------------------------------------------
  free energy    TOTEN  =      -461.78970546 eV

  energy without entropy =     -461.76987775  energy(sigma->0) =     -461.77979161


--------------------------------------------------------------------------------------------------------




----------------------------------------- Iteration    1(  17)  ---------------------------------------


    POTLOK:  cpu time    1.4782: real time    1.4785
    SETDIJ:  cpu time    1.3966: real time    1.3967
     EDDAV:  cpu time   39.4006: real time   39.4048
       DOS:  cpu time    0.0005: real time    0.0005
    CHARGE:  cpu time    4.4081: real time    4.4083
    MIXING:  cpu time    0.0429: real time    0.0429
    --------------------------------------------
      LOOP:  cpu time   46.7277: real time   46.7350

 eigenvalue-minimisations  :  2756
 total energy-change (2. order) :-0.3085961E+00  (-0.7530124E-03)
 number of electron     203.0000000 magnetization       0.5157862
 augmentation part        5.8344579 magnetization       0.3753392

 Broyden mixing:
  rms(total) = 0.10344E-01    rms(broyden)= 0.10342E-01
  rms(prec ) = 0.11420E-01
  weight for this iteration     100.00

 eigenvalues of (default mixing * dielectric matrix)
  average eigenvalue GAMMA=   2.3662
 12.1238  3.8861  2.4783  2.1154  2.1154  1.0680  1.0680  0.8091  0.7651  0.6223
  0.6868  0.6556

 Free energy of the ion-electron system (eV)
  ---------------------------------------------------
  alpha Z        PSCENC =        53.42782116
  Ewald energy   TEWEN  =     56958.67271993
  -Hartree energ DENC   =    -63200.49102213
  -exchange      EXHF   =         0.00000000
  -V(xc)+E(xc)   XCENC  =       703.53259631
  PAW double counting   =     21271.99290692   -21322.09415374
  entropy T*S    EENTRO =        -0.02013784
  eigenvalues    EBANDS =     -2487.33654476
  atomic energy  EATOM  =      7560.21751256
  Solvation  Ediel_sol  =         0.00000000
  ---------------------------------------------------
  free energy    TOTEN  =      -462.09830160 eV

  energy without entropy =     -462.07816376  energy(sigma->0) =     -462.08823268


--------------------------------------------------------------------------------------------------------




----------------------------------------- Iteration    1(  18)  ---------------------------------------


    POTLOK:  cpu time    1.4850: real time    1.4851
    SETDIJ:  cpu time    1.3901: real time    1.3902
     EDDAV:  cpu time   41.7705: real time   41.7736
       DOS:  cpu time    0.0005: real time    0.0005
    CHARGE:  cpu time    4.4247: real time    4.4248
    MIXING:  cpu time    0.0630: real time    0.0630
    --------------------------------------------
      LOOP:  cpu time   49.1345: real time   49.1403

 eigenvalue-minimisations  :  2976
 total energy-change (2. order) :-0.8840312E-01  (-0.3049354E-03)
 number of electron     203.0000000 magnetization       0.3765541
 augmentation part        5.8347223 magnetization       0.2679733

 Broyden mixing:
  rms(total) = 0.76056E-02    rms(broyden)= 0.76039E-02
  rms(prec ) = 0.86392E-02
  weight for this iteration     100.00

 eigenvalues of (default mixing * dielectric matrix)
  average eigenvalue GAMMA=   2.4104
 13.0470  4.6452  2.3896  2.3896  2.0566  1.2242  1.2242  0.8445  0.8445  0.7265
  0.6204  0.6727  0.6503

 Free energy of the ion-electron system (eV)
  ---------------------------------------------------
  alpha Z        PSCENC =        53.42782116
  Ewald energy   TEWEN  =     56958.67271993
  -Hartree energ DENC   =    -63197.97249485
  -exchange      EXHF   =         0.00000000
  -V(xc)+E(xc)   XCENC  =       703.41477525
  PAW double counting   =     21270.74356157   -21320.84813598
  entropy T*S    EENTRO =        -0.02041385
  eigenvalues    EBANDS =     -2489.82205049
  atomic energy  EATOM  =      7560.21751256
  Solvation  Ediel_sol  =         0.00000000
  ---------------------------------------------------
  free energy    TOTEN  =      -462.18670472 eV

  energy without entropy =     -462.16629087  energy(sigma->0) =     -462.17649780


--------------------------------------------------------------------------------------------------------




----------------------------------------- Iteration    1(  19)  ---------------------------------------


    POTLOK:  cpu time    1.4868: real time    1.4871
    SETDIJ:  cpu time    1.4011: real time    1.4014
     EDDAV:  cpu time   42.2873: real time   42.2911
       DOS:  cpu time    0.0005: real time    0.0005
    CHARGE:  cpu time    4.4051: real time    4.4053
    MIXING:  cpu time    0.0572: real time    0.0572
    --------------------------------------------
      LOOP:  cpu time   49.6386: real time   49.6458

 eigenvalue-minimisations  :  3016
 total energy-change (2. order) :-0.2730364E-01  (-0.1336617E-03)
 number of electron     203.0000000 magnetization       0.2284618
 augmentation part        5.8350698 magnetization       0.1468236

 Broyden mixing:
  rms(total) = 0.57267E-02    rms(broyden)= 0.57251E-02
  rms(prec ) = 0.66313E-02
  weight for this iteration     100.00

 eigenvalues of (default mixing * dielectric matrix)
  average eigenvalue GAMMA=   2.4551
 13.9291  5.2528  2.5795  2.4123  1.9807  1.4433  1.4433  1.0064  0.8821  0.7743
  0.7222  0.6220  0.6736  0.6498

 Free energy of the ion-electron system (eV)
  ---------------------------------------------------
  alpha Z        PSCENC =        53.42782116
  Ewald energy   TEWEN  =     56958.67271993
  -Hartree energ DENC   =    -63195.07485998
  -exchange      EXHF   =         0.00000000
  -V(xc)+E(xc)   XCENC  =       703.36709707
  PAW double counting   =     21271.03734459   -21321.13975290
  entropy T*S    EENTRO =        -0.02056884
  eigenvalues    EBANDS =     -2492.70132194
  atomic energy  EATOM  =      7560.21751256
  Solvation  Ediel_sol  =         0.00000000
  ---------------------------------------------------
  free energy    TOTEN  =      -462.21400836 eV

  energy without entropy =     -462.19343953  energy(sigma->0) =     -462.20372395


--------------------------------------------------------------------------------------------------------




----------------------------------------- Iteration    1(  20)  ---------------------------------------


    POTLOK:  cpu time    1.4836: real time    1.4837
    SETDIJ:  cpu time    1.3926: real time    1.3927
     EDDAV:  cpu time   40.8351: real time   40.8381
       DOS:  cpu time    0.0006: real time    0.0006
    CHARGE:  cpu time    4.4555: real time    4.4567
    MIXING:  cpu time    0.0744: real time    0.0744
    --------------------------------------------
      LOOP:  cpu time   48.2424: real time   48.2499

 eigenvalue-minimisations  :  2888
 total energy-change (2. order) :-0.2784845E-01  (-0.8770339E-04)
 number of electron     203.0000000 magnetization       0.1345307
 augmentation part        5.8352985 magnetization       0.0846043

 Broyden mixing:
  rms(total) = 0.38775E-02    rms(broyden)= 0.38745E-02
  rms(prec ) = 0.45709E-02
  weight for this iteration     100.00

 eigenvalues of (default mixing * dielectric matrix)
  average eigenvalue GAMMA=   2.5172
 14.8641  5.8899  3.0224  2.2831  2.1025  2.0306  1.3318  1.0221  1.0221  0.7832
  0.7832  0.6991  0.6210  0.6603  0.6422

 Free energy of the ion-electron system (eV)
  ---------------------------------------------------
  alpha Z        PSCENC =        53.42782116
  Ewald energy   TEWEN  =     56958.67271993
  -Hartree energ DENC   =    -63191.98225692
  -exchange      EXHF   =         0.00000000
  -V(xc)+E(xc)   XCENC  =       703.32599050
  PAW double counting   =     21272.73093537   -21322.82816015
  entropy T*S    EENTRO =        -0.02066678
  eigenvalues    EBANDS =     -2495.78575247
  atomic energy  EATOM  =      7560.21751256
  Solvation  Ediel_sol  =         0.00000000
  ---------------------------------------------------
  free energy    TOTEN  =      -462.24185681 eV

  energy without entropy =     -462.22119003  energy(sigma->0) =     -462.23152342


--------------------------------------------------------------------------------------------------------




----------------------------------------- Iteration    1(  21)  ---------------------------------------


    POTLOK:  cpu time    1.4878: real time    1.4879
    SETDIJ:  cpu time    1.3999: real time    1.4000
     EDDAV:  cpu time   40.8972: real time   40.9031
       DOS:  cpu time    0.0006: real time    0.0006
    CHARGE:  cpu time    4.4148: real time    4.4149
    MIXING:  cpu time    0.0482: real time    0.0483
    --------------------------------------------
      LOOP:  cpu time   48.2493: real time   48.2580

 eigenvalue-minimisations  :  2892
 total energy-change (2. order) :-0.3723987E-01  (-0.3447849E-04)
 number of electron     203.0000000 magnetization       0.0563786
 augmentation part        5.8353557 magnetization       0.0274448

 Broyden mixing:
  rms(total) = 0.25304E-02    rms(broyden)= 0.25278E-02
  rms(prec ) = 0.30666E-02
  weight for this iteration     100.00

 eigenvalues of (default mixing * dielectric matrix)
  average eigenvalue GAMMA=   2.6268
 15.9645  6.7667  3.7714  2.3976  2.3976  1.9365  1.4449  1.1354  1.1354  0.9351
  0.8148  0.7402  0.6868  0.6522  0.6213  0.6284

 Free energy of the ion-electron system (eV)
  ---------------------------------------------------
  alpha Z        PSCENC =        53.42782116
  Ewald energy   TEWEN  =     56958.67271993
  -Hartree energ DENC   =    -63190.12906800
  -exchange      EXHF   =         0.00000000
  -V(xc)+E(xc)   XCENC  =       703.28804962
  PAW double counting   =     21271.43299013   -21321.52964316
  entropy T*S    EENTRO =        -0.02072397
  eigenvalues    EBANDS =     -2497.63875494
  atomic energy  EATOM  =      7560.21751256
  Solvation  Ediel_sol  =         0.00000000
  ---------------------------------------------------
  free energy    TOTEN  =      -462.27909668 eV

  energy without entropy =     -462.25837272  energy(sigma->0) =     -462.26873470


--------------------------------------------------------------------------------------------------------




----------------------------------------- Iteration    1(  22)  ---------------------------------------


    POTLOK:  cpu time    1.4879: real time    1.4880
    SETDIJ:  cpu time    1.3872: real time    1.3905
     EDDAV:  cpu time   41.5428: real time   41.5446
       DOS:  cpu time    0.0006: real time    0.0006
    CHARGE:  cpu time    4.4222: real time    4.4223
    MIXING:  cpu time    0.0694: real time    0.0694
    --------------------------------------------
      LOOP:  cpu time   48.9107: real time   48.9190

 eigenvalue-minimisations  :  2952
 total energy-change (2. order) :-0.2860627E-01  (-0.1849360E-04)
 number of electron     203.0000000 magnetization       0.0256716
 augmentation part        5.8353605 magnetization       0.0156220

 Broyden mixing:
  rms(total) = 0.13540E-02    rms(broyden)= 0.13503E-02
  rms(prec ) = 0.17083E-02
  weight for this iteration     100.00

 eigenvalues of (default mixing * dielectric matrix)
  average eigenvalue GAMMA=   2.6997
 17.0718  7.6847  4.3547  2.4622  2.4622  1.8979  1.7442  1.2053  1.0588  0.9557
  0.8840  0.7934  0.7428  0.6846  0.6517  0.6258  0.6156

 Free energy of the ion-electron system (eV)
  ---------------------------------------------------
  alpha Z        PSCENC =        53.42782116
  Ewald energy   TEWEN  =     56958.67271993
  -Hartree energ DENC   =    -63188.19073856
  -exchange      EXHF   =         0.00000000
  -V(xc)+E(xc)   XCENC  =       703.25695399
  PAW double counting   =     21269.94283407   -21320.04150783
  entropy T*S    EENTRO =        -0.02075486
  eigenvalues    EBANDS =     -2499.57254341
  atomic energy  EATOM  =      7560.21751256
  Solvation  Ediel_sol  =         0.00000000
  ---------------------------------------------------
  free energy    TOTEN  =      -462.30770296 eV

  energy without entropy =     -462.28694810  energy(sigma->0) =     -462.29732553


--------------------------------------------------------------------------------------------------------




----------------------------------------- Iteration    1(  23)  ---------------------------------------


    POTLOK:  cpu time    1.4923: real time    1.4924
    SETDIJ:  cpu time    1.4018: real time    1.4028
     EDDAV:  cpu time   41.1744: real time   41.1765
       DOS:  cpu time    0.0006: real time    0.0006
    CHARGE:  cpu time    4.3855: real time    4.3858
    MIXING:  cpu time    0.0654: real time    0.0654
    --------------------------------------------
      LOOP:  cpu time   48.5207: real time   48.5262

 eigenvalue-minimisations  :  2916
 total energy-change (2. order) :-0.5672622E-02  (-0.5449816E-05)
 number of electron     203.0000000 magnetization       0.0131183
 augmentation part        5.8354029 magnetization       0.0098414

 Broyden mixing:
  rms(total) = 0.83953E-03    rms(broyden)= 0.83804E-03
  rms(prec ) = 0.11038E-02
  weight for this iteration     100.00

 eigenvalues of (default mixing * dielectric matrix)
  average eigenvalue GAMMA=   2.6752
 17.4117  7.9637  4.5702  2.5066  2.5066  1.9685  1.9685  1.1745  1.1745  1.0071
  1.0071  0.8024  0.8024  0.7225  0.6777  0.6515  0.6232  0.6158

 Free energy of the ion-electron system (eV)
  ---------------------------------------------------
  alpha Z        PSCENC =        53.42782116
  Ewald energy   TEWEN  =     56958.67271993
  -Hartree energ DENC   =    -63187.32844659
  -exchange      EXHF   =         0.00000000
  -V(xc)+E(xc)   XCENC  =       703.24803542
  PAW double counting   =     21270.15149436   -21320.25179642
  entropy T*S    EENTRO =        -0.02075077
  eigenvalues    EBANDS =     -2500.42996523
  atomic energy  EATOM  =      7560.21751256
  Solvation  Ediel_sol  =         0.00000000
  ---------------------------------------------------
  free energy    TOTEN  =      -462.31337558 eV

  energy without entropy =     -462.29262481  energy(sigma->0) =     -462.30300020


--------------------------------------------------------------------------------------------------------




----------------------------------------- Iteration    1(  24)  ---------------------------------------


    POTLOK:  cpu time    1.4863: real time    1.4864
    SETDIJ:  cpu time    1.3896: real time    1.3896
     EDDAV:  cpu time   34.7484: real time   34.7507
       DOS:  cpu time    0.0005: real time    0.0006
    CHARGE:  cpu time    4.4308: real time    4.4310
    MIXING:  cpu time    0.0814: real time    0.0815
    --------------------------------------------
      LOOP:  cpu time   42.1377: real time   42.1431

 eigenvalue-minimisations  :  2332
 total energy-change (2. order) :-0.2013250E-02  (-0.3493759E-05)
 number of electron     203.0000000 magnetization       0.0060583
 augmentation part        5.8354452 magnetization       0.0051001

 Broyden mixing:
  rms(total) = 0.53323E-03    rms(broyden)= 0.53270E-03
  rms(prec ) = 0.70506E-03
  weight for this iteration     100.00

 eigenvalues of (default mixing * dielectric matrix)
  average eigenvalue GAMMA=   2.6778
 17.7009  8.2534  4.8409  2.8596  2.4833  2.1190  2.1190  1.3766  1.3766  0.9716
  0.9716  0.9596  0.8322  0.7537  0.6998  0.6720  0.6521  0.6225  0.6139

 Free energy of the ion-electron system (eV)
  ---------------------------------------------------
  alpha Z        PSCENC =        53.42782116
  Ewald energy   TEWEN  =     56958.67271993
  -Hartree energ DENC   =    -63186.80126242
  -exchange      EXHF   =         0.00000000
  -V(xc)+E(xc)   XCENC  =       703.24351517
  PAW double counting   =     21270.62308394   -21320.72496919
  entropy T*S    EENTRO =        -0.02074725
  eigenvalues    EBANDS =     -2500.95306271
  atomic energy  EATOM  =      7560.21751256
  Solvation  Ediel_sol  =         0.00000000
  ---------------------------------------------------
  free energy    TOTEN  =      -462.31538883 eV

  energy without entropy =     -462.29464158  energy(sigma->0) =     -462.30501521


--------------------------------------------------------------------------------------------------------




----------------------------------------- Iteration    1(  25)  ---------------------------------------


    POTLOK:  cpu time    1.4863: real time    1.4866
    SETDIJ:  cpu time    1.3979: real time    1.3980
     EDDAV:  cpu time   35.7689: real time   35.7729
       DOS:  cpu time    0.0006: real time    0.0006
    CHARGE:  cpu time    4.3950: real time    4.3967
    MIXING:  cpu time    0.0594: real time    0.0594
    --------------------------------------------
      LOOP:  cpu time   43.1087: real time   43.1170

 eigenvalue-minimisations  :  2424
 total energy-change (2. order) :-0.8769469E-03  (-0.3757799E-05)
 number of electron     203.0000000 magnetization       0.0032678
 augmentation part        5.8354830 magnetization       0.0034221

 Broyden mixing:
  rms(total) = 0.31443E-03    rms(broyden)= 0.31408E-03
  rms(prec ) = 0.41442E-03
  weight for this iteration     100.00

 eigenvalues of (default mixing * dielectric matrix)
  average eigenvalue GAMMA=   2.6620
 17.8922  8.4879  5.1116  3.2722  2.3966  2.3966  1.9795  1.7664  1.2100  1.1013
  0.9932  0.9932  0.8614  0.8080  0.7346  0.6917  0.6633  0.6468  0.6205  0.6135

 Free energy of the ion-electron system (eV)
  ---------------------------------------------------
  alpha Z        PSCENC =        53.42782116
  Ewald energy   TEWEN  =     56958.67271993
  -Hartree energ DENC   =    -63186.38934291
  -exchange      EXHF   =         0.00000000
  -V(xc)+E(xc)   XCENC  =       703.24088797
  PAW double counting   =     21271.04012064   -21321.14266996
  entropy T*S    EENTRO =        -0.02074881
  eigenvalues    EBANDS =     -2501.36256634
  atomic energy  EATOM  =      7560.21751256
  Solvation  Ediel_sol  =         0.00000000
  ---------------------------------------------------
  free energy    TOTEN  =      -462.31626578 eV

  energy without entropy =     -462.29551696  energy(sigma->0) =     -462.30589137


--------------------------------------------------------------------------------------------------------




----------------------------------------- Iteration    1(  26)  ---------------------------------------


    POTLOK:  cpu time    1.4901: real time    1.4902
    SETDIJ:  cpu time    1.3903: real time    1.3903
     EDDAV:  cpu time   34.9051: real time   34.9078
       DOS:  cpu time    0.0006: real time    0.0006
    CHARGE:  cpu time    4.4169: real time    4.4171
    MIXING:  cpu time    0.0806: real time    0.0829
    --------------------------------------------
      LOOP:  cpu time   42.2844: real time   42.2927

 eigenvalue-minimisations  :  2352
 total energy-change (2. order) :-0.3060396E-03  (-0.1419471E-05)
 number of electron     203.0000000 magnetization       0.0019604
 augmentation part        5.8355000 magnetization       0.0023971

 Broyden mixing:
  rms(total) = 0.20322E-03    rms(broyden)= 0.20289E-03
  rms(prec ) = 0.27310E-03
  weight for this iteration     100.00

 eigenvalues of (default mixing * dielectric matrix)
  average eigenvalue GAMMA=   2.6366
 18.0000  8.6359  5.3790  3.5477  2.4456  2.4456  1.9284  1.9284  1.2153  1.2153
  1.0472  1.0472  0.9779  0.8357  0.7853  0.7273  0.6826  0.6560  0.6394  0.6193
  0.6105

 Free energy of the ion-electron system (eV)
  ---------------------------------------------------
  alpha Z        PSCENC =        53.42782116
  Ewald energy   TEWEN  =     56958.67271993
  -Hartree energ DENC   =    -63186.23768632
  -exchange      EXHF   =         0.00000000
  -V(xc)+E(xc)   XCENC  =       703.24064502
  PAW double counting   =     21271.15227265   -21321.25459741
  entropy T*S    EENTRO =        -0.02074943
  eigenvalues    EBANDS =     -2501.51450997
  atomic energy  EATOM  =      7560.21751256
  Solvation  Ediel_sol  =         0.00000000
  ---------------------------------------------------
  free energy    TOTEN  =      -462.31657182 eV

  energy without entropy =     -462.29582239  energy(sigma->0) =     -462.30619710


--------------------------------------------------------------------------------------------------------




----------------------------------------- Iteration    1(  27)  ---------------------------------------


    POTLOK:  cpu time    1.4948: real time    1.4949
    SETDIJ:  cpu time    1.3956: real time    1.3967
     EDDAV:  cpu time   35.7666: real time   35.7689
       DOS:  cpu time    0.0005: real time    0.0005
    CHARGE:  cpu time    4.3872: real time    4.3873
    MIXING:  cpu time    0.0752: real time    0.0752
    --------------------------------------------
      LOOP:  cpu time   43.1204: real time   43.1261

 eigenvalue-minimisations  :  2424
 total energy-change (2. order) :-0.1582260E-03  (-0.4916017E-06)
 number of electron     203.0000000 magnetization       0.0012230
 augmentation part        5.8355010 magnetization       0.0016473

 Broyden mixing:
  rms(total) = 0.13608E-03    rms(broyden)= 0.13565E-03
  rms(prec ) = 0.18682E-03
  weight for this iteration     100.00

 eigenvalues of (default mixing * dielectric matrix)
  average eigenvalue GAMMA=   2.6241
 18.0650  8.7429  5.7049  3.8393  2.4930  2.4930  2.0318  2.0318  1.5907  1.2227
  1.0777  1.0092  1.0092  0.9371  0.8179  0.7573  0.7183  0.6785  0.6500  0.6343
  0.6193  0.6066

 Free energy of the ion-electron system (eV)
  ---------------------------------------------------
  alpha Z        PSCENC =        53.42782116
  Ewald energy   TEWEN  =     56958.67271993
  -Hartree energ DENC   =    -63186.16684606
  -exchange      EXHF   =         0.00000000
  -V(xc)+E(xc)   XCENC  =       703.24106414
  PAW double counting   =     21271.15749974   -21321.25956280
  entropy T*S    EENTRO =        -0.02074879
  eigenvalues    EBANDS =     -2501.58618990
  atomic energy  EATOM  =      7560.21751256
  Solvation  Ediel_sol  =         0.00000000
  ---------------------------------------------------
  free energy    TOTEN  =      -462.31673004 eV

  energy without entropy =     -462.29598125  energy(sigma->0) =     -462.30635565


--------------------------------------------------------------------------------------------------------




----------------------------------------- Iteration    1(  28)  ---------------------------------------


    POTLOK:  cpu time    1.5034: real time    1.5040
    SETDIJ:  cpu time    1.3889: real time    1.3891
     EDDAV:  cpu time   34.6626: real time   34.6658
       DOS:  cpu time    0.0021: real time    0.0021
    CHARGE:  cpu time    4.4284: real time    4.4289
    MIXING:  cpu time    0.0976: real time    0.0976
    --------------------------------------------
      LOOP:  cpu time   42.0835: real time   42.0910

 eigenvalue-minimisations  :  2324
 total energy-change (2. order) :-0.9941490E-04  (-0.1842803E-06)
 number of electron     203.0000000 magnetization       0.0005519
 augmentation part        5.8354989 magnetization       0.0009294

 Broyden mixing:
  rms(total) = 0.88846E-04    rms(broyden)= 0.88194E-04
  rms(prec ) = 0.12425E-03
  weight for this iteration     100.00

 eigenvalues of (default mixing * dielectric matrix)
  average eigenvalue GAMMA=   2.6131
 18.0963  8.8084  6.0543  4.1051  2.7366  2.5141  2.1322  2.1322  1.6631  1.2453
  1.1163  1.1163  1.0377  1.0377  0.8628  0.8173  0.7439  0.7056  0.6743  0.6478
  0.6303  0.6196  0.6038

 Free energy of the ion-electron system (eV)
  ---------------------------------------------------
  alpha Z        PSCENC =        53.42782116
  Ewald energy   TEWEN  =     56958.67271993
  -Hartree energ DENC   =    -63186.10049945
  -exchange      EXHF   =         0.00000000
  -V(xc)+E(xc)   XCENC  =       703.24130827
  PAW double counting   =     21271.14350603   -21321.24539665
  entropy T*S    EENTRO =        -0.02074845
  eigenvalues    EBANDS =     -2501.65305285
  atomic energy  EATOM  =      7560.21751256
  Solvation  Ediel_sol  =         0.00000000
  ---------------------------------------------------
  free energy    TOTEN  =      -462.31682946 eV

  energy without entropy =     -462.29608101  energy(sigma->0) =     -462.30645523


--------------------------------------------------------------------------------------------------------




----------------------------------------- Iteration    1(  29)  ---------------------------------------


    POTLOK:  cpu time    1.4981: real time    1.4982
    SETDIJ:  cpu time    1.3961: real time    1.3962
     EDDAV:  cpu time   33.0080: real time   33.0108
       DOS:  cpu time    0.0006: real time    0.0006
    CHARGE:  cpu time    4.3927: real time    4.3943
    MIXING:  cpu time    0.0721: real time    0.0721
    --------------------------------------------
      LOOP:  cpu time   40.3683: real time   40.3750

 eigenvalue-minimisations  :  2168
 total energy-change (2. order) :-0.6898514E-04  (-0.1226797E-06)
 number of electron     203.0000000 magnetization       0.0001363
 augmentation part        5.8354965 magnetization       0.0005063

 Broyden mixing:
  rms(total) = 0.57755E-04    rms(broyden)= 0.56752E-04
  rms(prec ) = 0.79994E-04
  weight for this iteration     100.00

 eigenvalues of (default mixing * dielectric matrix)
  average eigenvalue GAMMA=   2.6038
 18.1392  8.9151  6.4002  4.3566  3.1202  2.4475  2.3010  2.0563  1.5991  1.5991
  1.1740  1.1740  1.0394  1.0394  0.9081  0.8445  0.7893  0.7323  0.6932  0.6696
  0.6445  0.6270  0.6197  0.6023

 Free energy of the ion-electron system (eV)
  ---------------------------------------------------
  alpha Z        PSCENC =        53.42782116
  Ewald energy   TEWEN  =     56958.67271993
  -Hartree energ DENC   =    -63186.04959920
  -exchange      EXHF   =         0.00000000
  -V(xc)+E(xc)   XCENC  =       703.24144015
  PAW double counting   =     21271.11540502   -21321.21720220
  entropy T*S    EENTRO =        -0.02074857
  eigenvalues    EBANDS =     -2501.70424727
  atomic energy  EATOM  =      7560.21751256
  Solvation  Ediel_sol  =         0.00000000
  ---------------------------------------------------
  free energy    TOTEN  =      -462.31689844 eV

  energy without entropy =     -462.29614987  energy(sigma->0) =     -462.30652416


--------------------------------------------------------------------------------------------------------




----------------------------------------- Iteration    1(  30)  ---------------------------------------


    POTLOK:  cpu time    1.5079: real time    1.5079
    SETDIJ:  cpu time    1.3831: real time    1.3832
     EDDAV:  cpu time   30.9698: real time   30.9724
       DOS:  cpu time    0.0006: real time    0.0005
    CHARGE:  cpu time    4.4131: real time    4.4135
    MIXING:  cpu time    0.0928: real time    0.0928
    --------------------------------------------
      LOOP:  cpu time   38.3677: real time   38.3729

 eigenvalue-minimisations  :  1984
 total energy-change (2. order) :-0.3243759E-04  (-0.3929338E-07)
 number of electron     203.0000000 magnetization      -0.0000769
 augmentation part        5.8354943 magnetization       0.0003061

 Broyden mixing:
  rms(total) = 0.41361E-04    rms(broyden)= 0.39950E-04
  rms(prec ) = 0.54981E-04
  weight for this iteration     100.00

 eigenvalues of (default mixing * dielectric matrix)
  average eigenvalue GAMMA=   2.5961
 18.1596  9.0067  6.6889  4.6177  3.3677  2.4120  2.4120  2.0077  2.0077  1.5197
  1.2787  1.2787  1.0787  1.0067  1.0067  0.9050  0.8215  0.7638  0.7265  0.6870
  0.6614  0.6438  0.6228  0.6209  0.6011

 Free energy of the ion-electron system (eV)
  ---------------------------------------------------
  alpha Z        PSCENC =        53.42782116
  Ewald energy   TEWEN  =     56958.67271993
  -Hartree energ DENC   =    -63186.02583079
  -exchange      EXHF   =         0.00000000
  -V(xc)+E(xc)   XCENC  =       703.24151140
  PAW double counting   =     21271.10400264   -21321.20583123
  entropy T*S    EENTRO =        -0.02074847
  eigenvalues    EBANDS =     -2501.72808807
  atomic energy  EATOM  =      7560.21751256
  Solvation  Ediel_sol  =         0.00000000
  ---------------------------------------------------
  free energy    TOTEN  =      -462.31693088 eV

  energy without entropy =     -462.29618241  energy(sigma->0) =     -462.30655665


--------------------------------------------------------------------------------------------------------




----------------------------------------- Iteration    1(  31)  ---------------------------------------


    POTLOK:  cpu time    1.5021: real time    1.5023
    SETDIJ:  cpu time    1.3923: real time    1.3925
     EDDAV:  cpu time   30.9713: real time   30.9739
       DOS:  cpu time    0.0005: real time    0.0005
    CHARGE:  cpu time    4.3702: real time    4.3705
    MIXING:  cpu time    0.0897: real time    0.0897
    --------------------------------------------
      LOOP:  cpu time   38.3269: real time   38.3329

 eigenvalue-minimisations  :  1984
 total energy-change (2. order) :-0.2310984E-04  (-0.2827457E-07)
 number of electron     203.0000000 magnetization      -0.0001565
 augmentation part        5.8354923 magnetization       0.0001967

 Broyden mixing:
  rms(total) = 0.27583E-04    rms(broyden)= 0.25419E-04
  rms(prec ) = 0.33245E-04
  weight for this iteration     100.00

 eigenvalues of (default mixing * dielectric matrix)
  average eigenvalue GAMMA=   2.5900
 18.1549  9.0612  7.0103  4.9321  3.5736  2.4899  2.4899  2.2692  2.0751  1.4873
  1.4873  1.1713  1.1713  1.0267  1.0267  0.9229  0.8901  0.8144  0.7457  0.7159
  0.6827  0.6551  0.6426  0.6201  0.6221  0.6004

 Free energy of the ion-electron system (eV)
  ---------------------------------------------------
  alpha Z        PSCENC =        53.42782116
  Ewald energy   TEWEN  =     56958.67271993
  -Hartree energ DENC   =    -63186.00621272
  -exchange      EXHF   =         0.00000000
  -V(xc)+E(xc)   XCENC  =       703.24147673
  PAW double counting   =     21271.09658632   -21321.19851057
  entropy T*S    EENTRO =        -0.02074817
  eigenvalues    EBANDS =     -2501.74759922
  atomic energy  EATOM  =      7560.21751256
  Solvation  Ediel_sol  =         0.00000000
  ---------------------------------------------------
  free energy    TOTEN  =      -462.31695399 eV

  energy without entropy =     -462.29620582  energy(sigma->0) =     -462.30657991


--------------------------------------------------------------------------------------------------------




----------------------------------------- Iteration    1(  32)  ---------------------------------------


    POTLOK:  cpu time    1.4988: real time    1.4989
    SETDIJ:  cpu time    1.3928: real time    1.3929
     EDDAV:  cpu time   31.0280: real time   31.0310
       DOS:  cpu time    0.0005: real time    0.0005
    CHARGE:  cpu time    4.4376: real time    4.4401
    MIXING:  cpu time    0.1085: real time    0.1085
    --------------------------------------------
      LOOP:  cpu time   38.4670: real time   38.4757

 eigenvalue-minimisations  :  1988
 total energy-change (2. order) :-0.1308794E-04  (-0.1145821E-07)
 number of electron     203.0000000 magnetization      -0.0001212
 augmentation part        5.8354912 magnetization       0.0001646

 Broyden mixing:
  rms(total) = 0.20012E-04    rms(broyden)= 0.16903E-04
  rms(prec ) = 0.20422E-04
  weight for this iteration     100.00
  WARNING: grid for Broyden might be to small

 eigenvalues of (default mixing * dielectric matrix)
  average eigenvalue GAMMA=   2.5949
 18.1473  9.1747  7.4094  5.2919  3.7908  2.7727  2.4254  2.4254  2.0175  1.7891
  1.3522  1.3522  1.1487  1.1487  1.0114  1.0114  0.8782  0.8782  0.7755  0.7528
  0.7069  0.6773  0.6496  0.6355  0.6204  0.6189  0.6002

 Free energy of the ion-electron system (eV)
  ---------------------------------------------------
  alpha Z        PSCENC =        53.42782116
  Ewald energy   TEWEN  =     56958.67271993
  -Hartree energ DENC   =    -63185.99283943
  -exchange      EXHF   =         0.00000000
  -V(xc)+E(xc)   XCENC  =       703.24137708
  PAW double counting   =     21271.09856747   -21321.20053729
  entropy T*S    EENTRO =        -0.02074806
  eigenvalues    EBANDS =     -2501.76084048
  atomic energy  EATOM  =      7560.21751256
  Solvation  Ediel_sol  =         0.00000000
  ---------------------------------------------------
  free energy    TOTEN  =      -462.31696708 eV

  energy without entropy =     -462.29621902  energy(sigma->0) =     -462.30659305


--------------------------------------------------------------------------------------------------------




----------------------------------------- Iteration    1(  33)  ---------------------------------------


    POTLOK:  cpu time    1.5018: real time    1.5022
    SETDIJ:  cpu time    1.3994: real time    1.4019
     EDDAV:  cpu time   30.4586: real time   30.4626
       DOS:  cpu time    0.0006: real time    0.0006
    CHARGE:  cpu time    4.4114: real time    4.4118
    MIXING:  cpu time    0.0853: real time    0.0853
    --------------------------------------------
      LOOP:  cpu time   37.8578: real time   37.8676

 eigenvalue-minimisations  :  1932
 total energy-change (2. order) :-0.7601095E-05  (-0.1939906E-08)
 number of electron     203.0000000 magnetization      -0.0000496
 augmentation part        5.8354907 magnetization       0.0001546

 Broyden mixing:
  rms(total) = 0.15048E-04    rms(broyden)= 0.10568E-04
  rms(prec ) = 0.12310E-04
  weight for this iteration     100.00
  WARNING: grid for Broyden might be to small

 eigenvalues of (default mixing * dielectric matrix)
  average eigenvalue GAMMA=   2.6262
 18.1430  9.5810  7.9352  5.7341  4.0450  3.0414  2.4624  2.4624  2.0674  2.0674
  1.4706  1.4706  1.1706  1.1706  1.0325  1.0325  0.9286  0.9286  0.8090  0.7775
  0.7248  0.6885  0.6711  0.6500  0.6335  0.6186  0.6186  0.5991

 Free energy of the ion-electron system (eV)
  ---------------------------------------------------
  alpha Z        PSCENC =        53.42782116
  Ewald energy   TEWEN  =     56958.67271993
  -Hartree energ DENC   =    -63185.98643078
  -exchange      EXHF   =         0.00000000
  -V(xc)+E(xc)   XCENC  =       703.24134000
  PAW double counting   =     21271.10782712   -21321.20978359
  entropy T*S    EENTRO =        -0.02074810
  eigenvalues    EBANDS =     -2501.76723297
  atomic energy  EATOM  =      7560.21751256
  Solvation  Ediel_sol  =         0.00000000
  ---------------------------------------------------
  free energy    TOTEN  =      -462.31697468 eV

  energy without entropy =     -462.29622658  energy(sigma->0) =     -462.30660063


--------------------------------------------------------------------------------------------------------




----------------------------------------- Iteration    1(  34)  ---------------------------------------


    POTLOK:  cpu time    1.4937: real time    1.4940
    SETDIJ:  cpu time    1.3879: real time    1.3879
     EDDAV:  cpu time   31.3314: real time   31.3339
       DOS:  cpu time    0.0005: real time    0.0005
    CHARGE:  cpu time    4.4278: real time    4.4282
    MIXING:  cpu time    0.1071: real time    0.1071
    --------------------------------------------
      LOOP:  cpu time   38.7491: real time   38.7545

 eigenvalue-minimisations  :  2016
 total energy-change (2. order) :-0.2854407E-05  ( 0.7111100E-09)
 number of electron     203.0000000 magnetization       0.0000194
 augmentation part        5.8354899 magnetization       0.0001479

 Broyden mixing:
  rms(total) = 0.12769E-04    rms(broyden)= 0.69513E-05
  rms(prec ) = 0.80834E-05
  weight for this iteration     100.00
  WARNING: grid for Broyden might be to small

 eigenvalues of (default mixing * dielectric matrix)
  average eigenvalue GAMMA=   2.6228
 18.1261  9.9967  8.2302  5.9407  4.1279  3.2235  2.6288  2.4514  2.1632  2.1218
  1.5241  1.5241  1.2351  1.2351  1.0222  1.0222  0.9665  0.9665  0.8179  0.8179
  0.7362  0.7024  0.7024  0.6689  0.6455  0.6308  0.6197  0.6144  0.5994

 Free energy of the ion-electron system (eV)
  ---------------------------------------------------
  alpha Z        PSCENC =        53.42782116
  Ewald energy   TEWEN  =     56958.67271993
  -Hartree energ DENC   =    -63185.98515605
  -exchange      EXHF   =         0.00000000
  -V(xc)+E(xc)   XCENC  =       703.24135464
  PAW double counting   =     21271.11210077   -21321.21403357
  entropy T*S    EENTRO =        -0.02074813
  eigenvalues    EBANDS =     -2501.76854882
  atomic energy  EATOM  =      7560.21751256
  Solvation  Ediel_sol  =         0.00000000
  ---------------------------------------------------
  free energy    TOTEN  =      -462.31697753 eV

  energy without entropy =     -462.29622940  energy(sigma->0) =     -462.30660347


--------------------------------------------------------------------------------------------------------




----------------------------------------- Iteration    1(  35)  ---------------------------------------


    POTLOK:  cpu time    1.4974: real time    1.4974
    SETDIJ:  cpu time    1.3967: real time    1.3968
     EDDAV:  cpu time   31.3495: real time   31.3538
       DOS:  cpu time    0.0005: real time    0.0006
    --------------------------------------------
      LOOP:  cpu time   34.2446: real time   34.2515

 eigenvalue-minimisations  :  2012
 total energy-change (2. order) :-0.8105835E-06  ( 0.1421348E-08)
 number of electron     203.0000000 magnetization       0.0000194
 augmentation part        5.8354899 magnetization       0.0001479

 Free energy of the ion-electron system (eV)
  ---------------------------------------------------
  alpha Z        PSCENC =        53.42782116
  Ewald energy   TEWEN  =     56958.67271993
  -Hartree energ DENC   =    -63185.98568261
  -exchange      EXHF   =         0.00000000
  -V(xc)+E(xc)   XCENC  =       703.24137245
  PAW double counting   =     21271.11129733   -21321.21321664
  entropy T*S    EENTRO =        -0.02074812
  eigenvalues    EBANDS =     -2501.76805439
  atomic energy  EATOM  =      7560.21751256
  Solvation  Ediel_sol  =         0.00000000
  ---------------------------------------------------
  free energy    TOTEN  =      -462.31697835 eV

  energy without entropy =     -462.29623023  energy(sigma->0) =     -462.30660429


--------------------------------------------------------------------------------------------------------




 average (electrostatic) potential at core
  the test charge radii are     0.6991  0.7079
  (the norm of the test charge is              1.0000)
       1 -58.0955       2 -58.1208       3 -58.0891       4 -58.0833       5 -58.1546
       6 -58.1222       7 -58.2768       8 -58.1326       9 -58.2358      10 -58.1337
      11 -58.0916      12 -58.3068      13 -58.1773      14 -58.1450      15 -58.0796
      16 -58.1361      17 -58.1207      18 -58.0749      19 -58.1173      20 -58.0823
      21 -58.1153      22 -58.1032      23 -58.1718      24 -58.1045      25 -58.0922
      26 -58.3752      27 -58.1257      28 -58.1500      29 -58.0575      30 -58.0844
      31 -58.1178      32 -58.1022      33 -58.2156      34 -58.2848      35 -58.5155
      36 -58.5331      37 -58.3343      38 -58.1909      39 -58.1302      40 -58.1482
      41 -58.0923      42 -58.1156      43 -58.1534      44 -58.1324      45 -58.4840
      46 -58.3107      47 -58.5247      48 -58.4328      49 -58.2458      50 -58.4701
      51 -70.6716
 
 
 
 E-fermi :  -1.8666     XC(G=0):  -1.4687     alpha+bet : -1.3130


 spin component 1

 k-point     1 :       0.0000    0.0000    0.0000
  band No.  band energies     occupation 
      1     -51.5883      1.00000
      2     -22.4203      1.00000
      3     -21.6132      1.00000
      4     -21.4775      1.00000
      5     -21.4714      1.00000
      6     -21.3731      1.00000
      7     -21.3694      1.00000
      8     -21.3334      1.00000
      9     -19.6556      1.00000
     10     -19.6072      1.00000
     11     -19.5950      1.00000
     12     -19.5703      1.00000
     13     -19.5633      1.00000
     14     -19.5543      1.00000
     15     -18.7169      1.00000
     16     -18.6954      1.00000
     17     -18.6820      1.00000
     18     -18.6602      1.00000
     19     -18.6488      1.00000
     20     -18.6439      1.00000
     21     -16.5480      1.00000
     22     -16.5358      1.00000
     23     -16.5214      1.00000
     24     -16.5084      1.00000
     25     -16.4380      1.00000
     26     -16.4314      1.00000
     27     -15.5473      1.00000
     28     -15.5386      1.00000
     29     -15.5368      1.00000
     30     -15.5014      1.00000
     31     -15.4985      1.00000
     32     -15.4934      1.00000
     33     -14.1677      1.00000
     34     -14.1663      1.00000
     35     -14.1615      1.00000
     36     -14.1506      1.00000
     37     -14.1435      1.00000
     38     -14.1356      1.00000
     39     -11.7914      1.00000
     40     -11.7870      1.00000
     41     -11.7717      1.00000
     42     -11.7678      1.00000
     43     -11.7438      1.00000
     44     -11.7331      1.00000
     45     -11.7093      1.00000
     46     -11.7063      1.00000
     47     -11.6332      1.00000
     48     -11.6289      1.00000
     49     -11.6254      1.00000
     50     -11.6213      1.00000
     51     -10.5937      1.00000
     52     -10.2982      1.00000
     53     -10.2916      1.00000
     54     -10.2898      1.00000
     55     -10.2850      1.00000
     56     -10.2821      1.00000
     57     -10.2683      1.00000
     58      -9.6662      1.00000
     59      -9.4635      1.00000
     60      -9.4469      1.00000
     61      -9.3022      1.00000
     62      -9.2982      1.00000
     63      -9.2570      1.00000
     64      -9.0403      1.00000
     65      -9.0356      1.00000
     66      -9.0336      1.00000
     67      -8.9787      1.00000
     68      -8.9661      1.00000
     69      -8.9589      1.00000
     70      -8.9451      1.00000
     71      -8.9424      1.00000
     72      -8.9388      1.00000
     73      -8.9108      1.00000
     74      -8.9044      1.00000
     75      -8.8879      1.00000
     76      -7.3896      1.00000
     77      -7.3632      1.00000
     78      -7.3578      1.00000
     79      -7.3516      1.00000
     80      -7.3480      1.00000
     81      -7.2974      1.00000
     82      -7.2939      1.00000
     83      -7.2899      1.00000
     84      -7.2623      1.00000
     85      -7.2277      1.00000
     86      -7.2121      1.00000
     87      -7.1984      1.00000
     88      -6.4212      1.00000
     89      -6.4138      1.00000
     90      -6.3709      1.00000
     91      -6.2997      1.00000
     92      -6.2799      1.00000
     93      -6.2683      1.00000
     94      -5.8222      1.00000
     95      -5.8085      1.00000
     96      -4.4459      1.00000
     97      -4.4213      1.00000
     98      -4.3863      1.00000
     99      -4.3555      1.00000
    100      -4.2598      1.00000
    101      -4.2498      1.00000
    102      -1.7109      0.00001
    103      -1.6737      0.00000
    104      -1.6223      0.00000
    105      -1.5343      0.00000
    106      -1.4762      0.00000
    107      -1.4489      0.00000
    108      -1.0813      0.00000
    109       0.1232      0.00000
    110       0.1612      0.00000
    111       0.2593      0.00000
    112       0.3747      0.00000
    113       0.3961      0.00000
    114       0.4006      0.00000
    115       0.5303      0.00000
    116       0.7171      0.00000
    117       0.7413      0.00000
    118       0.8000      0.00000
    119       1.0197      0.00000
    120       1.3454      0.00000
    121       1.4367      0.00000
    122       1.4385      0.00000
    123       1.5142      0.00000
    124       1.5380      0.00000
    125       1.9477      0.00000
    126       1.9900      0.00000
    127       2.0439      0.00000
    128       2.0725      0.00000
    129       2.0742      0.00000
    130       2.1228      0.00000
    131       2.1424      0.00000
    132       2.1593      0.00000

 k-point     2 :       0.3333   -0.0000    0.0000
  band No.  band energies     occupation 
      1     -51.5883      1.00000
      2     -22.3296      1.00000
      3     -21.9751      1.00000
      4     -21.6477      1.00000
      5     -21.6375      1.00000
      6     -21.0551      1.00000
      7     -21.0022      1.00000
      8     -20.6897      1.00000
      9     -20.4304      1.00000
     10     -20.3843      1.00000
     11     -19.7764      1.00000
     12     -19.5016      1.00000
     13     -19.4902      1.00000
     14     -19.1687      1.00000
     15     -19.1631      1.00000
     16     -18.6128      1.00000
     17     -18.5709      1.00000
     18     -18.0004      1.00000
     19     -17.9937      1.00000
     20     -17.5061      1.00000
     21     -17.4282      1.00000
     22     -17.4259      1.00000
     23     -17.1812      1.00000
     24     -17.1766      1.00000
     25     -16.3827      1.00000
     26     -16.3767      1.00000
     27     -15.6771      1.00000
     28     -15.4258      1.00000
     29     -15.4231      1.00000
     30     -14.9173      1.00000
     31     -14.9105      1.00000
     32     -14.8575      1.00000
     33     -14.8509      1.00000
     34     -14.4841      1.00000
     35     -14.4520      1.00000
     36     -13.2726      1.00000
     37     -13.2667      1.00000
     38     -13.0596      1.00000
     39     -13.0289      1.00000
     40     -12.7854      1.00000
     41     -12.7800      1.00000
     42     -12.4504      1.00000
     43     -12.3291      1.00000
     44     -12.3228      1.00000
     45     -11.5577      1.00000
     46     -11.5274      1.00000
     47     -11.1116      1.00000
     48     -11.0937      1.00000
     49     -10.7362      1.00000
     50     -10.7306      1.00000
     51     -10.6793      1.00000
     52     -10.4955      1.00000
     53     -10.4596      1.00000
     54     -10.4540      1.00000
     55     -10.0423      1.00000
     56      -9.8313      1.00000
     57      -9.8192      1.00000
     58      -9.7854      1.00000
     59      -9.7791      1.00000
     60      -9.6477      1.00000
     61      -9.6338      1.00000
     62      -9.4622      1.00000
     63      -9.4580      1.00000
     64      -9.1984      1.00000
     65      -9.1815      1.00000
     66      -9.1729      1.00000
     67      -9.0732      1.00000
     68      -9.0690      1.00000
     69      -8.9737      1.00000
     70      -8.8814      1.00000
     71      -8.5752      1.00000
     72      -8.5170      1.00000
     73      -8.2564      1.00000
     74      -8.2459      1.00000
     75      -8.2227      1.00000
     76      -8.1648      1.00000
     77      -8.0260      1.00000
     78      -7.9835      1.00000
     79      -7.9474      1.00000
     80      -7.4941      1.00000
     81      -7.4120      1.00000
     82      -7.2162      1.00000
     83      -7.2097      1.00000
     84      -7.2025      1.00000
     85      -7.1771      1.00000
     86      -6.8262      1.00000
     87      -6.8194      1.00000
     88      -6.6076      1.00000
     89      -6.2466      1.00000
     90      -6.2287      1.00000
     91      -6.1393      1.00000
     92      -6.0335      1.00000
     93      -5.7126      1.00000
     94      -5.6988      1.00000
     95      -5.3897      1.00000
     96      -5.0981      1.00000
     97      -5.0597      1.00000
     98      -4.9254      1.00000
     99      -4.9135      1.00000
    100      -3.9446      1.00000
    101      -3.9286      1.00000
    102      -1.8463      0.28257
    103      -1.8105      0.05617
    104      -1.2417      0.00000
    105      -1.1626      0.00000
    106      -1.1134      0.00000
    107      -0.9793      0.00000
    108      -0.7598      0.00000
    109      -0.7427      0.00000
    110      -0.4786      0.00000
    111      -0.4256      0.00000
    112       0.3287      0.00000
    113       0.5507      0.00000
    114       0.6164      0.00000
    115       0.6464      0.00000
    116       0.8328      0.00000
    117       0.9421      0.00000
    118       1.1013      0.00000
    119       1.1276      0.00000
    120       1.1486      0.00000
    121       1.2915      0.00000
    122       1.3732      0.00000
    123       1.4852      0.00000
    124       1.5659      0.00000
    125       1.6586      0.00000
    126       1.6980      0.00000
    127       1.7817      0.00000
    128       1.8170      0.00000
    129       1.8227      0.00000
    130       1.8427      0.00000
    131       1.8542      0.00000
    132       1.9981      0.00000

 k-point     3 :       0.0000    0.3333    0.0000
  band No.  band energies     occupation 
      1     -51.5883      1.00000
      2     -22.3292      1.00000
      3     -21.9771      1.00000
      4     -21.6464      1.00000
      5     -21.6358      1.00000
      6     -21.0574      1.00000
      7     -21.0017      1.00000
      8     -20.6888      1.00000
      9     -20.4322      1.00000
     10     -20.3836      1.00000
     11     -19.7762      1.00000
     12     -19.5030      1.00000
     13     -19.4860      1.00000
     14     -19.1690      1.00000
     15     -19.1647      1.00000
     16     -18.6141      1.00000
     17     -18.5700      1.00000
     18     -18.0008      1.00000
     19     -17.9930      1.00000
     20     -17.5062      1.00000
     21     -17.4293      1.00000
     22     -17.4268      1.00000
     23     -17.1808      1.00000
     24     -17.1749      1.00000
     25     -16.3824      1.00000
     26     -16.3764      1.00000
     27     -15.6747      1.00000
     28     -15.4288      1.00000
     29     -15.4228      1.00000
     30     -14.9182      1.00000
     31     -14.9072      1.00000
     32     -14.8631      1.00000
     33     -14.8539      1.00000
     34     -14.4839      1.00000
     35     -14.4473      1.00000
     36     -13.2764      1.00000
     37     -13.2656      1.00000
     38     -13.0606      1.00000
     39     -13.0239      1.00000
     40     -12.7828      1.00000
     41     -12.7786      1.00000
     42     -12.4473      1.00000
     43     -12.3338      1.00000
     44     -12.3219      1.00000
     45     -11.5628      1.00000
     46     -11.5277      1.00000
     47     -11.1177      1.00000
     48     -11.0953      1.00000
     49     -10.7355      1.00000
     50     -10.7322      1.00000
     51     -10.6756      1.00000
     52     -10.4946      1.00000
     53     -10.4569      1.00000
     54     -10.4529      1.00000
     55     -10.0458      1.00000
     56      -9.8303      1.00000
     57      -9.8229      1.00000
     58      -9.7845      1.00000
     59      -9.7714      1.00000
     60      -9.6469      1.00000
     61      -9.6283      1.00000
     62      -9.4640      1.00000
     63      -9.4535      1.00000
     64      -9.2026      1.00000
     65      -9.1771      1.00000
     66      -9.1739      1.00000
     67      -9.0739      1.00000
     68      -9.0661      1.00000
     69      -8.9800      1.00000
     70      -8.8779      1.00000
     71      -8.5806      1.00000
     72      -8.5193      1.00000
     73      -8.2612      1.00000
     74      -8.2528      1.00000
     75      -8.2289      1.00000
     76      -8.1608      1.00000
     77      -8.0321      1.00000
     78      -7.9812      1.00000
     79      -7.9470      1.00000
     80      -7.4980      1.00000
     81      -7.4066      1.00000
     82      -7.2081      1.00000
     83      -7.2050      1.00000
     84      -7.1925      1.00000
     85      -7.1668      1.00000
     86      -6.8228      1.00000
     87      -6.8193      1.00000
     88      -6.6162      1.00000
     89      -6.2522      1.00000
     90      -6.2328      1.00000
     91      -6.1362      1.00000
     92      -6.0431      1.00000
     93      -5.7044      1.00000
     94      -5.6946      1.00000
     95      -5.4137      1.00000
     96      -5.1025      1.00000
     97      -5.0498      1.00000
     98      -4.9244      1.00000
     99      -4.9126      1.00000
    100      -3.9331      1.00000
    101      -3.9258      1.00000
    102      -1.8749      0.59199
    103      -1.7885      0.01355
    104      -1.2978      0.00000
    105      -1.1678      0.00000
    106      -1.0962      0.00000
    107      -0.9282      0.00000
    108      -0.7430      0.00000
    109      -0.7394      0.00000
    110      -0.4838      0.00000
    111      -0.4526      0.00000
    112       0.3330      0.00000
    113       0.5665      0.00000
    114       0.5988      0.00000
    115       0.6540      0.00000
    116       0.8357      0.00000
    117       0.9440      0.00000
    118       1.0914      0.00000
    119       1.1193      0.00000
    120       1.1466      0.00000
    121       1.3020      0.00000
    122       1.3728      0.00000
    123       1.4915      0.00000
    124       1.5655      0.00000
    125       1.6604      0.00000
    126       1.6863      0.00000
    127       1.7919      0.00000
    128       1.8143      0.00000
    129       1.8302      0.00000
    130       1.8388      0.00000
    131       1.8780      0.00000
    132       2.0075      0.00000

 k-point     4 :       0.3333    0.3333    0.0000
  band No.  band energies     occupation 
      1     -51.5883      1.00000
      2     -22.2357      1.00000
      3     -22.0103      1.00000
      4     -22.0052      1.00000
      5     -21.1564      1.00000
      6     -21.1173      1.00000
      7     -21.1144      1.00000
      8     -20.2822      1.00000
      9     -20.2499      1.00000
     10     -20.2347      1.00000
     11     -20.1360      1.00000
     12     -20.1335      1.00000
     13     -20.1227      1.00000
     14     -18.4822      1.00000
     15     -18.4637      1.00000
     16     -18.4091      1.00000
     17     -18.3397      1.00000
     18     -18.3176      1.00000
     19     -18.3156      1.00000
     20     -17.5584      1.00000
     21     -17.5515      1.00000
     22     -17.4815      1.00000
     23     -17.0289      1.00000
     24     -17.0248      1.00000
     25     -17.0204      1.00000
     26     -16.0223      1.00000
     27     -16.0150      1.00000
     28     -16.0131      1.00000
     29     -15.4207      1.00000
     30     -15.4186      1.00000
     31     -13.9903      1.00000
     32     -13.9879      1.00000
     33     -13.9613      1.00000
     34     -13.9511      1.00000
     35     -13.9113      1.00000
     36     -13.9100      1.00000
     37     -13.8436      1.00000
     38     -13.8395      1.00000
     39     -13.7678      1.00000
     40     -13.3997      1.00000
     41     -12.3247      1.00000
     42     -12.2048      1.00000
     43     -12.1985      1.00000
     44     -11.5783      1.00000
     45     -11.5719      1.00000
     46     -11.5709      1.00000
     47     -11.5189      1.00000
     48     -11.5130      1.00000
     49     -11.5097      1.00000
     50     -10.4077      1.00000
     51     -10.3097      1.00000
     52     -10.2817      1.00000
     53     -10.2790      1.00000
     54     -10.1853      1.00000
     55     -10.1796      1.00000
     56     -10.1572      1.00000
     57     -10.0653      1.00000
     58     -10.0581      1.00000
     59      -9.5687      1.00000
     60      -9.5646      1.00000
     61      -9.5639      1.00000
     62      -9.3430      1.00000
     63      -9.3394      1.00000
     64      -9.3211      1.00000
     65      -9.0860      1.00000
     66      -9.0300      1.00000
     67      -9.0165      1.00000
     68      -8.6758      1.00000
     69      -8.6716      1.00000
     70      -8.6678      1.00000
     71      -8.6300      1.00000
     72      -8.6230      1.00000
     73      -8.6111      1.00000
     74      -8.1954      1.00000
     75      -8.1909      1.00000
     76      -8.1806      1.00000
     77      -8.0858      1.00000
     78      -8.0616      1.00000
     79      -8.0156      1.00000
     80      -7.8758      1.00000
     81      -7.8699      1.00000
     82      -7.8533      1.00000
     83      -7.0172      1.00000
     84      -7.0075      1.00000
     85      -6.9102      1.00000
     86      -6.5066      1.00000
     87      -6.5012      1.00000
     88      -6.4443      1.00000
     89      -6.1783      1.00000
     90      -6.1580      1.00000
     91      -6.0005      1.00000
     92      -5.9504      1.00000
     93      -5.8855      1.00000
     94      -5.8832      1.00000
     95      -5.2376      1.00000
     96      -5.2117      1.00000
     97      -5.0833      1.00000
     98      -4.9606      1.00000
     99      -4.9589      1.00000
    100      -4.9408      1.00000
    101      -2.8630      1.00000
    102      -2.8461      1.00000
    103      -1.3455      0.00000
    104      -1.3127      0.00000
    105      -1.2679      0.00000
    106      -1.0463      0.00000
    107      -0.6796      0.00000
    108      -0.6331      0.00000
    109      -0.5592      0.00000
    110      -0.0154      0.00000
    111       0.0427      0.00000
    112       0.1507      0.00000
    113       0.1897      0.00000
    114       0.2812      0.00000
    115       0.2851      0.00000
    116       0.4007      0.00000
    117       0.4136      0.00000
    118       1.0855      0.00000
    119       1.2019      0.00000
    120       1.2540      0.00000
    121       1.2632      0.00000
    122       1.2961      0.00000
    123       1.3010      0.00000
    124       1.4796      0.00000
    125       1.4817      0.00000
    126       1.5063      0.00000
    127       1.7814      0.00000
    128       1.7972      0.00000
    129       1.7980      0.00000
    130       1.8974      0.00000
    131       1.9990      0.00000
    132       1.9992      0.00000

 k-point     5 :      -0.3333    0.3333    0.0000
  band No.  band energies     occupation 
      1     -51.5883      1.00000
      2     -22.3296      1.00000
      3     -21.9750      1.00000
      4     -21.6482      1.00000
      5     -21.6371      1.00000
      6     -21.0553      1.00000
      7     -21.0019      1.00000
      8     -20.6897      1.00000
      9     -20.4307      1.00000
     10     -20.3840      1.00000
     11     -19.7764      1.00000
     12     -19.5010      1.00000
     13     -19.4909      1.00000
     14     -19.1688      1.00000
     15     -19.1629      1.00000
     16     -18.6132      1.00000
     17     -18.5705      1.00000
     18     -18.0003      1.00000
     19     -17.9938      1.00000
     20     -17.5067      1.00000
     21     -17.4280      1.00000
     22     -17.4255      1.00000
     23     -17.1808      1.00000
     24     -17.1771      1.00000
     25     -16.3826      1.00000
     26     -16.3766      1.00000
     27     -15.6767      1.00000
     28     -15.4258      1.00000
     29     -15.4234      1.00000
     30     -14.9166      1.00000
     31     -14.9129      1.00000
     32     -14.8572      1.00000
     33     -14.8507      1.00000
     34     -14.4835      1.00000
     35     -14.4518      1.00000
     36     -13.2727      1.00000
     37     -13.2671      1.00000
     38     -13.0588      1.00000
     39     -13.0290      1.00000
     40     -12.7852      1.00000
     41     -12.7797      1.00000
     42     -12.4502      1.00000
     43     -12.3293      1.00000
     44     -12.3232      1.00000
     45     -11.5582      1.00000
     46     -11.5278      1.00000
     47     -11.1118      1.00000
     48     -11.0941      1.00000
     49     -10.7360      1.00000
     50     -10.7305      1.00000
     51     -10.6788      1.00000
     52     -10.4958      1.00000
     53     -10.4596      1.00000
     54     -10.4536      1.00000
     55     -10.0419      1.00000
     56      -9.8313      1.00000
     57      -9.8186      1.00000
     58      -9.7856      1.00000
     59      -9.7791      1.00000
     60      -9.6477      1.00000
     61      -9.6344      1.00000
     62      -9.4620      1.00000
     63      -9.4579      1.00000
     64      -9.1986      1.00000
     65      -9.1817      1.00000
     66      -9.1726      1.00000
     67      -9.0736      1.00000
     68      -9.0689      1.00000
     69      -8.9731      1.00000
     70      -8.8817      1.00000
     71      -8.5755      1.00000
     72      -8.5168      1.00000
     73      -8.2555      1.00000
     74      -8.2469      1.00000
     75      -8.2226      1.00000
     76      -8.1653      1.00000
     77      -8.0260      1.00000
     78      -7.9834      1.00000
     79      -7.9474      1.00000
     80      -7.4936      1.00000
     81      -7.4115      1.00000
     82      -7.2158      1.00000
     83      -7.2088      1.00000
     84      -7.2044      1.00000
     85      -7.1781      1.00000
     86      -6.8259      1.00000
     87      -6.8199      1.00000
     88      -6.6079      1.00000
     89      -6.2462      1.00000
     90      -6.2267      1.00000
     91      -6.1398      1.00000
     92      -6.0338      1.00000
     93      -5.7126      1.00000
     94      -5.7001      1.00000
     95      -5.3869      1.00000
     96      -5.0963      1.00000
     97      -5.0629      1.00000
     98      -4.9247      1.00000
     99      -4.9143      1.00000
    100      -3.9446      1.00000
    101      -3.9298      1.00000
    102      -1.8405      0.22987
    103      -1.8159      0.07570
    104      -1.2388      0.00000
    105      -1.1561      0.00000
    106      -1.1174      0.00000
    107      -0.9853      0.00000
    108      -0.7599      0.00000
    109      -0.7452      0.00000
    110      -0.4752      0.00000
    111      -0.4248      0.00000
    112       0.3270      0.00000
    113       0.5546      0.00000
    114       0.6058      0.00000
    115       0.6551      0.00000
    116       0.8321      0.00000
    117       0.9418      0.00000
    118       1.1046      0.00000
    119       1.1264      0.00000
    120       1.1498      0.00000
    121       1.2875      0.00000
    122       1.3731      0.00000
    123       1.4837      0.00000
    124       1.5659      0.00000
    125       1.6584      0.00000
    126       1.7001      0.00000
    127       1.7797      0.00000
    128       1.8167      0.00000
    129       1.8223      0.00000
    130       1.8416      0.00000
    131       1.8538      0.00000
    132       1.9966      0.00000

 spin component 2

 k-point     1 :       0.0000    0.0000    0.0000
  band No.  band energies     occupation 
      1     -51.5883      1.00000
      2     -22.4203      1.00000
      3     -21.6132      1.00000
      4     -21.4775      1.00000
      5     -21.4714      1.00000
      6     -21.3731      1.00000
      7     -21.3694      1.00000
      8     -21.3334      1.00000
      9     -19.6556      1.00000
     10     -19.6072      1.00000
     11     -19.5950      1.00000
     12     -19.5703      1.00000
     13     -19.5633      1.00000
     14     -19.5543      1.00000
     15     -18.7169      1.00000
     16     -18.6954      1.00000
     17     -18.6820      1.00000
     18     -18.6602      1.00000
     19     -18.6488      1.00000
     20     -18.6439      1.00000
     21     -16.5480      1.00000
     22     -16.5358      1.00000
     23     -16.5214      1.00000
     24     -16.5084      1.00000
     25     -16.4380      1.00000
     26     -16.4314      1.00000
     27     -15.5473      1.00000
     28     -15.5386      1.00000
     29     -15.5368      1.00000
     30     -15.5014      1.00000
     31     -15.4985      1.00000
     32     -15.4934      1.00000
     33     -14.1677      1.00000
     34     -14.1663      1.00000
     35     -14.1615      1.00000
     36     -14.1506      1.00000
     37     -14.1435      1.00000
     38     -14.1356      1.00000
     39     -11.7914      1.00000
     40     -11.7870      1.00000
     41     -11.7717      1.00000
     42     -11.7678      1.00000
     43     -11.7438      1.00000
     44     -11.7331      1.00000
     45     -11.7093      1.00000
     46     -11.7063      1.00000
     47     -11.6332      1.00000
     48     -11.6289      1.00000
     49     -11.6254      1.00000
     50     -11.6213      1.00000
     51     -10.5937      1.00000
     52     -10.2982      1.00000
     53     -10.2916      1.00000
     54     -10.2898      1.00000
     55     -10.2850      1.00000
     56     -10.2821      1.00000
     57     -10.2683      1.00000
     58      -9.6662      1.00000
     59      -9.4635      1.00000
     60      -9.4469      1.00000
     61      -9.3022      1.00000
     62      -9.2982      1.00000
     63      -9.2570      1.00000
     64      -9.0403      1.00000
     65      -9.0356      1.00000
     66      -9.0336      1.00000
     67      -8.9787      1.00000
     68      -8.9661      1.00000
     69      -8.9589      1.00000
     70      -8.9451      1.00000
     71      -8.9424      1.00000
     72      -8.9388      1.00000
     73      -8.9108      1.00000
     74      -8.9044      1.00000
     75      -8.8879      1.00000
     76      -7.3896      1.00000
     77      -7.3632      1.00000
     78      -7.3578      1.00000
     79      -7.3516      1.00000
     80      -7.3480      1.00000
     81      -7.2974      1.00000
     82      -7.2939      1.00000
     83      -7.2899      1.00000
     84      -7.2623      1.00000
     85      -7.2277      1.00000
     86      -7.2121      1.00000
     87      -7.1984      1.00000
     88      -6.4212      1.00000
     89      -6.4138      1.00000
     90      -6.3709      1.00000
     91      -6.2997      1.00000
     92      -6.2799      1.00000
     93      -6.2683      1.00000
     94      -5.8222      1.00000
     95      -5.8085      1.00000
     96      -4.4459      1.00000
     97      -4.4214      1.00000
     98      -4.3863      1.00000
     99      -4.3555      1.00000
    100      -4.2598      1.00000
    101      -4.2498      1.00000
    102      -1.7109      0.00001
    103      -1.6737      0.00000
    104      -1.6223      0.00000
    105      -1.5343      0.00000
    106      -1.4762      0.00000
    107      -1.4490      0.00000
    108      -1.0811      0.00000
    109       0.1233      0.00000
    110       0.1612      0.00000
    111       0.2596      0.00000
    112       0.3747      0.00000
    113       0.3961      0.00000
    114       0.4009      0.00000
    115       0.5336      0.00000
    116       0.7177      0.00000
    117       0.7419      0.00000
    118       0.8397      0.00000
    119       1.0789      0.00000
    120       1.4076      0.00000
    121       1.4399      0.00000
    122       1.4415      0.00000
    123       1.5416      0.00000
    124       1.5720      0.00000
    125       1.9661      0.00000
    126       1.9914      0.00000
    127       2.0475      0.00000
    128       2.0971      0.00000
    129       2.1002      0.00000
    130       2.1331      0.00000
    131       2.1554      0.00000
    132       2.1868      0.00000

 k-point     2 :       0.3333   -0.0000    0.0000
  band No.  band energies     occupation 
      1     -51.5883      1.00000
      2     -22.3296      1.00000
      3     -21.9751      1.00000
      4     -21.6477      1.00000
      5     -21.6375      1.00000
      6     -21.0551      1.00000
      7     -21.0022      1.00000
      8     -20.6897      1.00000
      9     -20.4304      1.00000
     10     -20.3843      1.00000
     11     -19.7764      1.00000
     12     -19.5016      1.00000
     13     -19.4902      1.00000
     14     -19.1687      1.00000
     15     -19.1632      1.00000
     16     -18.6128      1.00000
     17     -18.5709      1.00000
     18     -18.0004      1.00000
     19     -17.9937      1.00000
     20     -17.5061      1.00000
     21     -17.4282      1.00000
     22     -17.4259      1.00000
     23     -17.1812      1.00000
     24     -17.1766      1.00000
     25     -16.3827      1.00000
     26     -16.3767      1.00000
     27     -15.6771      1.00000
     28     -15.4258      1.00000
     29     -15.4231      1.00000
     30     -14.9173      1.00000
     31     -14.9105      1.00000
     32     -14.8576      1.00000
     33     -14.8509      1.00000
     34     -14.4841      1.00000
     35     -14.4520      1.00000
     36     -13.2726      1.00000
     37     -13.2668      1.00000
     38     -13.0596      1.00000
     39     -13.0290      1.00000
     40     -12.7854      1.00000
     41     -12.7800      1.00000
     42     -12.4504      1.00000
     43     -12.3291      1.00000
     44     -12.3228      1.00000
     45     -11.5577      1.00000
     46     -11.5274      1.00000
     47     -11.1116      1.00000
     48     -11.0937      1.00000
     49     -10.7362      1.00000
     50     -10.7306      1.00000
     51     -10.6793      1.00000
     52     -10.4955      1.00000
     53     -10.4596      1.00000
     54     -10.4540      1.00000
     55     -10.0423      1.00000
     56      -9.8313      1.00000
     57      -9.8192      1.00000
     58      -9.7854      1.00000
     59      -9.7791      1.00000
     60      -9.6477      1.00000
     61      -9.6339      1.00000
     62      -9.4622      1.00000
     63      -9.4580      1.00000
     64      -9.1984      1.00000
     65      -9.1815      1.00000
     66      -9.1729      1.00000
     67      -9.0732      1.00000
     68      -9.0690      1.00000
     69      -8.9737      1.00000
     70      -8.8814      1.00000
     71      -8.5752      1.00000
     72      -8.5170      1.00000
     73      -8.2564      1.00000
     74      -8.2459      1.00000
     75      -8.2227      1.00000
     76      -8.1648      1.00000
     77      -8.0260      1.00000
     78      -7.9835      1.00000
     79      -7.9474      1.00000
     80      -7.4941      1.00000
     81      -7.4120      1.00000
     82      -7.2162      1.00000
     83      -7.2097      1.00000
     84      -7.2025      1.00000
     85      -7.1771      1.00000
     86      -6.8262      1.00000
     87      -6.8194      1.00000
     88      -6.6076      1.00000
     89      -6.2466      1.00000
     90      -6.2287      1.00000
     91      -6.1394      1.00000
     92      -6.0335      1.00000
     93      -5.7126      1.00000
     94      -5.6988      1.00000
     95      -5.3897      1.00000
     96      -5.0981      1.00000
     97      -5.0597      1.00000
     98      -4.9254      1.00000
     99      -4.9136      1.00000
    100      -3.9447      1.00000
    101      -3.9286      1.00000
    102      -1.8463      0.28265
    103      -1.8105      0.05619
    104      -1.2417      0.00000
    105      -1.1626      0.00000
    106      -1.1134      0.00000
    107      -0.9792      0.00000
    108      -0.7598      0.00000
    109      -0.7427      0.00000
    110      -0.4787      0.00000
    111      -0.4256      0.00000
    112       0.3308      0.00000
    113       0.5510      0.00000
    114       0.6171      0.00000
    115       0.6465      0.00000
    116       0.8357      0.00000
    117       0.9786      0.00000
    118       1.1067      0.00000
    119       1.1338      0.00000
    120       1.1819      0.00000
    121       1.3188      0.00000
    122       1.4034      0.00000
    123       1.5345      0.00000
    124       1.6218      0.00000
    125       1.7006      0.00000
    126       1.7154      0.00000
    127       1.8158      0.00000
    128       1.8262      0.00000
    129       1.8350      0.00000
    130       1.8663      0.00000
    131       1.8879      0.00000
    132       2.0430      0.00000

 k-point     3 :       0.0000    0.3333    0.0000
  band No.  band energies     occupation 
      1     -51.5883      1.00000
      2     -22.3292      1.00000
      3     -21.9771      1.00000
      4     -21.6464      1.00000
      5     -21.6359      1.00000
      6     -21.0574      1.00000
      7     -21.0017      1.00000
      8     -20.6888      1.00000
      9     -20.4322      1.00000
     10     -20.3836      1.00000
     11     -19.7762      1.00000
     12     -19.5030      1.00000
     13     -19.4860      1.00000
     14     -19.1690      1.00000
     15     -19.1647      1.00000
     16     -18.6141      1.00000
     17     -18.5700      1.00000
     18     -18.0008      1.00000
     19     -17.9930      1.00000
     20     -17.5062      1.00000
     21     -17.4293      1.00000
     22     -17.4268      1.00000
     23     -17.1809      1.00000
     24     -17.1749      1.00000
     25     -16.3824      1.00000
     26     -16.3764      1.00000
     27     -15.6747      1.00000
     28     -15.4288      1.00000
     29     -15.4228      1.00000
     30     -14.9182      1.00000
     31     -14.9072      1.00000
     32     -14.8631      1.00000
     33     -14.8539      1.00000
     34     -14.4839      1.00000
     35     -14.4473      1.00000
     36     -13.2764      1.00000
     37     -13.2656      1.00000
     38     -13.0606      1.00000
     39     -13.0239      1.00000
     40     -12.7828      1.00000
     41     -12.7786      1.00000
     42     -12.4473      1.00000
     43     -12.3338      1.00000
     44     -12.3219      1.00000
     45     -11.5628      1.00000
     46     -11.5277      1.00000
     47     -11.1177      1.00000
     48     -11.0953      1.00000
     49     -10.7355      1.00000
     50     -10.7322      1.00000
     51     -10.6756      1.00000
     52     -10.4946      1.00000
     53     -10.4569      1.00000
     54     -10.4529      1.00000
     55     -10.0458      1.00000
     56      -9.8303      1.00000
     57      -9.8229      1.00000
     58      -9.7845      1.00000
     59      -9.7714      1.00000
     60      -9.6469      1.00000
     61      -9.6284      1.00000
     62      -9.4640      1.00000
     63      -9.4535      1.00000
     64      -9.2026      1.00000
     65      -9.1771      1.00000
     66      -9.1740      1.00000
     67      -9.0739      1.00000
     68      -9.0661      1.00000
     69      -8.9800      1.00000
     70      -8.8780      1.00000
     71      -8.5806      1.00000
     72      -8.5193      1.00000
     73      -8.2612      1.00000
     74      -8.2528      1.00000
     75      -8.2289      1.00000
     76      -8.1608      1.00000
     77      -8.0321      1.00000
     78      -7.9812      1.00000
     79      -7.9470      1.00000
     80      -7.4980      1.00000
     81      -7.4066      1.00000
     82      -7.2081      1.00000
     83      -7.2050      1.00000
     84      -7.1925      1.00000
     85      -7.1668      1.00000
     86      -6.8228      1.00000
     87      -6.8193      1.00000
     88      -6.6162      1.00000
     89      -6.2522      1.00000
     90      -6.2328      1.00000
     91      -6.1362      1.00000
     92      -6.0431      1.00000
     93      -5.7044      1.00000
     94      -5.6946      1.00000
     95      -5.4137      1.00000
     96      -5.1025      1.00000
     97      -5.0498      1.00000
     98      -4.9244      1.00000
     99      -4.9126      1.00000
    100      -3.9331      1.00000
    101      -3.9258      1.00000
    102      -1.8749      0.59209
    103      -1.7885      0.01356
    104      -1.2978      0.00000
    105      -1.1678      0.00000
    106      -1.0962      0.00000
    107      -0.9282      0.00000
    108      -0.7430      0.00000
    109      -0.7394      0.00000
    110      -0.4838      0.00000
    111      -0.4526      0.00000
    112       0.3352      0.00000
    113       0.5668      0.00000
    114       0.5995      0.00000
    115       0.6540      0.00000
    116       0.8386      0.00000
    117       0.9808      0.00000
    118       1.0980      0.00000
    119       1.1195      0.00000
    120       1.1860      0.00000
    121       1.3290      0.00000
    122       1.4030      0.00000
    123       1.5407      0.00000
    124       1.6219      0.00000
    125       1.6898      0.00000
    126       1.7161      0.00000
    127       1.8183      0.00000
    128       1.8221      0.00000
    129       1.8384      0.00000
    130       1.8689      0.00000
    131       1.8890      0.00000
    132       2.0722      0.00000

 k-point     4 :       0.3333    0.3333    0.0000
  band No.  band energies     occupation 
      1     -51.5883      1.00000
      2     -22.2358      1.00000
      3     -22.0103      1.00000
      4     -22.0052      1.00000
      5     -21.1564      1.00000
      6     -21.1173      1.00000
      7     -21.1144      1.00000
      8     -20.2822      1.00000
      9     -20.2499      1.00000
     10     -20.2347      1.00000
     11     -20.1360      1.00000
     12     -20.1335      1.00000
     13     -20.1227      1.00000
     14     -18.4822      1.00000
     15     -18.4637      1.00000
     16     -18.4091      1.00000
     17     -18.3397      1.00000
     18     -18.3176      1.00000
     19     -18.3156      1.00000
     20     -17.5584      1.00000
     21     -17.5515      1.00000
     22     -17.4815      1.00000
     23     -17.0289      1.00000
     24     -17.0248      1.00000
     25     -17.0204      1.00000
     26     -16.0223      1.00000
     27     -16.0150      1.00000
     28     -16.0131      1.00000
     29     -15.4207      1.00000
     30     -15.4186      1.00000
     31     -13.9903      1.00000
     32     -13.9879      1.00000
     33     -13.9613      1.00000
     34     -13.9511      1.00000
     35     -13.9113      1.00000
     36     -13.9100      1.00000
     37     -13.8436      1.00000
     38     -13.8395      1.00000
     39     -13.7678      1.00000
     40     -13.3997      1.00000
     41     -12.3247      1.00000
     42     -12.2048      1.00000
     43     -12.1985      1.00000
     44     -11.5783      1.00000
     45     -11.5719      1.00000
     46     -11.5709      1.00000
     47     -11.5189      1.00000
     48     -11.5131      1.00000
     49     -11.5097      1.00000
     50     -10.4077      1.00000
     51     -10.3097      1.00000
     52     -10.2817      1.00000
     53     -10.2790      1.00000
     54     -10.1853      1.00000
     55     -10.1796      1.00000
     56     -10.1572      1.00000
     57     -10.0653      1.00000
     58     -10.0581      1.00000
     59      -9.5687      1.00000
     60      -9.5646      1.00000
     61      -9.5639      1.00000
     62      -9.3430      1.00000
     63      -9.3394      1.00000
     64      -9.3211      1.00000
     65      -9.0860      1.00000
     66      -9.0300      1.00000
     67      -9.0165      1.00000
     68      -8.6758      1.00000
     69      -8.6716      1.00000
     70      -8.6678      1.00000
     71      -8.6300      1.00000
     72      -8.6230      1.00000
     73      -8.6111      1.00000
     74      -8.1954      1.00000
     75      -8.1910      1.00000
     76      -8.1806      1.00000
     77      -8.0858      1.00000
     78      -8.0616      1.00000
     79      -8.0156      1.00000
     80      -7.8758      1.00000
     81      -7.8699      1.00000
     82      -7.8533      1.00000
     83      -7.0172      1.00000
     84      -7.0075      1.00000
     85      -6.9102      1.00000
     86      -6.5066      1.00000
     87      -6.5012      1.00000
     88      -6.4443      1.00000
     89      -6.1783      1.00000
     90      -6.1580      1.00000
     91      -6.0005      1.00000
     92      -5.9504      1.00000
     93      -5.8855      1.00000
     94      -5.8832      1.00000
     95      -5.2376      1.00000
     96      -5.2118      1.00000
     97      -5.0833      1.00000
     98      -4.9606      1.00000
     99      -4.9589      1.00000
    100      -4.9408      1.00000
    101      -2.8630      1.00000
    102      -2.8461      1.00000
    103      -1.3455      0.00000
    104      -1.3127      0.00000
    105      -1.2679      0.00000
    106      -1.0463      0.00000
    107      -0.6796      0.00000
    108      -0.6331      0.00000
    109      -0.5592      0.00000
    110      -0.0154      0.00000
    111       0.0427      0.00000
    112       0.1508      0.00000
    113       0.1897      0.00000
    114       0.2812      0.00000
    115       0.2851      0.00000
    116       0.4026      0.00000
    117       0.4154      0.00000
    118       1.0916      0.00000
    119       1.2437      0.00000
    120       1.2585      0.00000
    121       1.2702      0.00000
    122       1.3425      0.00000
    123       1.3466      0.00000
    124       1.5335      0.00000
    125       1.5347      0.00000
    126       1.5633      0.00000
    127       1.8254      0.00000
    128       1.8640      0.00000
    129       1.8644      0.00000
    130       1.9561      0.00000
    131       2.0607      0.00000
    132       2.0617      0.00000

 k-point     5 :      -0.3333    0.3333    0.0000
  band No.  band energies     occupation 
      1     -51.5883      1.00000
      2     -22.3296      1.00000
      3     -21.9750      1.00000
      4     -21.6482      1.00000
      5     -21.6371      1.00000
      6     -21.0553      1.00000
      7     -21.0019      1.00000
      8     -20.6897      1.00000
      9     -20.4307      1.00000
     10     -20.3840      1.00000
     11     -19.7764      1.00000
     12     -19.5010      1.00000
     13     -19.4909      1.00000
     14     -19.1688      1.00000
     15     -19.1629      1.00000
     16     -18.6132      1.00000
     17     -18.5705      1.00000
     18     -18.0003      1.00000
     19     -17.9938      1.00000
     20     -17.5067      1.00000
     21     -17.4280      1.00000
     22     -17.4255      1.00000
     23     -17.1808      1.00000
     24     -17.1771      1.00000
     25     -16.3826      1.00000
     26     -16.3767      1.00000
     27     -15.6767      1.00000
     28     -15.4258      1.00000
     29     -15.4234      1.00000
     30     -14.9166      1.00000
     31     -14.9129      1.00000
     32     -14.8572      1.00000
     33     -14.8507      1.00000
     34     -14.4835      1.00000
     35     -14.4518      1.00000
     36     -13.2727      1.00000
     37     -13.2671      1.00000
     38     -13.0588      1.00000
     39     -13.0290      1.00000
     40     -12.7852      1.00000
     41     -12.7797      1.00000
     42     -12.4502      1.00000
     43     -12.3293      1.00000
     44     -12.3232      1.00000
     45     -11.5582      1.00000
     46     -11.5278      1.00000
     47     -11.1118      1.00000
     48     -11.0941      1.00000
     49     -10.7360      1.00000
     50     -10.7305      1.00000
     51     -10.6788      1.00000
     52     -10.4958      1.00000
     53     -10.4596      1.00000
     54     -10.4536      1.00000
     55     -10.0419      1.00000
     56      -9.8313      1.00000
     57      -9.8186      1.00000
     58      -9.7856      1.00000
     59      -9.7791      1.00000
     60      -9.6477      1.00000
     61      -9.6344      1.00000
     62      -9.4620      1.00000
     63      -9.4579      1.00000
     64      -9.1986      1.00000
     65      -9.1817      1.00000
     66      -9.1726      1.00000
     67      -9.0736      1.00000
     68      -9.0689      1.00000
     69      -8.9731      1.00000
     70      -8.8817      1.00000
     71      -8.5755      1.00000
     72      -8.5168      1.00000
     73      -8.2555      1.00000
     74      -8.2469      1.00000
     75      -8.2226      1.00000
     76      -8.1653      1.00000
     77      -8.0260      1.00000
     78      -7.9835      1.00000
     79      -7.9474      1.00000
     80      -7.4936      1.00000
     81      -7.4115      1.00000
     82      -7.2158      1.00000
     83      -7.2088      1.00000
     84      -7.2044      1.00000
     85      -7.1781      1.00000
     86      -6.8259      1.00000
     87      -6.8199      1.00000
     88      -6.6079      1.00000
     89      -6.2462      1.00000
     90      -6.2267      1.00000
     91      -6.1398      1.00000
     92      -6.0338      1.00000
     93      -5.7126      1.00000
     94      -5.7001      1.00000
     95      -5.3869      1.00000
     96      -5.0963      1.00000
     97      -5.0629      1.00000
     98      -4.9247      1.00000
     99      -4.9143      1.00000
    100      -3.9446      1.00000
    101      -3.9298      1.00000
    102      -1.8405      0.22994
    103      -1.8159      0.07572
    104      -1.2388      0.00000
    105      -1.1561      0.00000
    106      -1.1174      0.00000
    107      -0.9853      0.00000
    108      -0.7599      0.00000
    109      -0.7452      0.00000
    110      -0.4752      0.00000
    111      -0.4248      0.00000
    112       0.3291      0.00000
    113       0.5549      0.00000
    114       0.6063      0.00000
    115       0.6553      0.00000
    116       0.8351      0.00000
    117       0.9784      0.00000
    118       1.1090      0.00000
    119       1.1353      0.00000
    120       1.1805      0.00000
    121       1.3152      0.00000
    122       1.4032      0.00000
    123       1.5332      0.00000
    124       1.6217      0.00000
    125       1.7026      0.00000
    126       1.7153      0.00000
    127       1.8153      0.00000
    128       1.8257      0.00000
    129       1.8340      0.00000
    130       1.8664      0.00000
    131       1.8873      0.00000
    132       2.0407      0.00000


--------------------------------------------------------------------------------------------------------


 soft charge-density along one line, spin component           1
         0         1         2         3         4         5         6         7         8         9
 total charge-density along one line
 
 soft charge-density along one line, spin component           2
         0         1         2         3         4         5         6         7         8         9
 total charge-density along one line
 
 pseudopotential strength for first ion, spin component:           1
 10.215  13.584  -0.000   0.000   0.000   0.001  -0.000  -0.000
 13.584  18.063  -0.000   0.000   0.000   0.001  -0.000  -0.000
 -0.000  -0.000  -4.346  -0.000  -0.000   8.500   0.000   0.000
  0.000   0.000  -0.000  -4.325   0.000   0.000   8.466  -0.000
  0.000   0.000  -0.000   0.000  -4.346   0.000  -0.000   8.500
  0.001   0.001   8.500   0.000   0.000 -18.760  -0.000  -0.000
 -0.000  -0.000   0.000   8.466  -0.000  -0.000 -18.707   0.000
 -0.000  -0.000   0.000  -0.000   8.500  -0.000   0.000 -18.760
 pseudopotential strength for first ion, spin component:           2
 10.215  13.584  -0.000   0.000   0.000   0.001  -0.000  -0.000
 13.584  18.063  -0.000   0.000   0.000   0.001  -0.000  -0.000
 -0.000  -0.000  -4.346  -0.000  -0.000   8.500   0.000   0.000
  0.000   0.000  -0.000  -4.325   0.000   0.000   8.466  -0.000
  0.000   0.000  -0.000   0.000  -4.346   0.000  -0.000   8.500
  0.001   0.001   8.500   0.000   0.000 -18.760  -0.000  -0.000
 -0.000  -0.000   0.000   8.466  -0.000  -0.000 -18.707   0.000
 -0.000  -0.000   0.000  -0.000   8.500  -0.000   0.000 -18.760
 total augmentation occupancy for first ion, spin component:           1
  8.147  -3.620  -0.003  -0.005   0.000  -0.001  -0.001   0.000
 -3.620   1.666   0.003   0.003  -0.000   0.000   0.000  -0.000
 -0.003   0.003   1.822   0.004  -0.000   0.168   0.001   0.000
 -0.005   0.003   0.004   1.209   0.000   0.001   0.072  -0.000
  0.000  -0.000  -0.000   0.000   1.826   0.000  -0.000   0.168
 -0.001   0.000   0.168   0.001   0.000   0.017   0.000   0.000
 -0.001   0.000   0.001   0.072  -0.000   0.000   0.005  -0.000
  0.000  -0.000   0.000  -0.000   0.168   0.000  -0.000   0.017
 total augmentation occupancy for first ion, spin component:           2
 -0.000   0.000  -0.000   0.000   0.000  -0.000   0.000   0.000
  0.000  -0.000  -0.000  -0.000  -0.000  -0.000  -0.000  -0.000
 -0.000  -0.000   0.000   0.000  -0.000  -0.000  -0.000   0.000
  0.000  -0.000   0.000  -0.000  -0.000  -0.000  -0.000   0.000
  0.000  -0.000  -0.000  -0.000   0.000   0.000   0.000  -0.000
 -0.000  -0.000  -0.000  -0.000   0.000  -0.000  -0.000   0.000
  0.000  -0.000  -0.000  -0.000   0.000  -0.000  -0.000   0.000
  0.000  -0.000   0.000   0.000  -0.000   0.000   0.000  -0.000


------------------------ aborting loop because EDIFF is reached ----------------------------------------


    CHARGE:  cpu time    4.4049: real time    4.4052
    FORLOC:  cpu time    0.1979: real time    0.1979
    FORNL :  cpu time   17.1799: real time   17.1805
    STRESS:  cpu time   51.0536: real time   51.0582
    FORCOR:  cpu time    1.5897: real time    1.5899
    FORHAR:  cpu time    0.3333: real time    0.3333
    MIXING:  cpu time    0.0822: real time    0.0822
    OFIELD:  cpu time    0.0000: real time    0.0000

  FORCE on cell =-STRESS in cart. coord.  units (eV):
  Direction    XX          YY          ZZ          XY          YZ          ZX
  --------------------------------------------------------------------------------------
  Alpha Z    53.42782    53.42782    53.42782
  Ewald   63711.89303 63712.39465-70465.63979     0.47629     1.01549    -1.68214
  Hartree 62856.37035 62858.48452-62528.86047     0.24134     0.72800    -0.76293
  E(xc)    -758.57993  -758.59514  -785.94756     0.00053     0.00150    -0.00619
  Local  ************************130426.30391    -0.69887    -1.70383     2.38835
  n-local  -195.58998  -195.88308  -183.38199    -0.01257    -0.08276     0.14977
  augment    -1.46953    -1.45260     0.17222     0.00131    -0.00272    -0.00151
  Kinetic  3053.75804  3055.96635  3485.77736     0.06194     0.22362    -0.40431
  Fock        0.00000     0.00000     0.00000     0.00000     0.00000     0.00000
  -------------------------------------------------------------------------------------
  Total      14.72870    15.95341     1.85151     0.06997     0.17931    -0.31896
  in kB       6.00362     6.50282     0.75470     0.02852     0.07309    -0.13001
  external pressure =        4.42 kB  Pullay stress =        0.00 kB


 VOLUME and BASIS-vectors are now :
 -----------------------------------------------------------------------------
  energy-cutoff  :      520.00
  volume of cell :     3930.63
      direct lattice vectors                 reciprocal lattice vectors
    12.300000000  0.000000000  0.000000000     0.081300813  0.046939046  0.000000000
    -6.150000000 10.652112467  0.000000000     0.000000000  0.093878093  0.000000000
     0.000000000  0.000000000 30.000000000     0.000000000  0.000000000  0.033333333

  length of vectors
    12.300000000 12.300000000 30.000000000     0.093878093  0.093878093  0.033333333


 FORCES acting on ions
    electron-ion (+dipol)            ewald-force                    non-local-force                 convergence-correction
 -----------------------------------------------------------------------------------------------
   -.523E-01 -.238E+01 -.217E+01   0.391E-01 0.253E+01 0.215E+01   0.131E-02 -.140E+00 0.273E-01   -.235E-05 0.128E-04 -.912E-05
   0.990E-01 -.567E+00 -.277E+01   -.896E-01 0.577E+00 0.272E+01   -.387E-02 -.177E-01 0.528E-01   -.665E-05 0.597E-05 -.862E-05
   -.740E+00 0.233E+00 -.218E+01   0.827E+00 -.227E+00 0.216E+01   -.744E-01 0.164E-02 0.295E-01   0.462E-05 0.302E-05 -.856E-05
   0.190E+00 -.167E+00 -.286E+01   -.202E+00 0.146E+00 0.280E+01   0.470E-02 0.929E-02 0.454E-01   0.502E-06 0.165E-05 -.846E-05
   -.597E+01 0.182E+01 0.287E+01   0.623E+01 -.195E+01 -.293E+01   -.278E+00 0.134E+00 0.557E-01   0.103E-04 -.239E-05 -.108E-04
   -.159E+01 0.522E+00 -.164E+01   0.172E+01 -.512E+00 0.160E+01   -.119E+00 -.145E-01 0.393E-01   0.104E-04 -.447E-05 -.938E-05
   -.860E+01 -.245E+01 0.123E+02   0.910E+01 0.258E+01 -.127E+02   -.519E+00 -.103E+00 0.363E+00   0.960E-05 -.244E-05 -.148E-04
   -.534E+01 -.226E+01 0.850E+00   0.556E+01 0.239E+01 -.895E+00   -.240E+00 -.144E+00 0.447E-01   0.837E-05 0.612E-05 -.106E-04
   -.280E+01 -.701E+01 0.311E+01   0.288E+01 0.743E+01 -.321E+01   -.103E+00 -.452E+00 0.930E-01   0.975E-05 0.837E-05 -.125E-04
   -.177E+01 -.290E+01 -.261E+01   0.195E+01 0.303E+01 0.257E+01   -.173E+00 -.141E+00 0.384E-01   0.962E-05 0.250E-05 -.960E-05
   0.390E+00 -.654E+00 -.300E+01   -.384E+00 0.708E+00 0.297E+01   -.973E-02 -.512E-01 0.257E-01   0.141E-05 -.980E-06 -.878E-05
   0.362E+01 0.941E+01 0.149E+02   -.372E+01 -.100E+02 -.152E+02   0.115E+00 0.555E+00 0.252E+00   -.113E-04 -.738E-05 -.147E-04
   0.686E+01 0.224E+01 0.348E+01   -.720E+01 -.240E+01 -.355E+01   0.339E+00 0.170E+00 0.702E-01   -.939E-05 -.761E-06 -.117E-04
   0.383E+01 0.234E+01 0.217E+01   -.395E+01 -.245E+01 -.228E+01   0.125E+00 0.894E-01 0.982E-01   -.120E-04 -.584E-05 -.102E-04
   0.274E+00 0.149E+01 -.311E+01   -.303E+00 -.154E+01 0.308E+01   0.163E-01 0.493E-01 0.303E-01   0.511E-06 -.412E-05 -.877E-05
   0.235E+01 0.608E+00 -.141E+01   -.251E+01 -.582E+00 0.137E+01   0.158E+00 -.111E-01 0.429E-01   -.104E-04 -.291E-05 -.980E-05
   -.151E+01 -.728E+00 -.163E+01   0.162E+01 0.741E+00 0.157E+01   -.107E+00 -.108E-01 0.639E-01   0.110E-04 0.488E-05 -.930E-05
   0.256E+00 -.150E+01 -.322E+01   -.277E+00 0.158E+01 0.320E+01   0.127E-01 -.808E-01 0.468E-02   0.940E-06 0.188E-05 -.871E-05
   -.268E+01 -.147E+01 -.146E+01   0.275E+01 0.155E+01 0.138E+01   -.870E-01 -.635E-01 0.821E-01   0.690E-05 0.460E-05 -.938E-05
   -.574E+00 0.592E-01 -.192E+01   0.667E+00 -.952E-01 0.190E+01   -.744E-01 0.248E-01 0.193E-01   0.140E-05 -.452E-05 -.855E-05
   0.110E+00 0.157E+01 0.755E+00   -.116E+00 -.162E+01 -.812E+00   0.883E-02 0.573E-01 0.609E-01   0.314E-05 -.923E-05 -.900E-05
   -.104E+00 0.368E+01 0.416E+01   0.924E-01 -.386E+01 -.420E+01   -.209E-02 0.184E+00 0.358E-01   -.786E-06 -.203E-04 -.984E-05
   0.299E+01 0.437E+01 0.425E+01   -.323E+01 -.456E+01 -.431E+01   0.229E+00 0.202E+00 0.568E-01   -.146E-04 -.745E-05 -.109E-04
   0.390E+00 0.156E+01 -.634E-02   -.412E+00 -.170E+01 -.378E-01   0.279E-01 0.126E+00 0.427E-01   -.309E-05 -.300E-05 -.923E-05
   0.103E+01 0.436E+00 -.211E+01   -.112E+01 -.435E+00 0.208E+01   0.956E-01 0.822E-02 0.318E-01   -.542E-05 0.503E-05 -.874E-05
   0.114E+02 0.145E+01 0.170E+02   -.121E+02 -.151E+01 -.175E+02   0.637E+00 0.445E-01 0.599E+00   -.128E-04 0.865E-05 -.166E-04
   0.298E+01 -.190E+01 -.124E+01   -.308E+01 0.202E+01 0.116E+01   0.101E+00 -.780E-01 0.862E-01   -.732E-05 0.609E-05 -.975E-05
   0.608E+01 -.277E+01 0.135E+01   -.635E+01 0.291E+01 -.141E+01   0.300E+00 -.184E+00 0.539E-01   -.708E-05 0.537E-05 -.113E-04
   0.143E+00 0.305E+00 -.185E+01   -.163E+00 -.293E+00 0.179E+01   -.453E-03 -.505E-02 0.699E-01   0.116E-05 -.305E-05 -.843E-05
   0.798E+00 -.122E+00 -.186E+01   -.881E+00 0.106E+00 0.184E+01   0.943E-01 0.223E-01 0.209E-01   -.441E-07 -.561E-05 -.867E-05
   -.954E-01 0.135E+01 0.745E+00   0.115E+00 -.140E+01 -.802E+00   -.967E-02 0.471E-01 0.604E-01   -.277E-05 -.109E-04 -.898E-05
   -.360E+00 0.120E+01 -.673E-01   0.389E+00 -.132E+01 0.250E-01   -.263E-01 0.959E-01 0.411E-01   0.594E-05 -.313E-05 -.911E-05
   -.365E+00 0.739E+01 0.141E+02   0.378E+00 -.775E+01 -.143E+02   -.302E-01 0.343E+00 0.257E+00   0.329E-06 -.129E-04 -.131E-04
   -.417E+01 0.844E+01 0.143E+02   0.432E+01 -.896E+01 -.145E+02   -.132E+00 0.516E+00 0.227E+00   0.115E-04 -.102E-04 -.144E-04
   0.115E+02 0.117E+02 0.342E+02   -.122E+02 -.124E+02 -.353E+02   0.708E+00 0.686E+00 0.108E+01   -.138E-04 0.238E-05 -.219E-04
   -.320E+01 0.953E+01 0.846E+02   0.346E+01 -.102E+02 -.878E+02   -.123E+00 0.506E+00 0.237E+01   -.136E-05 0.199E-05 -.327E-04
   0.988E+01 -.344E+01 0.141E+02   -.105E+02 0.365E+01 -.146E+02   0.567E+00 -.166E+00 0.504E+00   -.782E-05 -.245E-05 -.159E-04
   -.238E+00 -.578E+01 0.319E+01   0.252E+00 0.601E+01 -.338E+01   -.150E-01 -.260E+00 0.182E+00   -.102E-05 0.133E-04 -.113E-04
   0.222E+01 -.865E+00 -.142E+01   -.235E+01 0.869E+00 0.135E+01   0.138E+00 -.218E-01 0.681E-01   -.110E-04 0.385E-05 -.973E-05
   0.179E+01 -.342E+01 -.242E+01   -.199E+01 0.358E+01 0.237E+01   0.174E+00 -.159E+00 0.391E-01   -.982E-05 0.371E-05 -.100E-04
   -.365E+00 -.982E+00 -.298E+01   0.345E+00 0.106E+01 0.295E+01   0.491E-02 -.770E-01 0.259E-01   0.461E-06 -.575E-06 -.885E-05
   -.102E-01 -.758E+00 -.278E+01   0.197E-01 0.778E+00 0.273E+01   0.905E-02 -.243E-01 0.527E-01   0.468E-05 0.403E-05 -.864E-05
   -.292E+01 0.373E+01 0.395E+01   0.314E+01 -.388E+01 -.400E+01   -.223E+00 0.177E+00 0.527E-01   0.149E-04 -.757E-05 -.104E-04
   -.340E+01 0.186E+01 0.188E+01   0.350E+01 -.194E+01 -.197E+01   -.105E+00 0.701E-01 0.923E-01   0.113E-04 -.602E-05 -.975E-05
   -.121E+02 0.950E+01 0.310E+02   0.128E+02 -.100E+02 -.319E+02   -.726E+00 0.562E+00 0.839E+00   0.117E-04 0.199E-05 -.207E-04
   -.978E+01 0.869E+00 0.148E+02   0.103E+02 -.872E+00 -.152E+02   -.568E+00 -.149E-02 0.410E+00   0.148E-04 0.776E-05 -.152E-04
   -.256E+01 -.163E+02 0.634E+02   0.275E+01 0.173E+02 -.657E+02   -.119E+00 -.892E+00 0.202E+01   -.168E-05 0.132E-04 -.286E-04
   -.872E+01 -.100E+02 0.196E+02   0.928E+01 0.105E+02 -.202E+02   -.549E+00 -.524E+00 0.548E+00   0.605E-05 0.149E-05 -.181E-04
   0.235E+01 -.770E+01 0.351E+01   -.241E+01 0.820E+01 -.361E+01   0.843E-01 -.495E+00 0.104E+00   -.106E-04 0.676E-05 -.130E-04
   0.804E+01 -.119E+02 0.215E+02   -.851E+01 0.125E+02 -.223E+02   0.526E+00 -.630E+00 0.756E+00   -.838E-05 0.147E-05 -.193E-04
   0.628E+00 0.345E+00 -.363E+03   -.532E+00 -.327E+00 0.359E+03   -.268E+00 0.883E-01 0.531E+01   -.116E-05 0.214E-05 0.260E-04
 -----------------------------------------------------------------------------------------------
   0.210E+00 -.319E-01 -.176E+02   -.398E-12 0.149E-12 -.114E-12   -.208E+00 0.203E-01 0.176E+02   -.140E-05 0.264E-05 -.578E-03
 
 
 POSITION                                       TOTAL-FORCE (eV/Angst)
 -----------------------------------------------------------------------------------
      6.15000     10.64963     15.02111        -0.011919      0.012076      0.006170
      1.22997      0.70603     15.02292         0.005548     -0.007433     -0.004469
     11.07135      2.12521     15.01986         0.012246      0.007921      0.005419
      0.00000      2.83470     15.02308        -0.006772     -0.011844     -0.005756
      9.84234      4.25469     14.99963        -0.012531      0.002840     -0.000455
     -1.22729      4.96730     15.01666         0.012399     -0.005010     -0.003169
     -3.68298      6.38952     14.97901        -0.021444      0.025879     -0.012911
     -2.45772      7.09850     15.00834        -0.019550     -0.017436     -0.000097
     -4.91873      8.52230     15.00223        -0.016031     -0.024965     -0.012240
     -3.68715      9.22892     15.01883         0.014476     -0.007598     -0.006252
     -3.68950     10.64879     15.02112        -0.003918      0.003917     -0.004727
      4.91827      2.82995     14.96436         0.014194     -0.056531      0.024334
      2.45765      4.25470     14.99962        -0.002236      0.012339      0.005100
      2.45946      2.83452     15.00431         0.003410     -0.024427     -0.003459
     -0.00001      4.25683     15.02257        -0.013365      0.000802     -0.004385
      1.22729      4.96730     15.01666         0.002467      0.015002     -0.003590
     -1.22740      6.38633     15.01809         0.002661      0.002472      0.000008
      0.00000      7.09646     15.02341        -0.008662      0.001839     -0.009055
     -2.45954      8.51902     15.01709        -0.009318      0.009819      0.003317
     -1.22880      9.22764     15.01823         0.018801     -0.011021     -0.000602
     -1.23035     10.64711     15.00769         0.002555      0.006045      0.003922
      6.15000      0.70328     14.99417        -0.013481      0.009155     -0.002487
      3.68717      2.12384     14.99413        -0.009222      0.013458     -0.000311
      3.68950      0.70364     15.00950         0.005653     -0.009659     -0.001219
      1.22866      2.12521     15.01986         0.000506      0.009584      0.005652
      3.68305      4.96449     14.96993        -0.038829     -0.009796      0.033145
      2.45955      8.51902     15.01708         0.002654      0.037079      0.002515
      2.45772      7.09850     15.00834         0.028833     -0.040495      0.000769
      0.00000      8.51848     15.02046        -0.020969      0.007225      0.004201
      1.22881      9.22764     15.01823         0.011947      0.006342     -0.000693
      1.23036     10.64711     15.00769         0.010312     -0.010426      0.003785
      8.61050      0.70364     15.00950         0.002287     -0.020394     -0.000983
      6.15000      2.12188     14.96618        -0.017348     -0.019504      0.004571
      7.38173      2.82995     14.96436         0.019748     -0.001572      0.012341
      4.91432      4.25058     14.93709         0.033805      0.016790     -0.023255
      6.15000      4.96072     14.87541         0.132335     -0.176836     -0.910494
      3.68298      6.38952     14.97900        -0.059527      0.043405     -0.000568
      6.15000      9.23007     15.00623        -0.001651     -0.025890     -0.003735
      1.22739      6.38633     15.01809         0.001329     -0.016741     -0.000132
      3.68715      9.22892     15.01883        -0.021717     -0.003839     -0.007878
      3.68951     10.64879     15.02112        -0.015309     -0.000087     -0.005305
     11.07003      0.70603     15.02292         0.018529     -0.004679     -0.003988
      8.61284      2.12384     14.99413        -0.001243      0.028419      0.001237
      9.84054      2.83452     15.00431        -0.008710     -0.006131     -0.000027
      7.38569      4.25058     14.93709         0.011298      0.032746     -0.028582
      8.61695      4.96449     14.96993        -0.015948     -0.004612      0.008739
      6.15000      6.39352     14.90601         0.064875      0.138417     -0.209221
      7.38565      7.10256     14.96581         0.008417     -0.027417     -0.030703
      4.91874      8.52230     15.00223         0.024348     -0.001422     -0.001552
      4.91435      7.10256     14.96581         0.056293     -0.004633     -0.004126
      6.01267      5.43717     16.69696        -0.172222      0.106826      1.181201
 -----------------------------------------------------------------------------------
    total drift:                                0.001771     -0.011546     -0.009567


--------------------------------------------------------------------------------------------------------



  FREE ENERGIE OF THE ION-ELECTRON SYSTEM (eV)
  ---------------------------------------------------
  free  energy   TOTEN  =      -462.31697835 eV

  energy  without entropy=     -462.29623023  energy(sigma->0) =     -462.30660429
 


--------------------------------------------------------------------------------------------------------


    POTLOK:  cpu time    2.8766: real time    2.8768


--------------------------------------------------------------------------------------------------------


     LOOP+:  cpu time 1697.8632: real time 1698.1810
    4ORBIT:  cpu time    0.0000: real time    0.0000

 total amount of memory used by VASP on root node   465216. kBytes
========================================================================

   base      :      30000. kBytes
   nonlr-proj:       4754. kBytes
   fftplans  :     165810. kBytes
   grid      :     124231. kBytes
   one-center:         79. kBytes
   wavefun   :     140342. kBytes
 
  
  
 General timing and accounting informations for this job:
 ========================================================
  
                  Total CPU time used (sec):     1722.301
                            User time (sec):     1647.086
                          System time (sec):       75.215
                         Elapsed time (sec):     1724.319
  
                   Maximum memory used (kb):      866224.
                   Average memory used (kb):           0.
  
                          Minor page faults:       173008
                          Major page faults:          483
                 Voluntary context switches:         2579
