  51  51   0   0
  0.7707117E+02  0.1230000E-08  0.1230000E-08  0.3000000E-08  0.5000000E-15
  1.000000000000000E-004
  CAR 
 Li defective graphene MACE training lab 
      4.91307465    -55.28986642  301     -2.57103650      1.00000000
    -55.290  0.0000E+00  0.0000E+00  0.0000E+00  0.0000E+00
    -55.089  0.0000E+00  0.0000E+00  0.0000E+00  0.0000E+00
    -54.889  0.0000E+00  0.0000E+00  0.0000E+00  0.0000E+00
    -54.688  0.0000E+00  0.0000E+00  0.0000E+00  0.0000E+00
    -54.487  0.0000E+00  0.0000E+00  0.0000E+00  0.0000E+00
    -54.286  0.0000E+00  0.0000E+00  0.0000E+00  0.0000E+00
    -54.086  0.0000E+00  0.0000E+00  0.0000E+00  0.0000E+00
    -53.885  0.0000E+00  0.0000E+00  0.0000E+00  0.0000E+00
    -53.684  0.0000E+00  0.0000E+00  0.0000E+00  0.0000E+00
    -53.484  0.0000E+00  0.0000E+00  0.0000E+00  0.0000E+00
    -53.283  0.0000E+00  0.0000E+00  0.0000E+00  0.0000E+00
    -53.082  0.0000E+00  0.0000E+00  0.0000E+00  0.0000E+00
    -52.882  0.0000E+00  0.0000E+00  0.0000E+00  0.0000E+00
    -52.681  0.7570E-03  0.7389E-03  0.1519E-03  0.1483E-03
    -52.480  0.4885E+01  0.4884E+01  0.9805E+00  0.9802E+00
    -52.280  0.9722E-01  0.9871E-01  0.1000E+01  0.1000E+01
    -52.079  0.0000E+00  0.0000E+00  0.1000E+01  0.1000E+01
    -51.878  0.0000E+00  0.0000E+00  0.1000E+01  0.1000E+01
    -51.678  0.0000E+00  0.0000E+00  0.1000E+01  0.1000E+01
    -51.477  0.0000E+00  0.0000E+00  0.1000E+01  0.1000E+01
    -51.276  0.0000E+00  0.0000E+00  0.1000E+01  0.1000E+01
    -51.076  0.0000E+00  0.0000E+00  0.1000E+01  0.1000E+01
    -50.875  0.0000E+00  0.0000E+00  0.1000E+01  0.1000E+01
    -50.674  0.0000E+00  0.0000E+00  0.1000E+01  0.1000E+01
    -50.474  0.0000E+00  0.0000E+00  0.1000E+01  0.1000E+01
    -50.273  0.0000E+00  0.0000E+00  0.1000E+01  0.1000E+01
    -50.072  0.0000E+00  0.0000E+00  0.1000E+01  0.1000E+01
    -49.872  0.0000E+00  0.0000E+00  0.1000E+01  0.1000E+01
    -49.671  0.0000E+00  0.0000E+00  0.1000E+01  0.1000E+01
    -49.470  0.0000E+00  0.0000E+00  0.1000E+01  0.1000E+01
    -49.270  0.0000E+00  0.0000E+00  0.1000E+01  0.1000E+01
    -49.069  0.0000E+00  0.0000E+00  0.1000E+01  0.1000E+01
    -48.868  0.0000E+00  0.0000E+00  0.1000E+01  0.1000E+01
    -48.668  0.0000E+00  0.0000E+00  0.1000E+01  0.1000E+01
    -48.467  0.0000E+00  0.0000E+00  0.1000E+01  0.1000E+01
    -48.266  0.0000E+00  0.0000E+00  0.1000E+01  0.1000E+01
    -48.066  0.0000E+00  0.0000E+00  0.1000E+01  0.1000E+01
    -47.865  0.0000E+00  0.0000E+00  0.1000E+01  0.1000E+01
    -47.664  0.0000E+00  0.0000E+00  0.1000E+01  0.1000E+01
    -47.463  0.0000E+00  0.0000E+00  0.1000E+01  0.1000E+01
    -47.263  0.0000E+00  0.0000E+00  0.1000E+01  0.1000E+01
    -47.062  0.0000E+00  0.0000E+00  0.1000E+01  0.1000E+01
    -46.861  0.0000E+00  0.0000E+00  0.1000E+01  0.1000E+01
    -46.661  0.0000E+00  0.0000E+00  0.1000E+01  0.1000E+01
    -46.460  0.0000E+00  0.0000E+00  0.1000E+01  0.1000E+01
    -46.259  0.0000E+00  0.0000E+00  0.1000E+01  0.1000E+01
    -46.059  0.0000E+00  0.0000E+00  0.1000E+01  0.1000E+01
    -45.858  0.0000E+00  0.0000E+00  0.1000E+01  0.1000E+01
    -45.657  0.0000E+00  0.0000E+00  0.1000E+01  0.1000E+01
    -45.457  0.0000E+00  0.0000E+00  0.1000E+01  0.1000E+01
    -45.256  0.0000E+00  0.0000E+00  0.1000E+01  0.1000E+01
    -45.055  0.0000E+00  0.0000E+00  0.1000E+01  0.1000E+01
    -44.855  0.0000E+00  0.0000E+00  0.1000E+01  0.1000E+01
    -44.654  0.0000E+00  0.0000E+00  0.1000E+01  0.1000E+01
    -44.453  0.0000E+00  0.0000E+00  0.1000E+01  0.1000E+01
    -44.253  0.0000E+00  0.0000E+00  0.1000E+01  0.1000E+01
    -44.052  0.0000E+00  0.0000E+00  0.1000E+01  0.1000E+01
    -43.851  0.0000E+00  0.0000E+00  0.1000E+01  0.1000E+01
    -43.651  0.0000E+00  0.0000E+00  0.1000E+01  0.1000E+01
    -43.450  0.0000E+00  0.0000E+00  0.1000E+01  0.1000E+01
    -43.249  0.0000E+00  0.0000E+00  0.1000E+01  0.1000E+01
    -43.049  0.0000E+00  0.0000E+00  0.1000E+01  0.1000E+01
    -42.848  0.0000E+00  0.0000E+00  0.1000E+01  0.1000E+01
    -42.647  0.0000E+00  0.0000E+00  0.1000E+01  0.1000E+01
    -42.447  0.0000E+00  0.0000E+00  0.1000E+01  0.1000E+01
    -42.246  0.0000E+00  0.0000E+00  0.1000E+01  0.1000E+01
    -42.045  0.0000E+00  0.0000E+00  0.1000E+01  0.1000E+01
    -41.845  0.0000E+00  0.0000E+00  0.1000E+01  0.1000E+01
    -41.644  0.0000E+00  0.0000E+00  0.1000E+01  0.1000E+01
    -41.443  0.0000E+00  0.0000E+00  0.1000E+01  0.1000E+01
    -41.243  0.0000E+00  0.0000E+00  0.1000E+01  0.1000E+01
    -41.042  0.0000E+00  0.0000E+00  0.1000E+01  0.1000E+01
    -40.841  0.0000E+00  0.0000E+00  0.1000E+01  0.1000E+01
    -40.640  0.0000E+00  0.0000E+00  0.1000E+01  0.1000E+01
    -40.440  0.0000E+00  0.0000E+00  0.1000E+01  0.1000E+01
    -40.239  0.0000E+00  0.0000E+00  0.1000E+01  0.1000E+01
    -40.038  0.0000E+00  0.0000E+00  0.1000E+01  0.1000E+01
    -39.838  0.0000E+00  0.0000E+00  0.1000E+01  0.1000E+01
    -39.637  0.0000E+00  0.0000E+00  0.1000E+01  0.1000E+01
    -39.436  0.0000E+00  0.0000E+00  0.1000E+01  0.1000E+01
    -39.236  0.0000E+00  0.0000E+00  0.1000E+01  0.1000E+01
    -39.035  0.0000E+00  0.0000E+00  0.1000E+01  0.1000E+01
    -38.834  0.0000E+00  0.0000E+00  0.1000E+01  0.1000E+01
    -38.634  0.0000E+00  0.0000E+00  0.1000E+01  0.1000E+01
    -38.433  0.0000E+00  0.0000E+00  0.1000E+01  0.1000E+01
    -38.232  0.0000E+00  0.0000E+00  0.1000E+01  0.1000E+01
    -38.032  0.0000E+00  0.0000E+00  0.1000E+01  0.1000E+01
    -37.831  0.0000E+00  0.0000E+00  0.1000E+01  0.1000E+01
    -37.630  0.0000E+00  0.0000E+00  0.1000E+01  0.1000E+01
    -37.430  0.0000E+00  0.0000E+00  0.1000E+01  0.1000E+01
    -37.229  0.0000E+00  0.0000E+00  0.1000E+01  0.1000E+01
    -37.028  0.0000E+00  0.0000E+00  0.1000E+01  0.1000E+01
    -36.828  0.0000E+00  0.0000E+00  0.1000E+01  0.1000E+01
    -36.627  0.0000E+00  0.0000E+00  0.1000E+01  0.1000E+01
    -36.426  0.0000E+00  0.0000E+00  0.1000E+01  0.1000E+01
    -36.226  0.0000E+00  0.0000E+00  0.1000E+01  0.1000E+01
    -36.025  0.0000E+00  0.0000E+00  0.1000E+01  0.1000E+01
    -35.824  0.0000E+00  0.0000E+00  0.1000E+01  0.1000E+01
    -35.624  0.0000E+00  0.0000E+00  0.1000E+01  0.1000E+01
    -35.423  0.0000E+00  0.0000E+00  0.1000E+01  0.1000E+01
    -35.222  0.0000E+00  0.0000E+00  0.1000E+01  0.1000E+01
    -35.022  0.0000E+00  0.0000E+00  0.1000E+01  0.1000E+01
    -34.821  0.0000E+00  0.0000E+00  0.1000E+01  0.1000E+01
    -34.620  0.0000E+00  0.0000E+00  0.1000E+01  0.1000E+01
    -34.420  0.0000E+00  0.0000E+00  0.1000E+01  0.1000E+01
    -34.219  0.0000E+00  0.0000E+00  0.1000E+01  0.1000E+01
    -34.018  0.0000E+00  0.0000E+00  0.1000E+01  0.1000E+01
    -33.817  0.0000E+00  0.0000E+00  0.1000E+01  0.1000E+01
    -33.617  0.0000E+00  0.0000E+00  0.1000E+01  0.1000E+01
    -33.416  0.0000E+00  0.0000E+00  0.1000E+01  0.1000E+01
    -33.215  0.0000E+00  0.0000E+00  0.1000E+01  0.1000E+01
    -33.015  0.0000E+00  0.0000E+00  0.1000E+01  0.1000E+01
    -32.814  0.0000E+00  0.0000E+00  0.1000E+01  0.1000E+01
    -32.613  0.0000E+00  0.0000E+00  0.1000E+01  0.1000E+01
    -32.413  0.0000E+00  0.0000E+00  0.1000E+01  0.1000E+01
    -32.212  0.0000E+00  0.0000E+00  0.1000E+01  0.1000E+01
    -32.011  0.0000E+00  0.0000E+00  0.1000E+01  0.1000E+01
    -31.811  0.0000E+00  0.0000E+00  0.1000E+01  0.1000E+01
    -31.610  0.0000E+00  0.0000E+00  0.1000E+01  0.1000E+01
    -31.409  0.0000E+00  0.0000E+00  0.1000E+01  0.1000E+01
    -31.209  0.0000E+00  0.0000E+00  0.1000E+01  0.1000E+01
    -31.008  0.0000E+00  0.0000E+00  0.1000E+01  0.1000E+01
    -30.807  0.0000E+00  0.0000E+00  0.1000E+01  0.1000E+01
    -30.607  0.0000E+00  0.0000E+00  0.1000E+01  0.1000E+01
    -30.406  0.0000E+00  0.0000E+00  0.1000E+01  0.1000E+01
    -30.205  0.0000E+00  0.0000E+00  0.1000E+01  0.1000E+01
    -30.005  0.0000E+00  0.0000E+00  0.1000E+01  0.1000E+01
    -29.804  0.0000E+00  0.0000E+00  0.1000E+01  0.1000E+01
    -29.603  0.0000E+00  0.0000E+00  0.1000E+01  0.1000E+01
    -29.403  0.0000E+00  0.0000E+00  0.1000E+01  0.1000E+01
    -29.202  0.0000E+00  0.0000E+00  0.1000E+01  0.1000E+01
    -29.001  0.0000E+00  0.0000E+00  0.1000E+01  0.1000E+01
    -28.801  0.0000E+00  0.0000E+00  0.1000E+01  0.1000E+01
    -28.600  0.0000E+00  0.0000E+00  0.1000E+01  0.1000E+01
    -28.399  0.0000E+00  0.0000E+00  0.1000E+01  0.1000E+01
    -28.199  0.0000E+00  0.0000E+00  0.1000E+01  0.1000E+01
    -27.998  0.0000E+00  0.0000E+00  0.1000E+01  0.1000E+01
    -27.797  0.0000E+00  0.0000E+00  0.1000E+01  0.1000E+01
    -27.597  0.0000E+00  0.0000E+00  0.1000E+01  0.1000E+01
    -27.396  0.0000E+00  0.0000E+00  0.1000E+01  0.1000E+01
    -27.195  0.0000E+00  0.0000E+00  0.1000E+01  0.1000E+01
    -26.994  0.0000E+00  0.0000E+00  0.1000E+01  0.1000E+01
    -26.794  0.0000E+00  0.0000E+00  0.1000E+01  0.1000E+01
    -26.593  0.0000E+00  0.0000E+00  0.1000E+01  0.1000E+01
    -26.392  0.0000E+00  0.0000E+00  0.1000E+01  0.1000E+01
    -26.192  0.0000E+00  0.0000E+00  0.1000E+01  0.1000E+01
    -25.991  0.0000E+00  0.0000E+00  0.1000E+01  0.1000E+01
    -25.790  0.0000E+00  0.0000E+00  0.1000E+01  0.1000E+01
    -25.590  0.0000E+00  0.0000E+00  0.1000E+01  0.1000E+01
    -25.389  0.0000E+00  0.0000E+00  0.1000E+01  0.1000E+01
    -25.188  0.0000E+00  0.0000E+00  0.1000E+01  0.1000E+01
    -24.988  0.0000E+00  0.0000E+00  0.1000E+01  0.1000E+01
    -24.787  0.0000E+00  0.0000E+00  0.1000E+01  0.1000E+01
    -24.586  0.0000E+00  0.0000E+00  0.1000E+01  0.1000E+01
    -24.386  0.0000E+00  0.0000E+00  0.1000E+01  0.1000E+01
    -24.185  0.0000E+00  0.0000E+00  0.1000E+01  0.1000E+01
    -23.984  0.0000E+00  0.0000E+00  0.1000E+01  0.1000E+01
    -23.784  0.0000E+00  0.0000E+00  0.1000E+01  0.1000E+01
    -23.583  0.0000E+00  0.0000E+00  0.1000E+01  0.1000E+01
    -23.382  0.0000E+00  0.0000E+00  0.1000E+01  0.1000E+01
    -23.182  0.0000E+00  0.0000E+00  0.1000E+01  0.1000E+01
    -22.981  0.0000E+00  0.0000E+00  0.1000E+01  0.1000E+01
    -22.780  0.0000E+00  0.0000E+00  0.1000E+01  0.1000E+01
    -22.580  0.3349E-09  0.4545E-10  0.1000E+01  0.1000E+01
    -22.379  0.2071E+00  0.1375E+00  0.1042E+01  0.1028E+01
    -22.178  0.4483E+01  0.4393E+01  0.1941E+01  0.1909E+01
    -21.978  0.3159E+01  0.3044E+01  0.2575E+01  0.2520E+01
    -21.777  0.3438E+01  0.3511E+01  0.3265E+01  0.3224E+01
    -21.576  0.2918E+01  0.2937E+01  0.3851E+01  0.3814E+01
    -21.376  0.4146E+01  0.4308E+01  0.4683E+01  0.4678E+01
    -21.175  0.2699E+01  0.2636E+01  0.5224E+01  0.5207E+01
    -20.974  0.4710E+01  0.4700E+01  0.6169E+01  0.6150E+01
    -20.774  0.4685E+01  0.4775E+01  0.7110E+01  0.7109E+01
    -20.573  0.2137E+01  0.2012E+01  0.7538E+01  0.7512E+01
    -20.372  0.5096E+01  0.5002E+01  0.8561E+01  0.8516E+01
    -20.171  0.3534E+01  0.3476E+01  0.9270E+01  0.9214E+01
    -19.971  0.4268E+01  0.4431E+01  0.1013E+02  0.1010E+02
    -19.770  0.1499E+01  0.1493E+01  0.1043E+02  0.1040E+02
    -19.569  0.5489E+01  0.5526E+01  0.1153E+02  0.1151E+02
    -19.369  0.3773E+01  0.3748E+01  0.1229E+02  0.1226E+02
    -19.168  0.4419E+01  0.4443E+01  0.1317E+02  0.1316E+02
    -18.967  0.5103E+01  0.4939E+01  0.1420E+02  0.1415E+02
    -18.767  0.1653E+01  0.1884E+01  0.1453E+02  0.1452E+02
    -18.566  0.3194E+01  0.2847E+01  0.1517E+02  0.1510E+02
    -18.365  0.7662E+01  0.7744E+01  0.1671E+02  0.1665E+02
    -18.165  0.2951E+01  0.3183E+01  0.1730E+02  0.1729E+02
    -17.964  0.3996E+01  0.3797E+01  0.1810E+02  0.1805E+02
    -17.763  0.4952E+01  0.5171E+01  0.1909E+02  0.1909E+02
    -17.563  0.4856E+00  0.4320E+00  0.1919E+02  0.1917E+02
    -17.362  0.8666E+01  0.8531E+01  0.2093E+02  0.2089E+02
    -17.161  0.4337E+01  0.4450E+01  0.2180E+02  0.2178E+02
    -16.961  0.4345E+01  0.4267E+01  0.2267E+02  0.2264E+02
    -16.760  0.4557E+01  0.4572E+01  0.2359E+02  0.2355E+02
    -16.559  0.1701E+01  0.1792E+01  0.2393E+02  0.2391E+02
    -16.359  0.2229E+01  0.2150E+01  0.2438E+02  0.2434E+02
    -16.158  0.7721E+01  0.7779E+01  0.2593E+02  0.2591E+02
    -15.957  0.9216E+00  0.1024E+01  0.2611E+02  0.2611E+02
    -15.757  0.2383E+01  0.2069E+01  0.2659E+02  0.2653E+02
    -15.556  0.2950E+01  0.3109E+01  0.2718E+02  0.2715E+02
    -15.355  0.3538E+01  0.3578E+01  0.2789E+02  0.2787E+02
    -15.155  0.7484E+01  0.7567E+01  0.2939E+02  0.2939E+02
    -14.954  0.3741E+01  0.3652E+01  0.3014E+02  0.3012E+02
    -14.753  0.4811E+01  0.4843E+01  0.3111E+02  0.3109E+02
    -14.553  0.4355E+01  0.4410E+01  0.3198E+02  0.3198E+02
    -14.352  0.3693E+01  0.3488E+01  0.3272E+02  0.3268E+02
    -14.151  0.3308E+01  0.3455E+01  0.3339E+02  0.3337E+02
    -13.951  0.5462E+01  0.5510E+01  0.3448E+02  0.3448E+02
    -13.750  0.4714E+01  0.4709E+01  0.3543E+02  0.3542E+02
    -13.549  0.2278E+01  0.2324E+01  0.3589E+02  0.3589E+02
    -13.348  0.1110E+01  0.9342E+00  0.3611E+02  0.3607E+02
    -13.148  0.7192E+01  0.7115E+01  0.3755E+02  0.3750E+02
    -12.947  0.5634E+01  0.5797E+01  0.3868E+02  0.3867E+02
    -12.746  0.4794E+01  0.4787E+01  0.3965E+02  0.3963E+02
    -12.546  0.1550E+01  0.1507E+01  0.3996E+02  0.3993E+02
    -12.345  0.4026E+01  0.4066E+01  0.4077E+02  0.4074E+02
    -12.144  0.4920E+01  0.4874E+01  0.4175E+02  0.4172E+02
    -11.944  0.7746E+01  0.7812E+01  0.4331E+02  0.4329E+02
    -11.743  0.1295E+01  0.1321E+01  0.4357E+02  0.4356E+02
    -11.542  0.6425E+01  0.6033E+01  0.4486E+02  0.4477E+02
    -11.342  0.7352E+01  0.7723E+01  0.4633E+02  0.4632E+02
    -11.141  0.4448E+01  0.4455E+01  0.4722E+02  0.4721E+02
    -10.940  0.3622E+01  0.3580E+01  0.4795E+02  0.4793E+02
    -10.740  0.2878E+01  0.2889E+01  0.4853E+02  0.4851E+02
    -10.539  0.8618E+01  0.8435E+01  0.5026E+02  0.5020E+02
    -10.338  0.9877E+01  0.9527E+01  0.5224E+02  0.5211E+02
    -10.138  0.8536E+01  0.9052E+01  0.5395E+02  0.5393E+02
     -9.937  0.8639E+01  0.8327E+01  0.5569E+02  0.5560E+02
     -9.736  0.8191E+01  0.8238E+01  0.5733E+02  0.5725E+02
     -9.536  0.1066E+02  0.1042E+02  0.5947E+02  0.5935E+02
     -9.335  0.9079E+01  0.9436E+01  0.6129E+02  0.6124E+02
     -9.134  0.1404E+02  0.1401E+02  0.6411E+02  0.6405E+02
     -8.934  0.1199E+02  0.1160E+02  0.6652E+02  0.6638E+02
     -8.733  0.1174E+02  0.1192E+02  0.6887E+02  0.6877E+02
     -8.532  0.7789E+01  0.8173E+01  0.7043E+02  0.7041E+02
     -8.332  0.8247E+01  0.8155E+01  0.7209E+02  0.7205E+02
     -8.131  0.9800E+01  0.9653E+01  0.7406E+02  0.7398E+02
     -7.930  0.1310E+02  0.1285E+02  0.7668E+02  0.7656E+02
     -7.730  0.7758E+01  0.8206E+01  0.7824E+02  0.7821E+02
     -7.529  0.2788E+01  0.2573E+01  0.7880E+02  0.7873E+02
     -7.328  0.9066E+01  0.9014E+01  0.8062E+02  0.8054E+02
     -7.128  0.9217E+01  0.9325E+01  0.8247E+02  0.8241E+02
     -6.927  0.1002E+02  0.1002E+02  0.8448E+02  0.8442E+02
     -6.726  0.8689E+01  0.8565E+01  0.8622E+02  0.8614E+02
     -6.525  0.5123E+01  0.5528E+01  0.8725E+02  0.8725E+02
     -6.325  0.6013E+01  0.5795E+01  0.8846E+02  0.8841E+02
     -6.124  0.5377E+01  0.4535E+01  0.8954E+02  0.8932E+02
     -5.923  0.1174E+02  0.1252E+02  0.9189E+02  0.9183E+02
     -5.723  0.3151E+01  0.3171E+01  0.9253E+02  0.9247E+02
     -5.522  0.6859E+01  0.6651E+01  0.9390E+02  0.9380E+02
     -5.321  0.2139E+01  0.2604E+01  0.9433E+02  0.9433E+02
     -5.121  0.3051E+01  0.2853E+01  0.9494E+02  0.9490E+02
     -4.920  0.8068E+01  0.7286E+01  0.9656E+02  0.9636E+02
     -4.719  0.7347E+01  0.7941E+01  0.9804E+02  0.9795E+02
     -4.519  0.1974E+01  0.2169E+01  0.9843E+02  0.9839E+02
     -4.318  0.2379E+01  0.2484E+01  0.9891E+02  0.9889E+02
     -4.117  0.1997E+01  0.2087E+01  0.9931E+02  0.9931E+02
     -3.917  0.2560E+01  0.1817E+01  0.9982E+02  0.9967E+02
     -3.716  0.2519E+01  0.3240E+01  0.1003E+03  0.1003E+03
     -3.515  0.2220E+01  0.2250E+01  0.1008E+03  0.1008E+03
     -3.315  0.1065E-01  0.2610E-01  0.1008E+03  0.1008E+03
     -3.114  0.2984E-08  0.7228E-12  0.1008E+03  0.1008E+03
     -2.913  0.4839E+00  0.8652E-01  0.1009E+03  0.1008E+03
     -2.713  0.2090E+01  0.1994E+01  0.1013E+03  0.1012E+03
     -2.512  0.2448E+01  0.1729E+01  0.1018E+03  0.1015E+03
     -2.311  0.2095E+01  0.2767E+01  0.1022E+03  0.1021E+03
     -2.111  0.8143E-01  0.6212E+00  0.1022E+03  0.1022E+03
     -1.910  0.8664E-01  0.1881E-01  0.1022E+03  0.1022E+03
     -1.709  0.3868E+01  0.3773E+01  0.1030E+03  0.1030E+03
     -1.509  0.3876E+01  0.3732E+01  0.1038E+03  0.1037E+03
     -1.308  0.5621E+01  0.5632E+01  0.1049E+03  0.1049E+03
     -1.107  0.1351E+01  0.1471E+01  0.1052E+03  0.1052E+03
     -0.907  0.7193E+01  0.7177E+01  0.1066E+03  0.1066E+03
     -0.706  0.7924E+01  0.7764E+01  0.1082E+03  0.1082E+03
     -0.505  0.5202E+01  0.5054E+01  0.1093E+03  0.1092E+03
     -0.305  0.3081E+01  0.3582E+01  0.1099E+03  0.1099E+03
     -0.104  0.4749E+00  0.2489E+00  0.1100E+03  0.1099E+03
      0.097  0.4081E+01  0.4102E+01  0.1108E+03  0.1108E+03
      0.298  0.9730E+01  0.9486E+01  0.1128E+03  0.1127E+03
      0.498  0.8541E+01  0.8514E+01  0.1145E+03  0.1144E+03
      0.699  0.4346E+01  0.4797E+01  0.1153E+03  0.1153E+03
      0.900  0.7519E+01  0.7012E+01  0.1169E+03  0.1167E+03
      1.100  0.8096E+01  0.8129E+01  0.1185E+03  0.1184E+03
      1.301  0.1160E+02  0.1114E+02  0.1208E+03  0.1206E+03
      1.502  0.1364E+02  0.1254E+02  0.1235E+03  0.1231E+03
      1.702  0.1629E+02  0.1712E+02  0.1268E+03  0.1266E+03
      1.903  0.1812E+02  0.1860E+02  0.1304E+03  0.1303E+03
      2.104  0.7117E+01  0.7522E+01  0.1319E+03  0.1318E+03
      2.304  0.6222E+00  0.9778E+00  0.1320E+03  0.1320E+03
      2.505  0.1550E-06  0.8412E-04  0.1320E+03  0.1320E+03
      2.706  0.0000E+00  0.0000E+00  0.1320E+03  0.1320E+03
      2.906  0.0000E+00  0.0000E+00  0.1320E+03  0.1320E+03
      3.107  0.0000E+00  0.0000E+00  0.1320E+03  0.1320E+03
      3.308  0.0000E+00  0.0000E+00  0.1320E+03  0.1320E+03
      3.508  0.0000E+00  0.0000E+00  0.1320E+03  0.1320E+03
      3.709  0.0000E+00  0.0000E+00  0.1320E+03  0.1320E+03
      3.910  0.0000E+00  0.0000E+00  0.1320E+03  0.1320E+03
      4.110  0.0000E+00  0.0000E+00  0.1320E+03  0.1320E+03
      4.311  0.0000E+00  0.0000E+00  0.1320E+03  0.1320E+03
      4.512  0.0000E+00  0.0000E+00  0.1320E+03  0.1320E+03
      4.712  0.0000E+00  0.0000E+00  0.1320E+03  0.1320E+03
      4.913  0.0000E+00  0.0000E+00  0.1320E+03  0.1320E+03
