       N       E                     dE             d eps       ncg     rms          rms(c)
DAV:   1     0.194404740393E+04    0.19440E+04   -0.67599E+04  3232   0.106E+03
DAV:   2     0.424128679161E+02   -0.19016E+04   -0.17575E+04  4072   0.237E+02
DAV:   3    -0.462640898076E+03   -0.50505E+03   -0.50075E+03  3456   0.129E+02
DAV:   4    -0.489625449884E+03   -0.26985E+02   -0.26676E+02  3384   0.389E+01
DAV:   5    -0.490534544353E+03   -0.90909E+00   -0.90270E+00  3632   0.611E+00    0.329E+01
DAV:   6    -0.465434498679E+03    0.25100E+02   -0.25058E+01  3004   0.125E+01    0.190E+01
DAV:   7    -0.453377208131E+03    0.12057E+02   -0.17179E+01  3032   0.998E+00    0.994E+00
DAV:   8    -0.452759466359E+03    0.61774E+00   -0.44239E+00  3056   0.474E+00    0.387E+00
DAV:   9    -0.453804019036E+03   -0.10446E+01   -0.58581E-01  3440   0.201E+00    0.145E+00
DAV:  10    -0.454146904368E+03   -0.34289E+00   -0.18598E-01  2824   0.102E+00    0.981E-01
DAV:  11    -0.454452628784E+03   -0.30572E+00   -0.49076E-02  3288   0.485E-01    0.836E-01
DAV:  12    -0.455175001417E+03   -0.72237E+00   -0.20934E-01  2836   0.808E-01    0.594E-01
DAV:  13    -0.455171730315E+03    0.32711E-02   -0.12778E-01  2788   0.642E-01    0.429E-01
DAV:  14    -0.455790539425E+03   -0.61881E+00   -0.59277E-02  2888   0.419E-01    0.292E-01
DAV:  15    -0.456494975776E+03   -0.70444E+00   -0.31407E-02  2932   0.278E-01    0.201E-01
DAV:  16    -0.456896655001E+03   -0.40168E+00   -0.82910E-03  2984   0.178E-01    0.151E-01
DAV:  17    -0.457230921854E+03   -0.33427E+00   -0.67361E-03  2904   0.155E-01    0.995E-02
DAV:  18    -0.457345036882E+03   -0.11412E+00   -0.23773E-03  2940   0.950E-02    0.744E-02
DAV:  19    -0.457385251576E+03   -0.40215E-01   -0.12332E-03  3032   0.726E-02    0.549E-02
DAV:  20    -0.457399858713E+03   -0.14607E-01   -0.78227E-04  2984   0.636E-02    0.377E-02
DAV:  21    -0.457415754196E+03   -0.15895E-01   -0.36285E-04  2952   0.539E-02    0.255E-02
DAV:  22    -0.457444165926E+03   -0.28412E-01   -0.19404E-04  2928   0.472E-02    0.152E-02
DAV:  23    -0.457458331645E+03   -0.14166E-01   -0.10043E-04  2900   0.376E-02    0.952E-03
DAV:  24    -0.457462602258E+03   -0.42706E-02   -0.57309E-05  2596   0.262E-02    0.624E-03
DAV:  25    -0.457464773996E+03   -0.21717E-02   -0.42480E-05  2480   0.212E-02    0.372E-03
DAV:  26    -0.457465656328E+03   -0.88233E-03   -0.13867E-05  2456   0.120E-02    0.243E-03
DAV:  27    -0.457466055789E+03   -0.39946E-03   -0.36098E-06  2356   0.592E-03    0.149E-03
DAV:  28    -0.457466286724E+03   -0.23093E-03   -0.16777E-06  2252   0.341E-03    0.100E-03
DAV:  29    -0.457466398829E+03   -0.11211E-03   -0.60388E-07  2048   0.194E-03    0.659E-04
DAV:  30    -0.457466473235E+03   -0.74406E-04   -0.46064E-07  2016   0.135E-03    0.417E-04
DAV:  31    -0.457466512647E+03   -0.39412E-04   -0.22541E-07  2012   0.999E-04    0.276E-04
DAV:  32    -0.457466530639E+03   -0.17991E-04   -0.83653E-08  2000   0.689E-04    0.185E-04
DAV:  33    -0.457466537707E+03   -0.70687E-05   -0.26777E-08  2000   0.438E-04    0.150E-04
DAV:  34    -0.457466540070E+03   -0.23626E-05    0.13469E-09  1976   0.259E-04    0.136E-04
DAV:  35    -0.457466541130E+03   -0.10600E-05    0.11808E-08  1912   0.157E-04    0.131E-04
DAV:  36    -0.457466541642E+03   -0.51211E-06    0.15535E-08  1860   0.103E-04
   1 F= -.45746654E+03 E0= -.45746315E+03  d E =-.677390E-02  mag=     0.2976
