<?xml version="1.0" encoding="ISO-8859-1"?>
<modeling>
 <generator>
  <i name="program" type="string">vasp </i>
  <i name="version" type="string">5.4.1  </i>
  <i name="subversion" type="string">24Jun15 (build Jul 23 2024 06:15:33) complex                          parallel </i>
  <i name="platform" type="string">IFC91_ompi </i>
  <i name="date" type="string">2026 05 05 </i>
  <i name="time" type="string">16:49:03 </i>
 </generator>
 <incar>
  <i type="string" name="SYSTEM"> Li defective graphene MACE training lab</i>
  <i type="int" name="ISTART">     0</i>
  <i type="string" name="PREC">accurate</i>
  <i type="string" name="ALGO"> Normal</i>
  <i type="logical" name="ADDGRID"> T  </i>
  <i type="int" name="ISPIN">     2</i>
  <i type="int" name="ICHARG">     2</i>
  <i type="int" name="NELM">   120</i>
  <i type="int" name="IBRION">    -1</i>
  <i name="EDIFF">      0.00000100</i>
  <i type="int" name="NSW">     0</i>
  <i type="int" name="ISIF">     2</i>
  <i type="int" name="ISYM">     0</i>
  <i name="ENCUT">    520.00000000</i>
  <v name="MAGMOM">      0.10000000      0.10000000      0.10000000      0.10000000      0.10000000      0.10000000      0.10000000      0.10000000      0.10000000      0.10000000      0.10000000      0.10000000      0.10000000      0.10000000      0.10000000      0.10000000      0.10000000      0.10000000      0.10000000      0.10000000
      0.10000000      0.10000000      0.10000000      0.10000000      0.10000000      0.10000000      0.10000000      0.10000000      0.10000000      0.10000000      0.10000000      0.10000000      0.10000000      0.10000000      0.10000000      0.10000000      0.10000000      0.10000000      0.10000000      0.10000000
      0.10000000      0.10000000      0.10000000      0.10000000      0.10000000      0.10000000      0.10000000      0.10000000      0.10000000      0.10000000      1.00000000</v>
  <i type="string" name="LREAL"> Auto</i>
  <i type="int" name="ISMEAR">     0</i>
  <i name="SIGMA">      0.05000000</i>
  <i type="logical" name="LWAVE"> F  </i>
  <i type="logical" name="LCHARG"> F  </i>
  <i type="logical" name="LASPH"> T  </i>
  <v type="int" name="KPOINT_BSE">    -1     0     0     0</v>
  <i type="int" name="NELM">   120</i>
  <i type="logical" name="LASPH"> T  </i>
 </incar>
 <kpoints>
  <generation param="Gamma">
   <v type="int" name="divisions">       3        3        1 </v>
   <v name="usershift">      0.00000000       0.00000000       0.00000000 </v>
   <v name="genvec1">      0.33333333       0.00000000       0.00000000 </v>
   <v name="genvec2">      0.00000000       0.33333333       0.00000000 </v>
   <v name="genvec3">      0.00000000       0.00000000       1.00000000 </v>
   <v name="shift">      0.00000000       0.00000000       0.00000000 </v>
  </generation>
  <varray name="kpointlist" >
   <v>       0.00000000       0.00000000       0.00000000 </v>
   <v>       0.33333333      -0.00000000       0.00000000 </v>
   <v>       0.00000000       0.33333333       0.00000000 </v>
   <v>       0.33333333       0.33333333       0.00000000 </v>
   <v>      -0.33333333       0.33333333       0.00000000 </v>
  </varray>
  <varray name="weights" >
   <v>       0.11111111 </v>
   <v>       0.22222222 </v>
   <v>       0.22222222 </v>
   <v>       0.22222222 </v>
   <v>       0.22222222 </v>
  </varray>
 </kpoints>
 <parameters>
  <separator name="general" >
   <i type="string" name="SYSTEM">Li defective graphene MACE training lab</i>
   <i type="logical" name="LCOMPAT"> F  </i>
  </separator>
  <separator name="electronic" >
   <i type="string" name="PREC">accura</i>
   <i name="ENMAX">    520.00000000</i>
   <i name="ENAUG">    644.87300000</i>
   <i name="EDIFF">      0.00000100</i>
   <i type="int" name="IALGO">    38</i>
   <i type="int" name="IWAVPR">    10</i>
   <i type="int" name="NBANDS">   132</i>
   <i name="NELECT">    203.00000000</i>
   <i type="int" name="TURBO">     0</i>
   <i type="int" name="IRESTART">     0</i>
   <i type="int" name="NREBOOT">     0</i>
   <i type="int" name="NMIN">     0</i>
   <i name="EREF">      0.00000000</i>
   <separator name="electronic smearing" >
    <i type="int" name="ISMEAR">     0</i>
    <i name="SIGMA">      0.05000000</i>
    <i name="KSPACING">      0.50000000</i>
    <i type="logical" name="KGAMMA"> T  </i>
   </separator>
   <separator name="electronic projectors" >
    <i type="logical" name="LREAL"> T  </i>
    <v name="ROPT">     -0.00025000     -0.00025000</v>
    <i type="int" name="LMAXPAW">  -100</i>
    <i type="int" name="LMAXMIX">     2</i>
    <i type="logical" name="NLSPLINE"> F  </i>
   </separator>
   <separator name="electronic startup" >
    <i type="int" name="ISTART">     0</i>
    <i type="int" name="ICHARG">     2</i>
    <i type="int" name="INIWAV">     1</i>
   </separator>
   <separator name="electronic spin" >
    <i type="int" name="ISPIN">     2</i>
    <i type="logical" name="LNONCOLLINEAR"> F  </i>
    <v name="MAGMOM">      0.10000000      0.10000000      0.10000000      0.10000000      0.10000000      0.10000000      0.10000000      0.10000000      0.10000000      0.10000000      0.10000000      0.10000000      0.10000000      0.10000000      0.10000000      0.10000000      0.10000000      0.10000000      0.10000000      0.10000000
      0.10000000      0.10000000      0.10000000      0.10000000      0.10000000      0.10000000      0.10000000      0.10000000      0.10000000      0.10000000      0.10000000      0.10000000      0.10000000      0.10000000      0.10000000      0.10000000      0.10000000      0.10000000      0.10000000      0.10000000
      0.10000000      0.10000000      0.10000000      0.10000000      0.10000000      0.10000000      0.10000000      0.10000000      0.10000000      0.10000000      1.00000000</v>
    <i name="NUPDOWN">     -1.00000000</i>
    <i type="logical" name="LSORBIT"> F  </i>
    <v name="SAXIS">      0.00000000      0.00000000      1.00000000</v>
    <i type="logical" name="LSPIRAL"> F  </i>
    <v name="QSPIRAL">      0.00000000      0.00000000      0.00000000</v>
    <i type="logical" name="LZEROZ"> F  </i>
   </separator>
   <separator name="electronic exchange-correlation" >
    <i type="logical" name="LASPH"> T  </i>
    <i type="logical" name="LMETAGGA"> F  </i>
   </separator>
   <separator name="electronic convergence" >
    <i type="int" name="NELM">   120</i>
    <i type="int" name="NELMDL">    -5</i>
    <i type="int" name="NELMIN">     2</i>
    <i name="ENINI">    520.00000000</i>
    <separator name="electronic convergence detail" >
     <i type="logical" name="LDIAG"> T  </i>
     <i type="logical" name="LSUBROT"> F  </i>
     <i name="WEIMIN">      0.00000000</i>
     <i name="EBREAK">      0.00000000</i>
     <i name="DEPER">      0.30000000</i>
     <i type="int" name="NRMM">     4</i>
     <i name="TIME">      0.40000000</i>
    </separator>
   </separator>
   <separator name="electronic mixer" >
    <i name="AMIX">      0.40000000</i>
    <i name="BMIX">      1.00000000</i>
    <i name="AMIN">      0.10000000</i>
    <i name="AMIX_MAG">      1.60000000</i>
    <i name="BMIX_MAG">      1.00000000</i>
    <separator name="electronic mixer details" >
     <i type="int" name="IMIX">     4</i>
     <i type="logical" name="MIXFIRST"> F  </i>
     <i type="int" name="MAXMIX">   -45</i>
     <i name="WC">    100.00000000</i>
     <i type="int" name="INIMIX">     1</i>
     <i type="int" name="MIXPRE">     1</i>
     <i type="int" name="MREMOVE">     5</i>
    </separator>
   </separator>
   <separator name="electronic dipolcorrection" >
    <i type="logical" name="LDIPOL"> F  </i>
    <i type="logical" name="LMONO"> F  </i>
    <i type="int" name="IDIPOL">     0</i>
    <i name="EPSILON">      1.00000000</i>
    <v name="DIPOL">   -100.00000000   -100.00000000   -100.00000000</v>
    <i name="EFIELD">      0.00000000</i>
   </separator>
  </separator>
  <separator name="grids" >
   <i type="int" name="NGX">    96</i>
   <i type="int" name="NGY">    96</i>
   <i type="int" name="NGZ">   224</i>
   <i type="int" name="NGXF">   192</i>
   <i type="int" name="NGYF">   192</i>
   <i type="int" name="NGZF">   448</i>
   <i type="logical" name="ADDGRID"> T  </i>
  </separator>
  <separator name="ionic" >
   <i type="int" name="NSW">     0</i>
   <i type="int" name="IBRION">    -1</i>
   <i type="int" name="ISIF">     2</i>
   <i name="PSTRESS">      0.00000000</i>
   <i name="EDIFFG">      0.00001000</i>
   <i type="int" name="NFREE">     0</i>
   <i name="POTIM">      0.50000000</i>
   <i name="SMASS">     -3.00000000</i>
   <i name="SCALEE">      1.00000000</i>
  </separator>
  <separator name="ionic md" >
   <i name="TEBEG">      0.00010000</i>
   <i name="TEEND">      0.00010000</i>
   <i type="int" name="NBLOCK">     1</i>
   <i type="int" name="KBLOCK">     1</i>
   <i type="int" name="NPACO">   256</i>
   <i name="APACO">     16.00000000</i>
  </separator>
  <separator name="symmetry" >
   <i type="int" name="ISYM">     0</i>
   <i name="SYMPREC">      0.00001000</i>
  </separator>
  <separator name="dos" >
   <i type="logical" name="LORBIT"> F  </i>
   <v name="RWIGS">     -1.00000000     -1.00000000</v>
   <i type="int" name="NEDOS">   301</i>
   <i name="EMIN">     10.00000000</i>
   <i name="EMAX">    -10.00000000</i>
   <i name="EFERMI">      0.00000000</i>
  </separator>
  <separator name="writing" >
   <i type="int" name="NWRITE">     2</i>
   <i type="logical" name="LWAVE"> F  </i>
   <i type="logical" name="LCHARG"> F  </i>
   <i type="logical" name="LPARD"> F  </i>
   <i type="logical" name="LVTOT"> F  </i>
   <i type="logical" name="LVHAR"> F  </i>
   <i type="logical" name="LELF"> F  </i>
   <i type="logical" name="LOPTICS"> F  </i>
   <v name="STM">      0.00000000      0.00000000      0.00000000      0.00000000      0.00000000      0.00000000      0.00000000</v>
  </separator>
  <separator name="performance" >
   <i type="int" name="NPAR">     4</i>
   <i type="int" name="NSIM">     4</i>
   <i type="int" name="NBLK">    -1</i>
   <i type="logical" name="LPLANE"> T  </i>
   <i type="logical" name="LSCALAPACK"> T  </i>
   <i type="logical" name="LSCAAWARE"> F  </i>
   <i type="logical" name="LSCALU"> F  </i>
   <i type="logical" name="LASYNC"> F  </i>
   <i type="logical" name="LORBITALREAL"> F  </i>
  </separator>
  <separator name="miscellaneous" >
   <i type="int" name="IDIOT">     3</i>
   <i type="logical" name="LMUSIC"> F  </i>
   <v name="POMASS">     12.01100000      7.01000000</v>
   <v name="DARWINR">      0.00000000      0.00000000</v>
   <v name="DARWINV">      1.00000000      1.00000000</v>
   <i type="logical" name="LCORR"> T  </i>
  </separator>
  <i type="logical" name="GGA_COMPAT"> T  </i>
  <i type="logical" name="LBERRY"> F  </i>
  <i type="int" name="ICORELEVEL">     0</i>
  <i type="logical" name="LDAU"> F  </i>
  <i type="int" name="I_CONSTRAINED_M">     0</i>
  <separator name="electronic exchange-correlation" >
   <i type="string" name="GGA">--</i>
   <i type="int" name="VOSKOWN">     0</i>
   <i type="logical" name="LHFCALC"> F  </i>
   <i type="string" name="PRECFOCK"></i>
   <i type="logical" name="LSYMGRAD"> F  </i>
   <i type="logical" name="LHFONE"> F  </i>
   <i type="logical" name="LRHFCALC"> F  </i>
   <i type="logical" name="LTHOMAS"> F  </i>
   <i type="logical" name="LMODELHF"> F  </i>
   <i name="ENCUT4O">     -1.00000000</i>
   <i type="int" name="EXXOEP">     0</i>
   <i type="int" name="FOURORBIT">     0</i>
   <i name="AEXX">      0.00000000</i>
   <i name="HFALPHA">      0.00000000</i>
   <i name="MCALPHA">      0.00000000</i>
   <i name="ALDAX">      1.00000000</i>
   <i name="AGGAX">      1.00000000</i>
   <i name="ALDAC">      1.00000000</i>
   <i name="AGGAC">      1.00000000</i>
   <i type="int" name="NKREDX">     1</i>
   <i type="int" name="NKREDY">     1</i>
   <i type="int" name="NKREDZ">     1</i>
   <i type="logical" name="SHIFTRED"> F  </i>
   <i type="logical" name="ODDONLY"> F  </i>
   <i type="logical" name="EVENONLY"> F  </i>
   <i type="int" name="LMAXFOCK">     0</i>
   <i type="int" name="NMAXFOCKAE">     0</i>
   <i type="logical" name="LFOCKAEDFT"> F  </i>
   <i name="HFSCREEN">      0.00000000</i>
   <i name="HFSCREENC">      0.00000000</i>
   <i type="int" name="NBANDSGWLOW">     0</i>
  </separator>
  <separator name="vdW DFT" >
   <i type="logical" name="LUSE_VDW"> F  </i>
   <i name="Zab_VDW">     -0.84910000</i>
   <i name="PARAM1">      0.12340000</i>
   <i name="PARAM2">      1.00000000</i>
   <i name="PARAM3">      0.00000000</i>
  </separator>
  <separator name="model GW" >
   <i type="int" name="MODEL_GW">     0</i>
   <i name="MODEL_EPS0">     46.24270000</i>
   <i name="MODEL_ALPHA">      1.00000000</i>
  </separator>
  <separator name="linear response parameters" >
   <i type="logical" name="LEPSILON"> F  </i>
   <i type="logical" name="LRPA"> F  </i>
   <i type="logical" name="LNABLA"> F  </i>
   <i type="logical" name="LVEL"> F  </i>
   <i type="int" name="KINTER">     0</i>
   <i name="CSHIFT">      0.10000000</i>
   <i name="OMEGAMAX">     -1.00000000</i>
   <i name="DEG_THRESHOLD">      0.00200000</i>
  </separator>
  <separator name="orbital magnetization" >
   <i type="logical" name="NUCIND"> F  </i>
   <v name="MAGPOS">      0.00000000      0.00000000      0.00000000</v>
   <i type="logical" name="LNICSALL"> T  </i>
   <i type="logical" name="ORBITALMAG"> F  </i>
   <i type="logical" name="LMAGBLOCH"> F  </i>
   <i type="logical" name="LCHIMAG"> F  </i>
   <i type="logical" name="LGAUGE"> T  </i>
   <i type="int" name="MAGATOM">     0</i>
   <v name="MAGDIPOL">      0.00000000      0.00000000      0.00000000</v>
   <v name="AVECCONST">      0.00000000      0.00000000      0.00000000</v>
  </separator>
  <separator name="response functions" >
   <i type="logical" name="LADDER"> F  </i>
   <i type="logical" name="LFXC"> F  </i>
   <i type="logical" name="LHARTREE"> T  </i>
   <i type="int" name="IBSE">     0</i>
   <v type="int" name="KPOINT">    -1     0     0     0</v>
   <i type="logical" name="LTCTE"> F  </i>
   <i type="logical" name="LTETE"> F  </i>
   <i type="logical" name="LTRIPLET"> F  </i>
   <i type="logical" name="LFXCEPS"> F  </i>
   <i type="logical" name="LFXHEG"> F  </i>
   <i type="int" name="NATURALO">     0</i>
   <i type="logical" name="L2ORDER"> F  </i>
   <i type="logical" name="LUSEW"> F  </i>
   <i name="ENCUTGW">     -2.00000000</i>
   <i name="ENCUTGWSOFT">     -2.00000000</i>
   <i name="ENCUTLF">     -1.00000000</i>
   <i type="int" name="LMAXMP2">    -1</i>
   <i name="SCISSOR">      0.00000000</i>
   <i type="int" name="NOMEGA">     0</i>
   <i type="int" name="NOMEGAR">     0</i>
   <i type="int" name="NBANDSGW">    -1</i>
   <i type="int" name="NBANDSO">    -1</i>
   <i type="int" name="NBANDSV">    -1</i>
   <i type="int" name="NELM">   120</i>
   <i type="int" name="NELMHF">     1</i>
   <i type="int" name="DIM">     3</i>
   <i type="int" name="ANTIRES">     0</i>
   <i name="OMEGAMAX">    -30.00000000</i>
   <i name="OMEGAMIN">    -30.00000000</i>
   <i name="OMEGATL">   -200.00000000</i>
   <i type="int" name="OMEGAGRID">     0</i>
   <i name="CSHIFT">     -0.10000000</i>
   <i type="logical" name="SELFENERGY"> F  </i>
   <i type="logical" name="LSPECTRAL"> F  </i>
   <i type="logical" name="LSPECTRALGW"> F  </i>
   <i type="logical" name="LSINGLES"> F  </i>
   <i type="logical" name="LFERMIGW"> F  </i>
   <i type="logical" name="ODDONLYGW"> F  </i>
   <i type="logical" name="EVENONLYGW"> F  </i>
   <i type="int" name="NKREDLFX">     1</i>
   <i type="int" name="NKREDLFY">     1</i>
   <i type="int" name="NKREDLFZ">     1</i>
   <i type="int" name="MAXMEM">  1800</i>
   <i type="int" name="TELESCOPE">     0</i>
   <i type="int" name="TAUPAR">     1</i>
   <i type="int" name="OMEGAPAR">    -1</i>
   <i name="LAMBDA">      1.00000000</i>
  </separator>
  <separator name="External order field" >
   <i name="OFIELD_KAPPA">      0.00000000</i>
   <v name="OFIELD_K">      0.00000000      0.00000000      0.00000000</v>
   <i name="OFIELD_Q6_NEAR">      0.00000000</i>
   <i name="OFIELD_Q6_FAR">      0.00000000</i>
   <i name="OFIELD_A">      0.00000000</i>
  </separator>
 </parameters>
 <atominfo>
  <atoms>      51 </atoms>
  <types>       2 </types>
  <array name="atoms" >
   <dimension dim="1">ion</dimension>
   <field type="string">element</field>
   <field type="int">atomtype</field>
   <set>
    <rc><c>C </c><c>   1</c></rc>
    <rc><c>C </c><c>   1</c></rc>
    <rc><c>C </c><c>   1</c></rc>
    <rc><c>C </c><c>   1</c></rc>
    <rc><c>C </c><c>   1</c></rc>
    <rc><c>C </c><c>   1</c></rc>
    <rc><c>C </c><c>   1</c></rc>
    <rc><c>C </c><c>   1</c></rc>
    <rc><c>C </c><c>   1</c></rc>
    <rc><c>C </c><c>   1</c></rc>
    <rc><c>C </c><c>   1</c></rc>
    <rc><c>C </c><c>   1</c></rc>
    <rc><c>C </c><c>   1</c></rc>
    <rc><c>C </c><c>   1</c></rc>
    <rc><c>C </c><c>   1</c></rc>
    <rc><c>C </c><c>   1</c></rc>
    <rc><c>C </c><c>   1</c></rc>
    <rc><c>C </c><c>   1</c></rc>
    <rc><c>C </c><c>   1</c></rc>
    <rc><c>C </c><c>   1</c></rc>
    <rc><c>C </c><c>   1</c></rc>
    <rc><c>C </c><c>   1</c></rc>
    <rc><c>C </c><c>   1</c></rc>
    <rc><c>C </c><c>   1</c></rc>
    <rc><c>C </c><c>   1</c></rc>
    <rc><c>C </c><c>   1</c></rc>
    <rc><c>C </c><c>   1</c></rc>
    <rc><c>C </c><c>   1</c></rc>
    <rc><c>C </c><c>   1</c></rc>
    <rc><c>C </c><c>   1</c></rc>
    <rc><c>C </c><c>   1</c></rc>
    <rc><c>C </c><c>   1</c></rc>
    <rc><c>C </c><c>   1</c></rc>
    <rc><c>C </c><c>   1</c></rc>
    <rc><c>C </c><c>   1</c></rc>
    <rc><c>C </c><c>   1</c></rc>
    <rc><c>C </c><c>   1</c></rc>
    <rc><c>C </c><c>   1</c></rc>
    <rc><c>C </c><c>   1</c></rc>
    <rc><c>C </c><c>   1</c></rc>
    <rc><c>C </c><c>   1</c></rc>
    <rc><c>C </c><c>   1</c></rc>
    <rc><c>C </c><c>   1</c></rc>
    <rc><c>C </c><c>   1</c></rc>
    <rc><c>C </c><c>   1</c></rc>
    <rc><c>C </c><c>   1</c></rc>
    <rc><c>C </c><c>   1</c></rc>
    <rc><c>C </c><c>   1</c></rc>
    <rc><c>C </c><c>   1</c></rc>
    <rc><c>C </c><c>   1</c></rc>
    <rc><c>Li</c><c>   2</c></rc>
   </set>
  </array>
  <array name="atomtypes" >
   <dimension dim="1">type</dimension>
   <field type="int">atomspertype</field>
   <field type="string">element</field>
   <field>mass</field>
   <field>valence</field>
   <field type="string">pseudopotential</field>
   <set>
    <rc><c>  50</c><c>C </c><c>     12.01100000</c><c>      4.00000000</c><c>  PAW_PBE C 08Apr2002                   </c></rc>
    <rc><c>   1</c><c>Li</c><c>      7.01000000</c><c>      3.00000000</c><c>  PAW_PBE Li_sv 10Sep2004               </c></rc>
   </set>
  </array>
 </atominfo>
 <structure name="initialpos" >
  <crystal>
   <varray name="basis" >
    <v>      12.30000000       0.00000000       0.00000000 </v>
    <v>      -6.15000000      10.65211247       0.00000000 </v>
    <v>       0.00000000       0.00000000      30.00000000 </v>
   </varray>
   <i name="volume">   3930.62950016 </i>
   <varray name="rec_basis" >
    <v>       0.08130081       0.04693905       0.00000000 </v>
    <v>       0.00000000       0.09387809       0.00000000 </v>
    <v>       0.00000000       0.00000000       0.03333333 </v>
   </varray>
  </crystal>
  <varray name="positions" >
   <v>       0.99824632       0.00451485       0.50456974 </v>
   <v>       0.13064214       0.06937547       0.51014723 </v>
   <v>       0.99450334       0.20543693       0.49533941 </v>
   <v>       0.12874344       0.26897822       0.49821997 </v>
   <v>       0.99549924       0.40924387       0.48997498 </v>
   <v>       0.13111623       0.47011518       0.49608251 </v>
   <v>       0.01694627       0.61707021       0.50086202 </v>
   <v>       0.14368459       0.67346735       0.50906859 </v>
   <v>       0.00680056       0.81035110       0.50906906 </v>
   <v>       0.13634663       0.87093284       0.51710703 </v>
   <v>       0.19769422       0.00223603       0.51731135 </v>
   <v>       0.51663516       0.24987308       0.50229483 </v>
   <v>       0.40218667       0.39650253       0.49661258 </v>
   <v>       0.32847798       0.26460571       0.50429262 </v>
   <v>       0.19857260       0.40161433       0.49668863 </v>
   <v>       0.33464895       0.46494607       0.49678961 </v>
   <v>       0.20488481       0.60214560       0.50352156 </v>
   <v>       0.33784857       0.66491353       0.50456968 </v>
   <v>       0.20426646       0.80301336       0.51710687 </v>
   <v>       0.33556953       0.86436090       0.51731135 </v>
   <v>       0.39697042       0.99568090       0.51793013 </v>
   <v>       0.52677657       0.05640753       0.51029899 </v>
   <v>       0.38974075       0.19344334       0.51029902 </v>
   <v>       0.32901416       0.06363699       0.51793012 </v>
   <v>       0.19546749       0.20182835       0.50490773 </v>
   <v>       0.53776641       0.45732263       0.49044788 </v>
   <v>       0.60231162       0.79541019       0.49821990 </v>
   <v>       0.53877040       0.66117011       0.49533946 </v>
   <v>       0.40270914       0.79730880       0.51014714 </v>
   <v>       0.53516185       0.86213429       0.50490773 </v>
   <v>       0.59793910       0.99514473       0.50429256 </v>
   <v>       0.72983580       0.06885333       0.49661244 </v>
   <v>       0.58320626       0.18330190       0.50229480 </v>
   <v>       0.70782687       0.25920486       0.48900840 </v>
   <v>       0.59253813       0.37449369       0.48900842 </v>
   <v>       0.71088039       0.37754721       0.47886008 </v>
   <v>       0.60677497       0.59312172       0.48985965 </v>
   <v>       0.93547874       0.87155144       0.50352185 </v>
   <v>       0.40452511       0.59760148       0.49815080 </v>
   <v>       0.73494768       0.86523935       0.49668863 </v>
   <v>       0.79827934       0.00131561       0.49678948 </v>
   <v>       0.93093470       0.07119166       0.49815081 </v>
   <v>       0.79065586       0.20443305       0.49044784 </v>
   <v>       0.92645497       0.27344147       0.48985966 </v>
   <v>       0.82194826       0.48861487       0.47841955 </v>
   <v>       0.94070656       0.49201793       0.48816656 </v>
   <v>       0.82535155       0.60737341       0.48816659 </v>
   <v>       0.95040365       0.68361294       0.50086218 </v>
   <v>       0.80344850       0.79778282       0.49608286 </v>
   <v>       0.74257744       0.66216589       0.48997508 </v>
   <v>       0.80543570       0.44646790       0.55691839 </v>
  </varray>
 </structure>
 <calculation>
  <scstep>
   <time name="dav">   45.51   45.51</time>
   <time name="total">   48.33   48.33</time>
   <energy>
    <i name="alphaZ">     53.42782116 </i>
    <i name="ewald">  56422.07221824 </i>
    <i name="hartreedc"> -61690.07669121 </i>
    <i name="XCdc">    670.79331604 </i>
    <i name="pawpsdc">   5505.55773403 </i>
    <i name="pawaedc">  -5549.36347127 </i>
    <i name="eentropy">     -0.02715842 </i>
    <i name="bandstr">  -1028.55387719 </i>
    <i name="atom">   7560.21751256 </i>
    <i name="e_fr_energy">   1944.04740393 </i>
    <i name="e_wo_entrp">   1944.07456235 </i>
    <i name="e_0_energy">   1944.06098314 </i>
   </energy>
  </scstep>
  <scstep>
   <time name="dav">   54.79   54.80</time>
   <time name="total">   54.79   54.80</time>
   <energy>
    <i name="e_fr_energy">     42.41286792 </i>
    <i name="e_wo_entrp">     42.41602247 </i>
    <i name="e_0_energy">     42.41444519 </i>
   </energy>
  </scstep>
  <scstep>
   <time name="dav">   48.02   48.02</time>
   <time name="total">   48.02   48.03</time>
   <energy>
    <i name="e_fr_energy">   -462.64089808 </i>
    <i name="e_wo_entrp">   -462.63513842 </i>
    <i name="e_0_energy">   -462.63801825 </i>
   </energy>
  </scstep>
  <scstep>
   <time name="dav">   47.17   47.17</time>
   <time name="total">   47.17   47.18</time>
   <energy>
    <i name="e_fr_energy">   -489.62544988 </i>
    <i name="e_wo_entrp">   -489.62060699 </i>
    <i name="e_0_energy">   -489.62302844 </i>
   </energy>
  </scstep>
  <scstep>
   <time name="dav">   49.90   49.90</time>
   <time name="total">   54.32   54.33</time>
   <energy>
    <i name="e_fr_energy">   -490.53454435 </i>
    <i name="e_wo_entrp">   -490.52998700 </i>
    <i name="e_0_energy">   -490.53226568 </i>
   </energy>
  </scstep>
  <scstep>
   <time name="dav">   43.02   43.03</time>
   <time name="total">   49.94   49.95</time>
   <energy>
    <i name="e_fr_energy">   -465.43449868 </i>
    <i name="e_wo_entrp">   -465.42994703 </i>
    <i name="e_0_energy">   -465.43222285 </i>
   </energy>
  </scstep>
  <scstep>
   <time name="dav">   43.31   43.31</time>
   <time name="total">   50.17   50.18</time>
   <energy>
    <i name="e_fr_energy">   -453.37720813 </i>
    <i name="e_wo_entrp">   -453.37144646 </i>
    <i name="e_0_energy">   -453.37432729 </i>
   </energy>
  </scstep>
  <scstep>
   <time name="dav">   43.57   43.57</time>
   <time name="total">   50.42   50.42</time>
   <energy>
    <i name="e_fr_energy">   -452.75946636 </i>
    <i name="e_wo_entrp">   -452.75384150 </i>
    <i name="e_0_energy">   -452.75665393 </i>
   </energy>
  </scstep>
  <scstep>
   <time name="dav">   47.83   47.83</time>
   <time name="total">   54.58   54.59</time>
   <energy>
    <i name="e_fr_energy">   -453.80401904 </i>
    <i name="e_wo_entrp">   -453.79847699 </i>
    <i name="e_0_energy">   -453.80124801 </i>
   </energy>
  </scstep>
  <scstep>
   <time name="dav">   40.98   40.99</time>
   <time name="total">   47.80   47.81</time>
   <energy>
    <i name="e_fr_energy">   -454.14690437 </i>
    <i name="e_wo_entrp">   -454.14149137 </i>
    <i name="e_0_energy">   -454.14419787 </i>
   </energy>
  </scstep>
  <scstep>
   <time name="dav">   46.16   46.17</time>
   <time name="total">   52.97   52.98</time>
   <energy>
    <i name="e_fr_energy">   -454.45262878 </i>
    <i name="e_wo_entrp">   -454.44730037 </i>
    <i name="e_0_energy">   -454.44996458 </i>
   </energy>
  </scstep>
  <scstep>
   <time name="dav">   41.14   41.14</time>
   <time name="total">   47.98   47.99</time>
   <energy>
    <i name="e_fr_energy">   -455.17500142 </i>
    <i name="e_wo_entrp">   -455.16973810 </i>
    <i name="e_0_energy">   -455.17236976 </i>
   </energy>
  </scstep>
  <scstep>
   <time name="dav">   40.60   40.60</time>
   <time name="total">   47.44   47.45</time>
   <energy>
    <i name="e_fr_energy">   -455.17173031 </i>
    <i name="e_wo_entrp">   -455.16625765 </i>
    <i name="e_0_energy">   -455.16899398 </i>
   </energy>
  </scstep>
  <scstep>
   <time name="dav">   41.71   41.72</time>
   <time name="total">   48.61   48.62</time>
   <energy>
    <i name="e_fr_energy">   -455.79053942 </i>
    <i name="e_wo_entrp">   -455.78482130 </i>
    <i name="e_0_energy">   -455.78768036 </i>
   </energy>
  </scstep>
  <scstep>
   <time name="dav">   42.24   42.24</time>
   <time name="total">   49.10   49.11</time>
   <energy>
    <i name="e_fr_energy">   -456.49497578 </i>
    <i name="e_wo_entrp">   -456.48896181 </i>
    <i name="e_0_energy">   -456.49196879 </i>
   </energy>
  </scstep>
  <scstep>
   <time name="dav">   42.83   42.84</time>
   <time name="total">   49.66   49.66</time>
   <energy>
    <i name="e_fr_energy">   -456.89665500 </i>
    <i name="e_wo_entrp">   -456.89044365 </i>
    <i name="e_0_energy">   -456.89354933 </i>
   </energy>
  </scstep>
  <scstep>
   <time name="dav">   41.89   41.90</time>
   <time name="total">   48.67   48.68</time>
   <energy>
    <i name="e_fr_energy">   -457.23092185 </i>
    <i name="e_wo_entrp">   -457.22453593 </i>
    <i name="e_0_energy">   -457.22772889 </i>
   </energy>
  </scstep>
  <scstep>
   <time name="dav">   42.24   42.24</time>
   <time name="total">   49.14   49.15</time>
   <energy>
    <i name="e_fr_energy">   -457.34503688 </i>
    <i name="e_wo_entrp">   -457.33852834 </i>
    <i name="e_0_energy">   -457.34178261 </i>
   </energy>
  </scstep>
  <scstep>
   <time name="dav">   43.23   43.24</time>
   <time name="total">   50.14   50.15</time>
   <energy>
    <i name="e_fr_energy">   -457.38525158 </i>
    <i name="e_wo_entrp">   -457.37866097 </i>
    <i name="e_0_energy">   -457.38195627 </i>
   </energy>
  </scstep>
  <scstep>
   <time name="dav">   42.71   42.72</time>
   <time name="total">   49.60   49.60</time>
   <energy>
    <i name="e_fr_energy">   -457.39985871 </i>
    <i name="e_wo_entrp">   -457.39317742 </i>
    <i name="e_0_energy">   -457.39651807 </i>
   </energy>
  </scstep>
  <scstep>
   <time name="dav">   42.37   42.38</time>
   <time name="total">   49.23   49.24</time>
   <energy>
    <i name="e_fr_energy">   -457.41575420 </i>
    <i name="e_wo_entrp">   -457.40901627 </i>
    <i name="e_0_energy">   -457.41238523 </i>
   </energy>
  </scstep>
  <scstep>
   <time name="dav">   42.10   42.10</time>
   <time name="total">   48.99   49.00</time>
   <energy>
    <i name="e_fr_energy">   -457.44416593 </i>
    <i name="e_wo_entrp">   -457.43738962 </i>
    <i name="e_0_energy">   -457.44077777 </i>
   </energy>
  </scstep>
  <scstep>
   <time name="dav">   41.86   41.87</time>
   <time name="total">   48.73   48.74</time>
   <energy>
    <i name="e_fr_energy">   -457.45833164 </i>
    <i name="e_wo_entrp">   -457.45153918 </i>
    <i name="e_0_energy">   -457.45493541 </i>
   </energy>
  </scstep>
  <scstep>
   <time name="dav">   38.46   38.46</time>
   <time name="total">   45.40   45.41</time>
   <energy>
    <i name="e_fr_energy">   -457.46260226 </i>
    <i name="e_wo_entrp">   -457.45580898 </i>
    <i name="e_0_energy">   -457.45920562 </i>
   </energy>
  </scstep>
  <scstep>
   <time name="dav">   37.16   37.17</time>
   <time name="total">   44.04   44.05</time>
   <energy>
    <i name="e_fr_energy">   -457.46477400 </i>
    <i name="e_wo_entrp">   -457.45798418 </i>
    <i name="e_0_energy">   -457.46137909 </i>
   </energy>
  </scstep>
  <scstep>
   <time name="dav">   36.90   36.90</time>
   <time name="total">   43.81   43.81</time>
   <energy>
    <i name="e_fr_energy">   -457.46565633 </i>
    <i name="e_wo_entrp">   -457.45887098 </i>
    <i name="e_0_energy">   -457.46226366 </i>
   </energy>
  </scstep>
  <scstep>
   <time name="dav">   35.82   35.82</time>
   <time name="total">   42.69   42.70</time>
   <energy>
    <i name="e_fr_energy">   -457.46605579 </i>
    <i name="e_wo_entrp">   -457.45927519 </i>
    <i name="e_0_energy">   -457.46266549 </i>
   </energy>
  </scstep>
  <scstep>
   <time name="dav">   34.74   34.74</time>
   <time name="total">   41.64   41.65</time>
   <energy>
    <i name="e_fr_energy">   -457.46628672 </i>
    <i name="e_wo_entrp">   -457.45950912 </i>
    <i name="e_0_energy">   -457.46289792 </i>
   </energy>
  </scstep>
  <scstep>
   <time name="dav">   32.47   32.47</time>
   <time name="total">   39.32   39.33</time>
   <energy>
    <i name="e_fr_energy">   -457.46639883 </i>
    <i name="e_wo_entrp">   -457.45962245 </i>
    <i name="e_0_energy">   -457.46301064 </i>
   </energy>
  </scstep>
  <scstep>
   <time name="dav">   32.17   32.17</time>
   <time name="total">   39.05   39.06</time>
   <energy>
    <i name="e_fr_energy">   -457.46647324 </i>
    <i name="e_wo_entrp">   -457.45969800 </i>
    <i name="e_0_energy">   -457.46308562 </i>
   </energy>
  </scstep>
  <scstep>
   <time name="dav">   32.09   32.09</time>
   <time name="total">   38.98   38.99</time>
   <energy>
    <i name="e_fr_energy">   -457.46651265 </i>
    <i name="e_wo_entrp">   -457.45973819 </i>
    <i name="e_0_energy">   -457.46312542 </i>
   </energy>
  </scstep>
  <scstep>
   <time name="dav">   31.90   31.90</time>
   <time name="total">   38.83   38.83</time>
   <energy>
    <i name="e_fr_energy">   -457.46653064 </i>
    <i name="e_wo_entrp">   -457.45975654 </i>
    <i name="e_0_energy">   -457.46314359 </i>
   </energy>
  </scstep>
  <scstep>
   <time name="dav">   31.90   31.91</time>
   <time name="total">   38.84   38.84</time>
   <energy>
    <i name="e_fr_energy">   -457.46653771 </i>
    <i name="e_wo_entrp">   -457.45976365 </i>
    <i name="e_0_energy">   -457.46315068 </i>
   </energy>
  </scstep>
  <scstep>
   <time name="dav">   31.64   31.64</time>
   <time name="total">   38.53   38.53</time>
   <energy>
    <i name="e_fr_energy">   -457.46654007 </i>
    <i name="e_wo_entrp">   -457.45976604 </i>
    <i name="e_0_energy">   -457.46315306 </i>
   </energy>
  </scstep>
  <scstep>
   <time name="dav">   30.95   30.95</time>
   <time name="total">   37.87   37.88</time>
   <energy>
    <i name="e_fr_energy">   -457.46654113 </i>
    <i name="e_wo_entrp">   -457.45976718 </i>
    <i name="e_0_energy">   -457.46315415 </i>
   </energy>
  </scstep>
  <scstep>
   <time name="dav">   30.41   30.41</time>
   <time name="total">   33.15   33.16</time>
   <energy>
    <i name="alphaZ">     53.42782116 </i>
    <i name="ewald">  56422.07221824 </i>
    <i name="hartreedc"> -62660.39899984 </i>
    <i name="XCdc">    700.32378343 </i>
    <i name="pawpsdc">  20707.27337876 </i>
    <i name="pawaedc"> -20757.50468386 </i>
    <i name="eentropy">     -0.00677390 </i>
    <i name="bandstr">  -2482.87079818 </i>
    <i name="atom">   7560.21751256 </i>
    <i name="e_fr_energy">   -457.46654164 </i>
    <i name="e_wo_entrp">   -457.45976774 </i>
    <i name="e_0_energy">   -457.46315469 </i>
   </energy>
  </scstep>
  <structure>
   <crystal>
    <varray name="basis" >
     <v>      12.30000000       0.00000000       0.00000000 </v>
     <v>      -6.15000000      10.65211247       0.00000000 </v>
     <v>       0.00000000       0.00000000      30.00000000 </v>
    </varray>
    <i name="volume">   3930.62950016 </i>
    <varray name="rec_basis" >
     <v>       0.08130081       0.04693905       0.00000000 </v>
     <v>       0.00000000       0.09387809       0.00000000 </v>
     <v>       0.00000000       0.00000000       0.03333333 </v>
    </varray>
   </crystal>
   <varray name="positions" >
    <v>       0.99824632       0.00451485       0.50456974 </v>
    <v>       0.13064214       0.06937547       0.51014723 </v>
    <v>       0.99450334       0.20543693       0.49533941 </v>
    <v>       0.12874344       0.26897822       0.49821997 </v>
    <v>       0.99549924       0.40924387       0.48997498 </v>
    <v>       0.13111623       0.47011518       0.49608251 </v>
    <v>       0.01694627       0.61707021       0.50086202 </v>
    <v>       0.14368459       0.67346735       0.50906859 </v>
    <v>       0.00680056       0.81035110       0.50906906 </v>
    <v>       0.13634663       0.87093284       0.51710703 </v>
    <v>       0.19769422       0.00223603       0.51731135 </v>
    <v>       0.51663516       0.24987308       0.50229483 </v>
    <v>       0.40218667       0.39650253       0.49661258 </v>
    <v>       0.32847798       0.26460571       0.50429262 </v>
    <v>       0.19857260       0.40161433       0.49668863 </v>
    <v>       0.33464895       0.46494607       0.49678961 </v>
    <v>       0.20488481       0.60214560       0.50352156 </v>
    <v>       0.33784857       0.66491353       0.50456968 </v>
    <v>       0.20426646       0.80301336       0.51710687 </v>
    <v>       0.33556953       0.86436090       0.51731135 </v>
    <v>       0.39697042       0.99568090       0.51793013 </v>
    <v>       0.52677657       0.05640753       0.51029899 </v>
    <v>       0.38974075       0.19344334       0.51029902 </v>
    <v>       0.32901416       0.06363699       0.51793012 </v>
    <v>       0.19546749       0.20182835       0.50490773 </v>
    <v>       0.53776641       0.45732263       0.49044788 </v>
    <v>       0.60231162       0.79541019       0.49821990 </v>
    <v>       0.53877040       0.66117011       0.49533946 </v>
    <v>       0.40270914       0.79730880       0.51014714 </v>
    <v>       0.53516185       0.86213429       0.50490773 </v>
    <v>       0.59793910       0.99514473       0.50429256 </v>
    <v>       0.72983580       0.06885333       0.49661244 </v>
    <v>       0.58320626       0.18330190       0.50229480 </v>
    <v>       0.70782687       0.25920486       0.48900840 </v>
    <v>       0.59253813       0.37449369       0.48900842 </v>
    <v>       0.71088039       0.37754721       0.47886008 </v>
    <v>       0.60677497       0.59312172       0.48985965 </v>
    <v>       0.93547874       0.87155144       0.50352185 </v>
    <v>       0.40452511       0.59760148       0.49815080 </v>
    <v>       0.73494768       0.86523935       0.49668863 </v>
    <v>       0.79827934       0.00131561       0.49678948 </v>
    <v>       0.93093470       0.07119166       0.49815081 </v>
    <v>       0.79065586       0.20443305       0.49044784 </v>
    <v>       0.92645497       0.27344147       0.48985966 </v>
    <v>       0.82194826       0.48861487       0.47841955 </v>
    <v>       0.94070656       0.49201793       0.48816656 </v>
    <v>       0.82535155       0.60737341       0.48816659 </v>
    <v>       0.95040365       0.68361294       0.50086218 </v>
    <v>       0.80344850       0.79778282       0.49608286 </v>
    <v>       0.74257744       0.66216589       0.48997508 </v>
    <v>       0.80543570       0.44646790       0.55691839 </v>
   </varray>
  </structure>
  <varray name="forces" >
   <v>      -0.01411495       0.01971400       0.00619576 </v>
   <v>      -0.01030949      -0.01252234       0.00708923 </v>
   <v>       0.00548681      -0.00899213      -0.01059971 </v>
   <v>       0.01679307      -0.01574826       0.00937414 </v>
   <v>       0.05101667      -0.03934950       0.01179653 </v>
   <v>       0.01622821      -0.00005291       0.00351336 </v>
   <v>      -0.00068589       0.02722354       0.11545443 </v>
   <v>       0.06822148       0.04482552       0.02264326 </v>
   <v>      -0.00184296       0.07756491       0.02355341 </v>
   <v>      -0.00560491      -0.00576207      -0.00403972 </v>
   <v>      -0.00749305       0.00720719       0.00759712 </v>
   <v>       0.00941403       0.10110465      -0.06150133 </v>
   <v>      -0.02853578      -0.00371783       0.00745313 </v>
   <v>       0.00357940       0.01205349       0.00897353 </v>
   <v>       0.00442955       0.01680137      -0.00575599 </v>
   <v>       0.01192952      -0.01725094      -0.00731104 </v>
   <v>       0.00145911       0.01988625      -0.00531383 </v>
   <v>       0.02044748      -0.01012879       0.00628082 </v>
   <v>      -0.00991993      -0.00103610      -0.00094050 </v>
   <v>       0.01319278      -0.00322444       0.00594325 </v>
   <v>      -0.02112808      -0.00662747       0.00549490 </v>
   <v>       0.00875360       0.02848180      -0.00111656 </v>
   <v>       0.01421018       0.01986446       0.00327797 </v>
   <v>       0.00007985      -0.01482149       0.00355063 </v>
   <v>      -0.00823889      -0.00119655       0.00543483 </v>
   <v>       0.12023516      -0.08720963       0.00023336 </v>
   <v>      -0.01701191       0.00489138       0.00921445 </v>
   <v>      -0.00761119      -0.00237503      -0.01082101 </v>
   <v>      -0.00976439      -0.01072456       0.00745087 </v>
   <v>       0.00738621      -0.00330358       0.00491889 </v>
   <v>       0.00304741      -0.00282051       0.00503208 </v>
   <v>       0.01983457      -0.02164506       0.00591346 </v>
   <v>       0.02682781       0.02563366      -0.00723896 </v>
   <v>       0.03666029      -0.04685681      -0.01801937 </v>
   <v>      -0.08763584      -0.05923327      -0.11742734 </v>
   <v>       0.02865496       0.16464589       0.63083702 </v>
   <v>       0.01745861      -0.00500597      -0.00849628 </v>
   <v>       0.01498545      -0.00657466       0.00255543 </v>
   <v>      -0.02427206       0.01578790       0.00889635 </v>
   <v>       0.01614303       0.01050325      -0.00705940 </v>
   <v>      -0.01910037      -0.00380007      -0.00665572 </v>
   <v>       0.03159990      -0.01584865       0.00963081 </v>
   <v>      -0.09379842       0.01058085      -0.00782950 </v>
   <v>       0.01971744      -0.00458278      -0.00895117 </v>
   <v>      -0.17572267      -0.15842232       0.45391611 </v>
   <v>      -0.03955054      -0.07900598       0.04271818 </v>
   <v>       0.00868616       0.00362981      -0.05695264 </v>
   <v>      -0.06182017      -0.02737242       0.03577567 </v>
   <v>       0.00306130       0.00700821       0.00173093 </v>
   <v>       0.02130102      -0.02567101       0.01563077 </v>
   <v>       0.02332041       0.08347501      -1.14205064 </v>
  </varray>
  <varray name="stress" >
   <v>      -7.59426399      15.05692677       0.05011590 </v>
   <v>      15.05692676       9.77465784       0.11553408 </v>
   <v>       0.05011591       0.11553408      -1.17382299 </v>
  </varray>
  <energy>
   <i name="e_fr_energy">   -457.46654164 </i>
   <i name="e_wo_entrp">   -457.46315469 </i>
   <i name="e_0_energy">     -0.00677390 </i>
  </energy>
  <time name="totalsc"> 1746.43 1746.70</time>
  <eigenvalues>
   <array>
    <dimension dim="1">band</dimension>
    <dimension dim="2">kpoint</dimension>
    <dimension dim="3">spin</dimension>
    <field>eigene</field>
    <field>occ</field>
    <set>
     <set comment="spin 1">
      <set comment="kpoint 1">
       <r>  -52.5534    1.0000 </r>
       <r>  -22.3647    1.0000 </r>
       <r>  -21.7487    1.0000 </r>
       <r>  -21.5432    1.0000 </r>
       <r>  -21.3343    1.0000 </r>
       <r>  -21.3107    1.0000 </r>
       <r>  -21.2406    1.0000 </r>
       <r>  -21.0177    1.0000 </r>
       <r>  -19.9547    1.0000 </r>
       <r>  -19.5785    1.0000 </r>
       <r>  -19.5350    1.0000 </r>
       <r>  -19.4308    1.0000 </r>
       <r>  -19.3546    1.0000 </r>
       <r>  -19.2822    1.0000 </r>
       <r>  -18.7914    1.0000 </r>
       <r>  -18.6520    1.0000 </r>
       <r>  -18.6235    1.0000 </r>
       <r>  -18.5366    1.0000 </r>
       <r>  -18.4873    1.0000 </r>
       <r>  -18.1282    1.0000 </r>
       <r>  -16.6016    1.0000 </r>
       <r>  -16.5568    1.0000 </r>
       <r>  -16.4758    1.0000 </r>
       <r>  -16.3216    1.0000 </r>
       <r>  -16.2565    1.0000 </r>
       <r>  -16.2165    1.0000 </r>
       <r>  -16.0902    1.0000 </r>
       <r>  -15.5545    1.0000 </r>
       <r>  -15.4061    1.0000 </r>
       <r>  -15.3383    1.0000 </r>
       <r>  -15.1646    1.0000 </r>
       <r>  -14.9942    1.0000 </r>
       <r>  -14.3128    1.0000 </r>
       <r>  -14.2721    1.0000 </r>
       <r>  -14.0706    1.0000 </r>
       <r>  -14.0075    1.0000 </r>
       <r>  -13.9273    1.0000 </r>
       <r>  -13.3685    1.0000 </r>
       <r>  -12.1558    1.0000 </r>
       <r>  -11.9803    1.0000 </r>
       <r>  -11.8018    1.0000 </r>
       <r>  -11.7818    1.0000 </r>
       <r>  -11.7068    1.0000 </r>
       <r>  -11.6382    1.0000 </r>
       <r>  -11.6259    1.0000 </r>
       <r>  -11.6111    1.0000 </r>
       <r>  -11.4587    1.0000 </r>
       <r>  -11.4479    1.0000 </r>
       <r>  -11.1273    1.0000 </r>
       <r>  -11.0686    1.0000 </r>
       <r>  -10.6571    1.0000 </r>
       <r>  -10.4868    1.0000 </r>
       <r>  -10.4124    1.0000 </r>
       <r>  -10.2159    1.0000 </r>
       <r>  -10.1646    1.0000 </r>
       <r>  -10.1212    1.0000 </r>
       <r>   -9.8870    1.0000 </r>
       <r>   -9.6434    1.0000 </r>
       <r>   -9.5301    1.0000 </r>
       <r>   -9.3032    1.0000 </r>
       <r>   -9.2870    1.0000 </r>
       <r>   -9.2153    1.0000 </r>
       <r>   -9.1146    1.0000 </r>
       <r>   -9.0742    1.0000 </r>
       <r>   -9.0452    1.0000 </r>
       <r>   -9.0167    1.0000 </r>
       <r>   -9.0123    1.0000 </r>
       <r>   -8.9365    1.0000 </r>
       <r>   -8.8694    1.0000 </r>
       <r>   -8.8466    1.0000 </r>
       <r>   -8.7286    1.0000 </r>
       <r>   -8.6283    1.0000 </r>
       <r>   -8.6190    1.0000 </r>
       <r>   -8.6153    1.0000 </r>
       <r>   -7.9905    1.0000 </r>
       <r>   -7.4806    1.0000 </r>
       <r>   -7.4469    1.0000 </r>
       <r>   -7.3743    1.0000 </r>
       <r>   -7.3157    1.0000 </r>
       <r>   -7.2991    1.0000 </r>
       <r>   -7.2743    1.0000 </r>
       <r>   -7.2416    1.0000 </r>
       <r>   -7.1851    1.0000 </r>
       <r>   -7.0711    1.0000 </r>
       <r>   -6.9931    1.0000 </r>
       <r>   -6.9683    1.0000 </r>
       <r>   -6.9599    1.0000 </r>
       <r>   -6.3634    1.0000 </r>
       <r>   -6.3545    1.0000 </r>
       <r>   -6.2726    1.0000 </r>
       <r>   -6.2012    1.0000 </r>
       <r>   -6.1830    1.0000 </r>
       <r>   -6.1062    1.0000 </r>
       <r>   -5.9620    1.0000 </r>
       <r>   -5.6839    1.0000 </r>
       <r>   -4.3839    1.0000 </r>
       <r>   -4.2775    1.0000 </r>
       <r>   -4.2609    1.0000 </r>
       <r>   -4.2573    1.0000 </r>
       <r>   -4.1468    1.0000 </r>
       <r>   -3.9021    1.0000 </r>
       <r>   -2.7583    1.0000 </r>
       <r>   -1.7282    0.0000 </r>
       <r>   -1.6504    0.0000 </r>
       <r>   -1.5209    0.0000 </r>
       <r>   -1.3641    0.0000 </r>
       <r>   -1.3178    0.0000 </r>
       <r>   -0.9937    0.0000 </r>
       <r>   -0.5734    0.0000 </r>
       <r>    0.1498    0.0000 </r>
       <r>    0.2616    0.0000 </r>
       <r>    0.3316    0.0000 </r>
       <r>    0.3756    0.0000 </r>
       <r>    0.3860    0.0000 </r>
       <r>    0.4477    0.0000 </r>
       <r>    0.5005    0.0000 </r>
       <r>    0.7707    0.0000 </r>
       <r>    0.9598    0.0000 </r>
       <r>    1.0203    0.0000 </r>
       <r>    1.3535    0.0000 </r>
       <r>    1.4248    0.0000 </r>
       <r>    1.4293    0.0000 </r>
       <r>    1.5046    0.0000 </r>
       <r>    1.5321    0.0000 </r>
       <r>    1.6559    0.0000 </r>
       <r>    1.7112    0.0000 </r>
       <r>    1.7279    0.0000 </r>
       <r>    1.8387    0.0000 </r>
       <r>    1.9267    0.0000 </r>
       <r>    2.0632    0.0000 </r>
       <r>    2.0756    0.0000 </r>
       <r>    2.1273    0.0000 </r>
      </set>
      <set comment="kpoint 2">
       <r>  -52.5534    1.0000 </r>
       <r>  -22.2744    1.0000 </r>
       <r>  -22.0068    1.0000 </r>
       <r>  -21.6112    1.0000 </r>
       <r>  -21.4735    1.0000 </r>
       <r>  -21.1115    1.0000 </r>
       <r>  -20.8871    1.0000 </r>
       <r>  -20.5714    1.0000 </r>
       <r>  -20.4402    1.0000 </r>
       <r>  -20.1953    1.0000 </r>
       <r>  -19.7185    1.0000 </r>
       <r>  -19.4505    1.0000 </r>
       <r>  -19.3192    1.0000 </r>
       <r>  -19.1287    1.0000 </r>
       <r>  -18.9895    1.0000 </r>
       <r>  -18.5443    1.0000 </r>
       <r>  -18.4181    1.0000 </r>
       <r>  -17.9621    1.0000 </r>
       <r>  -17.8275    1.0000 </r>
       <r>  -17.4845    1.0000 </r>
       <r>  -17.3702    1.0000 </r>
       <r>  -17.3110    1.0000 </r>
       <r>  -17.0850    1.0000 </r>
       <r>  -16.9508    1.0000 </r>
       <r>  -16.3208    1.0000 </r>
       <r>  -16.1934    1.0000 </r>
       <r>  -15.7749    1.0000 </r>
       <r>  -15.2726    1.0000 </r>
       <r>  -15.2301    1.0000 </r>
       <r>  -14.9921    1.0000 </r>
       <r>  -14.8456    1.0000 </r>
       <r>  -14.7112    1.0000 </r>
       <r>  -14.6147    1.0000 </r>
       <r>  -14.3827    1.0000 </r>
       <r>  -14.0990    1.0000 </r>
       <r>  -13.2989    1.0000 </r>
       <r>  -13.2159    1.0000 </r>
       <r>  -13.1292    1.0000 </r>
       <r>  -12.9995    1.0000 </r>
       <r>  -12.7681    1.0000 </r>
       <r>  -12.5075    1.0000 </r>
       <r>  -12.2851    1.0000 </r>
       <r>  -12.1207    1.0000 </r>
       <r>  -12.0393    1.0000 </r>
       <r>  -11.5203    1.0000 </r>
       <r>  -11.4070    1.0000 </r>
       <r>  -11.2040    1.0000 </r>
       <r>  -10.8952    1.0000 </r>
       <r>  -10.6928    1.0000 </r>
       <r>  -10.6026    1.0000 </r>
       <r>  -10.5666    1.0000 </r>
       <r>  -10.4414    1.0000 </r>
       <r>  -10.3586    1.0000 </r>
       <r>  -10.2491    1.0000 </r>
       <r>  -10.0141    1.0000 </r>
       <r>   -9.9156    1.0000 </r>
       <r>   -9.7591    1.0000 </r>
       <r>   -9.7038    1.0000 </r>
       <r>   -9.6668    1.0000 </r>
       <r>   -9.5942    1.0000 </r>
       <r>   -9.4439    1.0000 </r>
       <r>   -9.3301    1.0000 </r>
       <r>   -9.2590    1.0000 </r>
       <r>   -9.1993    1.0000 </r>
       <r>   -9.1197    1.0000 </r>
       <r>   -9.0467    1.0000 </r>
       <r>   -8.9713    1.0000 </r>
       <r>   -8.9042    1.0000 </r>
       <r>   -8.7702    1.0000 </r>
       <r>   -8.7106    1.0000 </r>
       <r>   -8.4473    1.0000 </r>
       <r>   -8.3893    1.0000 </r>
       <r>   -8.2545    1.0000 </r>
       <r>   -8.2111    1.0000 </r>
       <r>   -8.0861    1.0000 </r>
       <r>   -8.0077    1.0000 </r>
       <r>   -7.9852    1.0000 </r>
       <r>   -7.9159    1.0000 </r>
       <r>   -7.5253    1.0000 </r>
       <r>   -7.4298    1.0000 </r>
       <r>   -7.3098    1.0000 </r>
       <r>   -7.1867    1.0000 </r>
       <r>   -7.0828    1.0000 </r>
       <r>   -7.0111    1.0000 </r>
       <r>   -6.8315    1.0000 </r>
       <r>   -6.7777    1.0000 </r>
       <r>   -6.7653    1.0000 </r>
       <r>   -6.6306    1.0000 </r>
       <r>   -6.3313    1.0000 </r>
       <r>   -6.1301    1.0000 </r>
       <r>   -6.0670    1.0000 </r>
       <r>   -5.9929    1.0000 </r>
       <r>   -5.6726    1.0000 </r>
       <r>   -5.5328    1.0000 </r>
       <r>   -5.2168    1.0000 </r>
       <r>   -5.0020    1.0000 </r>
       <r>   -4.9505    1.0000 </r>
       <r>   -4.7916    1.0000 </r>
       <r>   -4.7069    1.0000 </r>
       <r>   -3.9225    1.0000 </r>
       <r>   -3.6091    1.0000 </r>
       <r>   -2.5895    0.6997 </r>
       <r>   -1.8445    0.0000 </r>
       <r>   -1.5509    0.0000 </r>
       <r>   -1.3635    0.0000 </r>
       <r>   -1.0293    0.0000 </r>
       <r>   -0.9606    0.0000 </r>
       <r>   -0.8111    0.0000 </r>
       <r>   -0.8015    0.0000 </r>
       <r>   -0.4603    0.0000 </r>
       <r>   -0.0722    0.0000 </r>
       <r>    0.1785    0.0000 </r>
       <r>    0.3315    0.0000 </r>
       <r>    0.4405    0.0000 </r>
       <r>    0.5626    0.0000 </r>
       <r>    0.7839    0.0000 </r>
       <r>    0.8514    0.0000 </r>
       <r>    0.9758    0.0000 </r>
       <r>    1.1050    0.0000 </r>
       <r>    1.1810    0.0000 </r>
       <r>    1.3058    0.0000 </r>
       <r>    1.3637    0.0000 </r>
       <r>    1.4757    0.0000 </r>
       <r>    1.5184    0.0000 </r>
       <r>    1.5781    0.0000 </r>
       <r>    1.6085    0.0000 </r>
       <r>    1.6579    0.0000 </r>
       <r>    1.7029    0.0000 </r>
       <r>    1.7912    0.0000 </r>
       <r>    1.8216    0.0000 </r>
       <r>    1.8389    0.0000 </r>
       <r>    2.0053    0.0000 </r>
      </set>
      <set comment="kpoint 3">
       <r>  -52.5534    1.0000 </r>
       <r>  -22.2742    1.0000 </r>
       <r>  -22.0074    1.0000 </r>
       <r>  -21.6115    1.0000 </r>
       <r>  -21.4728    1.0000 </r>
       <r>  -21.1099    1.0000 </r>
       <r>  -20.8890    1.0000 </r>
       <r>  -20.5704    1.0000 </r>
       <r>  -20.4396    1.0000 </r>
       <r>  -20.1978    1.0000 </r>
       <r>  -19.7185    1.0000 </r>
       <r>  -19.4501    1.0000 </r>
       <r>  -19.3171    1.0000 </r>
       <r>  -19.1292    1.0000 </r>
       <r>  -18.9896    1.0000 </r>
       <r>  -18.5418    1.0000 </r>
       <r>  -18.4206    1.0000 </r>
       <r>  -17.9624    1.0000 </r>
       <r>  -17.8277    1.0000 </r>
       <r>  -17.4833    1.0000 </r>
       <r>  -17.3703    1.0000 </r>
       <r>  -17.3129    1.0000 </r>
       <r>  -17.0854    1.0000 </r>
       <r>  -16.9504    1.0000 </r>
       <r>  -16.3204    1.0000 </r>
       <r>  -16.1931    1.0000 </r>
       <r>  -15.7743    1.0000 </r>
       <r>  -15.2734    1.0000 </r>
       <r>  -15.2296    1.0000 </r>
       <r>  -14.9905    1.0000 </r>
       <r>  -14.8450    1.0000 </r>
       <r>  -14.7108    1.0000 </r>
       <r>  -14.6164    1.0000 </r>
       <r>  -14.3839    1.0000 </r>
       <r>  -14.0988    1.0000 </r>
       <r>  -13.2995    1.0000 </r>
       <r>  -13.2142    1.0000 </r>
       <r>  -13.1290    1.0000 </r>
       <r>  -13.0008    1.0000 </r>
       <r>  -12.7683    1.0000 </r>
       <r>  -12.5076    1.0000 </r>
       <r>  -12.2848    1.0000 </r>
       <r>  -12.1210    1.0000 </r>
       <r>  -12.0394    1.0000 </r>
       <r>  -11.5212    1.0000 </r>
       <r>  -11.4052    1.0000 </r>
       <r>  -11.2035    1.0000 </r>
       <r>  -10.8949    1.0000 </r>
       <r>  -10.6942    1.0000 </r>
       <r>  -10.6030    1.0000 </r>
       <r>  -10.5670    1.0000 </r>
       <r>  -10.4409    1.0000 </r>
       <r>  -10.3562    1.0000 </r>
       <r>  -10.2499    1.0000 </r>
       <r>  -10.0148    1.0000 </r>
       <r>   -9.9162    1.0000 </r>
       <r>   -9.7599    1.0000 </r>
       <r>   -9.7044    1.0000 </r>
       <r>   -9.6660    1.0000 </r>
       <r>   -9.5934    1.0000 </r>
       <r>   -9.4436    1.0000 </r>
       <r>   -9.3312    1.0000 </r>
       <r>   -9.2599    1.0000 </r>
       <r>   -9.1987    1.0000 </r>
       <r>   -9.1192    1.0000 </r>
       <r>   -9.0453    1.0000 </r>
       <r>   -8.9712    1.0000 </r>
       <r>   -8.9031    1.0000 </r>
       <r>   -8.7737    1.0000 </r>
       <r>   -8.7107    1.0000 </r>
       <r>   -8.4463    1.0000 </r>
       <r>   -8.3882    1.0000 </r>
       <r>   -8.2541    1.0000 </r>
       <r>   -8.2085    1.0000 </r>
       <r>   -8.0873    1.0000 </r>
       <r>   -8.0108    1.0000 </r>
       <r>   -7.9838    1.0000 </r>
       <r>   -7.9165    1.0000 </r>
       <r>   -7.5250    1.0000 </r>
       <r>   -7.4326    1.0000 </r>
       <r>   -7.3096    1.0000 </r>
       <r>   -7.1860    1.0000 </r>
       <r>   -7.0830    1.0000 </r>
       <r>   -7.0089    1.0000 </r>
       <r>   -6.8309    1.0000 </r>
       <r>   -6.7797    1.0000 </r>
       <r>   -6.7649    1.0000 </r>
       <r>   -6.6314    1.0000 </r>
       <r>   -6.3315    1.0000 </r>
       <r>   -6.1249    1.0000 </r>
       <r>   -6.0668    1.0000 </r>
       <r>   -5.9960    1.0000 </r>
       <r>   -5.6722    1.0000 </r>
       <r>   -5.5336    1.0000 </r>
       <r>   -5.2152    1.0000 </r>
       <r>   -5.0028    1.0000 </r>
       <r>   -4.9504    1.0000 </r>
       <r>   -4.7945    1.0000 </r>
       <r>   -4.7048    1.0000 </r>
       <r>   -3.9266    1.0000 </r>
       <r>   -3.6050    1.0000 </r>
       <r>   -2.5916    0.7192 </r>
       <r>   -1.8436    0.0000 </r>
       <r>   -1.5471    0.0000 </r>
       <r>   -1.3606    0.0000 </r>
       <r>   -1.0342    0.0000 </r>
       <r>   -0.9627    0.0000 </r>
       <r>   -0.8089    0.0000 </r>
       <r>   -0.8059    0.0000 </r>
       <r>   -0.4613    0.0000 </r>
       <r>   -0.0670    0.0000 </r>
       <r>    0.1839    0.0000 </r>
       <r>    0.3304    0.0000 </r>
       <r>    0.4360    0.0000 </r>
       <r>    0.5632    0.0000 </r>
       <r>    0.7774    0.0000 </r>
       <r>    0.8533    0.0000 </r>
       <r>    0.9767    0.0000 </r>
       <r>    1.1078    0.0000 </r>
       <r>    1.1791    0.0000 </r>
       <r>    1.3107    0.0000 </r>
       <r>    1.3641    0.0000 </r>
       <r>    1.4757    0.0000 </r>
       <r>    1.5204    0.0000 </r>
       <r>    1.5800    0.0000 </r>
       <r>    1.6118    0.0000 </r>
       <r>    1.6566    0.0000 </r>
       <r>    1.6975    0.0000 </r>
       <r>    1.7911    0.0000 </r>
       <r>    1.8200    0.0000 </r>
       <r>    1.8392    0.0000 </r>
       <r>    2.0046    0.0000 </r>
      </set>
      <set comment="kpoint 4">
       <r>  -52.5534    1.0000 </r>
       <r>  -22.2012    1.0000 </r>
       <r>  -22.0616    1.0000 </r>
       <r>  -21.8338    1.0000 </r>
       <r>  -21.2332    1.0000 </r>
       <r>  -21.0840    1.0000 </r>
       <r>  -20.9142    1.0000 </r>
       <r>  -20.3954    1.0000 </r>
       <r>  -20.2046    1.0000 </r>
       <r>  -20.1424    1.0000 </r>
       <r>  -20.0661    1.0000 </r>
       <r>  -19.9629    1.0000 </r>
       <r>  -19.7421    1.0000 </r>
       <r>  -18.6156    1.0000 </r>
       <r>  -18.3886    1.0000 </r>
       <r>  -18.3590    1.0000 </r>
       <r>  -18.3008    1.0000 </r>
       <r>  -18.1433    1.0000 </r>
       <r>  -18.0014    1.0000 </r>
       <r>  -17.5063    1.0000 </r>
       <r>  -17.4409    1.0000 </r>
       <r>  -17.4176    1.0000 </r>
       <r>  -16.9325    1.0000 </r>
       <r>  -16.8999    1.0000 </r>
       <r>  -16.7843    1.0000 </r>
       <r>  -16.2748    1.0000 </r>
       <r>  -15.7818    1.0000 </r>
       <r>  -15.6525    1.0000 </r>
       <r>  -15.3083    1.0000 </r>
       <r>  -15.2471    1.0000 </r>
       <r>  -14.3242    1.0000 </r>
       <r>  -14.0934    1.0000 </r>
       <r>  -13.8982    1.0000 </r>
       <r>  -13.8678    1.0000 </r>
       <r>  -13.8277    1.0000 </r>
       <r>  -13.7910    1.0000 </r>
       <r>  -13.6984    1.0000 </r>
       <r>  -13.6394    1.0000 </r>
       <r>  -13.2649    1.0000 </r>
       <r>  -13.0298    1.0000 </r>
       <r>  -12.5394    1.0000 </r>
       <r>  -12.0830    1.0000 </r>
       <r>  -12.0744    1.0000 </r>
       <r>  -11.6897    1.0000 </r>
       <r>  -11.5509    1.0000 </r>
       <r>  -11.5073    1.0000 </r>
       <r>  -11.3459    1.0000 </r>
       <r>  -11.2631    1.0000 </r>
       <r>  -11.0019    1.0000 </r>
       <r>  -10.4403    1.0000 </r>
       <r>  -10.2775    1.0000 </r>
       <r>  -10.2647    1.0000 </r>
       <r>  -10.2574    1.0000 </r>
       <r>  -10.1048    1.0000 </r>
       <r>  -10.0751    1.0000 </r>
       <r>  -10.0722    1.0000 </r>
       <r>   -9.9643    1.0000 </r>
       <r>   -9.9339    1.0000 </r>
       <r>   -9.5286    1.0000 </r>
       <r>   -9.4064    1.0000 </r>
       <r>   -9.3752    1.0000 </r>
       <r>   -9.2343    1.0000 </r>
       <r>   -9.1730    1.0000 </r>
       <r>   -9.1690    1.0000 </r>
       <r>   -9.0718    1.0000 </r>
       <r>   -8.9908    1.0000 </r>
       <r>   -8.8656    1.0000 </r>
       <r>   -8.7434    1.0000 </r>
       <r>   -8.6445    1.0000 </r>
       <r>   -8.5923    1.0000 </r>
       <r>   -8.5761    1.0000 </r>
       <r>   -8.4483    1.0000 </r>
       <r>   -8.3239    1.0000 </r>
       <r>   -8.1956    1.0000 </r>
       <r>   -8.0732    1.0000 </r>
       <r>   -8.0292    1.0000 </r>
       <r>   -7.9805    1.0000 </r>
       <r>   -7.8850    1.0000 </r>
       <r>   -7.8334    1.0000 </r>
       <r>   -7.7847    1.0000 </r>
       <r>   -7.6046    1.0000 </r>
       <r>   -7.3702    1.0000 </r>
       <r>   -7.0991    1.0000 </r>
       <r>   -6.9521    1.0000 </r>
       <r>   -6.8830    1.0000 </r>
       <r>   -6.7169    1.0000 </r>
       <r>   -6.4060    1.0000 </r>
       <r>   -6.3300    1.0000 </r>
       <r>   -6.0981    1.0000 </r>
       <r>   -6.0252    1.0000 </r>
       <r>   -5.9647    1.0000 </r>
       <r>   -5.8759    1.0000 </r>
       <r>   -5.7658    1.0000 </r>
       <r>   -5.6993    1.0000 </r>
       <r>   -5.1348    1.0000 </r>
       <r>   -5.0744    1.0000 </r>
       <r>   -4.9574    1.0000 </r>
       <r>   -4.9179    1.0000 </r>
       <r>   -4.8502    1.0000 </r>
       <r>   -4.5087    1.0000 </r>
       <r>   -2.9077    1.0000 </r>
       <r>   -2.7529    1.0000 </r>
       <r>   -2.3625    0.0000 </r>
       <r>   -1.4079    0.0000 </r>
       <r>   -1.1379    0.0000 </r>
       <r>   -1.0394    0.0000 </r>
       <r>   -0.6739    0.0000 </r>
       <r>   -0.6608    0.0000 </r>
       <r>   -0.5438    0.0000 </r>
       <r>   -0.4699    0.0000 </r>
       <r>    0.0464    0.0000 </r>
       <r>    0.1378    0.0000 </r>
       <r>    0.1779    0.0000 </r>
       <r>    0.1928    0.0000 </r>
       <r>    0.2208    0.0000 </r>
       <r>    0.3123    0.0000 </r>
       <r>    1.0145    0.0000 </r>
       <r>    1.0344    0.0000 </r>
       <r>    1.1251    0.0000 </r>
       <r>    1.1817    0.0000 </r>
       <r>    1.2523    0.0000 </r>
       <r>    1.2803    0.0000 </r>
       <r>    1.2969    0.0000 </r>
       <r>    1.4726    0.0000 </r>
       <r>    1.4796    0.0000 </r>
       <r>    1.4878    0.0000 </r>
       <r>    1.7314    0.0000 </r>
       <r>    1.7911    0.0000 </r>
       <r>    1.8128    0.0000 </r>
       <r>    1.8212    0.0000 </r>
       <r>    1.8772    0.0000 </r>
       <r>    2.0210    0.0000 </r>
      </set>
      <set comment="kpoint 5">
       <r>  -52.5534    1.0000 </r>
       <r>  -22.2994    1.0000 </r>
       <r>  -21.8382    1.0000 </r>
       <r>  -21.7936    1.0000 </r>
       <r>  -21.5204    1.0000 </r>
       <r>  -20.9989    1.0000 </r>
       <r>  -20.8624    1.0000 </r>
       <r>  -20.6377    1.0000 </r>
       <r>  -20.4066    1.0000 </r>
       <r>  -20.1366    1.0000 </r>
       <r>  -19.7163    1.0000 </r>
       <r>  -19.6674    1.0000 </r>
       <r>  -19.2617    1.0000 </r>
       <r>  -19.0910    1.0000 </r>
       <r>  -18.9601    1.0000 </r>
       <r>  -18.5424    1.0000 </r>
       <r>  -18.3747    1.0000 </r>
       <r>  -17.9766    1.0000 </r>
       <r>  -17.8594    1.0000 </r>
       <r>  -17.5425    1.0000 </r>
       <r>  -17.4120    1.0000 </r>
       <r>  -17.1999    1.0000 </r>
       <r>  -17.1333    1.0000 </r>
       <r>  -16.7504    1.0000 </r>
       <r>  -16.3921    1.0000 </r>
       <r>  -16.2585    1.0000 </r>
       <r>  -15.5587    1.0000 </r>
       <r>  -15.4966    1.0000 </r>
       <r>  -15.3822    1.0000 </r>
       <r>  -15.0502    1.0000 </r>
       <r>  -14.8547    1.0000 </r>
       <r>  -14.7795    1.0000 </r>
       <r>  -14.4290    1.0000 </r>
       <r>  -14.3391    1.0000 </r>
       <r>  -14.0938    1.0000 </r>
       <r>  -13.3455    1.0000 </r>
       <r>  -13.1435    1.0000 </r>
       <r>  -12.9174    1.0000 </r>
       <r>  -12.8767    1.0000 </r>
       <r>  -12.8036    1.0000 </r>
       <r>  -12.5004    1.0000 </r>
       <r>  -12.3255    1.0000 </r>
       <r>  -12.2917    1.0000 </r>
       <r>  -12.0070    1.0000 </r>
       <r>  -11.5978    1.0000 </r>
       <r>  -11.5539    1.0000 </r>
       <r>  -11.1320    1.0000 </r>
       <r>  -10.9511    1.0000 </r>
       <r>  -10.7074    1.0000 </r>
       <r>  -10.5470    1.0000 </r>
       <r>  -10.5409    1.0000 </r>
       <r>  -10.4550    1.0000 </r>
       <r>  -10.4138    1.0000 </r>
       <r>  -10.2962    1.0000 </r>
       <r>   -9.9641    1.0000 </r>
       <r>   -9.8367    1.0000 </r>
       <r>   -9.8201    1.0000 </r>
       <r>   -9.7449    1.0000 </r>
       <r>   -9.6167    1.0000 </r>
       <r>   -9.5557    1.0000 </r>
       <r>   -9.5230    1.0000 </r>
       <r>   -9.4347    1.0000 </r>
       <r>   -9.3221    1.0000 </r>
       <r>   -9.2702    1.0000 </r>
       <r>   -9.2000    1.0000 </r>
       <r>   -8.9269    1.0000 </r>
       <r>   -8.8694    1.0000 </r>
       <r>   -8.8149    1.0000 </r>
       <r>   -8.7659    1.0000 </r>
       <r>   -8.4855    1.0000 </r>
       <r>   -8.3601    1.0000 </r>
       <r>   -8.3103    1.0000 </r>
       <r>   -8.2340    1.0000 </r>
       <r>   -8.1881    1.0000 </r>
       <r>   -8.0859    1.0000 </r>
       <r>   -7.9822    1.0000 </r>
       <r>   -7.8865    1.0000 </r>
       <r>   -7.7686    1.0000 </r>
       <r>   -7.7569    1.0000 </r>
       <r>   -7.4914    1.0000 </r>
       <r>   -7.4354    1.0000 </r>
       <r>   -7.2615    1.0000 </r>
       <r>   -7.2468    1.0000 </r>
       <r>   -7.1080    1.0000 </r>
       <r>   -6.9900    1.0000 </r>
       <r>   -6.7256    1.0000 </r>
       <r>   -6.6526    1.0000 </r>
       <r>   -6.4836    1.0000 </r>
       <r>   -6.4498    1.0000 </r>
       <r>   -6.1134    1.0000 </r>
       <r>   -6.0159    1.0000 </r>
       <r>   -5.9391    1.0000 </r>
       <r>   -5.6008    1.0000 </r>
       <r>   -5.5550    1.0000 </r>
       <r>   -5.3988    1.0000 </r>
       <r>   -4.9954    1.0000 </r>
       <r>   -4.8735    1.0000 </r>
       <r>   -4.8346    1.0000 </r>
       <r>   -4.4630    1.0000 </r>
       <r>   -3.9556    1.0000 </r>
       <r>   -3.7916    1.0000 </r>
       <r>   -2.4572    0.0006 </r>
       <r>   -1.8338    0.0000 </r>
       <r>   -1.6789    0.0000 </r>
       <r>   -1.4162    0.0000 </r>
       <r>   -0.9622    0.0000 </r>
       <r>   -0.8400    0.0000 </r>
       <r>   -0.8157    0.0000 </r>
       <r>   -0.7228    0.0000 </r>
       <r>   -0.6515    0.0000 </r>
       <r>   -0.0574    0.0000 </r>
       <r>    0.1981    0.0000 </r>
       <r>    0.3246    0.0000 </r>
       <r>    0.5068    0.0000 </r>
       <r>    0.5624    0.0000 </r>
       <r>    0.7872    0.0000 </r>
       <r>    0.8288    0.0000 </r>
       <r>    0.9012    0.0000 </r>
       <r>    1.0965    0.0000 </r>
       <r>    1.1914    0.0000 </r>
       <r>    1.2501    0.0000 </r>
       <r>    1.3537    0.0000 </r>
       <r>    1.4757    0.0000 </r>
       <r>    1.5037    0.0000 </r>
       <r>    1.5757    0.0000 </r>
       <r>    1.6300    0.0000 </r>
       <r>    1.6701    0.0000 </r>
       <r>    1.7737    0.0000 </r>
       <r>    1.8216    0.0000 </r>
       <r>    1.8243    0.0000 </r>
       <r>    1.9254    0.0000 </r>
       <r>    2.0019    0.0000 </r>
      </set>
     </set>
     <set comment="spin 2">
      <set comment="kpoint 1">
       <r>  -52.5531    1.0000 </r>
       <r>  -22.3536    1.0000 </r>
       <r>  -21.7364    1.0000 </r>
       <r>  -21.5272    1.0000 </r>
       <r>  -21.3300    1.0000 </r>
       <r>  -21.3060    1.0000 </r>
       <r>  -21.2368    1.0000 </r>
       <r>  -21.0127    1.0000 </r>
       <r>  -19.9421    1.0000 </r>
       <r>  -19.5666    1.0000 </r>
       <r>  -19.5317    1.0000 </r>
       <r>  -19.4251    1.0000 </r>
       <r>  -19.3456    1.0000 </r>
       <r>  -19.2790    1.0000 </r>
       <r>  -18.7872    1.0000 </r>
       <r>  -18.6448    1.0000 </r>
       <r>  -18.6193    1.0000 </r>
       <r>  -18.5273    1.0000 </r>
       <r>  -18.4798    1.0000 </r>
       <r>  -18.1223    1.0000 </r>
       <r>  -16.5889    1.0000 </r>
       <r>  -16.5514    1.0000 </r>
       <r>  -16.4724    1.0000 </r>
       <r>  -16.3119    1.0000 </r>
       <r>  -16.2538    1.0000 </r>
       <r>  -16.2127    1.0000 </r>
       <r>  -16.0740    1.0000 </r>
       <r>  -15.5511    1.0000 </r>
       <r>  -15.3994    1.0000 </r>
       <r>  -15.3339    1.0000 </r>
       <r>  -15.1617    1.0000 </r>
       <r>  -14.9890    1.0000 </r>
       <r>  -14.3066    1.0000 </r>
       <r>  -14.2631    1.0000 </r>
       <r>  -14.0654    1.0000 </r>
       <r>  -14.0039    1.0000 </r>
       <r>  -13.9240    1.0000 </r>
       <r>  -13.3614    1.0000 </r>
       <r>  -12.1484    1.0000 </r>
       <r>  -11.9665    1.0000 </r>
       <r>  -11.7970    1.0000 </r>
       <r>  -11.7781    1.0000 </r>
       <r>  -11.7019    1.0000 </r>
       <r>  -11.6343    1.0000 </r>
       <r>  -11.6229    1.0000 </r>
       <r>  -11.6038    1.0000 </r>
       <r>  -11.4547    1.0000 </r>
       <r>  -11.4442    1.0000 </r>
       <r>  -11.1243    1.0000 </r>
       <r>  -11.0591    1.0000 </r>
       <r>  -10.6518    1.0000 </r>
       <r>  -10.4646    1.0000 </r>
       <r>  -10.4065    1.0000 </r>
       <r>  -10.2127    1.0000 </r>
       <r>  -10.1616    1.0000 </r>
       <r>  -10.1156    1.0000 </r>
       <r>   -9.8841    1.0000 </r>
       <r>   -9.6192    1.0000 </r>
       <r>   -9.4982    1.0000 </r>
       <r>   -9.2872    1.0000 </r>
       <r>   -9.2768    1.0000 </r>
       <r>   -9.2068    1.0000 </r>
       <r>   -9.1092    1.0000 </r>
       <r>   -9.0629    1.0000 </r>
       <r>   -9.0424    1.0000 </r>
       <r>   -9.0141    1.0000 </r>
       <r>   -9.0094    1.0000 </r>
       <r>   -8.9336    1.0000 </r>
       <r>   -8.8648    1.0000 </r>
       <r>   -8.8419    1.0000 </r>
       <r>   -8.7254    1.0000 </r>
       <r>   -8.6221    1.0000 </r>
       <r>   -8.6139    1.0000 </r>
       <r>   -8.6098    1.0000 </r>
       <r>   -7.9864    1.0000 </r>
       <r>   -7.4565    1.0000 </r>
       <r>   -7.4218    1.0000 </r>
       <r>   -7.3727    1.0000 </r>
       <r>   -7.3081    1.0000 </r>
       <r>   -7.2874    1.0000 </r>
       <r>   -7.2520    1.0000 </r>
       <r>   -7.2389    1.0000 </r>
       <r>   -7.1781    1.0000 </r>
       <r>   -7.0486    1.0000 </r>
       <r>   -6.9879    1.0000 </r>
       <r>   -6.9607    1.0000 </r>
       <r>   -6.9505    1.0000 </r>
       <r>   -6.3474    1.0000 </r>
       <r>   -6.3445    1.0000 </r>
       <r>   -6.2612    1.0000 </r>
       <r>   -6.1816    1.0000 </r>
       <r>   -6.1646    1.0000 </r>
       <r>   -6.1021    1.0000 </r>
       <r>   -5.9489    1.0000 </r>
       <r>   -5.6784    1.0000 </r>
       <r>   -4.3684    1.0000 </r>
       <r>   -4.2555    1.0000 </r>
       <r>   -4.2482    1.0000 </r>
       <r>   -4.2219    1.0000 </r>
       <r>   -4.1422    1.0000 </r>
       <r>   -3.8900    1.0000 </r>
       <r>   -2.6838    0.9993 </r>
       <r>   -1.7124    0.0000 </r>
       <r>   -1.6260    0.0000 </r>
       <r>   -1.5149    0.0000 </r>
       <r>   -1.3520    0.0000 </r>
       <r>   -1.3028    0.0000 </r>
       <r>   -0.9767    0.0000 </r>
       <r>   -0.5492    0.0000 </r>
       <r>    0.1709    0.0000 </r>
       <r>    0.2770    0.0000 </r>
       <r>    0.3425    0.0000 </r>
       <r>    0.3854    0.0000 </r>
       <r>    0.3959    0.0000 </r>
       <r>    0.4578    0.0000 </r>
       <r>    0.5064    0.0000 </r>
       <r>    0.7865    0.0000 </r>
       <r>    0.9708    0.0000 </r>
       <r>    1.0369    0.0000 </r>
       <r>    1.3768    0.0000 </r>
       <r>    1.4283    0.0000 </r>
       <r>    1.4330    0.0000 </r>
       <r>    1.5223    0.0000 </r>
       <r>    1.5352    0.0000 </r>
       <r>    1.6729    0.0000 </r>
       <r>    1.7312    0.0000 </r>
       <r>    1.7529    0.0000 </r>
       <r>    1.8532    0.0000 </r>
       <r>    1.9444    0.0000 </r>
       <r>    2.0803    0.0000 </r>
       <r>    2.0927    0.0000 </r>
       <r>    2.1766    0.0000 </r>
      </set>
      <set comment="kpoint 2">
       <r>  -52.5531    1.0000 </r>
       <r>  -22.2632    1.0000 </r>
       <r>  -21.9938    1.0000 </r>
       <r>  -21.6053    1.0000 </r>
       <r>  -21.4684    1.0000 </r>
       <r>  -21.0995    1.0000 </r>
       <r>  -20.8819    1.0000 </r>
       <r>  -20.5668    1.0000 </r>
       <r>  -20.4274    1.0000 </r>
       <r>  -20.1898    1.0000 </r>
       <r>  -19.7128    1.0000 </r>
       <r>  -19.4442    1.0000 </r>
       <r>  -19.3141    1.0000 </r>
       <r>  -19.1224    1.0000 </r>
       <r>  -18.9814    1.0000 </r>
       <r>  -18.5326    1.0000 </r>
       <r>  -18.4137    1.0000 </r>
       <r>  -17.9569    1.0000 </r>
       <r>  -17.8220    1.0000 </r>
       <r>  -17.4706    1.0000 </r>
       <r>  -17.3655    1.0000 </r>
       <r>  -17.3049    1.0000 </r>
       <r>  -17.0793    1.0000 </r>
       <r>  -16.9450    1.0000 </r>
       <r>  -16.3152    1.0000 </r>
       <r>  -16.1885    1.0000 </r>
       <r>  -15.7629    1.0000 </r>
       <r>  -15.2683    1.0000 </r>
       <r>  -15.2262    1.0000 </r>
       <r>  -14.9857    1.0000 </r>
       <r>  -14.8403    1.0000 </r>
       <r>  -14.7066    1.0000 </r>
       <r>  -14.6087    1.0000 </r>
       <r>  -14.3775    1.0000 </r>
       <r>  -14.0925    1.0000 </r>
       <r>  -13.2929    1.0000 </r>
       <r>  -13.2019    1.0000 </r>
       <r>  -13.1244    1.0000 </r>
       <r>  -12.9949    1.0000 </r>
       <r>  -12.7643    1.0000 </r>
       <r>  -12.5036    1.0000 </r>
       <r>  -12.2790    1.0000 </r>
       <r>  -12.1161    1.0000 </r>
       <r>  -12.0331    1.0000 </r>
       <r>  -11.5152    1.0000 </r>
       <r>  -11.4042    1.0000 </r>
       <r>  -11.2008    1.0000 </r>
       <r>  -10.8907    1.0000 </r>
       <r>  -10.6862    1.0000 </r>
       <r>  -10.5961    1.0000 </r>
       <r>  -10.5624    1.0000 </r>
       <r>  -10.4282    1.0000 </r>
       <r>  -10.3382    1.0000 </r>
       <r>  -10.2444    1.0000 </r>
       <r>   -9.9909    1.0000 </r>
       <r>   -9.9118    1.0000 </r>
       <r>   -9.7543    1.0000 </r>
       <r>   -9.6964    1.0000 </r>
       <r>   -9.6608    1.0000 </r>
       <r>   -9.5811    1.0000 </r>
       <r>   -9.4353    1.0000 </r>
       <r>   -9.3266    1.0000 </r>
       <r>   -9.2536    1.0000 </r>
       <r>   -9.1950    1.0000 </r>
       <r>   -9.1154    1.0000 </r>
       <r>   -9.0411    1.0000 </r>
       <r>   -8.9606    1.0000 </r>
       <r>   -8.8860    1.0000 </r>
       <r>   -8.7586    1.0000 </r>
       <r>   -8.7072    1.0000 </r>
       <r>   -8.4367    1.0000 </r>
       <r>   -8.3835    1.0000 </r>
       <r>   -8.2507    1.0000 </r>
       <r>   -8.1831    1.0000 </r>
       <r>   -8.0781    1.0000 </r>
       <r>   -7.9982    1.0000 </r>
       <r>   -7.9806    1.0000 </r>
       <r>   -7.9111    1.0000 </r>
       <r>   -7.5139    1.0000 </r>
       <r>   -7.4196    1.0000 </r>
       <r>   -7.2992    1.0000 </r>
       <r>   -7.1797    1.0000 </r>
       <r>   -7.0712    1.0000 </r>
       <r>   -6.9999    1.0000 </r>
       <r>   -6.8221    1.0000 </r>
       <r>   -6.7631    1.0000 </r>
       <r>   -6.7603    1.0000 </r>
       <r>   -6.6147    1.0000 </r>
       <r>   -6.3285    1.0000 </r>
       <r>   -6.1013    1.0000 </r>
       <r>   -6.0615    1.0000 </r>
       <r>   -5.9826    1.0000 </r>
       <r>   -5.6580    1.0000 </r>
       <r>   -5.5204    1.0000 </r>
       <r>   -5.1997    1.0000 </r>
       <r>   -4.9748    1.0000 </r>
       <r>   -4.9318    1.0000 </r>
       <r>   -4.7852    1.0000 </r>
       <r>   -4.6874    1.0000 </r>
       <r>   -3.9055    1.0000 </r>
       <r>   -3.5975    1.0000 </r>
       <r>   -2.5082    0.0379 </r>
       <r>   -1.8245    0.0000 </r>
       <r>   -1.5348    0.0000 </r>
       <r>   -1.3480    0.0000 </r>
       <r>   -1.0140    0.0000 </r>
       <r>   -0.9556    0.0000 </r>
       <r>   -0.7994    0.0000 </r>
       <r>   -0.7885    0.0000 </r>
       <r>   -0.4436    0.0000 </r>
       <r>   -0.0596    0.0000 </r>
       <r>    0.1869    0.0000 </r>
       <r>    0.3414    0.0000 </r>
       <r>    0.4545    0.0000 </r>
       <r>    0.5886    0.0000 </r>
       <r>    0.7912    0.0000 </r>
       <r>    0.8705    0.0000 </r>
       <r>    0.9956    0.0000 </r>
       <r>    1.1132    0.0000 </r>
       <r>    1.1957    0.0000 </r>
       <r>    1.3209    0.0000 </r>
       <r>    1.3809    0.0000 </r>
       <r>    1.4974    0.0000 </r>
       <r>    1.5399    0.0000 </r>
       <r>    1.5933    0.0000 </r>
       <r>    1.6190    0.0000 </r>
       <r>    1.6735    0.0000 </r>
       <r>    1.7161    0.0000 </r>
       <r>    1.8058    0.0000 </r>
       <r>    1.8383    0.0000 </r>
       <r>    1.8527    0.0000 </r>
       <r>    2.0246    0.0000 </r>
      </set>
      <set comment="kpoint 3">
       <r>  -52.5531    1.0000 </r>
       <r>  -22.2629    1.0000 </r>
       <r>  -21.9945    1.0000 </r>
       <r>  -21.6056    1.0000 </r>
       <r>  -21.4676    1.0000 </r>
       <r>  -21.0980    1.0000 </r>
       <r>  -20.8838    1.0000 </r>
       <r>  -20.5659    1.0000 </r>
       <r>  -20.4267    1.0000 </r>
       <r>  -20.1923    1.0000 </r>
       <r>  -19.7129    1.0000 </r>
       <r>  -19.4438    1.0000 </r>
       <r>  -19.3120    1.0000 </r>
       <r>  -19.1229    1.0000 </r>
       <r>  -18.9816    1.0000 </r>
       <r>  -18.5302    1.0000 </r>
       <r>  -18.4162    1.0000 </r>
       <r>  -17.9571    1.0000 </r>
       <r>  -17.8222    1.0000 </r>
       <r>  -17.4696    1.0000 </r>
       <r>  -17.3656    1.0000 </r>
       <r>  -17.3066    1.0000 </r>
       <r>  -17.0797    1.0000 </r>
       <r>  -16.9447    1.0000 </r>
       <r>  -16.3147    1.0000 </r>
       <r>  -16.1882    1.0000 </r>
       <r>  -15.7623    1.0000 </r>
       <r>  -15.2690    1.0000 </r>
       <r>  -15.2257    1.0000 </r>
       <r>  -14.9842    1.0000 </r>
       <r>  -14.8397    1.0000 </r>
       <r>  -14.7063    1.0000 </r>
       <r>  -14.6104    1.0000 </r>
       <r>  -14.3788    1.0000 </r>
       <r>  -14.0924    1.0000 </r>
       <r>  -13.2935    1.0000 </r>
       <r>  -13.2003    1.0000 </r>
       <r>  -13.1242    1.0000 </r>
       <r>  -12.9961    1.0000 </r>
       <r>  -12.7645    1.0000 </r>
       <r>  -12.5037    1.0000 </r>
       <r>  -12.2787    1.0000 </r>
       <r>  -12.1163    1.0000 </r>
       <r>  -12.0332    1.0000 </r>
       <r>  -11.5161    1.0000 </r>
       <r>  -11.4024    1.0000 </r>
       <r>  -11.2003    1.0000 </r>
       <r>  -10.8904    1.0000 </r>
       <r>  -10.6876    1.0000 </r>
       <r>  -10.5965    1.0000 </r>
       <r>  -10.5628    1.0000 </r>
       <r>  -10.4275    1.0000 </r>
       <r>  -10.3360    1.0000 </r>
       <r>  -10.2452    1.0000 </r>
       <r>   -9.9918    1.0000 </r>
       <r>   -9.9125    1.0000 </r>
       <r>   -9.7552    1.0000 </r>
       <r>   -9.6970    1.0000 </r>
       <r>   -9.6600    1.0000 </r>
       <r>   -9.5801    1.0000 </r>
       <r>   -9.4349    1.0000 </r>
       <r>   -9.3277    1.0000 </r>
       <r>   -9.2544    1.0000 </r>
       <r>   -9.1944    1.0000 </r>
       <r>   -9.1149    1.0000 </r>
       <r>   -9.0398    1.0000 </r>
       <r>   -8.9608    1.0000 </r>
       <r>   -8.8848    1.0000 </r>
       <r>   -8.7619    1.0000 </r>
       <r>   -8.7073    1.0000 </r>
       <r>   -8.4356    1.0000 </r>
       <r>   -8.3824    1.0000 </r>
       <r>   -8.2502    1.0000 </r>
       <r>   -8.1809    1.0000 </r>
       <r>   -8.0791    1.0000 </r>
       <r>   -8.0010    1.0000 </r>
       <r>   -7.9795    1.0000 </r>
       <r>   -7.9116    1.0000 </r>
       <r>   -7.5136    1.0000 </r>
       <r>   -7.4224    1.0000 </r>
       <r>   -7.2992    1.0000 </r>
       <r>   -7.1789    1.0000 </r>
       <r>   -7.0711    1.0000 </r>
       <r>   -6.9978    1.0000 </r>
       <r>   -6.8213    1.0000 </r>
       <r>   -6.7663    1.0000 </r>
       <r>   -6.7588    1.0000 </r>
       <r>   -6.6155    1.0000 </r>
       <r>   -6.3287    1.0000 </r>
       <r>   -6.0972    1.0000 </r>
       <r>   -6.0606    1.0000 </r>
       <r>   -5.9857    1.0000 </r>
       <r>   -5.6574    1.0000 </r>
       <r>   -5.5213    1.0000 </r>
       <r>   -5.1983    1.0000 </r>
       <r>   -4.9765    1.0000 </r>
       <r>   -4.9301    1.0000 </r>
       <r>   -4.7881    1.0000 </r>
       <r>   -4.6856    1.0000 </r>
       <r>   -3.9096    1.0000 </r>
       <r>   -3.5935    1.0000 </r>
       <r>   -2.5103    0.0430 </r>
       <r>   -1.8235    0.0000 </r>
       <r>   -1.5309    0.0000 </r>
       <r>   -1.3452    0.0000 </r>
       <r>   -1.0186    0.0000 </r>
       <r>   -0.9576    0.0000 </r>
       <r>   -0.7974    0.0000 </r>
       <r>   -0.7933    0.0000 </r>
       <r>   -0.4445    0.0000 </r>
       <r>   -0.0544    0.0000 </r>
       <r>    0.1920    0.0000 </r>
       <r>    0.3404    0.0000 </r>
       <r>    0.4501    0.0000 </r>
       <r>    0.5898    0.0000 </r>
       <r>    0.7851    0.0000 </r>
       <r>    0.8715    0.0000 </r>
       <r>    0.9961    0.0000 </r>
       <r>    1.1161    0.0000 </r>
       <r>    1.1940    0.0000 </r>
       <r>    1.3254    0.0000 </r>
       <r>    1.3815    0.0000 </r>
       <r>    1.4976    0.0000 </r>
       <r>    1.5418    0.0000 </r>
       <r>    1.5955    0.0000 </r>
       <r>    1.6217    0.0000 </r>
       <r>    1.6715    0.0000 </r>
       <r>    1.7115    0.0000 </r>
       <r>    1.8055    0.0000 </r>
       <r>    1.8366    0.0000 </r>
       <r>    1.8532    0.0000 </r>
       <r>    2.0231    0.0000 </r>
      </set>
      <set comment="kpoint 4">
       <r>  -52.5531    1.0000 </r>
       <r>  -22.1880    1.0000 </r>
       <r>  -22.0497    1.0000 </r>
       <r>  -21.8303    1.0000 </r>
       <r>  -21.2244    1.0000 </r>
       <r>  -21.0740    1.0000 </r>
       <r>  -20.9084    1.0000 </r>
       <r>  -20.3870    1.0000 </r>
       <r>  -20.1938    1.0000 </r>
       <r>  -20.1389    1.0000 </r>
       <r>  -20.0594    1.0000 </r>
       <r>  -19.9586    1.0000 </r>
       <r>  -19.7361    1.0000 </r>
       <r>  -18.6049    1.0000 </r>
       <r>  -18.3862    1.0000 </r>
       <r>  -18.3460    1.0000 </r>
       <r>  -18.2926    1.0000 </r>
       <r>  -18.1398    1.0000 </r>
       <r>  -17.9963    1.0000 </r>
       <r>  -17.5005    1.0000 </r>
       <r>  -17.4288    1.0000 </r>
       <r>  -17.4152    1.0000 </r>
       <r>  -16.9280    1.0000 </r>
       <r>  -16.8938    1.0000 </r>
       <r>  -16.7767    1.0000 </r>
       <r>  -16.2624    1.0000 </r>
       <r>  -15.7786    1.0000 </r>
       <r>  -15.6487    1.0000 </r>
       <r>  -15.3015    1.0000 </r>
       <r>  -15.2422    1.0000 </r>
       <r>  -14.3172    1.0000 </r>
       <r>  -14.0840    1.0000 </r>
       <r>  -13.8931    1.0000 </r>
       <r>  -13.8624    1.0000 </r>
       <r>  -13.8217    1.0000 </r>
       <r>  -13.7878    1.0000 </r>
       <r>  -13.6931    1.0000 </r>
       <r>  -13.6318    1.0000 </r>
       <r>  -13.2613    1.0000 </r>
       <r>  -13.0210    1.0000 </r>
       <r>  -12.5330    1.0000 </r>
       <r>  -12.0805    1.0000 </r>
       <r>  -12.0697    1.0000 </r>
       <r>  -11.6845    1.0000 </r>
       <r>  -11.5440    1.0000 </r>
       <r>  -11.5033    1.0000 </r>
       <r>  -11.3413    1.0000 </r>
       <r>  -11.2576    1.0000 </r>
       <r>  -10.9966    1.0000 </r>
       <r>  -10.4243    1.0000 </r>
       <r>  -10.2709    1.0000 </r>
       <r>  -10.2620    1.0000 </r>
       <r>  -10.2311    1.0000 </r>
       <r>  -10.1005    1.0000 </r>
       <r>  -10.0719    1.0000 </r>
       <r>  -10.0533    1.0000 </r>
       <r>   -9.9603    1.0000 </r>
       <r>   -9.9276    1.0000 </r>
       <r>   -9.5254    1.0000 </r>
       <r>   -9.4002    1.0000 </r>
       <r>   -9.3688    1.0000 </r>
       <r>   -9.2303    1.0000 </r>
       <r>   -9.1679    1.0000 </r>
       <r>   -9.1632    1.0000 </r>
       <r>   -9.0584    1.0000 </r>
       <r>   -8.9669    1.0000 </r>
       <r>   -8.8538    1.0000 </r>
       <r>   -8.7387    1.0000 </r>
       <r>   -8.6407    1.0000 </r>
       <r>   -8.5860    1.0000 </r>
       <r>   -8.5733    1.0000 </r>
       <r>   -8.4426    1.0000 </r>
       <r>   -8.3194    1.0000 </r>
       <r>   -8.1902    1.0000 </r>
       <r>   -8.0542    1.0000 </r>
       <r>   -8.0244    1.0000 </r>
       <r>   -7.9483    1.0000 </r>
       <r>   -7.8763    1.0000 </r>
       <r>   -7.8206    1.0000 </r>
       <r>   -7.7738    1.0000 </r>
       <r>   -7.5919    1.0000 </r>
       <r>   -7.3627    1.0000 </r>
       <r>   -7.0920    1.0000 </r>
       <r>   -6.9503    1.0000 </r>
       <r>   -6.8770    1.0000 </r>
       <r>   -6.7129    1.0000 </r>
       <r>   -6.4001    1.0000 </r>
       <r>   -6.3273    1.0000 </r>
       <r>   -6.0756    1.0000 </r>
       <r>   -5.9896    1.0000 </r>
       <r>   -5.9580    1.0000 </r>
       <r>   -5.8577    1.0000 </r>
       <r>   -5.7590    1.0000 </r>
       <r>   -5.6849    1.0000 </r>
       <r>   -5.1255    1.0000 </r>
       <r>   -5.0442    1.0000 </r>
       <r>   -4.9360    1.0000 </r>
       <r>   -4.9020    1.0000 </r>
       <r>   -4.8440    1.0000 </r>
       <r>   -4.4930    1.0000 </r>
       <r>   -2.8632    1.0000 </r>
       <r>   -2.7394    1.0000 </r>
       <r>   -2.3070    0.0000 </r>
       <r>   -1.3911    0.0000 </r>
       <r>   -1.1232    0.0000 </r>
       <r>   -1.0370    0.0000 </r>
       <r>   -0.6563    0.0000 </r>
       <r>   -0.6493    0.0000 </r>
       <r>   -0.5209    0.0000 </r>
       <r>   -0.4509    0.0000 </r>
       <r>    0.0595    0.0000 </r>
       <r>    0.1548    0.0000 </r>
       <r>    0.1931    0.0000 </r>
       <r>    0.1999    0.0000 </r>
       <r>    0.2295    0.0000 </r>
       <r>    0.3195    0.0000 </r>
       <r>    1.0257    0.0000 </r>
       <r>    1.0496    0.0000 </r>
       <r>    1.1349    0.0000 </r>
       <r>    1.1958    0.0000 </r>
       <r>    1.2701    0.0000 </r>
       <r>    1.2931    0.0000 </r>
       <r>    1.3098    0.0000 </r>
       <r>    1.4885    0.0000 </r>
       <r>    1.4944    0.0000 </r>
       <r>    1.5032    0.0000 </r>
       <r>    1.7673    0.0000 </r>
       <r>    1.8186    0.0000 </r>
       <r>    1.8351    0.0000 </r>
       <r>    1.8460    0.0000 </r>
       <r>    1.8975    0.0000 </r>
       <r>    2.0372    0.0000 </r>
      </set>
      <set comment="kpoint 5">
       <r>  -52.5531    1.0000 </r>
       <r>  -22.2869    1.0000 </r>
       <r>  -21.8324    1.0000 </r>
       <r>  -21.7832    1.0000 </r>
       <r>  -21.5081    1.0000 </r>
       <r>  -20.9935    1.0000 </r>
       <r>  -20.8568    1.0000 </r>
       <r>  -20.6311    1.0000 </r>
       <r>  -20.3995    1.0000 </r>
       <r>  -20.1310    1.0000 </r>
       <r>  -19.7069    1.0000 </r>
       <r>  -19.6607    1.0000 </r>
       <r>  -19.2491    1.0000 </r>
       <r>  -19.0865    1.0000 </r>
       <r>  -18.9537    1.0000 </r>
       <r>  -18.5372    1.0000 </r>
       <r>  -18.3700    1.0000 </r>
       <r>  -17.9698    1.0000 </r>
       <r>  -17.8505    1.0000 </r>
       <r>  -17.5375    1.0000 </r>
       <r>  -17.4067    1.0000 </r>
       <r>  -17.1941    1.0000 </r>
       <r>  -17.1269    1.0000 </r>
       <r>  -16.7422    1.0000 </r>
       <r>  -16.3862    1.0000 </r>
       <r>  -16.2465    1.0000 </r>
       <r>  -15.5488    1.0000 </r>
       <r>  -15.4926    1.0000 </r>
       <r>  -15.3783    1.0000 </r>
       <r>  -15.0412    1.0000 </r>
       <r>  -14.8529    1.0000 </r>
       <r>  -14.7761    1.0000 </r>
       <r>  -14.4230    1.0000 </r>
       <r>  -14.3339    1.0000 </r>
       <r>  -14.0866    1.0000 </r>
       <r>  -13.3384    1.0000 </r>
       <r>  -13.1376    1.0000 </r>
       <r>  -12.9130    1.0000 </r>
       <r>  -12.8719    1.0000 </r>
       <r>  -12.7983    1.0000 </r>
       <r>  -12.4974    1.0000 </r>
       <r>  -12.3197    1.0000 </r>
       <r>  -12.2876    1.0000 </r>
       <r>  -12.0008    1.0000 </r>
       <r>  -11.5906    1.0000 </r>
       <r>  -11.5383    1.0000 </r>
       <r>  -11.1295    1.0000 </r>
       <r>  -10.9469    1.0000 </r>
       <r>  -10.7024    1.0000 </r>
       <r>  -10.5417    1.0000 </r>
       <r>  -10.5358    1.0000 </r>
       <r>  -10.4519    1.0000 </r>
       <r>  -10.3874    1.0000 </r>
       <r>  -10.2922    1.0000 </r>
       <r>   -9.9522    1.0000 </r>
       <r>   -9.8292    1.0000 </r>
       <r>   -9.8136    1.0000 </r>
       <r>   -9.7333    1.0000 </r>
       <r>   -9.6076    1.0000 </r>
       <r>   -9.5510    1.0000 </r>
       <r>   -9.4990    1.0000 </r>
       <r>   -9.4315    1.0000 </r>
       <r>   -9.3201    1.0000 </r>
       <r>   -9.2674    1.0000 </r>
       <r>   -9.1972    1.0000 </r>
       <r>   -8.9216    1.0000 </r>
       <r>   -8.8583    1.0000 </r>
       <r>   -8.8098    1.0000 </r>
       <r>   -8.7491    1.0000 </r>
       <r>   -8.4696    1.0000 </r>
       <r>   -8.3540    1.0000 </r>
       <r>   -8.3062    1.0000 </r>
       <r>   -8.2284    1.0000 </r>
       <r>   -8.1780    1.0000 </r>
       <r>   -8.0771    1.0000 </r>
       <r>   -7.9665    1.0000 </r>
       <r>   -7.8795    1.0000 </r>
       <r>   -7.7648    1.0000 </r>
       <r>   -7.7496    1.0000 </r>
       <r>   -7.4880    1.0000 </r>
       <r>   -7.4185    1.0000 </r>
       <r>   -7.2472    1.0000 </r>
       <r>   -7.2323    1.0000 </r>
       <r>   -7.1024    1.0000 </r>
       <r>   -6.9598    1.0000 </r>
       <r>   -6.7154    1.0000 </r>
       <r>   -6.6378    1.0000 </r>
       <r>   -6.4813    1.0000 </r>
       <r>   -6.4458    1.0000 </r>
       <r>   -6.1001    1.0000 </r>
       <r>   -6.0004    1.0000 </r>
       <r>   -5.9348    1.0000 </r>
       <r>   -5.5796    1.0000 </r>
       <r>   -5.5400    1.0000 </r>
       <r>   -5.3853    1.0000 </r>
       <r>   -4.9798    1.0000 </r>
       <r>   -4.8600    1.0000 </r>
       <r>   -4.8206    1.0000 </r>
       <r>   -4.4440    1.0000 </r>
       <r>   -3.9266    1.0000 </r>
       <r>   -3.7722    1.0000 </r>
       <r>   -2.3903    0.0000 </r>
       <r>   -1.8078    0.0000 </r>
       <r>   -1.6735    0.0000 </r>
       <r>   -1.3996    0.0000 </r>
       <r>   -0.9422    0.0000 </r>
       <r>   -0.8263    0.0000 </r>
       <r>   -0.8042    0.0000 </r>
       <r>   -0.7119    0.0000 </r>
       <r>   -0.6368    0.0000 </r>
       <r>   -0.0411    0.0000 </r>
       <r>    0.2045    0.0000 </r>
       <r>    0.3371    0.0000 </r>
       <r>    0.5257    0.0000 </r>
       <r>    0.5780    0.0000 </r>
       <r>    0.7940    0.0000 </r>
       <r>    0.8436    0.0000 </r>
       <r>    0.9170    0.0000 </r>
       <r>    1.1050    0.0000 </r>
       <r>    1.2051    0.0000 </r>
       <r>    1.2615    0.0000 </r>
       <r>    1.3677    0.0000 </r>
       <r>    1.4970    0.0000 </r>
       <r>    1.5267    0.0000 </r>
       <r>    1.5918    0.0000 </r>
       <r>    1.6374    0.0000 </r>
       <r>    1.6880    0.0000 </r>
       <r>    1.7866    0.0000 </r>
       <r>    1.8359    0.0000 </r>
       <r>    1.8416    0.0000 </r>
       <r>    1.9427    0.0000 </r>
       <r>    2.0321    0.0000 </r>
      </set>
     </set>
    </set>
   </array>
  </eigenvalues>
  <separator name="orbital magnetization" >
   <v name="MAGDIPOLOUT">      0.00000000      0.00000000      0.00000000</v>
  </separator>
  <dos>
   <i name="efermi">     -2.57103650 </i>
   <total>
    <array>
     <dimension dim="1">gridpoints</dimension>
     <dimension dim="2">spin</dimension>
     <field>energy</field>
     <field>total</field>
     <field>integrated</field>
     <set>
      <set comment="spin 1">
       <r>   -55.2899     0.0000     0.0000 </r>
       <r>   -55.0892     0.0000     0.0000 </r>
       <r>   -54.8885     0.0000     0.0000 </r>
       <r>   -54.6878     0.0000     0.0000 </r>
       <r>   -54.4872     0.0000     0.0000 </r>
       <r>   -54.2865     0.0000     0.0000 </r>
       <r>   -54.0858     0.0000     0.0000 </r>
       <r>   -53.8851     0.0000     0.0000 </r>
       <r>   -53.6845     0.0000     0.0000 </r>
       <r>   -53.4838     0.0000     0.0000 </r>
       <r>   -53.2831     0.0000     0.0000 </r>
       <r>   -53.0824     0.0000     0.0000 </r>
       <r>   -52.8817     0.0000     0.0000 </r>
       <r>   -52.6811     0.0008     0.0002 </r>
       <r>   -52.4804     4.8852     0.9805 </r>
       <r>   -52.2797     0.0972     1.0000 </r>
       <r>   -52.0790     0.0000     1.0000 </r>
       <r>   -51.8784     0.0000     1.0000 </r>
       <r>   -51.6777     0.0000     1.0000 </r>
       <r>   -51.4770     0.0000     1.0000 </r>
       <r>   -51.2763     0.0000     1.0000 </r>
       <r>   -51.0757     0.0000     1.0000 </r>
       <r>   -50.8750     0.0000     1.0000 </r>
       <r>   -50.6743     0.0000     1.0000 </r>
       <r>   -50.4736     0.0000     1.0000 </r>
       <r>   -50.2730     0.0000     1.0000 </r>
       <r>   -50.0723     0.0000     1.0000 </r>
       <r>   -49.8716     0.0000     1.0000 </r>
       <r>   -49.6709     0.0000     1.0000 </r>
       <r>   -49.4702     0.0000     1.0000 </r>
       <r>   -49.2696     0.0000     1.0000 </r>
       <r>   -49.0689     0.0000     1.0000 </r>
       <r>   -48.8682     0.0000     1.0000 </r>
       <r>   -48.6675     0.0000     1.0000 </r>
       <r>   -48.4669     0.0000     1.0000 </r>
       <r>   -48.2662     0.0000     1.0000 </r>
       <r>   -48.0655     0.0000     1.0000 </r>
       <r>   -47.8648     0.0000     1.0000 </r>
       <r>   -47.6642     0.0000     1.0000 </r>
       <r>   -47.4635     0.0000     1.0000 </r>
       <r>   -47.2628     0.0000     1.0000 </r>
       <r>   -47.0621     0.0000     1.0000 </r>
       <r>   -46.8615     0.0000     1.0000 </r>
       <r>   -46.6608     0.0000     1.0000 </r>
       <r>   -46.4601     0.0000     1.0000 </r>
       <r>   -46.2594     0.0000     1.0000 </r>
       <r>   -46.0587     0.0000     1.0000 </r>
       <r>   -45.8581     0.0000     1.0000 </r>
       <r>   -45.6574     0.0000     1.0000 </r>
       <r>   -45.4567     0.0000     1.0000 </r>
       <r>   -45.2560     0.0000     1.0000 </r>
       <r>   -45.0554     0.0000     1.0000 </r>
       <r>   -44.8547     0.0000     1.0000 </r>
       <r>   -44.6540     0.0000     1.0000 </r>
       <r>   -44.4533     0.0000     1.0000 </r>
       <r>   -44.2527     0.0000     1.0000 </r>
       <r>   -44.0520     0.0000     1.0000 </r>
       <r>   -43.8513     0.0000     1.0000 </r>
       <r>   -43.6506     0.0000     1.0000 </r>
       <r>   -43.4500     0.0000     1.0000 </r>
       <r>   -43.2493     0.0000     1.0000 </r>
       <r>   -43.0486     0.0000     1.0000 </r>
       <r>   -42.8479     0.0000     1.0000 </r>
       <r>   -42.6472     0.0000     1.0000 </r>
       <r>   -42.4466     0.0000     1.0000 </r>
       <r>   -42.2459     0.0000     1.0000 </r>
       <r>   -42.0452     0.0000     1.0000 </r>
       <r>   -41.8445     0.0000     1.0000 </r>
       <r>   -41.6439     0.0000     1.0000 </r>
       <r>   -41.4432     0.0000     1.0000 </r>
       <r>   -41.2425     0.0000     1.0000 </r>
       <r>   -41.0418     0.0000     1.0000 </r>
       <r>   -40.8412     0.0000     1.0000 </r>
       <r>   -40.6405     0.0000     1.0000 </r>
       <r>   -40.4398     0.0000     1.0000 </r>
       <r>   -40.2391     0.0000     1.0000 </r>
       <r>   -40.0385     0.0000     1.0000 </r>
       <r>   -39.8378     0.0000     1.0000 </r>
       <r>   -39.6371     0.0000     1.0000 </r>
       <r>   -39.4364     0.0000     1.0000 </r>
       <r>   -39.2357     0.0000     1.0000 </r>
       <r>   -39.0351     0.0000     1.0000 </r>
       <r>   -38.8344     0.0000     1.0000 </r>
       <r>   -38.6337     0.0000     1.0000 </r>
       <r>   -38.4330     0.0000     1.0000 </r>
       <r>   -38.2324     0.0000     1.0000 </r>
       <r>   -38.0317     0.0000     1.0000 </r>
       <r>   -37.8310     0.0000     1.0000 </r>
       <r>   -37.6303     0.0000     1.0000 </r>
       <r>   -37.4297     0.0000     1.0000 </r>
       <r>   -37.2290     0.0000     1.0000 </r>
       <r>   -37.0283     0.0000     1.0000 </r>
       <r>   -36.8276     0.0000     1.0000 </r>
       <r>   -36.6270     0.0000     1.0000 </r>
       <r>   -36.4263     0.0000     1.0000 </r>
       <r>   -36.2256     0.0000     1.0000 </r>
       <r>   -36.0249     0.0000     1.0000 </r>
       <r>   -35.8242     0.0000     1.0000 </r>
       <r>   -35.6236     0.0000     1.0000 </r>
       <r>   -35.4229     0.0000     1.0000 </r>
       <r>   -35.2222     0.0000     1.0000 </r>
       <r>   -35.0215     0.0000     1.0000 </r>
       <r>   -34.8209     0.0000     1.0000 </r>
       <r>   -34.6202     0.0000     1.0000 </r>
       <r>   -34.4195     0.0000     1.0000 </r>
       <r>   -34.2188     0.0000     1.0000 </r>
       <r>   -34.0182     0.0000     1.0000 </r>
       <r>   -33.8175     0.0000     1.0000 </r>
       <r>   -33.6168     0.0000     1.0000 </r>
       <r>   -33.4161     0.0000     1.0000 </r>
       <r>   -33.2155     0.0000     1.0000 </r>
       <r>   -33.0148     0.0000     1.0000 </r>
       <r>   -32.8141     0.0000     1.0000 </r>
       <r>   -32.6134     0.0000     1.0000 </r>
       <r>   -32.4127     0.0000     1.0000 </r>
       <r>   -32.2121     0.0000     1.0000 </r>
       <r>   -32.0114     0.0000     1.0000 </r>
       <r>   -31.8107     0.0000     1.0000 </r>
       <r>   -31.6100     0.0000     1.0000 </r>
       <r>   -31.4094     0.0000     1.0000 </r>
       <r>   -31.2087     0.0000     1.0000 </r>
       <r>   -31.0080     0.0000     1.0000 </r>
       <r>   -30.8073     0.0000     1.0000 </r>
       <r>   -30.6067     0.0000     1.0000 </r>
       <r>   -30.4060     0.0000     1.0000 </r>
       <r>   -30.2053     0.0000     1.0000 </r>
       <r>   -30.0046     0.0000     1.0000 </r>
       <r>   -29.8040     0.0000     1.0000 </r>
       <r>   -29.6033     0.0000     1.0000 </r>
       <r>   -29.4026     0.0000     1.0000 </r>
       <r>   -29.2019     0.0000     1.0000 </r>
       <r>   -29.0012     0.0000     1.0000 </r>
       <r>   -28.8006     0.0000     1.0000 </r>
       <r>   -28.5999     0.0000     1.0000 </r>
       <r>   -28.3992     0.0000     1.0000 </r>
       <r>   -28.1985     0.0000     1.0000 </r>
       <r>   -27.9979     0.0000     1.0000 </r>
       <r>   -27.7972     0.0000     1.0000 </r>
       <r>   -27.5965     0.0000     1.0000 </r>
       <r>   -27.3958     0.0000     1.0000 </r>
       <r>   -27.1952     0.0000     1.0000 </r>
       <r>   -26.9945     0.0000     1.0000 </r>
       <r>   -26.7938     0.0000     1.0000 </r>
       <r>   -26.5931     0.0000     1.0000 </r>
       <r>   -26.3925     0.0000     1.0000 </r>
       <r>   -26.1918     0.0000     1.0000 </r>
       <r>   -25.9911     0.0000     1.0000 </r>
       <r>   -25.7904     0.0000     1.0000 </r>
       <r>   -25.5897     0.0000     1.0000 </r>
       <r>   -25.3891     0.0000     1.0000 </r>
       <r>   -25.1884     0.0000     1.0000 </r>
       <r>   -24.9877     0.0000     1.0000 </r>
       <r>   -24.7870     0.0000     1.0000 </r>
       <r>   -24.5864     0.0000     1.0000 </r>
       <r>   -24.3857     0.0000     1.0000 </r>
       <r>   -24.1850     0.0000     1.0000 </r>
       <r>   -23.9843     0.0000     1.0000 </r>
       <r>   -23.7837     0.0000     1.0000 </r>
       <r>   -23.5830     0.0000     1.0000 </r>
       <r>   -23.3823     0.0000     1.0000 </r>
       <r>   -23.1816     0.0000     1.0000 </r>
       <r>   -22.9810     0.0000     1.0000 </r>
       <r>   -22.7803     0.0000     1.0000 </r>
       <r>   -22.5796     0.0000     1.0000 </r>
       <r>   -22.3789     0.2071     1.0416 </r>
       <r>   -22.1782     4.4826     1.9411 </r>
       <r>   -21.9776     3.1590     2.5751 </r>
       <r>   -21.7769     3.4384     3.2651 </r>
       <r>   -21.5762     2.9182     3.8507 </r>
       <r>   -21.3755     4.1459     4.6826 </r>
       <r>   -21.1749     2.6993     5.2243 </r>
       <r>   -20.9742     4.7096     6.1695 </r>
       <r>   -20.7735     4.6845     7.1095 </r>
       <r>   -20.5728     2.1372     7.5384 </r>
       <r>   -20.3722     5.0955     8.5610 </r>
       <r>   -20.1715     3.5343     9.2702 </r>
       <r>   -19.9708     4.2682    10.1267 </r>
       <r>   -19.7701     1.4986    10.4275 </r>
       <r>   -19.5695     5.4895    11.5291 </r>
       <r>   -19.3688     3.7730    12.2862 </r>
       <r>   -19.1681     4.4192    13.1731 </r>
       <r>   -18.9674     5.1026    14.1970 </r>
       <r>   -18.7667     1.6526    14.5287 </r>
       <r>   -18.5661     3.1942    15.1697 </r>
       <r>   -18.3654     7.6616    16.7072 </r>
       <r>   -18.1647     2.9510    17.2994 </r>
       <r>   -17.9640     3.9960    18.1013 </r>
       <r>   -17.7634     4.9518    19.0950 </r>
       <r>   -17.5627     0.4856    19.1924 </r>
       <r>   -17.3620     8.6656    20.9314 </r>
       <r>   -17.1613     4.3367    21.8017 </r>
       <r>   -16.9607     4.3452    22.6737 </r>
       <r>   -16.7600     4.5575    23.5882 </r>
       <r>   -16.5593     1.7005    23.9295 </r>
       <r>   -16.3586     2.2289    24.3768 </r>
       <r>   -16.1580     7.7207    25.9262 </r>
       <r>   -15.9573     0.9216    26.1111 </r>
       <r>   -15.7566     2.3831    26.5893 </r>
       <r>   -15.5559     2.9501    27.1813 </r>
       <r>   -15.3552     3.5379    27.8913 </r>
       <r>   -15.1546     7.4836    29.3931 </r>
       <r>   -14.9539     3.7413    30.1439 </r>
       <r>   -14.7532     4.8115    31.1094 </r>
       <r>   -14.5525     4.3554    31.9835 </r>
       <r>   -14.3519     3.6930    32.7245 </r>
       <r>   -14.1512     3.3081    33.3884 </r>
       <r>   -13.9505     5.4621    34.4845 </r>
       <r>   -13.7498     4.7144    35.4306 </r>
       <r>   -13.5492     2.2779    35.8877 </r>
       <r>   -13.3485     1.1095    36.1104 </r>
       <r>   -13.1478     7.1922    37.5537 </r>
       <r>   -12.9471     5.6343    38.6843 </r>
       <r>   -12.7465     4.7943    39.6465 </r>
       <r>   -12.5458     1.5496    39.9574 </r>
       <r>   -12.3451     4.0257    40.7653 </r>
       <r>   -12.1444     4.9196    41.7525 </r>
       <r>   -11.9437     7.7456    43.3069 </r>
       <r>   -11.7431     1.2948    43.5667 </r>
       <r>   -11.5424     6.4247    44.8560 </r>
       <r>   -11.3417     7.3515    46.3313 </r>
       <r>   -11.1410     4.4478    47.2239 </r>
       <r>   -10.9404     3.6224    47.9508 </r>
       <r>   -10.7397     2.8777    48.5283 </r>
       <r>   -10.5390     8.6179    50.2577 </r>
       <r>   -10.3383     9.8767    52.2397 </r>
       <r>   -10.1377     8.5361    53.9527 </r>
       <r>    -9.9370     8.6394    55.6864 </r>
       <r>    -9.7363     8.1911    57.3302 </r>
       <r>    -9.5356    10.6626    59.4699 </r>
       <r>    -9.3350     9.0790    61.2919 </r>
       <r>    -9.1343    14.0365    64.1086 </r>
       <r>    -8.9336    11.9915    66.5151 </r>
       <r>    -8.7329    11.7420    68.8714 </r>
       <r>    -8.5322     7.7888    70.4344 </r>
       <r>    -8.3316     8.2473    72.0895 </r>
       <r>    -8.1309     9.7996    74.0560 </r>
       <r>    -7.9302    13.0979    76.6845 </r>
       <r>    -7.7295     7.7575    78.2412 </r>
       <r>    -7.5289     2.7880    78.8007 </r>
       <r>    -7.3282     9.0661    80.6200 </r>
       <r>    -7.1275     9.2167    82.4696 </r>
       <r>    -6.9268    10.0161    84.4796 </r>
       <r>    -6.7262     8.6894    86.2234 </r>
       <r>    -6.5255     5.1232    87.2515 </r>
       <r>    -6.3248     6.0129    88.4581 </r>
       <r>    -6.1241     5.3768    89.5371 </r>
       <r>    -5.9235    11.7390    91.8929 </r>
       <r>    -5.7228     3.1512    92.5252 </r>
       <r>    -5.5221     6.8587    93.9016 </r>
       <r>    -5.3214     2.1386    94.3308 </r>
       <r>    -5.1207     3.0506    94.9430 </r>
       <r>    -4.9201     8.0677    96.5620 </r>
       <r>    -4.7194     7.3469    98.0363 </r>
       <r>    -4.5187     1.9745    98.4326 </r>
       <r>    -4.3180     2.3792    98.9100 </r>
       <r>    -4.1174     1.9971    99.3108 </r>
       <r>    -3.9167     2.5604    99.8246 </r>
       <r>    -3.7160     2.5195   100.3302 </r>
       <r>    -3.5153     2.2198   100.7756 </r>
       <r>    -3.3147     0.0106   100.7778 </r>
       <r>    -3.1140     0.0000   100.7778 </r>
       <r>    -2.9133     0.4839   100.8749 </r>
       <r>    -2.7126     2.0900   101.2943 </r>
       <r>    -2.5120     2.4475   101.7855 </r>
       <r>    -2.3113     2.0950   102.2059 </r>
       <r>    -2.1106     0.0814   102.2222 </r>
       <r>    -1.9099     0.0866   102.2396 </r>
       <r>    -1.7092     3.8679   103.0158 </r>
       <r>    -1.5086     3.8762   103.7937 </r>
       <r>    -1.3079     5.6214   104.9217 </r>
       <r>    -1.1072     1.3512   105.1929 </r>
       <r>    -0.9065     7.1935   106.6365 </r>
       <r>    -0.7059     7.9244   108.2267 </r>
       <r>    -0.5052     5.2018   109.2706 </r>
       <r>    -0.3045     3.0810   109.8889 </r>
       <r>    -0.1038     0.4749   109.9842 </r>
       <r>     0.0968     4.0807   110.8031 </r>
       <r>     0.2975     9.7295   112.7556 </r>
       <r>     0.4982     8.5411   114.4696 </r>
       <r>     0.6989     4.3463   115.3418 </r>
       <r>     0.8995     7.5192   116.8507 </r>
       <r>     1.1002     8.0956   118.4753 </r>
       <r>     1.3009    11.6017   120.8035 </r>
       <r>     1.5016    13.6409   123.5409 </r>
       <r>     1.7023    16.2914   126.8102 </r>
       <r>     1.9029    18.1223   130.4469 </r>
       <r>     2.1036     7.1170   131.8751 </r>
       <r>     2.3043     0.6222   132.0000 </r>
       <r>     2.5050     0.0000   132.0000 </r>
       <r>     2.7056     0.0000   132.0000 </r>
       <r>     2.9063     0.0000   132.0000 </r>
       <r>     3.1070     0.0000   132.0000 </r>
       <r>     3.3077     0.0000   132.0000 </r>
       <r>     3.5083     0.0000   132.0000 </r>
       <r>     3.7090     0.0000   132.0000 </r>
       <r>     3.9097     0.0000   132.0000 </r>
       <r>     4.1104     0.0000   132.0000 </r>
       <r>     4.3110     0.0000   132.0000 </r>
       <r>     4.5117     0.0000   132.0000 </r>
       <r>     4.7124     0.0000   132.0000 </r>
       <r>     4.9131     0.0000   132.0000 </r>
      </set>
      <set comment="spin 2">
       <r>   -55.2899     0.0000     0.0000 </r>
       <r>   -55.0892     0.0000     0.0000 </r>
       <r>   -54.8885     0.0000     0.0000 </r>
       <r>   -54.6878     0.0000     0.0000 </r>
       <r>   -54.4872     0.0000     0.0000 </r>
       <r>   -54.2865     0.0000     0.0000 </r>
       <r>   -54.0858     0.0000     0.0000 </r>
       <r>   -53.8851     0.0000     0.0000 </r>
       <r>   -53.6845     0.0000     0.0000 </r>
       <r>   -53.4838     0.0000     0.0000 </r>
       <r>   -53.2831     0.0000     0.0000 </r>
       <r>   -53.0824     0.0000     0.0000 </r>
       <r>   -52.8817     0.0000     0.0000 </r>
       <r>   -52.6811     0.0007     0.0001 </r>
       <r>   -52.4804     4.8837     0.9802 </r>
       <r>   -52.2797     0.0987     1.0000 </r>
       <r>   -52.0790     0.0000     1.0000 </r>
       <r>   -51.8784     0.0000     1.0000 </r>
       <r>   -51.6777     0.0000     1.0000 </r>
       <r>   -51.4770     0.0000     1.0000 </r>
       <r>   -51.2763     0.0000     1.0000 </r>
       <r>   -51.0757     0.0000     1.0000 </r>
       <r>   -50.8750     0.0000     1.0000 </r>
       <r>   -50.6743     0.0000     1.0000 </r>
       <r>   -50.4736     0.0000     1.0000 </r>
       <r>   -50.2730     0.0000     1.0000 </r>
       <r>   -50.0723     0.0000     1.0000 </r>
       <r>   -49.8716     0.0000     1.0000 </r>
       <r>   -49.6709     0.0000     1.0000 </r>
       <r>   -49.4702     0.0000     1.0000 </r>
       <r>   -49.2696     0.0000     1.0000 </r>
       <r>   -49.0689     0.0000     1.0000 </r>
       <r>   -48.8682     0.0000     1.0000 </r>
       <r>   -48.6675     0.0000     1.0000 </r>
       <r>   -48.4669     0.0000     1.0000 </r>
       <r>   -48.2662     0.0000     1.0000 </r>
       <r>   -48.0655     0.0000     1.0000 </r>
       <r>   -47.8648     0.0000     1.0000 </r>
       <r>   -47.6642     0.0000     1.0000 </r>
       <r>   -47.4635     0.0000     1.0000 </r>
       <r>   -47.2628     0.0000     1.0000 </r>
       <r>   -47.0621     0.0000     1.0000 </r>
       <r>   -46.8615     0.0000     1.0000 </r>
       <r>   -46.6608     0.0000     1.0000 </r>
       <r>   -46.4601     0.0000     1.0000 </r>
       <r>   -46.2594     0.0000     1.0000 </r>
       <r>   -46.0587     0.0000     1.0000 </r>
       <r>   -45.8581     0.0000     1.0000 </r>
       <r>   -45.6574     0.0000     1.0000 </r>
       <r>   -45.4567     0.0000     1.0000 </r>
       <r>   -45.2560     0.0000     1.0000 </r>
       <r>   -45.0554     0.0000     1.0000 </r>
       <r>   -44.8547     0.0000     1.0000 </r>
       <r>   -44.6540     0.0000     1.0000 </r>
       <r>   -44.4533     0.0000     1.0000 </r>
       <r>   -44.2527     0.0000     1.0000 </r>
       <r>   -44.0520     0.0000     1.0000 </r>
       <r>   -43.8513     0.0000     1.0000 </r>
       <r>   -43.6506     0.0000     1.0000 </r>
       <r>   -43.4500     0.0000     1.0000 </r>
       <r>   -43.2493     0.0000     1.0000 </r>
       <r>   -43.0486     0.0000     1.0000 </r>
       <r>   -42.8479     0.0000     1.0000 </r>
       <r>   -42.6472     0.0000     1.0000 </r>
       <r>   -42.4466     0.0000     1.0000 </r>
       <r>   -42.2459     0.0000     1.0000 </r>
       <r>   -42.0452     0.0000     1.0000 </r>
       <r>   -41.8445     0.0000     1.0000 </r>
       <r>   -41.6439     0.0000     1.0000 </r>
       <r>   -41.4432     0.0000     1.0000 </r>
       <r>   -41.2425     0.0000     1.0000 </r>
       <r>   -41.0418     0.0000     1.0000 </r>
       <r>   -40.8412     0.0000     1.0000 </r>
       <r>   -40.6405     0.0000     1.0000 </r>
       <r>   -40.4398     0.0000     1.0000 </r>
       <r>   -40.2391     0.0000     1.0000 </r>
       <r>   -40.0385     0.0000     1.0000 </r>
       <r>   -39.8378     0.0000     1.0000 </r>
       <r>   -39.6371     0.0000     1.0000 </r>
       <r>   -39.4364     0.0000     1.0000 </r>
       <r>   -39.2357     0.0000     1.0000 </r>
       <r>   -39.0351     0.0000     1.0000 </r>
       <r>   -38.8344     0.0000     1.0000 </r>
       <r>   -38.6337     0.0000     1.0000 </r>
       <r>   -38.4330     0.0000     1.0000 </r>
       <r>   -38.2324     0.0000     1.0000 </r>
       <r>   -38.0317     0.0000     1.0000 </r>
       <r>   -37.8310     0.0000     1.0000 </r>
       <r>   -37.6303     0.0000     1.0000 </r>
       <r>   -37.4297     0.0000     1.0000 </r>
       <r>   -37.2290     0.0000     1.0000 </r>
       <r>   -37.0283     0.0000     1.0000 </r>
       <r>   -36.8276     0.0000     1.0000 </r>
       <r>   -36.6270     0.0000     1.0000 </r>
       <r>   -36.4263     0.0000     1.0000 </r>
       <r>   -36.2256     0.0000     1.0000 </r>
       <r>   -36.0249     0.0000     1.0000 </r>
       <r>   -35.8242     0.0000     1.0000 </r>
       <r>   -35.6236     0.0000     1.0000 </r>
       <r>   -35.4229     0.0000     1.0000 </r>
       <r>   -35.2222     0.0000     1.0000 </r>
       <r>   -35.0215     0.0000     1.0000 </r>
       <r>   -34.8209     0.0000     1.0000 </r>
       <r>   -34.6202     0.0000     1.0000 </r>
       <r>   -34.4195     0.0000     1.0000 </r>
       <r>   -34.2188     0.0000     1.0000 </r>
       <r>   -34.0182     0.0000     1.0000 </r>
       <r>   -33.8175     0.0000     1.0000 </r>
       <r>   -33.6168     0.0000     1.0000 </r>
       <r>   -33.4161     0.0000     1.0000 </r>
       <r>   -33.2155     0.0000     1.0000 </r>
       <r>   -33.0148     0.0000     1.0000 </r>
       <r>   -32.8141     0.0000     1.0000 </r>
       <r>   -32.6134     0.0000     1.0000 </r>
       <r>   -32.4127     0.0000     1.0000 </r>
       <r>   -32.2121     0.0000     1.0000 </r>
       <r>   -32.0114     0.0000     1.0000 </r>
       <r>   -31.8107     0.0000     1.0000 </r>
       <r>   -31.6100     0.0000     1.0000 </r>
       <r>   -31.4094     0.0000     1.0000 </r>
       <r>   -31.2087     0.0000     1.0000 </r>
       <r>   -31.0080     0.0000     1.0000 </r>
       <r>   -30.8073     0.0000     1.0000 </r>
       <r>   -30.6067     0.0000     1.0000 </r>
       <r>   -30.4060     0.0000     1.0000 </r>
       <r>   -30.2053     0.0000     1.0000 </r>
       <r>   -30.0046     0.0000     1.0000 </r>
       <r>   -29.8040     0.0000     1.0000 </r>
       <r>   -29.6033     0.0000     1.0000 </r>
       <r>   -29.4026     0.0000     1.0000 </r>
       <r>   -29.2019     0.0000     1.0000 </r>
       <r>   -29.0012     0.0000     1.0000 </r>
       <r>   -28.8006     0.0000     1.0000 </r>
       <r>   -28.5999     0.0000     1.0000 </r>
       <r>   -28.3992     0.0000     1.0000 </r>
       <r>   -28.1985     0.0000     1.0000 </r>
       <r>   -27.9979     0.0000     1.0000 </r>
       <r>   -27.7972     0.0000     1.0000 </r>
       <r>   -27.5965     0.0000     1.0000 </r>
       <r>   -27.3958     0.0000     1.0000 </r>
       <r>   -27.1952     0.0000     1.0000 </r>
       <r>   -26.9945     0.0000     1.0000 </r>
       <r>   -26.7938     0.0000     1.0000 </r>
       <r>   -26.5931     0.0000     1.0000 </r>
       <r>   -26.3925     0.0000     1.0000 </r>
       <r>   -26.1918     0.0000     1.0000 </r>
       <r>   -25.9911     0.0000     1.0000 </r>
       <r>   -25.7904     0.0000     1.0000 </r>
       <r>   -25.5897     0.0000     1.0000 </r>
       <r>   -25.3891     0.0000     1.0000 </r>
       <r>   -25.1884     0.0000     1.0000 </r>
       <r>   -24.9877     0.0000     1.0000 </r>
       <r>   -24.7870     0.0000     1.0000 </r>
       <r>   -24.5864     0.0000     1.0000 </r>
       <r>   -24.3857     0.0000     1.0000 </r>
       <r>   -24.1850     0.0000     1.0000 </r>
       <r>   -23.9843     0.0000     1.0000 </r>
       <r>   -23.7837     0.0000     1.0000 </r>
       <r>   -23.5830     0.0000     1.0000 </r>
       <r>   -23.3823     0.0000     1.0000 </r>
       <r>   -23.1816     0.0000     1.0000 </r>
       <r>   -22.9810     0.0000     1.0000 </r>
       <r>   -22.7803     0.0000     1.0000 </r>
       <r>   -22.5796     0.0000     1.0000 </r>
       <r>   -22.3789     0.1375     1.0276 </r>
       <r>   -22.1782     4.3926     1.9091 </r>
       <r>   -21.9776     3.0441     2.5200 </r>
       <r>   -21.7769     3.5107     3.2245 </r>
       <r>   -21.5762     2.9370     3.8139 </r>
       <r>   -21.3755     4.3080     4.6784 </r>
       <r>   -21.1749     2.6359     5.2073 </r>
       <r>   -20.9742     4.6997     6.1505 </r>
       <r>   -20.7735     4.7746     7.1086 </r>
       <r>   -20.5728     2.0116     7.5123 </r>
       <r>   -20.3722     5.0024     8.5162 </r>
       <r>   -20.1715     3.4756     9.2136 </r>
       <r>   -19.9708     4.4315    10.1029 </r>
       <r>   -19.7701     1.4925    10.4024 </r>
       <r>   -19.5695     5.5258    11.5113 </r>
       <r>   -19.3688     3.7477    12.2634 </r>
       <r>   -19.1681     4.4434    13.1551 </r>
       <r>   -18.9674     4.9391    14.1462 </r>
       <r>   -18.7667     1.8840    14.5243 </r>
       <r>   -18.5661     2.8466    15.0956 </r>
       <r>   -18.3654     7.7440    16.6496 </r>
       <r>   -18.1647     3.1833    17.2884 </r>
       <r>   -17.9640     3.7966    18.0503 </r>
       <r>   -17.7634     5.1715    19.0881 </r>
       <r>   -17.5627     0.4320    19.1748 </r>
       <r>   -17.3620     8.5308    20.8867 </r>
       <r>   -17.1613     4.4498    21.7797 </r>
       <r>   -16.9607     4.2667    22.6359 </r>
       <r>   -16.7600     4.5716    23.5533 </r>
       <r>   -16.5593     1.7925    23.9130 </r>
       <r>   -16.3586     2.1499    24.3445 </r>
       <r>   -16.1580     7.7794    25.9056 </r>
       <r>   -15.9573     1.0239    26.1111 </r>
       <r>   -15.7566     2.0687    26.5262 </r>
       <r>   -15.5559     3.1085    27.1500 </r>
       <r>   -15.3552     3.5778    27.8680 </r>
       <r>   -15.1546     7.5667    29.3864 </r>
       <r>   -14.9539     3.6518    30.1193 </r>
       <r>   -14.7532     4.8433    31.0912 </r>
       <r>   -14.5525     4.4102    31.9762 </r>
       <r>   -14.3519     3.4878    32.6761 </r>
       <r>   -14.1512     3.4550    33.3695 </r>
       <r>   -13.9505     5.5105    34.4753 </r>
       <r>   -13.7498     4.7092    35.4203 </r>
       <r>   -13.5492     2.3241    35.8867 </r>
       <r>   -13.3485     0.9342    36.0742 </r>
       <r>   -13.1478     7.1153    37.5021 </r>
       <r>   -12.9471     5.7970    38.6654 </r>
       <r>   -12.7465     4.7867    39.6260 </r>
       <r>   -12.5458     1.5071    39.9284 </r>
       <r>   -12.3451     4.0659    40.7443 </r>
       <r>   -12.1444     4.8740    41.7224 </r>
       <r>   -11.9437     7.8115    43.2900 </r>
       <r>   -11.7431     1.3212    43.5551 </r>
       <r>   -11.5424     6.0326    44.7657 </r>
       <r>   -11.3417     7.7234    46.3156 </r>
       <r>   -11.1410     4.4545    47.2096 </r>
       <r>   -10.9404     3.5799    47.9280 </r>
       <r>   -10.7397     2.8892    48.5078 </r>
       <r>   -10.5390     8.4347    50.2004 </r>
       <r>   -10.3383     9.5275    52.1123 </r>
       <r>   -10.1377     9.0519    53.9288 </r>
       <r>    -9.9370     8.3274    55.6000 </r>
       <r>    -9.7363     8.2381    57.2532 </r>
       <r>    -9.5356    10.4246    59.3451 </r>
       <r>    -9.3350     9.4355    61.2386 </r>
       <r>    -9.1343    14.0141    64.0509 </r>
       <r>    -8.9336    11.5955    66.3778 </r>
       <r>    -8.7329    11.9219    68.7703 </r>
       <r>    -8.5322     8.1733    70.4105 </r>
       <r>    -8.3316     8.1554    72.0471 </r>
       <r>    -8.1309     9.6535    73.9843 </r>
       <r>    -7.9302    12.8522    76.5634 </r>
       <r>    -7.7295     8.2061    78.2102 </r>
       <r>    -7.5289     2.5733    78.7266 </r>
       <r>    -7.3282     9.0138    80.5355 </r>
       <r>    -7.1275     9.3251    82.4068 </r>
       <r>    -6.9268    10.0201    84.4176 </r>
       <r>    -6.7262     8.5652    86.1365 </r>
       <r>    -6.5255     5.5281    87.2458 </r>
       <r>    -6.3248     5.7948    88.4087 </r>
       <r>    -6.1241     4.5351    89.3188 </r>
       <r>    -5.9235    12.5236    91.8320 </r>
       <r>    -5.7228     3.1711    92.4683 </r>
       <r>    -5.5221     6.6507    93.8030 </r>
       <r>    -5.3214     2.6044    94.3256 </r>
       <r>    -5.1207     2.8530    94.8981 </r>
       <r>    -4.9201     7.2859    96.3602 </r>
       <r>    -4.7194     7.9412    97.9538 </r>
       <r>    -4.5187     2.1692    98.3891 </r>
       <r>    -4.3180     2.4838    98.8876 </r>
       <r>    -4.1174     2.0869    99.3064 </r>
       <r>    -3.9167     1.8165    99.6709 </r>
       <r>    -3.7160     3.2397   100.3210 </r>
       <r>    -3.5153     2.2499   100.7725 </r>
       <r>    -3.3147     0.0261   100.7778 </r>
       <r>    -3.1140     0.0000   100.7778 </r>
       <r>    -2.9133     0.0865   100.7951 </r>
       <r>    -2.7126     1.9944   101.1954 </r>
       <r>    -2.5120     1.7286   101.5423 </r>
       <r>    -2.3113     2.7672   102.0976 </r>
       <r>    -2.1106     0.6212   102.2222 </r>
       <r>    -1.9099     0.0188   102.2260 </r>
       <r>    -1.7092     3.7730   102.9831 </r>
       <r>    -1.5086     3.7315   103.7320 </r>
       <r>    -1.3079     5.6322   104.8622 </r>
       <r>    -1.1072     1.4712   105.1575 </r>
       <r>    -0.9065     7.1768   106.5977 </r>
       <r>    -0.7059     7.7637   108.1557 </r>
       <r>    -0.5052     5.0543   109.1699 </r>
       <r>    -0.3045     3.5825   109.8889 </r>
       <r>    -0.1038     0.2489   109.9388 </r>
       <r>     0.0968     4.1023   110.7621 </r>
       <r>     0.2975     9.4864   112.6658 </r>
       <r>     0.4982     8.5142   114.3744 </r>
       <r>     0.6989     4.7970   115.3370 </r>
       <r>     0.8995     7.0121   116.7442 </r>
       <r>     1.1002     8.1291   118.3755 </r>
       <r>     1.3009    11.1363   120.6103 </r>
       <r>     1.5016    12.5411   123.1270 </r>
       <r>     1.7023    17.1173   126.5620 </r>
       <r>     1.9029    18.5987   130.2943 </r>
       <r>     2.1036     7.5217   131.8038 </r>
       <r>     2.3043     0.9778   132.0000 </r>
       <r>     2.5050     0.0001   132.0000 </r>
       <r>     2.7056     0.0000   132.0000 </r>
       <r>     2.9063     0.0000   132.0000 </r>
       <r>     3.1070     0.0000   132.0000 </r>
       <r>     3.3077     0.0000   132.0000 </r>
       <r>     3.5083     0.0000   132.0000 </r>
       <r>     3.7090     0.0000   132.0000 </r>
       <r>     3.9097     0.0000   132.0000 </r>
       <r>     4.1104     0.0000   132.0000 </r>
       <r>     4.3110     0.0000   132.0000 </r>
       <r>     4.5117     0.0000   132.0000 </r>
       <r>     4.7124     0.0000   132.0000 </r>
       <r>     4.9131     0.0000   132.0000 </r>
      </set>
     </set>
    </array>
   </total>
  </dos>
 </calculation>
 <structure name="finalpos" >
  <crystal>
   <varray name="basis" >
    <v>      12.30000000       0.00000000       0.00000000 </v>
    <v>      -6.15000000      10.65211247       0.00000000 </v>
    <v>       0.00000000       0.00000000      30.00000000 </v>
   </varray>
   <i name="volume">   3930.62950016 </i>
   <varray name="rec_basis" >
    <v>       0.08130081       0.04693905       0.00000000 </v>
    <v>       0.00000000       0.09387809       0.00000000 </v>
    <v>       0.00000000       0.00000000       0.03333333 </v>
   </varray>
  </crystal>
  <varray name="positions" >
   <v>       0.99824632       0.00451485       0.50456974 </v>
   <v>       0.13064214       0.06937547       0.51014723 </v>
   <v>       0.99450334       0.20543693       0.49533941 </v>
   <v>       0.12874344       0.26897822       0.49821997 </v>
   <v>       0.99549924       0.40924387       0.48997498 </v>
   <v>       0.13111623       0.47011518       0.49608251 </v>
   <v>       0.01694627       0.61707021       0.50086202 </v>
   <v>       0.14368459       0.67346735       0.50906859 </v>
   <v>       0.00680056       0.81035110       0.50906906 </v>
   <v>       0.13634663       0.87093284       0.51710703 </v>
   <v>       0.19769422       0.00223603       0.51731135 </v>
   <v>       0.51663516       0.24987308       0.50229483 </v>
   <v>       0.40218667       0.39650253       0.49661258 </v>
   <v>       0.32847798       0.26460571       0.50429262 </v>
   <v>       0.19857260       0.40161433       0.49668863 </v>
   <v>       0.33464895       0.46494607       0.49678961 </v>
   <v>       0.20488481       0.60214560       0.50352156 </v>
   <v>       0.33784857       0.66491353       0.50456968 </v>
   <v>       0.20426646       0.80301336       0.51710687 </v>
   <v>       0.33556953       0.86436090       0.51731135 </v>
   <v>       0.39697042       0.99568090       0.51793013 </v>
   <v>       0.52677657       0.05640753       0.51029899 </v>
   <v>       0.38974075       0.19344334       0.51029902 </v>
   <v>       0.32901416       0.06363699       0.51793012 </v>
   <v>       0.19546749       0.20182835       0.50490773 </v>
   <v>       0.53776641       0.45732263       0.49044788 </v>
   <v>       0.60231162       0.79541019       0.49821990 </v>
   <v>       0.53877040       0.66117011       0.49533946 </v>
   <v>       0.40270914       0.79730880       0.51014714 </v>
   <v>       0.53516185       0.86213429       0.50490773 </v>
   <v>       0.59793910       0.99514473       0.50429256 </v>
   <v>       0.72983580       0.06885333       0.49661244 </v>
   <v>       0.58320626       0.18330190       0.50229480 </v>
   <v>       0.70782687       0.25920486       0.48900840 </v>
   <v>       0.59253813       0.37449369       0.48900842 </v>
   <v>       0.71088039       0.37754721       0.47886008 </v>
   <v>       0.60677497       0.59312172       0.48985965 </v>
   <v>       0.93547874       0.87155144       0.50352185 </v>
   <v>       0.40452511       0.59760148       0.49815080 </v>
   <v>       0.73494768       0.86523935       0.49668863 </v>
   <v>       0.79827934       0.00131561       0.49678948 </v>
   <v>       0.93093470       0.07119166       0.49815081 </v>
   <v>       0.79065586       0.20443305       0.49044784 </v>
   <v>       0.92645497       0.27344147       0.48985966 </v>
   <v>       0.82194826       0.48861487       0.47841955 </v>
   <v>       0.94070656       0.49201793       0.48816656 </v>
   <v>       0.82535155       0.60737341       0.48816659 </v>
   <v>       0.95040365       0.68361294       0.50086218 </v>
   <v>       0.80344850       0.79778282       0.49608286 </v>
   <v>       0.74257744       0.66216589       0.48997508 </v>
   <v>       0.80543570       0.44646790       0.55691839 </v>
  </varray>
 </structure>
</modeling>
