  51  51   0   0
  0.7707117E+02  0.1230000E-08  0.1230000E-08  0.3000000E-08  0.5000000E-15
  1.000000000000000E-004
  CAR 
 Li defective graphene MACE training lab 
      4.88990395    -55.11808847  301     -2.58470243      1.00000000
    -55.118  0.0000E+00  0.0000E+00  0.0000E+00  0.0000E+00
    -54.918  0.0000E+00  0.0000E+00  0.0000E+00  0.0000E+00
    -54.718  0.0000E+00  0.0000E+00  0.0000E+00  0.0000E+00
    -54.518  0.0000E+00  0.0000E+00  0.0000E+00  0.0000E+00
    -54.318  0.0000E+00  0.0000E+00  0.0000E+00  0.0000E+00
    -54.118  0.0000E+00  0.0000E+00  0.0000E+00  0.0000E+00
    -53.918  0.0000E+00  0.0000E+00  0.0000E+00  0.0000E+00
    -53.718  0.0000E+00  0.0000E+00  0.0000E+00  0.0000E+00
    -53.518  0.0000E+00  0.0000E+00  0.0000E+00  0.0000E+00
    -53.318  0.0000E+00  0.0000E+00  0.0000E+00  0.0000E+00
    -53.118  0.0000E+00  0.0000E+00  0.0000E+00  0.0000E+00
    -52.918  0.0000E+00  0.0000E+00  0.0000E+00  0.0000E+00
    -52.718  0.0000E+00  0.0000E+00  0.0000E+00  0.0000E+00
    -52.518  0.7945E-03  0.7370E-03  0.1589E-03  0.1474E-03
    -52.318  0.4899E+01  0.4895E+01  0.9802E+00  0.9792E+00
    -52.118  0.9913E-01  0.1039E+00  0.1000E+01  0.1000E+01
    -51.918  0.0000E+00  0.0000E+00  0.1000E+01  0.1000E+01
    -51.718  0.0000E+00  0.0000E+00  0.1000E+01  0.1000E+01
    -51.518  0.0000E+00  0.0000E+00  0.1000E+01  0.1000E+01
    -51.318  0.0000E+00  0.0000E+00  0.1000E+01  0.1000E+01
    -51.118  0.0000E+00  0.0000E+00  0.1000E+01  0.1000E+01
    -50.918  0.0000E+00  0.0000E+00  0.1000E+01  0.1000E+01
    -50.718  0.0000E+00  0.0000E+00  0.1000E+01  0.1000E+01
    -50.517  0.0000E+00  0.0000E+00  0.1000E+01  0.1000E+01
    -50.317  0.0000E+00  0.0000E+00  0.1000E+01  0.1000E+01
    -50.117  0.0000E+00  0.0000E+00  0.1000E+01  0.1000E+01
    -49.917  0.0000E+00  0.0000E+00  0.1000E+01  0.1000E+01
    -49.717  0.0000E+00  0.0000E+00  0.1000E+01  0.1000E+01
    -49.517  0.0000E+00  0.0000E+00  0.1000E+01  0.1000E+01
    -49.317  0.0000E+00  0.0000E+00  0.1000E+01  0.1000E+01
    -49.117  0.0000E+00  0.0000E+00  0.1000E+01  0.1000E+01
    -48.917  0.0000E+00  0.0000E+00  0.1000E+01  0.1000E+01
    -48.717  0.0000E+00  0.0000E+00  0.1000E+01  0.1000E+01
    -48.517  0.0000E+00  0.0000E+00  0.1000E+01  0.1000E+01
    -48.317  0.0000E+00  0.0000E+00  0.1000E+01  0.1000E+01
    -48.117  0.0000E+00  0.0000E+00  0.1000E+01  0.1000E+01
    -47.917  0.0000E+00  0.0000E+00  0.1000E+01  0.1000E+01
    -47.717  0.0000E+00  0.0000E+00  0.1000E+01  0.1000E+01
    -47.517  0.0000E+00  0.0000E+00  0.1000E+01  0.1000E+01
    -47.317  0.0000E+00  0.0000E+00  0.1000E+01  0.1000E+01
    -47.117  0.0000E+00  0.0000E+00  0.1000E+01  0.1000E+01
    -46.917  0.0000E+00  0.0000E+00  0.1000E+01  0.1000E+01
    -46.717  0.0000E+00  0.0000E+00  0.1000E+01  0.1000E+01
    -46.517  0.0000E+00  0.0000E+00  0.1000E+01  0.1000E+01
    -46.317  0.0000E+00  0.0000E+00  0.1000E+01  0.1000E+01
    -46.117  0.0000E+00  0.0000E+00  0.1000E+01  0.1000E+01
    -45.917  0.0000E+00  0.0000E+00  0.1000E+01  0.1000E+01
    -45.717  0.0000E+00  0.0000E+00  0.1000E+01  0.1000E+01
    -45.517  0.0000E+00  0.0000E+00  0.1000E+01  0.1000E+01
    -45.317  0.0000E+00  0.0000E+00  0.1000E+01  0.1000E+01
    -45.117  0.0000E+00  0.0000E+00  0.1000E+01  0.1000E+01
    -44.917  0.0000E+00  0.0000E+00  0.1000E+01  0.1000E+01
    -44.717  0.0000E+00  0.0000E+00  0.1000E+01  0.1000E+01
    -44.517  0.0000E+00  0.0000E+00  0.1000E+01  0.1000E+01
    -44.317  0.0000E+00  0.0000E+00  0.1000E+01  0.1000E+01
    -44.117  0.0000E+00  0.0000E+00  0.1000E+01  0.1000E+01
    -43.917  0.0000E+00  0.0000E+00  0.1000E+01  0.1000E+01
    -43.717  0.0000E+00  0.0000E+00  0.1000E+01  0.1000E+01
    -43.517  0.0000E+00  0.0000E+00  0.1000E+01  0.1000E+01
    -43.317  0.0000E+00  0.0000E+00  0.1000E+01  0.1000E+01
    -43.116  0.0000E+00  0.0000E+00  0.1000E+01  0.1000E+01
    -42.916  0.0000E+00  0.0000E+00  0.1000E+01  0.1000E+01
    -42.716  0.0000E+00  0.0000E+00  0.1000E+01  0.1000E+01
    -42.516  0.0000E+00  0.0000E+00  0.1000E+01  0.1000E+01
    -42.316  0.0000E+00  0.0000E+00  0.1000E+01  0.1000E+01
    -42.116  0.0000E+00  0.0000E+00  0.1000E+01  0.1000E+01
    -41.916  0.0000E+00  0.0000E+00  0.1000E+01  0.1000E+01
    -41.716  0.0000E+00  0.0000E+00  0.1000E+01  0.1000E+01
    -41.516  0.0000E+00  0.0000E+00  0.1000E+01  0.1000E+01
    -41.316  0.0000E+00  0.0000E+00  0.1000E+01  0.1000E+01
    -41.116  0.0000E+00  0.0000E+00  0.1000E+01  0.1000E+01
    -40.916  0.0000E+00  0.0000E+00  0.1000E+01  0.1000E+01
    -40.716  0.0000E+00  0.0000E+00  0.1000E+01  0.1000E+01
    -40.516  0.0000E+00  0.0000E+00  0.1000E+01  0.1000E+01
    -40.316  0.0000E+00  0.0000E+00  0.1000E+01  0.1000E+01
    -40.116  0.0000E+00  0.0000E+00  0.1000E+01  0.1000E+01
    -39.916  0.0000E+00  0.0000E+00  0.1000E+01  0.1000E+01
    -39.716  0.0000E+00  0.0000E+00  0.1000E+01  0.1000E+01
    -39.516  0.0000E+00  0.0000E+00  0.1000E+01  0.1000E+01
    -39.316  0.0000E+00  0.0000E+00  0.1000E+01  0.1000E+01
    -39.116  0.0000E+00  0.0000E+00  0.1000E+01  0.1000E+01
    -38.916  0.0000E+00  0.0000E+00  0.1000E+01  0.1000E+01
    -38.716  0.0000E+00  0.0000E+00  0.1000E+01  0.1000E+01
    -38.516  0.0000E+00  0.0000E+00  0.1000E+01  0.1000E+01
    -38.316  0.0000E+00  0.0000E+00  0.1000E+01  0.1000E+01
    -38.116  0.0000E+00  0.0000E+00  0.1000E+01  0.1000E+01
    -37.916  0.0000E+00  0.0000E+00  0.1000E+01  0.1000E+01
    -37.716  0.0000E+00  0.0000E+00  0.1000E+01  0.1000E+01
    -37.516  0.0000E+00  0.0000E+00  0.1000E+01  0.1000E+01
    -37.316  0.0000E+00  0.0000E+00  0.1000E+01  0.1000E+01
    -37.116  0.0000E+00  0.0000E+00  0.1000E+01  0.1000E+01
    -36.916  0.0000E+00  0.0000E+00  0.1000E+01  0.1000E+01
    -36.716  0.0000E+00  0.0000E+00  0.1000E+01  0.1000E+01
    -36.516  0.0000E+00  0.0000E+00  0.1000E+01  0.1000E+01
    -36.316  0.0000E+00  0.0000E+00  0.1000E+01  0.1000E+01
    -36.116  0.0000E+00  0.0000E+00  0.1000E+01  0.1000E+01
    -35.916  0.0000E+00  0.0000E+00  0.1000E+01  0.1000E+01
    -35.716  0.0000E+00  0.0000E+00  0.1000E+01  0.1000E+01
    -35.515  0.0000E+00  0.0000E+00  0.1000E+01  0.1000E+01
    -35.315  0.0000E+00  0.0000E+00  0.1000E+01  0.1000E+01
    -35.115  0.0000E+00  0.0000E+00  0.1000E+01  0.1000E+01
    -34.915  0.0000E+00  0.0000E+00  0.1000E+01  0.1000E+01
    -34.715  0.0000E+00  0.0000E+00  0.1000E+01  0.1000E+01
    -34.515  0.0000E+00  0.0000E+00  0.1000E+01  0.1000E+01
    -34.315  0.0000E+00  0.0000E+00  0.1000E+01  0.1000E+01
    -34.115  0.0000E+00  0.0000E+00  0.1000E+01  0.1000E+01
    -33.915  0.0000E+00  0.0000E+00  0.1000E+01  0.1000E+01
    -33.715  0.0000E+00  0.0000E+00  0.1000E+01  0.1000E+01
    -33.515  0.0000E+00  0.0000E+00  0.1000E+01  0.1000E+01
    -33.315  0.0000E+00  0.0000E+00  0.1000E+01  0.1000E+01
    -33.115  0.0000E+00  0.0000E+00  0.1000E+01  0.1000E+01
    -32.915  0.0000E+00  0.0000E+00  0.1000E+01  0.1000E+01
    -32.715  0.0000E+00  0.0000E+00  0.1000E+01  0.1000E+01
    -32.515  0.0000E+00  0.0000E+00  0.1000E+01  0.1000E+01
    -32.315  0.0000E+00  0.0000E+00  0.1000E+01  0.1000E+01
    -32.115  0.0000E+00  0.0000E+00  0.1000E+01  0.1000E+01
    -31.915  0.0000E+00  0.0000E+00  0.1000E+01  0.1000E+01
    -31.715  0.0000E+00  0.0000E+00  0.1000E+01  0.1000E+01
    -31.515  0.0000E+00  0.0000E+00  0.1000E+01  0.1000E+01
    -31.315  0.0000E+00  0.0000E+00  0.1000E+01  0.1000E+01
    -31.115  0.0000E+00  0.0000E+00  0.1000E+01  0.1000E+01
    -30.915  0.0000E+00  0.0000E+00  0.1000E+01  0.1000E+01
    -30.715  0.0000E+00  0.0000E+00  0.1000E+01  0.1000E+01
    -30.515  0.0000E+00  0.0000E+00  0.1000E+01  0.1000E+01
    -30.315  0.0000E+00  0.0000E+00  0.1000E+01  0.1000E+01
    -30.115  0.0000E+00  0.0000E+00  0.1000E+01  0.1000E+01
    -29.915  0.0000E+00  0.0000E+00  0.1000E+01  0.1000E+01
    -29.715  0.0000E+00  0.0000E+00  0.1000E+01  0.1000E+01
    -29.515  0.0000E+00  0.0000E+00  0.1000E+01  0.1000E+01
    -29.315  0.0000E+00  0.0000E+00  0.1000E+01  0.1000E+01
    -29.115  0.0000E+00  0.0000E+00  0.1000E+01  0.1000E+01
    -28.915  0.0000E+00  0.0000E+00  0.1000E+01  0.1000E+01
    -28.715  0.0000E+00  0.0000E+00  0.1000E+01  0.1000E+01
    -28.515  0.0000E+00  0.0000E+00  0.1000E+01  0.1000E+01
    -28.315  0.0000E+00  0.0000E+00  0.1000E+01  0.1000E+01
    -28.114  0.0000E+00  0.0000E+00  0.1000E+01  0.1000E+01
    -27.914  0.0000E+00  0.0000E+00  0.1000E+01  0.1000E+01
    -27.714  0.0000E+00  0.0000E+00  0.1000E+01  0.1000E+01
    -27.514  0.0000E+00  0.0000E+00  0.1000E+01  0.1000E+01
    -27.314  0.0000E+00  0.0000E+00  0.1000E+01  0.1000E+01
    -27.114  0.0000E+00  0.0000E+00  0.1000E+01  0.1000E+01
    -26.914  0.0000E+00  0.0000E+00  0.1000E+01  0.1000E+01
    -26.714  0.0000E+00  0.0000E+00  0.1000E+01  0.1000E+01
    -26.514  0.0000E+00  0.0000E+00  0.1000E+01  0.1000E+01
    -26.314  0.0000E+00  0.0000E+00  0.1000E+01  0.1000E+01
    -26.114  0.0000E+00  0.0000E+00  0.1000E+01  0.1000E+01
    -25.914  0.0000E+00  0.0000E+00  0.1000E+01  0.1000E+01
    -25.714  0.0000E+00  0.0000E+00  0.1000E+01  0.1000E+01
    -25.514  0.0000E+00  0.0000E+00  0.1000E+01  0.1000E+01
    -25.314  0.0000E+00  0.0000E+00  0.1000E+01  0.1000E+01
    -25.114  0.0000E+00  0.0000E+00  0.1000E+01  0.1000E+01
    -24.914  0.0000E+00  0.0000E+00  0.1000E+01  0.1000E+01
    -24.714  0.0000E+00  0.0000E+00  0.1000E+01  0.1000E+01
    -24.514  0.0000E+00  0.0000E+00  0.1000E+01  0.1000E+01
    -24.314  0.0000E+00  0.0000E+00  0.1000E+01  0.1000E+01
    -24.114  0.0000E+00  0.0000E+00  0.1000E+01  0.1000E+01
    -23.914  0.0000E+00  0.0000E+00  0.1000E+01  0.1000E+01
    -23.714  0.0000E+00  0.0000E+00  0.1000E+01  0.1000E+01
    -23.514  0.0000E+00  0.0000E+00  0.1000E+01  0.1000E+01
    -23.314  0.0000E+00  0.0000E+00  0.1000E+01  0.1000E+01
    -23.114  0.0000E+00  0.0000E+00  0.1000E+01  0.1000E+01
    -22.914  0.0000E+00  0.0000E+00  0.1000E+01  0.1000E+01
    -22.714  0.0000E+00  0.0000E+00  0.1000E+01  0.1000E+01
    -22.514  0.1679E-03  0.5037E-04  0.1000E+01  0.1000E+01
    -22.314  0.2367E+01  0.1912E+01  0.1473E+01  0.1383E+01
    -22.114  0.2702E+01  0.3119E+01  0.2014E+01  0.2006E+01
    -21.914  0.3394E+01  0.3388E+01  0.2693E+01  0.2684E+01
    -21.714  0.3749E+01  0.3762E+01  0.3443E+01  0.3437E+01
    -21.514  0.3880E+01  0.3578E+01  0.4219E+01  0.4152E+01
    -21.314  0.3138E+01  0.3400E+01  0.4846E+01  0.4832E+01
    -21.114  0.3604E+01  0.3280E+01  0.5567E+01  0.5488E+01
    -20.914  0.5007E+01  0.5176E+01  0.6569E+01  0.6524E+01
    -20.714  0.2749E+01  0.2961E+01  0.7119E+01  0.7116E+01
    -20.513  0.3336E+01  0.3275E+01  0.7786E+01  0.7771E+01
    -20.313  0.4405E+01  0.4472E+01  0.8667E+01  0.8666E+01
    -20.113  0.5447E+01  0.5333E+01  0.9757E+01  0.9732E+01
    -19.913  0.2814E+01  0.2898E+01  0.1032E+02  0.1031E+02
    -19.713  0.3543E+01  0.3248E+01  0.1103E+02  0.1096E+02
    -19.513  0.3319E+01  0.3569E+01  0.1169E+02  0.1168E+02
    -19.313  0.5056E+01  0.4921E+01  0.1270E+02  0.1266E+02
    -19.113  0.4224E+01  0.4265E+01  0.1355E+02  0.1351E+02
    -18.913  0.4408E+01  0.4547E+01  0.1443E+02  0.1442E+02
    -18.713  0.6897E+00  0.7030E+00  0.1457E+02  0.1456E+02
    -18.513  0.5826E+01  0.5557E+01  0.1573E+02  0.1567E+02
    -18.313  0.6784E+01  0.6908E+01  0.1709E+02  0.1706E+02
    -18.113  0.2059E+01  0.2173E+01  0.1750E+02  0.1749E+02
    -17.913  0.4772E+01  0.4724E+01  0.1846E+02  0.1844E+02
    -17.713  0.3271E+01  0.3373E+01  0.1911E+02  0.1911E+02
    -17.513  0.2400E+01  0.1989E+01  0.1959E+02  0.1951E+02
    -17.313  0.8989E+01  0.9225E+01  0.2139E+02  0.2135E+02
    -17.113  0.3586E+01  0.3576E+01  0.2211E+02  0.2207E+02
    -16.913  0.5260E+01  0.5269E+01  0.2316E+02  0.2312E+02
    -16.713  0.2972E+01  0.3085E+01  0.2375E+02  0.2374E+02
    -16.513  0.1361E+01  0.1397E+01  0.2403E+02  0.2402E+02
    -16.313  0.4144E+01  0.3806E+01  0.2485E+02  0.2478E+02
    -16.113  0.5954E+01  0.6220E+01  0.2604E+02  0.2603E+02
    -15.913  0.3320E+00  0.4300E+00  0.2611E+02  0.2611E+02
    -15.713  0.3385E+01  0.3321E+01  0.2679E+02  0.2678E+02
    -15.513  0.3179E+01  0.3148E+01  0.2742E+02  0.2741E+02
    -15.313  0.4092E+01  0.3975E+01  0.2824E+02  0.2820E+02
    -15.113  0.6092E+01  0.6261E+01  0.2946E+02  0.2945E+02
    -14.913  0.4041E+01  0.4031E+01  0.3027E+02  0.3026E+02
    -14.713  0.5667E+01  0.5600E+01  0.3140E+02  0.3138E+02
    -14.513  0.3012E+01  0.3122E+01  0.3201E+02  0.3200E+02
    -14.313  0.5601E+01  0.5420E+01  0.3313E+02  0.3309E+02
    -14.113  0.3148E+01  0.2960E+01  0.3376E+02  0.3368E+02
    -13.913  0.4710E+01  0.4957E+01  0.3470E+02  0.3467E+02
    -13.713  0.4304E+01  0.4349E+01  0.3556E+02  0.3554E+02
    -13.513  0.1651E+01  0.1739E+01  0.3589E+02  0.3589E+02
    -13.313  0.2839E+01  0.2594E+01  0.3646E+02  0.3641E+02
    -13.112  0.7197E+01  0.7303E+01  0.3790E+02  0.3787E+02
    -12.912  0.5050E+01  0.5091E+01  0.3891E+02  0.3889E+02
    -12.712  0.4299E+01  0.4381E+01  0.3977E+02  0.3976E+02
    -12.512  0.2970E+01  0.2811E+01  0.4036E+02  0.4033E+02
    -12.312  0.3635E+01  0.3567E+01  0.4109E+02  0.4104E+02
    -12.112  0.5179E+01  0.5208E+01  0.4212E+02  0.4208E+02
    -11.912  0.6043E+01  0.6245E+01  0.4333E+02  0.4333E+02
    -11.712  0.1941E+01  0.1844E+01  0.4372E+02  0.4370E+02
    -11.512  0.8134E+01  0.7954E+01  0.4535E+02  0.4529E+02
    -11.312  0.5560E+01  0.5782E+01  0.4646E+02  0.4645E+02
    -11.112  0.4668E+01  0.4667E+01  0.4739E+02  0.4738E+02
    -10.912  0.4023E+01  0.3956E+01  0.4820E+02  0.4817E+02
    -10.712  0.2962E+01  0.2851E+01  0.4879E+02  0.4874E+02
    -10.512  0.9314E+01  0.9127E+01  0.5065E+02  0.5057E+02
    -10.312  0.1006E+02  0.9980E+01  0.5267E+02  0.5256E+02
    -10.112  0.7459E+01  0.7774E+01  0.5416E+02  0.5412E+02
     -9.912  0.9663E+01  0.9643E+01  0.5609E+02  0.5605E+02
     -9.712  0.8403E+01  0.8104E+01  0.5777E+02  0.5767E+02
     -9.512  0.9666E+01  0.9623E+01  0.5971E+02  0.5959E+02
     -9.312  0.1033E+02  0.1052E+02  0.6177E+02  0.6170E+02
     -9.112  0.1375E+02  0.1375E+02  0.6452E+02  0.6445E+02
     -8.912  0.1222E+02  0.1177E+02  0.6697E+02  0.6680E+02
     -8.712  0.1133E+02  0.1189E+02  0.6923E+02  0.6918E+02
     -8.512  0.6595E+01  0.6621E+01  0.7055E+02  0.7050E+02
     -8.312  0.9079E+01  0.9147E+01  0.7237E+02  0.7233E+02
     -8.112  0.9763E+01  0.9453E+01  0.7432E+02  0.7422E+02
     -7.912  0.1357E+02  0.1353E+02  0.7704E+02  0.7693E+02
     -7.712  0.6397E+01  0.6878E+01  0.7832E+02  0.7831E+02
     -7.512  0.3699E+01  0.3267E+01  0.7906E+02  0.7896E+02
     -7.312  0.9301E+01  0.9210E+01  0.8092E+02  0.8080E+02
     -7.112  0.9151E+01  0.9216E+01  0.8275E+02  0.8265E+02
     -6.912  0.9333E+01  0.9666E+01  0.8461E+02  0.8458E+02
     -6.712  0.9170E+01  0.9031E+01  0.8645E+02  0.8639E+02
     -6.512  0.4342E+01  0.4607E+01  0.8732E+02  0.8731E+02
     -6.312  0.6850E+01  0.6704E+01  0.8869E+02  0.8865E+02
     -6.112  0.6041E+01  0.5040E+01  0.8990E+02  0.8966E+02
     -5.912  0.1065E+02  0.1159E+02  0.9203E+02  0.9197E+02
     -5.712  0.3332E+01  0.3122E+01  0.9269E+02  0.9260E+02
     -5.511  0.6676E+01  0.6833E+01  0.9403E+02  0.9397E+02
     -5.311  0.1554E+01  0.1836E+01  0.9434E+02  0.9433E+02
     -5.111  0.3572E+01  0.3264E+01  0.9505E+02  0.9499E+02
     -4.911  0.8640E+01  0.8309E+01  0.9678E+02  0.9665E+02
     -4.711  0.6691E+01  0.6885E+01  0.9812E+02  0.9803E+02
     -4.511  0.1729E+01  0.1940E+01  0.9846E+02  0.9841E+02
     -4.311  0.2505E+01  0.2547E+01  0.9897E+02  0.9892E+02
     -4.111  0.1811E+01  0.2019E+01  0.9933E+02  0.9933E+02
     -3.911  0.3094E+01  0.2528E+01  0.9995E+02  0.9983E+02
     -3.711  0.1933E+01  0.2486E+01  0.1003E+03  0.1003E+03
     -3.511  0.2216E+01  0.2229E+01  0.1008E+03  0.1008E+03
     -3.311  0.3793E-02  0.1047E-01  0.1008E+03  0.1008E+03
     -3.111  0.6349E-07  0.2442E-10  0.1008E+03  0.1008E+03
     -2.911  0.7097E+00  0.1950E+00  0.1009E+03  0.1008E+03
     -2.711  0.1981E+01  0.2068E+01  0.1013E+03  0.1012E+03
     -2.511  0.2423E+01  0.1896E+01  0.1018E+03  0.1016E+03
     -2.311  0.2052E+01  0.2526E+01  0.1022E+03  0.1021E+03
     -2.111  0.5532E-01  0.5367E+00  0.1022E+03  0.1022E+03
     -1.911  0.1283E+00  0.2582E-01  0.1022E+03  0.1022E+03
     -1.711  0.3882E+01  0.3779E+01  0.1030E+03  0.1030E+03
     -1.511  0.4063E+01  0.4058E+01  0.1038E+03  0.1038E+03
     -1.311  0.4909E+01  0.3795E+01  0.1048E+03  0.1046E+03
     -1.111  0.2027E+01  0.3136E+01  0.1052E+03  0.1052E+03
     -0.911  0.7219E+01  0.7238E+01  0.1067E+03  0.1066E+03
     -0.711  0.8191E+01  0.7949E+01  0.1083E+03  0.1082E+03
     -0.511  0.5046E+01  0.4907E+01  0.1093E+03  0.1092E+03
     -0.311  0.2864E+01  0.3441E+01  0.1099E+03  0.1099E+03
     -0.111  0.3410E+00  0.1689E+00  0.1100E+03  0.1099E+03
      0.089  0.4398E+01  0.4313E+01  0.1108E+03  0.1108E+03
      0.289  0.8834E+01  0.8670E+01  0.1126E+03  0.1125E+03
      0.489  0.9003E+01  0.8773E+01  0.1144E+03  0.1143E+03
      0.689  0.4667E+01  0.5299E+01  0.1153E+03  0.1153E+03
      0.889  0.6957E+01  0.6225E+01  0.1167E+03  0.1166E+03
      1.089  0.7547E+01  0.7772E+01  0.1182E+03  0.1181E+03
      1.289  0.1245E+02  0.1194E+02  0.1207E+03  0.1205E+03
      1.489  0.1306E+02  0.1181E+02  0.1233E+03  0.1229E+03
      1.689  0.1673E+02  0.1740E+02  0.1267E+03  0.1264E+03
      1.890  0.1844E+02  0.1880E+02  0.1304E+03  0.1301E+03
      2.090  0.7233E+01  0.7926E+01  0.1318E+03  0.1317E+03
      2.290  0.8882E+00  0.1435E+01  0.1320E+03  0.1320E+03
      2.490  0.6998E-06  0.8832E-04  0.1320E+03  0.1320E+03
      2.690  0.0000E+00  0.0000E+00  0.1320E+03  0.1320E+03
      2.890  0.0000E+00  0.0000E+00  0.1320E+03  0.1320E+03
      3.090  0.0000E+00  0.0000E+00  0.1320E+03  0.1320E+03
      3.290  0.0000E+00  0.0000E+00  0.1320E+03  0.1320E+03
      3.490  0.0000E+00  0.0000E+00  0.1320E+03  0.1320E+03
      3.690  0.0000E+00  0.0000E+00  0.1320E+03  0.1320E+03
      3.890  0.0000E+00  0.0000E+00  0.1320E+03  0.1320E+03
      4.090  0.0000E+00  0.0000E+00  0.1320E+03  0.1320E+03
      4.290  0.0000E+00  0.0000E+00  0.1320E+03  0.1320E+03
      4.490  0.0000E+00  0.0000E+00  0.1320E+03  0.1320E+03
      4.690  0.0000E+00  0.0000E+00  0.1320E+03  0.1320E+03
      4.890  0.0000E+00  0.0000E+00  0.1320E+03  0.1320E+03
