  51  51   0   0
  0.7707117E+02  0.1230000E-08  0.1230000E-08  0.3000000E-08  0.5000000E-15
  1.000000000000000E-004
  CAR 
 Li defective graphene MACE training lab 
      4.84806659    -54.22097583  301     -1.86116855      1.00000000
    -54.221  0.0000E+00  0.0000E+00  0.0000E+00  0.0000E+00
    -54.024  0.0000E+00  0.0000E+00  0.0000E+00  0.0000E+00
    -53.827  0.0000E+00  0.0000E+00  0.0000E+00  0.0000E+00
    -53.630  0.0000E+00  0.0000E+00  0.0000E+00  0.0000E+00
    -53.433  0.0000E+00  0.0000E+00  0.0000E+00  0.0000E+00
    -53.236  0.0000E+00  0.0000E+00  0.0000E+00  0.0000E+00
    -53.040  0.0000E+00  0.0000E+00  0.0000E+00  0.0000E+00
    -52.843  0.0000E+00  0.0000E+00  0.0000E+00  0.0000E+00
    -52.646  0.0000E+00  0.0000E+00  0.0000E+00  0.0000E+00
    -52.449  0.0000E+00  0.0000E+00  0.0000E+00  0.0000E+00
    -52.252  0.0000E+00  0.0000E+00  0.0000E+00  0.0000E+00
    -52.055  0.0000E+00  0.0000E+00  0.0000E+00  0.0000E+00
    -51.858  0.0000E+00  0.0000E+00  0.0000E+00  0.0000E+00
    -51.661  0.1001E-02  0.1001E-02  0.1971E-03  0.1971E-03
    -51.464  0.4969E+01  0.4969E+01  0.9786E+00  0.9786E+00
    -51.268  0.1088E+00  0.1088E+00  0.1000E+01  0.1000E+01
    -51.071  0.0000E+00  0.0000E+00  0.1000E+01  0.1000E+01
    -50.874  0.0000E+00  0.0000E+00  0.1000E+01  0.1000E+01
    -50.677  0.0000E+00  0.0000E+00  0.1000E+01  0.1000E+01
    -50.480  0.0000E+00  0.0000E+00  0.1000E+01  0.1000E+01
    -50.283  0.0000E+00  0.0000E+00  0.1000E+01  0.1000E+01
    -50.086  0.0000E+00  0.0000E+00  0.1000E+01  0.1000E+01
    -49.889  0.0000E+00  0.0000E+00  0.1000E+01  0.1000E+01
    -49.692  0.0000E+00  0.0000E+00  0.1000E+01  0.1000E+01
    -49.495  0.0000E+00  0.0000E+00  0.1000E+01  0.1000E+01
    -49.299  0.0000E+00  0.0000E+00  0.1000E+01  0.1000E+01
    -49.102  0.0000E+00  0.0000E+00  0.1000E+01  0.1000E+01
    -48.905  0.0000E+00  0.0000E+00  0.1000E+01  0.1000E+01
    -48.708  0.0000E+00  0.0000E+00  0.1000E+01  0.1000E+01
    -48.511  0.0000E+00  0.0000E+00  0.1000E+01  0.1000E+01
    -48.314  0.0000E+00  0.0000E+00  0.1000E+01  0.1000E+01
    -48.117  0.0000E+00  0.0000E+00  0.1000E+01  0.1000E+01
    -47.920  0.0000E+00  0.0000E+00  0.1000E+01  0.1000E+01
    -47.723  0.0000E+00  0.0000E+00  0.1000E+01  0.1000E+01
    -47.526  0.0000E+00  0.0000E+00  0.1000E+01  0.1000E+01
    -47.330  0.0000E+00  0.0000E+00  0.1000E+01  0.1000E+01
    -47.133  0.0000E+00  0.0000E+00  0.1000E+01  0.1000E+01
    -46.936  0.0000E+00  0.0000E+00  0.1000E+01  0.1000E+01
    -46.739  0.0000E+00  0.0000E+00  0.1000E+01  0.1000E+01
    -46.542  0.0000E+00  0.0000E+00  0.1000E+01  0.1000E+01
    -46.345  0.0000E+00  0.0000E+00  0.1000E+01  0.1000E+01
    -46.148  0.0000E+00  0.0000E+00  0.1000E+01  0.1000E+01
    -45.951  0.0000E+00  0.0000E+00  0.1000E+01  0.1000E+01
    -45.754  0.0000E+00  0.0000E+00  0.1000E+01  0.1000E+01
    -45.558  0.0000E+00  0.0000E+00  0.1000E+01  0.1000E+01
    -45.361  0.0000E+00  0.0000E+00  0.1000E+01  0.1000E+01
    -45.164  0.0000E+00  0.0000E+00  0.1000E+01  0.1000E+01
    -44.967  0.0000E+00  0.0000E+00  0.1000E+01  0.1000E+01
    -44.770  0.0000E+00  0.0000E+00  0.1000E+01  0.1000E+01
    -44.573  0.0000E+00  0.0000E+00  0.1000E+01  0.1000E+01
    -44.376  0.0000E+00  0.0000E+00  0.1000E+01  0.1000E+01
    -44.179  0.0000E+00  0.0000E+00  0.1000E+01  0.1000E+01
    -43.982  0.0000E+00  0.0000E+00  0.1000E+01  0.1000E+01
    -43.785  0.0000E+00  0.0000E+00  0.1000E+01  0.1000E+01
    -43.589  0.0000E+00  0.0000E+00  0.1000E+01  0.1000E+01
    -43.392  0.0000E+00  0.0000E+00  0.1000E+01  0.1000E+01
    -43.195  0.0000E+00  0.0000E+00  0.1000E+01  0.1000E+01
    -42.998  0.0000E+00  0.0000E+00  0.1000E+01  0.1000E+01
    -42.801  0.0000E+00  0.0000E+00  0.1000E+01  0.1000E+01
    -42.604  0.0000E+00  0.0000E+00  0.1000E+01  0.1000E+01
    -42.407  0.0000E+00  0.0000E+00  0.1000E+01  0.1000E+01
    -42.210  0.0000E+00  0.0000E+00  0.1000E+01  0.1000E+01
    -42.013  0.0000E+00  0.0000E+00  0.1000E+01  0.1000E+01
    -41.816  0.0000E+00  0.0000E+00  0.1000E+01  0.1000E+01
    -41.620  0.0000E+00  0.0000E+00  0.1000E+01  0.1000E+01
    -41.423  0.0000E+00  0.0000E+00  0.1000E+01  0.1000E+01
    -41.226  0.0000E+00  0.0000E+00  0.1000E+01  0.1000E+01
    -41.029  0.0000E+00  0.0000E+00  0.1000E+01  0.1000E+01
    -40.832  0.0000E+00  0.0000E+00  0.1000E+01  0.1000E+01
    -40.635  0.0000E+00  0.0000E+00  0.1000E+01  0.1000E+01
    -40.438  0.0000E+00  0.0000E+00  0.1000E+01  0.1000E+01
    -40.241  0.0000E+00  0.0000E+00  0.1000E+01  0.1000E+01
    -40.044  0.0000E+00  0.0000E+00  0.1000E+01  0.1000E+01
    -39.848  0.0000E+00  0.0000E+00  0.1000E+01  0.1000E+01
    -39.651  0.0000E+00  0.0000E+00  0.1000E+01  0.1000E+01
    -39.454  0.0000E+00  0.0000E+00  0.1000E+01  0.1000E+01
    -39.257  0.0000E+00  0.0000E+00  0.1000E+01  0.1000E+01
    -39.060  0.0000E+00  0.0000E+00  0.1000E+01  0.1000E+01
    -38.863  0.0000E+00  0.0000E+00  0.1000E+01  0.1000E+01
    -38.666  0.0000E+00  0.0000E+00  0.1000E+01  0.1000E+01
    -38.469  0.0000E+00  0.0000E+00  0.1000E+01  0.1000E+01
    -38.272  0.0000E+00  0.0000E+00  0.1000E+01  0.1000E+01
    -38.075  0.0000E+00  0.0000E+00  0.1000E+01  0.1000E+01
    -37.879  0.0000E+00  0.0000E+00  0.1000E+01  0.1000E+01
    -37.682  0.0000E+00  0.0000E+00  0.1000E+01  0.1000E+01
    -37.485  0.0000E+00  0.0000E+00  0.1000E+01  0.1000E+01
    -37.288  0.0000E+00  0.0000E+00  0.1000E+01  0.1000E+01
    -37.091  0.0000E+00  0.0000E+00  0.1000E+01  0.1000E+01
    -36.894  0.0000E+00  0.0000E+00  0.1000E+01  0.1000E+01
    -36.697  0.0000E+00  0.0000E+00  0.1000E+01  0.1000E+01
    -36.500  0.0000E+00  0.0000E+00  0.1000E+01  0.1000E+01
    -36.303  0.0000E+00  0.0000E+00  0.1000E+01  0.1000E+01
    -36.106  0.0000E+00  0.0000E+00  0.1000E+01  0.1000E+01
    -35.910  0.0000E+00  0.0000E+00  0.1000E+01  0.1000E+01
    -35.713  0.0000E+00  0.0000E+00  0.1000E+01  0.1000E+01
    -35.516  0.0000E+00  0.0000E+00  0.1000E+01  0.1000E+01
    -35.319  0.0000E+00  0.0000E+00  0.1000E+01  0.1000E+01
    -35.122  0.0000E+00  0.0000E+00  0.1000E+01  0.1000E+01
    -34.925  0.0000E+00  0.0000E+00  0.1000E+01  0.1000E+01
    -34.728  0.0000E+00  0.0000E+00  0.1000E+01  0.1000E+01
    -34.531  0.0000E+00  0.0000E+00  0.1000E+01  0.1000E+01
    -34.334  0.0000E+00  0.0000E+00  0.1000E+01  0.1000E+01
    -34.138  0.0000E+00  0.0000E+00  0.1000E+01  0.1000E+01
    -33.941  0.0000E+00  0.0000E+00  0.1000E+01  0.1000E+01
    -33.744  0.0000E+00  0.0000E+00  0.1000E+01  0.1000E+01
    -33.547  0.0000E+00  0.0000E+00  0.1000E+01  0.1000E+01
    -33.350  0.0000E+00  0.0000E+00  0.1000E+01  0.1000E+01
    -33.153  0.0000E+00  0.0000E+00  0.1000E+01  0.1000E+01
    -32.956  0.0000E+00  0.0000E+00  0.1000E+01  0.1000E+01
    -32.759  0.0000E+00  0.0000E+00  0.1000E+01  0.1000E+01
    -32.562  0.0000E+00  0.0000E+00  0.1000E+01  0.1000E+01
    -32.365  0.0000E+00  0.0000E+00  0.1000E+01  0.1000E+01
    -32.169  0.0000E+00  0.0000E+00  0.1000E+01  0.1000E+01
    -31.972  0.0000E+00  0.0000E+00  0.1000E+01  0.1000E+01
    -31.775  0.0000E+00  0.0000E+00  0.1000E+01  0.1000E+01
    -31.578  0.0000E+00  0.0000E+00  0.1000E+01  0.1000E+01
    -31.381  0.0000E+00  0.0000E+00  0.1000E+01  0.1000E+01
    -31.184  0.0000E+00  0.0000E+00  0.1000E+01  0.1000E+01
    -30.987  0.0000E+00  0.0000E+00  0.1000E+01  0.1000E+01
    -30.790  0.0000E+00  0.0000E+00  0.1000E+01  0.1000E+01
    -30.593  0.0000E+00  0.0000E+00  0.1000E+01  0.1000E+01
    -30.396  0.0000E+00  0.0000E+00  0.1000E+01  0.1000E+01
    -30.200  0.0000E+00  0.0000E+00  0.1000E+01  0.1000E+01
    -30.003  0.0000E+00  0.0000E+00  0.1000E+01  0.1000E+01
    -29.806  0.0000E+00  0.0000E+00  0.1000E+01  0.1000E+01
    -29.609  0.0000E+00  0.0000E+00  0.1000E+01  0.1000E+01
    -29.412  0.0000E+00  0.0000E+00  0.1000E+01  0.1000E+01
    -29.215  0.0000E+00  0.0000E+00  0.1000E+01  0.1000E+01
    -29.018  0.0000E+00  0.0000E+00  0.1000E+01  0.1000E+01
    -28.821  0.0000E+00  0.0000E+00  0.1000E+01  0.1000E+01
    -28.624  0.0000E+00  0.0000E+00  0.1000E+01  0.1000E+01
    -28.427  0.0000E+00  0.0000E+00  0.1000E+01  0.1000E+01
    -28.231  0.0000E+00  0.0000E+00  0.1000E+01  0.1000E+01
    -28.034  0.0000E+00  0.0000E+00  0.1000E+01  0.1000E+01
    -27.837  0.0000E+00  0.0000E+00  0.1000E+01  0.1000E+01
    -27.640  0.0000E+00  0.0000E+00  0.1000E+01  0.1000E+01
    -27.443  0.0000E+00  0.0000E+00  0.1000E+01  0.1000E+01
    -27.246  0.0000E+00  0.0000E+00  0.1000E+01  0.1000E+01
    -27.049  0.0000E+00  0.0000E+00  0.1000E+01  0.1000E+01
    -26.852  0.0000E+00  0.0000E+00  0.1000E+01  0.1000E+01
    -26.655  0.0000E+00  0.0000E+00  0.1000E+01  0.1000E+01
    -26.459  0.0000E+00  0.0000E+00  0.1000E+01  0.1000E+01
    -26.262  0.0000E+00  0.0000E+00  0.1000E+01  0.1000E+01
    -26.065  0.0000E+00  0.0000E+00  0.1000E+01  0.1000E+01
    -25.868  0.0000E+00  0.0000E+00  0.1000E+01  0.1000E+01
    -25.671  0.0000E+00  0.0000E+00  0.1000E+01  0.1000E+01
    -25.474  0.0000E+00  0.0000E+00  0.1000E+01  0.1000E+01
    -25.277  0.0000E+00  0.0000E+00  0.1000E+01  0.1000E+01
    -25.080  0.0000E+00  0.0000E+00  0.1000E+01  0.1000E+01
    -24.883  0.0000E+00  0.0000E+00  0.1000E+01  0.1000E+01
    -24.686  0.0000E+00  0.0000E+00  0.1000E+01  0.1000E+01
    -24.490  0.0000E+00  0.0000E+00  0.1000E+01  0.1000E+01
    -24.293  0.0000E+00  0.0000E+00  0.1000E+01  0.1000E+01
    -24.096  0.0000E+00  0.0000E+00  0.1000E+01  0.1000E+01
    -23.899  0.0000E+00  0.0000E+00  0.1000E+01  0.1000E+01
    -23.702  0.0000E+00  0.0000E+00  0.1000E+01  0.1000E+01
    -23.505  0.0000E+00  0.0000E+00  0.1000E+01  0.1000E+01
    -23.308  0.0000E+00  0.0000E+00  0.1000E+01  0.1000E+01
    -23.111  0.0000E+00  0.0000E+00  0.1000E+01  0.1000E+01
    -22.914  0.0000E+00  0.0000E+00  0.1000E+01  0.1000E+01
    -22.717  0.3133E-16  0.3133E-16  0.1000E+01  0.1000E+01
    -22.521  0.2084E-02  0.2084E-02  0.1000E+01  0.1000E+01
    -22.324  0.2784E+01  0.2785E+01  0.1549E+01  0.1549E+01
    -22.127  0.2293E+01  0.2293E+01  0.2000E+01  0.2000E+01
    -21.930  0.5291E+01  0.5291E+01  0.3042E+01  0.3042E+01
    -21.733  0.3922E+00  0.3922E+00  0.3119E+01  0.3119E+01
    -21.536  0.7320E+01  0.7320E+01  0.4560E+01  0.4560E+01
    -21.339  0.2212E+01  0.2212E+01  0.4996E+01  0.4996E+01
    -21.142  0.1898E+01  0.1898E+01  0.5370E+01  0.5370E+01
    -20.945  0.8608E+01  0.8608E+01  0.7064E+01  0.7064E+01
    -20.749  0.3767E+00  0.3767E+00  0.7139E+01  0.7139E+01
    -20.552  0.3248E+01  0.3248E+01  0.7778E+01  0.7778E+01
    -20.355  0.5966E+01  0.5966E+01  0.8953E+01  0.8953E+01
    -20.158  0.4818E+01  0.4818E+01  0.9902E+01  0.9902E+01
    -19.961  0.2757E+01  0.2757E+01  0.1044E+02  0.1044E+02
    -19.764  0.2118E+01  0.2118E+01  0.1086E+02  0.1086E+02
    -19.567  0.3627E+01  0.3627E+01  0.1158E+02  0.1158E+02
    -19.370  0.7797E+01  0.7797E+01  0.1311E+02  0.1311E+02
    -19.173  0.2727E+01  0.2727E+01  0.1365E+02  0.1365E+02
    -18.976  0.4046E+01  0.4046E+01  0.1444E+02  0.1444E+02
    -18.780  0.2785E-01  0.2785E-01  0.1445E+02  0.1445E+02
    -18.583  0.7252E+01  0.7252E+01  0.1588E+02  0.1588E+02
    -18.386  0.6152E+01  0.6152E+01  0.1709E+02  0.1709E+02
    -18.189  0.3497E+01  0.3497E+01  0.1778E+02  0.1778E+02
    -17.992  0.3720E+01  0.3720E+01  0.1851E+02  0.1851E+02
    -17.795  0.3053E+01  0.3053E+01  0.1911E+02  0.1911E+02
    -17.598  0.2936E+00  0.2936E+00  0.1917E+02  0.1917E+02
    -17.401  0.1157E+02  0.1157E+02  0.2145E+02  0.2145E+02
    -17.204  0.3168E+01  0.3168E+01  0.2207E+02  0.2207E+02
    -17.007  0.7554E+01  0.7554E+01  0.2356E+02  0.2356E+02
    -16.811  0.1112E+01  0.1112E+01  0.2378E+02  0.2378E+02
    -16.614  0.6704E-01  0.6704E-01  0.2379E+02  0.2379E+02
    -16.417  0.3933E+01  0.3933E+01  0.2457E+02  0.2457E+02
    -16.220  0.6157E+01  0.6157E+01  0.2578E+02  0.2578E+02
    -16.023  0.1468E+01  0.1468E+01  0.2607E+02  0.2607E+02
    -15.826  0.1918E+01  0.1918E+01  0.2644E+02  0.2644E+02
    -15.629  0.3095E+01  0.3095E+01  0.2705E+02  0.2705E+02
    -15.432  0.7293E+01  0.7293E+01  0.2849E+02  0.2849E+02
    -15.235  0.5413E+01  0.5413E+01  0.2956E+02  0.2956E+02
    -15.039  0.2020E-02  0.2020E-02  0.2956E+02  0.2956E+02
    -14.842  0.1100E+02  0.1100E+02  0.3172E+02  0.3172E+02
    -14.645  0.2545E+01  0.2545E+01  0.3222E+02  0.3222E+02
    -14.448  0.4576E+01  0.4576E+01  0.3312E+02  0.3312E+02
    -14.251  0.2215E+01  0.2215E+01  0.3356E+02  0.3356E+02
    -14.054  0.3472E+01  0.3472E+01  0.3424E+02  0.3424E+02
    -13.857  0.7250E+01  0.7250E+01  0.3567E+02  0.3567E+02
    -13.660  0.2800E+01  0.2800E+01  0.3622E+02  0.3622E+02
    -13.463  0.4030E-01  0.4030E-01  0.3623E+02  0.3623E+02
    -13.266  0.4791E+01  0.4791E+01  0.3717E+02  0.3717E+02
    -13.070  0.4932E+01  0.4932E+01  0.3814E+02  0.3814E+02
    -12.873  0.4949E+01  0.4949E+01  0.3912E+02  0.3912E+02
    -12.676  0.6724E+01  0.6724E+01  0.4044E+02  0.4044E+02
    -12.479  0.7094E+00  0.7094E+00  0.4058E+02  0.4058E+02
    -12.282  0.9802E+01  0.9802E+01  0.4251E+02  0.4251E+02
    -12.085  0.3040E+01  0.3040E+01  0.4311E+02  0.4311E+02
    -11.888  0.1269E-01  0.1269E-01  0.4311E+02  0.4311E+02
    -11.691  0.4111E+01  0.4111E+01  0.4392E+02  0.4392E+02
    -11.494  0.1446E+02  0.1446E+02  0.4677E+02  0.4677E+02
    -11.297  0.1737E+01  0.1737E+01  0.4711E+02  0.4711E+02
    -11.101  0.3638E+01  0.3638E+01  0.4783E+02  0.4783E+02
    -10.904  0.3134E+01  0.3134E+01  0.4844E+02  0.4844E+02
    -10.707  0.6036E+01  0.6036E+01  0.4963E+02  0.4963E+02
    -10.510  0.6526E+01  0.6526E+01  0.5092E+02  0.5092E+02
    -10.313  0.1139E+02  0.1139E+02  0.5316E+02  0.5316E+02
    -10.116  0.8145E+01  0.8145E+01  0.5476E+02  0.5476E+02
     -9.919  0.5756E+01  0.5756E+01  0.5590E+02  0.5590E+02
     -9.722  0.1326E+02  0.1326E+02  0.5851E+02  0.5851E+02
     -9.525  0.1079E+02  0.1079E+02  0.6063E+02  0.6063E+02
     -9.329  0.1022E+02  0.1022E+02  0.6265E+02  0.6265E+02
     -9.132  0.1271E+02  0.1271E+02  0.6515E+02  0.6515E+02
     -8.935  0.1789E+02  0.1789E+02  0.6867E+02  0.6867E+02
     -8.738  0.6313E+01  0.6313E+01  0.6991E+02  0.6991E+02
     -8.541  0.1024E+02  0.1024E+02  0.7193E+02  0.7193E+02
     -8.344  0.3239E+01  0.3239E+01  0.7257E+02  0.7257E+02
     -8.147  0.1526E+02  0.1526E+02  0.7557E+02  0.7557E+02
     -7.950  0.1260E+02  0.1260E+02  0.7805E+02  0.7805E+02
     -7.753  0.5934E+01  0.5934E+01  0.7922E+02  0.7922E+02
     -7.556  0.1407E+00  0.1407E+00  0.7925E+02  0.7925E+02
     -7.360  0.7976E+01  0.7976E+01  0.8082E+02  0.8082E+02
     -7.163  0.1615E+02  0.1615E+02  0.8400E+02  0.8400E+02
     -6.966  0.4936E+01  0.4935E+01  0.8497E+02  0.8497E+02
     -6.769  0.7555E+01  0.7555E+01  0.8646E+02  0.8646E+02
     -6.572  0.3476E+01  0.3476E+01  0.8714E+02  0.8714E+02
     -6.375  0.5001E+01  0.5002E+01  0.8813E+02  0.8813E+02
     -6.178  0.1016E+02  0.1016E+02  0.9013E+02  0.9013E+02
     -5.981  0.8526E+01  0.8526E+01  0.9181E+02  0.9181E+02
     -5.784  0.4783E+01  0.4783E+01  0.9275E+02  0.9275E+02
     -5.587  0.6919E+01  0.6919E+01  0.9411E+02  0.9411E+02
     -5.391  0.1996E+01  0.1997E+01  0.9450E+02  0.9450E+02
     -5.194  0.3314E+01  0.3314E+01  0.9516E+02  0.9516E+02
     -4.997  0.8495E+01  0.8495E+01  0.9683E+02  0.9683E+02
     -4.800  0.9896E+01  0.9896E+01  0.9878E+02  0.9878E+02
     -4.603  0.4110E-02  0.4109E-02  0.9878E+02  0.9878E+02
     -4.406  0.1116E+01  0.1116E+01  0.9900E+02  0.9900E+02
     -4.209  0.2136E+01  0.2136E+01  0.9942E+02  0.9942E+02
     -4.012  0.2548E+00  0.2548E+00  0.9947E+02  0.9947E+02
     -3.815  0.6646E+01  0.6646E+01  0.1008E+03  0.1008E+03
     -3.618  0.4411E-02  0.4411E-02  0.1008E+03  0.1008E+03
     -3.422  0.0000E+00  0.0000E+00  0.1008E+03  0.1008E+03
     -3.225  0.0000E+00  0.0000E+00  0.1008E+03  0.1008E+03
     -3.028  0.1329E-05  0.1330E-05  0.1008E+03  0.1008E+03
     -2.831  0.1686E+01  0.1686E+01  0.1011E+03  0.1011E+03
     -2.634  0.5711E+00  0.5710E+00  0.1012E+03  0.1012E+03
     -2.437  0.0000E+00  0.0000E+00  0.1012E+03  0.1012E+03
     -2.240  0.0000E+00  0.0000E+00  0.1012E+03  0.1012E+03
     -2.043  0.2338E-06  0.2339E-06  0.1012E+03  0.1012E+03
     -1.846  0.2160E+01  0.2160E+01  0.1016E+03  0.1016E+03
     -1.650  0.5572E+01  0.5571E+01  0.1027E+03  0.1027E+03
     -1.453  0.1977E+01  0.1977E+01  0.1031E+03  0.1031E+03
     -1.256  0.3429E+01  0.3429E+01  0.1038E+03  0.1038E+03
     -1.059  0.1028E+02  0.1028E+02  0.1058E+03  0.1058E+03
     -0.862  0.5347E+01  0.5346E+01  0.1069E+03  0.1069E+03
     -0.665  0.7828E+01  0.7829E+01  0.1084E+03  0.1084E+03
     -0.468  0.4899E+01  0.4899E+01  0.1094E+03  0.1094E+03
     -0.271  0.4220E+01  0.4220E+01  0.1102E+03  0.1102E+03
     -0.074  0.6261E-01  0.6262E-01  0.1102E+03  0.1102E+03
      0.123  0.2534E+01  0.2534E+01  0.1107E+03  0.1107E+03
      0.319  0.6314E+01  0.6313E+01  0.1120E+03  0.1120E+03
      0.516  0.7648E+01  0.7648E+01  0.1135E+03  0.1135E+03
      0.713  0.9770E+01  0.9770E+01  0.1154E+03  0.1154E+03
      0.910  0.5330E+01  0.5223E+01  0.1165E+03  0.1164E+03
      1.107  0.7636E+01  0.7427E+01  0.1180E+03  0.1179E+03
      1.304  0.1265E+02  0.1218E+02  0.1204E+03  0.1203E+03
      1.501  0.1215E+02  0.1149E+02  0.1228E+03  0.1226E+03
      1.698  0.1187E+02  0.1275E+02  0.1252E+03  0.1251E+03
      1.895  0.2238E+02  0.2200E+02  0.1296E+03  0.1294E+03
      2.092  0.1012E+02  0.1066E+02  0.1316E+03  0.1315E+03
      2.288  0.2146E+01  0.2540E+01  0.1320E+03  0.1320E+03
      2.485  0.2263E-04  0.1163E-03  0.1320E+03  0.1320E+03
      2.682  0.0000E+00  0.0000E+00  0.1320E+03  0.1320E+03
      2.879  0.0000E+00  0.0000E+00  0.1320E+03  0.1320E+03
      3.076  0.0000E+00  0.0000E+00  0.1320E+03  0.1320E+03
      3.273  0.0000E+00  0.0000E+00  0.1320E+03  0.1320E+03
      3.470  0.0000E+00  0.0000E+00  0.1320E+03  0.1320E+03
      3.667  0.0000E+00  0.0000E+00  0.1320E+03  0.1320E+03
      3.864  0.0000E+00  0.0000E+00  0.1320E+03  0.1320E+03
      4.060  0.0000E+00  0.0000E+00  0.1320E+03  0.1320E+03
      4.257  0.0000E+00  0.0000E+00  0.1320E+03  0.1320E+03
      4.454  0.0000E+00  0.0000E+00  0.1320E+03  0.1320E+03
      4.651  0.0000E+00  0.0000E+00  0.1320E+03  0.1320E+03
      4.848  0.0000E+00  0.0000E+00  0.1320E+03  0.1320E+03
