  49  49   0   0
  0.8021693E+02  0.1230000E-08  0.1230000E-08  0.3000000E-08  0.5000000E-15
  1.000000000000000E-004
  CAR 
 Li defective graphene MACE training lab 
      4.82197402    -54.16411031  301     -3.10483006      1.00000000
    -54.164  0.0000E+00  0.0000E+00  0.0000E+00  0.0000E+00
    -53.967  0.0000E+00  0.0000E+00  0.0000E+00  0.0000E+00
    -53.771  0.0000E+00  0.0000E+00  0.0000E+00  0.0000E+00
    -53.574  0.0000E+00  0.0000E+00  0.0000E+00  0.0000E+00
    -53.378  0.0000E+00  0.0000E+00  0.0000E+00  0.0000E+00
    -53.181  0.0000E+00  0.0000E+00  0.0000E+00  0.0000E+00
    -52.984  0.0000E+00  0.0000E+00  0.0000E+00  0.0000E+00
    -52.788  0.0000E+00  0.0000E+00  0.0000E+00  0.0000E+00
    -52.591  0.0000E+00  0.0000E+00  0.0000E+00  0.0000E+00
    -52.395  0.0000E+00  0.0000E+00  0.0000E+00  0.0000E+00
    -52.198  0.0000E+00  0.0000E+00  0.0000E+00  0.0000E+00
    -52.001  0.0000E+00  0.0000E+00  0.0000E+00  0.0000E+00
    -51.805  0.0000E+00  0.0000E+00  0.0000E+00  0.0000E+00
    -51.608  0.1021E-02  0.1021E-02  0.2008E-03  0.2008E-03
    -51.411  0.4975E+01  0.4975E+01  0.9784E+00  0.9784E+00
    -51.215  0.1097E+00  0.1097E+00  0.1000E+01  0.1000E+01
    -51.018  0.0000E+00  0.0000E+00  0.1000E+01  0.1000E+01
    -50.822  0.0000E+00  0.0000E+00  0.1000E+01  0.1000E+01
    -50.625  0.0000E+00  0.0000E+00  0.1000E+01  0.1000E+01
    -50.428  0.0000E+00  0.0000E+00  0.1000E+01  0.1000E+01
    -50.232  0.0000E+00  0.0000E+00  0.1000E+01  0.1000E+01
    -50.035  0.0000E+00  0.0000E+00  0.1000E+01  0.1000E+01
    -49.838  0.0000E+00  0.0000E+00  0.1000E+01  0.1000E+01
    -49.642  0.0000E+00  0.0000E+00  0.1000E+01  0.1000E+01
    -49.445  0.0000E+00  0.0000E+00  0.1000E+01  0.1000E+01
    -49.249  0.0000E+00  0.0000E+00  0.1000E+01  0.1000E+01
    -49.052  0.0000E+00  0.0000E+00  0.1000E+01  0.1000E+01
    -48.855  0.0000E+00  0.0000E+00  0.1000E+01  0.1000E+01
    -48.659  0.0000E+00  0.0000E+00  0.1000E+01  0.1000E+01
    -48.462  0.0000E+00  0.0000E+00  0.1000E+01  0.1000E+01
    -48.266  0.0000E+00  0.0000E+00  0.1000E+01  0.1000E+01
    -48.069  0.0000E+00  0.0000E+00  0.1000E+01  0.1000E+01
    -47.872  0.0000E+00  0.0000E+00  0.1000E+01  0.1000E+01
    -47.676  0.0000E+00  0.0000E+00  0.1000E+01  0.1000E+01
    -47.479  0.0000E+00  0.0000E+00  0.1000E+01  0.1000E+01
    -47.282  0.0000E+00  0.0000E+00  0.1000E+01  0.1000E+01
    -47.086  0.0000E+00  0.0000E+00  0.1000E+01  0.1000E+01
    -46.889  0.0000E+00  0.0000E+00  0.1000E+01  0.1000E+01
    -46.693  0.0000E+00  0.0000E+00  0.1000E+01  0.1000E+01
    -46.496  0.0000E+00  0.0000E+00  0.1000E+01  0.1000E+01
    -46.299  0.0000E+00  0.0000E+00  0.1000E+01  0.1000E+01
    -46.103  0.0000E+00  0.0000E+00  0.1000E+01  0.1000E+01
    -45.906  0.0000E+00  0.0000E+00  0.1000E+01  0.1000E+01
    -45.709  0.0000E+00  0.0000E+00  0.1000E+01  0.1000E+01
    -45.513  0.0000E+00  0.0000E+00  0.1000E+01  0.1000E+01
    -45.316  0.0000E+00  0.0000E+00  0.1000E+01  0.1000E+01
    -45.120  0.0000E+00  0.0000E+00  0.1000E+01  0.1000E+01
    -44.923  0.0000E+00  0.0000E+00  0.1000E+01  0.1000E+01
    -44.726  0.0000E+00  0.0000E+00  0.1000E+01  0.1000E+01
    -44.530  0.0000E+00  0.0000E+00  0.1000E+01  0.1000E+01
    -44.333  0.0000E+00  0.0000E+00  0.1000E+01  0.1000E+01
    -44.136  0.0000E+00  0.0000E+00  0.1000E+01  0.1000E+01
    -43.940  0.0000E+00  0.0000E+00  0.1000E+01  0.1000E+01
    -43.743  0.0000E+00  0.0000E+00  0.1000E+01  0.1000E+01
    -43.547  0.0000E+00  0.0000E+00  0.1000E+01  0.1000E+01
    -43.350  0.0000E+00  0.0000E+00  0.1000E+01  0.1000E+01
    -43.153  0.0000E+00  0.0000E+00  0.1000E+01  0.1000E+01
    -42.957  0.0000E+00  0.0000E+00  0.1000E+01  0.1000E+01
    -42.760  0.0000E+00  0.0000E+00  0.1000E+01  0.1000E+01
    -42.564  0.0000E+00  0.0000E+00  0.1000E+01  0.1000E+01
    -42.367  0.0000E+00  0.0000E+00  0.1000E+01  0.1000E+01
    -42.170  0.0000E+00  0.0000E+00  0.1000E+01  0.1000E+01
    -41.974  0.0000E+00  0.0000E+00  0.1000E+01  0.1000E+01
    -41.777  0.0000E+00  0.0000E+00  0.1000E+01  0.1000E+01
    -41.580  0.0000E+00  0.0000E+00  0.1000E+01  0.1000E+01
    -41.384  0.0000E+00  0.0000E+00  0.1000E+01  0.1000E+01
    -41.187  0.0000E+00  0.0000E+00  0.1000E+01  0.1000E+01
    -40.991  0.0000E+00  0.0000E+00  0.1000E+01  0.1000E+01
    -40.794  0.0000E+00  0.0000E+00  0.1000E+01  0.1000E+01
    -40.597  0.0000E+00  0.0000E+00  0.1000E+01  0.1000E+01
    -40.401  0.0000E+00  0.0000E+00  0.1000E+01  0.1000E+01
    -40.204  0.0000E+00  0.0000E+00  0.1000E+01  0.1000E+01
    -40.007  0.0000E+00  0.0000E+00  0.1000E+01  0.1000E+01
    -39.811  0.0000E+00  0.0000E+00  0.1000E+01  0.1000E+01
    -39.614  0.0000E+00  0.0000E+00  0.1000E+01  0.1000E+01
    -39.418  0.0000E+00  0.0000E+00  0.1000E+01  0.1000E+01
    -39.221  0.0000E+00  0.0000E+00  0.1000E+01  0.1000E+01
    -39.024  0.0000E+00  0.0000E+00  0.1000E+01  0.1000E+01
    -38.828  0.0000E+00  0.0000E+00  0.1000E+01  0.1000E+01
    -38.631  0.0000E+00  0.0000E+00  0.1000E+01  0.1000E+01
    -38.434  0.0000E+00  0.0000E+00  0.1000E+01  0.1000E+01
    -38.238  0.0000E+00  0.0000E+00  0.1000E+01  0.1000E+01
    -38.041  0.0000E+00  0.0000E+00  0.1000E+01  0.1000E+01
    -37.845  0.0000E+00  0.0000E+00  0.1000E+01  0.1000E+01
    -37.648  0.0000E+00  0.0000E+00  0.1000E+01  0.1000E+01
    -37.451  0.0000E+00  0.0000E+00  0.1000E+01  0.1000E+01
    -37.255  0.0000E+00  0.0000E+00  0.1000E+01  0.1000E+01
    -37.058  0.0000E+00  0.0000E+00  0.1000E+01  0.1000E+01
    -36.862  0.0000E+00  0.0000E+00  0.1000E+01  0.1000E+01
    -36.665  0.0000E+00  0.0000E+00  0.1000E+01  0.1000E+01
    -36.468  0.0000E+00  0.0000E+00  0.1000E+01  0.1000E+01
    -36.272  0.0000E+00  0.0000E+00  0.1000E+01  0.1000E+01
    -36.075  0.0000E+00  0.0000E+00  0.1000E+01  0.1000E+01
    -35.878  0.0000E+00  0.0000E+00  0.1000E+01  0.1000E+01
    -35.682  0.0000E+00  0.0000E+00  0.1000E+01  0.1000E+01
    -35.485  0.0000E+00  0.0000E+00  0.1000E+01  0.1000E+01
    -35.289  0.0000E+00  0.0000E+00  0.1000E+01  0.1000E+01
    -35.092  0.0000E+00  0.0000E+00  0.1000E+01  0.1000E+01
    -34.895  0.0000E+00  0.0000E+00  0.1000E+01  0.1000E+01
    -34.699  0.0000E+00  0.0000E+00  0.1000E+01  0.1000E+01
    -34.502  0.0000E+00  0.0000E+00  0.1000E+01  0.1000E+01
    -34.305  0.0000E+00  0.0000E+00  0.1000E+01  0.1000E+01
    -34.109  0.0000E+00  0.0000E+00  0.1000E+01  0.1000E+01
    -33.912  0.0000E+00  0.0000E+00  0.1000E+01  0.1000E+01
    -33.716  0.0000E+00  0.0000E+00  0.1000E+01  0.1000E+01
    -33.519  0.0000E+00  0.0000E+00  0.1000E+01  0.1000E+01
    -33.322  0.0000E+00  0.0000E+00  0.1000E+01  0.1000E+01
    -33.126  0.0000E+00  0.0000E+00  0.1000E+01  0.1000E+01
    -32.929  0.0000E+00  0.0000E+00  0.1000E+01  0.1000E+01
    -32.732  0.0000E+00  0.0000E+00  0.1000E+01  0.1000E+01
    -32.536  0.0000E+00  0.0000E+00  0.1000E+01  0.1000E+01
    -32.339  0.0000E+00  0.0000E+00  0.1000E+01  0.1000E+01
    -32.143  0.0000E+00  0.0000E+00  0.1000E+01  0.1000E+01
    -31.946  0.0000E+00  0.0000E+00  0.1000E+01  0.1000E+01
    -31.749  0.0000E+00  0.0000E+00  0.1000E+01  0.1000E+01
    -31.553  0.0000E+00  0.0000E+00  0.1000E+01  0.1000E+01
    -31.356  0.0000E+00  0.0000E+00  0.1000E+01  0.1000E+01
    -31.160  0.0000E+00  0.0000E+00  0.1000E+01  0.1000E+01
    -30.963  0.0000E+00  0.0000E+00  0.1000E+01  0.1000E+01
    -30.766  0.0000E+00  0.0000E+00  0.1000E+01  0.1000E+01
    -30.570  0.0000E+00  0.0000E+00  0.1000E+01  0.1000E+01
    -30.373  0.0000E+00  0.0000E+00  0.1000E+01  0.1000E+01
    -30.176  0.0000E+00  0.0000E+00  0.1000E+01  0.1000E+01
    -29.980  0.0000E+00  0.0000E+00  0.1000E+01  0.1000E+01
    -29.783  0.0000E+00  0.0000E+00  0.1000E+01  0.1000E+01
    -29.587  0.0000E+00  0.0000E+00  0.1000E+01  0.1000E+01
    -29.390  0.0000E+00  0.0000E+00  0.1000E+01  0.1000E+01
    -29.193  0.0000E+00  0.0000E+00  0.1000E+01  0.1000E+01
    -28.997  0.0000E+00  0.0000E+00  0.1000E+01  0.1000E+01
    -28.800  0.0000E+00  0.0000E+00  0.1000E+01  0.1000E+01
    -28.603  0.0000E+00  0.0000E+00  0.1000E+01  0.1000E+01
    -28.407  0.0000E+00  0.0000E+00  0.1000E+01  0.1000E+01
    -28.210  0.0000E+00  0.0000E+00  0.1000E+01  0.1000E+01
    -28.014  0.0000E+00  0.0000E+00  0.1000E+01  0.1000E+01
    -27.817  0.0000E+00  0.0000E+00  0.1000E+01  0.1000E+01
    -27.620  0.0000E+00  0.0000E+00  0.1000E+01  0.1000E+01
    -27.424  0.0000E+00  0.0000E+00  0.1000E+01  0.1000E+01
    -27.227  0.0000E+00  0.0000E+00  0.1000E+01  0.1000E+01
    -27.031  0.0000E+00  0.0000E+00  0.1000E+01  0.1000E+01
    -26.834  0.0000E+00  0.0000E+00  0.1000E+01  0.1000E+01
    -26.637  0.0000E+00  0.0000E+00  0.1000E+01  0.1000E+01
    -26.441  0.0000E+00  0.0000E+00  0.1000E+01  0.1000E+01
    -26.244  0.0000E+00  0.0000E+00  0.1000E+01  0.1000E+01
    -26.047  0.0000E+00  0.0000E+00  0.1000E+01  0.1000E+01
    -25.851  0.0000E+00  0.0000E+00  0.1000E+01  0.1000E+01
    -25.654  0.0000E+00  0.0000E+00  0.1000E+01  0.1000E+01
    -25.458  0.0000E+00  0.0000E+00  0.1000E+01  0.1000E+01
    -25.261  0.0000E+00  0.0000E+00  0.1000E+01  0.1000E+01
    -25.064  0.0000E+00  0.0000E+00  0.1000E+01  0.1000E+01
    -24.868  0.0000E+00  0.0000E+00  0.1000E+01  0.1000E+01
    -24.671  0.0000E+00  0.0000E+00  0.1000E+01  0.1000E+01
    -24.474  0.0000E+00  0.0000E+00  0.1000E+01  0.1000E+01
    -24.278  0.0000E+00  0.0000E+00  0.1000E+01  0.1000E+01
    -24.081  0.0000E+00  0.0000E+00  0.1000E+01  0.1000E+01
    -23.885  0.0000E+00  0.0000E+00  0.1000E+01  0.1000E+01
    -23.688  0.0000E+00  0.0000E+00  0.1000E+01  0.1000E+01
    -23.491  0.0000E+00  0.0000E+00  0.1000E+01  0.1000E+01
    -23.295  0.0000E+00  0.0000E+00  0.1000E+01  0.1000E+01
    -23.098  0.0000E+00  0.0000E+00  0.1000E+01  0.1000E+01
    -22.901  0.0000E+00  0.0000E+00  0.1000E+01  0.1000E+01
    -22.705  0.0000E+00  0.0000E+00  0.1000E+01  0.1000E+01
    -22.508  0.1730E-07  0.1730E-07  0.1000E+01  0.1000E+01
    -22.312  0.4009E+00  0.4009E+00  0.1079E+01  0.1079E+01
    -22.115  0.4527E+01  0.4527E+01  0.1969E+01  0.1969E+01
    -21.918  0.3037E+01  0.3037E+01  0.2566E+01  0.2566E+01
    -21.722  0.2436E+01  0.2436E+01  0.3045E+01  0.3045E+01
    -21.525  0.4874E+01  0.4874E+01  0.4004E+01  0.4004E+01
    -21.329  0.3734E+01  0.3734E+01  0.4738E+01  0.4738E+01
    -21.132  0.1556E+01  0.1556E+01  0.5044E+01  0.5044E+01
    -20.935  0.4491E+01  0.4491E+01  0.5927E+01  0.5927E+01
    -20.739  0.5593E+01  0.5593E+01  0.7026E+01  0.7026E+01
    -20.542  0.1654E+01  0.1654E+01  0.7352E+01  0.7352E+01
    -20.345  0.3694E+01  0.3694E+01  0.8078E+01  0.8078E+01
    -20.149  0.3925E+01  0.3925E+01  0.8850E+01  0.8850E+01
    -19.952  0.6057E+01  0.6057E+01  0.1004E+02  0.1004E+02
    -19.756  0.9280E+00  0.9280E+00  0.1022E+02  0.1022E+02
    -19.559  0.3853E+01  0.3853E+01  0.1098E+02  0.1098E+02
    -19.362  0.6232E+01  0.6232E+01  0.1221E+02  0.1221E+02
    -19.166  0.4117E+01  0.4117E+01  0.1302E+02  0.1302E+02
    -18.969  0.4296E+01  0.4296E+01  0.1386E+02  0.1386E+02
    -18.772  0.1725E+01  0.1725E+01  0.1420E+02  0.1420E+02
    -18.576  0.3093E+01  0.3093E+01  0.1481E+02  0.1481E+02
    -18.379  0.5603E+01  0.5603E+01  0.1591E+02  0.1591E+02
    -18.183  0.6629E+01  0.6629E+01  0.1721E+02  0.1721E+02
    -17.986  0.5739E+00  0.5739E+00  0.1733E+02  0.1733E+02
    -17.789  0.4657E+01  0.4657E+01  0.1824E+02  0.1824E+02
    -17.593  0.5065E+01  0.5065E+01  0.1924E+02  0.1924E+02
    -17.396  0.4410E+01  0.4410E+01  0.2010E+02  0.2010E+02
    -17.199  0.4749E+01  0.4749E+01  0.2104E+02  0.2104E+02
    -17.003  0.4517E+01  0.4517E+01  0.2193E+02  0.2193E+02
    -16.806  0.3768E+01  0.3768E+01  0.2267E+02  0.2267E+02
    -16.610  0.1451E+01  0.1451E+01  0.2295E+02  0.2295E+02
    -16.413  0.4650E+01  0.4650E+01  0.2387E+02  0.2387E+02
    -16.216  0.2504E+01  0.2504E+01  0.2436E+02  0.2436E+02
    -16.020  0.3184E+01  0.3184E+01  0.2498E+02  0.2498E+02
    -15.823  0.2998E+01  0.2998E+01  0.2557E+02  0.2557E+02
    -15.627  0.3389E+01  0.3389E+01  0.2624E+02  0.2624E+02
    -15.430  0.3243E+01  0.3243E+01  0.2688E+02  0.2688E+02
    -15.233  0.4980E+01  0.4980E+01  0.2786E+02  0.2786E+02
    -15.037  0.5627E+01  0.5627E+01  0.2896E+02  0.2896E+02
    -14.840  0.3969E+01  0.3969E+01  0.2974E+02  0.2974E+02
    -14.643  0.4603E+01  0.4603E+01  0.3065E+02  0.3065E+02
    -14.447  0.3751E+01  0.3751E+01  0.3139E+02  0.3139E+02
    -14.250  0.4278E+01  0.4278E+01  0.3223E+02  0.3223E+02
    -14.054  0.3545E+01  0.3545E+01  0.3292E+02  0.3292E+02
    -13.857  0.4838E+01  0.4838E+01  0.3388E+02  0.3388E+02
    -13.660  0.2881E+01  0.2881E+01  0.3444E+02  0.3444E+02
    -13.464  0.6159E+01  0.6159E+01  0.3565E+02  0.3565E+02
    -13.267  0.6866E-01  0.6866E-01  0.3567E+02  0.3567E+02
    -13.070  0.1592E+01  0.1592E+01  0.3598E+02  0.3598E+02
    -12.874  0.7873E+01  0.7873E+01  0.3753E+02  0.3753E+02
    -12.677  0.5462E+01  0.5462E+01  0.3860E+02  0.3860E+02
    -12.481  0.3935E+01  0.3935E+01  0.3938E+02  0.3938E+02
    -12.284  0.4640E+01  0.4640E+01  0.4029E+02  0.4029E+02
    -12.087  0.2270E+01  0.2270E+01  0.4073E+02  0.4073E+02
    -11.891  0.4977E+01  0.4977E+01  0.4171E+02  0.4171E+02
    -11.694  0.4759E+01  0.4759E+01  0.4265E+02  0.4265E+02
    -11.498  0.5555E+01  0.5555E+01  0.4374E+02  0.4374E+02
    -11.301  0.5271E+01  0.5271E+01  0.4478E+02  0.4478E+02
    -11.104  0.7287E+01  0.7287E+01  0.4621E+02  0.4621E+02
    -10.908  0.2527E+01  0.2527E+01  0.4671E+02  0.4671E+02
    -10.711  0.5368E+01  0.5368E+01  0.4776E+02  0.4776E+02
    -10.514  0.6095E+01  0.6095E+01  0.4896E+02  0.4896E+02
    -10.318  0.7892E+01  0.7892E+01  0.5051E+02  0.5051E+02
    -10.121  0.9678E+01  0.9678E+01  0.5242E+02  0.5242E+02
     -9.925  0.1088E+02  0.1088E+02  0.5455E+02  0.5455E+02
     -9.728  0.7656E+01  0.7656E+01  0.5606E+02  0.5606E+02
     -9.531  0.8920E+01  0.8920E+01  0.5781E+02  0.5781E+02
     -9.335  0.8064E+01  0.8064E+01  0.5940E+02  0.5940E+02
     -9.138  0.1086E+02  0.1086E+02  0.6153E+02  0.6153E+02
     -8.941  0.1149E+02  0.1149E+02  0.6379E+02  0.6379E+02
     -8.745  0.1295E+02  0.1295E+02  0.6634E+02  0.6634E+02
     -8.548  0.1104E+02  0.1104E+02  0.6851E+02  0.6851E+02
     -8.352  0.7901E+01  0.7901E+01  0.7007E+02  0.7007E+02
     -8.155  0.7516E+01  0.7516E+01  0.7154E+02  0.7154E+02
     -7.958  0.1320E+02  0.1320E+02  0.7414E+02  0.7414E+02
     -7.762  0.1027E+02  0.1027E+02  0.7616E+02  0.7616E+02
     -7.565  0.3586E+01  0.3586E+01  0.7686E+02  0.7686E+02
     -7.368  0.6559E+01  0.6559E+01  0.7815E+02  0.7815E+02
     -7.172  0.1061E+02  0.1061E+02  0.8024E+02  0.8024E+02
     -6.975  0.8406E+01  0.8406E+01  0.8189E+02  0.8189E+02
     -6.779  0.8481E+01  0.8481E+01  0.8356E+02  0.8356E+02
     -6.582  0.5361E+01  0.5361E+01  0.8461E+02  0.8461E+02
     -6.385  0.6744E+01  0.6744E+01  0.8594E+02  0.8594E+02
     -6.189  0.4192E+01  0.4192E+01  0.8676E+02  0.8676E+02
     -5.992  0.9793E+01  0.9793E+01  0.8869E+02  0.8869E+02
     -5.796  0.2710E+01  0.2710E+01  0.8922E+02  0.8922E+02
     -5.599  0.3971E+01  0.3971E+01  0.9000E+02  0.9000E+02
     -5.402  0.5774E+01  0.5774E+01  0.9114E+02  0.9114E+02
     -5.206  0.2754E+01  0.2754E+01  0.9168E+02  0.9168E+02
     -5.009  0.5886E+01  0.5886E+01  0.9284E+02  0.9284E+02
     -4.812  0.6215E+01  0.6215E+01  0.9406E+02  0.9406E+02
     -4.616  0.4203E+01  0.4203E+01  0.9489E+02  0.9489E+02
     -4.419  0.2280E+00  0.2280E+00  0.9493E+02  0.9493E+02
     -4.223  0.2770E+01  0.2770E+01  0.9548E+02  0.9548E+02
     -4.026  0.2688E+01  0.2688E+01  0.9600E+02  0.9600E+02
     -3.829  0.1676E+01  0.1676E+01  0.9633E+02  0.9633E+02
     -3.633  0.3240E+01  0.3240E+01  0.9697E+02  0.9697E+02
     -3.436  0.1474E+00  0.1474E+00  0.9700E+02  0.9700E+02
     -3.239  0.2072E+00  0.2072E+00  0.9704E+02  0.9704E+02
     -3.043  0.2614E+01  0.2614E+01  0.9755E+02  0.9755E+02
     -2.846  0.1103E+01  0.1103E+01  0.9777E+02  0.9777E+02
     -2.650  0.1969E+00  0.1969E+00  0.9781E+02  0.9781E+02
     -2.453  0.2042E+01  0.2042E+01  0.9821E+02  0.9821E+02
     -2.256  0.5214E-01  0.5214E-01  0.9822E+02  0.9822E+02
     -2.060  0.7910E-07  0.7911E-07  0.9822E+02  0.9822E+02
     -1.863  0.5823E+00  0.5823E+00  0.9834E+02  0.9834E+02
     -1.666  0.5902E+01  0.5902E+01  0.9950E+02  0.9950E+02
     -1.470  0.1667E+01  0.1667E+01  0.9983E+02  0.9983E+02
     -1.273  0.2041E+01  0.2041E+01  0.1002E+03  0.1002E+03
     -1.077  0.7763E+01  0.7763E+01  0.1018E+03  0.1018E+03
     -0.880  0.9116E+01  0.9115E+01  0.1035E+03  0.1035E+03
     -0.683  0.5071E+01  0.5073E+01  0.1045E+03  0.1045E+03
     -0.487  0.4192E+01  0.4192E+01  0.1054E+03  0.1054E+03
     -0.290  0.6050E+01  0.6050E+01  0.1066E+03  0.1066E+03
     -0.094  0.2604E+01  0.2603E+01  0.1071E+03  0.1071E+03
      0.103  0.4729E+01  0.4729E+01  0.1080E+03  0.1080E+03
      0.300  0.6519E+01  0.6514E+01  0.1093E+03  0.1093E+03
      0.496  0.8050E+01  0.8050E+01  0.1109E+03  0.1109E+03
      0.693  0.5041E+01  0.5041E+01  0.1119E+03  0.1119E+03
      0.890  0.1214E+02  0.1208E+02  0.1142E+03  0.1142E+03
      1.086  0.9213E+01  0.9052E+01  0.1161E+03  0.1160E+03
      1.283  0.1293E+02  0.1272E+02  0.1186E+03  0.1185E+03
      1.479  0.1367E+02  0.1333E+02  0.1213E+03  0.1211E+03
      1.676  0.1323E+02  0.1341E+02  0.1239E+03  0.1238E+03
      1.873  0.1679E+02  0.1663E+02  0.1272E+03  0.1270E+03
      2.069  0.3231E+01  0.4165E+01  0.1278E+03  0.1279E+03
      2.266  0.9129E+00  0.7443E+00  0.1280E+03  0.1280E+03
      2.463  0.1110E-05  0.1135E-03  0.1280E+03  0.1280E+03
      2.659  0.0000E+00  0.0000E+00  0.1280E+03  0.1280E+03
      2.856  0.0000E+00  0.0000E+00  0.1280E+03  0.1280E+03
      3.052  0.0000E+00  0.0000E+00  0.1280E+03  0.1280E+03
      3.249  0.0000E+00  0.0000E+00  0.1280E+03  0.1280E+03
      3.446  0.0000E+00  0.0000E+00  0.1280E+03  0.1280E+03
      3.642  0.0000E+00  0.0000E+00  0.1280E+03  0.1280E+03
      3.839  0.0000E+00  0.0000E+00  0.1280E+03  0.1280E+03
      4.035  0.0000E+00  0.0000E+00  0.1280E+03  0.1280E+03
      4.232  0.0000E+00  0.0000E+00  0.1280E+03  0.1280E+03
      4.429  0.0000E+00  0.0000E+00  0.1280E+03  0.1280E+03
      4.625  0.0000E+00  0.0000E+00  0.1280E+03  0.1280E+03
      4.822  0.0000E+00  0.0000E+00  0.1280E+03  0.1280E+03
