<?xml version="1.0" encoding="ISO-8859-1"?>
<modeling>
 <generator>
  <i name="program" type="string">vasp </i>
  <i name="version" type="string">5.4.1  </i>
  <i name="subversion" type="string">24Jun15 (build Jul 23 2024 06:15:33) complex                          parallel </i>
  <i name="platform" type="string">IFC91_ompi </i>
  <i name="date" type="string">2026 05 05 </i>
  <i name="time" type="string">14:58:13 </i>
 </generator>
 <incar>
  <i type="string" name="SYSTEM"> Li defective graphene MACE training lab</i>
  <i type="int" name="ISTART">     0</i>
  <i type="string" name="PREC">accurate</i>
  <i type="string" name="ALGO"> Normal</i>
  <i type="logical" name="ADDGRID"> T  </i>
  <i type="int" name="ISPIN">     2</i>
  <i type="int" name="ICHARG">     2</i>
  <i type="int" name="NELM">   120</i>
  <i type="int" name="IBRION">    -1</i>
  <i name="EDIFF">      0.00000100</i>
  <i type="int" name="NSW">     0</i>
  <i type="int" name="ISIF">     2</i>
  <i type="int" name="ISYM">     0</i>
  <i name="ENCUT">    520.00000000</i>
  <v name="MAGMOM">      0.10000000      0.10000000      0.10000000      0.10000000      0.10000000      0.10000000      0.10000000      0.10000000      0.10000000      0.10000000      0.10000000      0.10000000      0.10000000      0.10000000      0.10000000      0.10000000      0.10000000      0.10000000      0.10000000      0.10000000
      0.10000000      0.10000000      0.10000000      0.10000000      0.10000000      0.10000000      0.10000000      0.10000000      0.10000000      0.10000000      0.10000000      0.10000000      0.10000000      0.10000000      0.10000000      0.10000000      0.10000000      0.10000000      0.10000000      0.10000000
      0.10000000      0.10000000      0.10000000      0.10000000      0.10000000      0.10000000      0.10000000      0.10000000      1.00000000</v>
  <i type="string" name="LREAL"> Auto</i>
  <i type="int" name="ISMEAR">     0</i>
  <i name="SIGMA">      0.05000000</i>
  <i type="logical" name="LWAVE"> F  </i>
  <i type="logical" name="LCHARG"> F  </i>
  <i type="logical" name="LASPH"> T  </i>
  <v type="int" name="KPOINT_BSE">    -1     0     0     0</v>
  <i type="int" name="NELM">   120</i>
  <i type="logical" name="LASPH"> T  </i>
 </incar>
 <kpoints>
  <generation param="Gamma">
   <v type="int" name="divisions">       3        3        1 </v>
   <v name="usershift">      0.00000000       0.00000000       0.00000000 </v>
   <v name="genvec1">      0.33333333       0.00000000       0.00000000 </v>
   <v name="genvec2">      0.00000000       0.33333333       0.00000000 </v>
   <v name="genvec3">      0.00000000       0.00000000       1.00000000 </v>
   <v name="shift">      0.00000000       0.00000000       0.00000000 </v>
  </generation>
  <varray name="kpointlist" >
   <v>       0.00000000       0.00000000       0.00000000 </v>
   <v>       0.33333333      -0.00000000       0.00000000 </v>
   <v>       0.00000000       0.33333333       0.00000000 </v>
   <v>       0.33333333       0.33333333       0.00000000 </v>
   <v>      -0.33333333       0.33333333       0.00000000 </v>
  </varray>
  <varray name="weights" >
   <v>       0.11111111 </v>
   <v>       0.22222222 </v>
   <v>       0.22222222 </v>
   <v>       0.22222222 </v>
   <v>       0.22222222 </v>
  </varray>
 </kpoints>
 <parameters>
  <separator name="general" >
   <i type="string" name="SYSTEM">Li defective graphene MACE training lab</i>
   <i type="logical" name="LCOMPAT"> F  </i>
  </separator>
  <separator name="electronic" >
   <i type="string" name="PREC">accura</i>
   <i name="ENMAX">    520.00000000</i>
   <i name="ENAUG">    644.87300000</i>
   <i name="EDIFF">      0.00000100</i>
   <i type="int" name="IALGO">    38</i>
   <i type="int" name="IWAVPR">    10</i>
   <i type="int" name="NBANDS">   128</i>
   <i name="NELECT">    195.00000000</i>
   <i type="int" name="TURBO">     0</i>
   <i type="int" name="IRESTART">     0</i>
   <i type="int" name="NREBOOT">     0</i>
   <i type="int" name="NMIN">     0</i>
   <i name="EREF">      0.00000000</i>
   <separator name="electronic smearing" >
    <i type="int" name="ISMEAR">     0</i>
    <i name="SIGMA">      0.05000000</i>
    <i name="KSPACING">      0.50000000</i>
    <i type="logical" name="KGAMMA"> T  </i>
   </separator>
   <separator name="electronic projectors" >
    <i type="logical" name="LREAL"> T  </i>
    <v name="ROPT">     -0.00025000     -0.00025000</v>
    <i type="int" name="LMAXPAW">  -100</i>
    <i type="int" name="LMAXMIX">     2</i>
    <i type="logical" name="NLSPLINE"> F  </i>
   </separator>
   <separator name="electronic startup" >
    <i type="int" name="ISTART">     0</i>
    <i type="int" name="ICHARG">     2</i>
    <i type="int" name="INIWAV">     1</i>
   </separator>
   <separator name="electronic spin" >
    <i type="int" name="ISPIN">     2</i>
    <i type="logical" name="LNONCOLLINEAR"> F  </i>
    <v name="MAGMOM">      0.10000000      0.10000000      0.10000000      0.10000000      0.10000000      0.10000000      0.10000000      0.10000000      0.10000000      0.10000000      0.10000000      0.10000000      0.10000000      0.10000000      0.10000000      0.10000000      0.10000000      0.10000000      0.10000000      0.10000000
      0.10000000      0.10000000      0.10000000      0.10000000      0.10000000      0.10000000      0.10000000      0.10000000      0.10000000      0.10000000      0.10000000      0.10000000      0.10000000      0.10000000      0.10000000      0.10000000      0.10000000      0.10000000      0.10000000      0.10000000
      0.10000000      0.10000000      0.10000000      0.10000000      0.10000000      0.10000000      0.10000000      0.10000000      1.00000000</v>
    <i name="NUPDOWN">     -1.00000000</i>
    <i type="logical" name="LSORBIT"> F  </i>
    <v name="SAXIS">      0.00000000      0.00000000      1.00000000</v>
    <i type="logical" name="LSPIRAL"> F  </i>
    <v name="QSPIRAL">      0.00000000      0.00000000      0.00000000</v>
    <i type="logical" name="LZEROZ"> F  </i>
   </separator>
   <separator name="electronic exchange-correlation" >
    <i type="logical" name="LASPH"> T  </i>
    <i type="logical" name="LMETAGGA"> F  </i>
   </separator>
   <separator name="electronic convergence" >
    <i type="int" name="NELM">   120</i>
    <i type="int" name="NELMDL">    -5</i>
    <i type="int" name="NELMIN">     2</i>
    <i name="ENINI">    520.00000000</i>
    <separator name="electronic convergence detail" >
     <i type="logical" name="LDIAG"> T  </i>
     <i type="logical" name="LSUBROT"> F  </i>
     <i name="WEIMIN">      0.00000000</i>
     <i name="EBREAK">      0.00000000</i>
     <i name="DEPER">      0.30000000</i>
     <i type="int" name="NRMM">     4</i>
     <i name="TIME">      0.40000000</i>
    </separator>
   </separator>
   <separator name="electronic mixer" >
    <i name="AMIX">      0.40000000</i>
    <i name="BMIX">      1.00000000</i>
    <i name="AMIN">      0.10000000</i>
    <i name="AMIX_MAG">      1.60000000</i>
    <i name="BMIX_MAG">      1.00000000</i>
    <separator name="electronic mixer details" >
     <i type="int" name="IMIX">     4</i>
     <i type="logical" name="MIXFIRST"> F  </i>
     <i type="int" name="MAXMIX">   -45</i>
     <i name="WC">    100.00000000</i>
     <i type="int" name="INIMIX">     1</i>
     <i type="int" name="MIXPRE">     1</i>
     <i type="int" name="MREMOVE">     5</i>
    </separator>
   </separator>
   <separator name="electronic dipolcorrection" >
    <i type="logical" name="LDIPOL"> F  </i>
    <i type="logical" name="LMONO"> F  </i>
    <i type="int" name="IDIPOL">     0</i>
    <i name="EPSILON">      1.00000000</i>
    <v name="DIPOL">   -100.00000000   -100.00000000   -100.00000000</v>
    <i name="EFIELD">      0.00000000</i>
   </separator>
  </separator>
  <separator name="grids" >
   <i type="int" name="NGX">    96</i>
   <i type="int" name="NGY">    96</i>
   <i type="int" name="NGZ">   224</i>
   <i type="int" name="NGXF">   192</i>
   <i type="int" name="NGYF">   192</i>
   <i type="int" name="NGZF">   448</i>
   <i type="logical" name="ADDGRID"> T  </i>
  </separator>
  <separator name="ionic" >
   <i type="int" name="NSW">     0</i>
   <i type="int" name="IBRION">    -1</i>
   <i type="int" name="ISIF">     2</i>
   <i name="PSTRESS">      0.00000000</i>
   <i name="EDIFFG">      0.00001000</i>
   <i type="int" name="NFREE">     0</i>
   <i name="POTIM">      0.50000000</i>
   <i name="SMASS">     -3.00000000</i>
   <i name="SCALEE">      1.00000000</i>
  </separator>
  <separator name="ionic md" >
   <i name="TEBEG">      0.00010000</i>
   <i name="TEEND">      0.00010000</i>
   <i type="int" name="NBLOCK">     1</i>
   <i type="int" name="KBLOCK">     1</i>
   <i type="int" name="NPACO">   256</i>
   <i name="APACO">     16.00000000</i>
  </separator>
  <separator name="symmetry" >
   <i type="int" name="ISYM">     0</i>
   <i name="SYMPREC">      0.00001000</i>
  </separator>
  <separator name="dos" >
   <i type="logical" name="LORBIT"> F  </i>
   <v name="RWIGS">     -1.00000000     -1.00000000</v>
   <i type="int" name="NEDOS">   301</i>
   <i name="EMIN">     10.00000000</i>
   <i name="EMAX">    -10.00000000</i>
   <i name="EFERMI">      0.00000000</i>
  </separator>
  <separator name="writing" >
   <i type="int" name="NWRITE">     2</i>
   <i type="logical" name="LWAVE"> F  </i>
   <i type="logical" name="LCHARG"> F  </i>
   <i type="logical" name="LPARD"> F  </i>
   <i type="logical" name="LVTOT"> F  </i>
   <i type="logical" name="LVHAR"> F  </i>
   <i type="logical" name="LELF"> F  </i>
   <i type="logical" name="LOPTICS"> F  </i>
   <v name="STM">      0.00000000      0.00000000      0.00000000      0.00000000      0.00000000      0.00000000      0.00000000</v>
  </separator>
  <separator name="performance" >
   <i type="int" name="NPAR">     4</i>
   <i type="int" name="NSIM">     4</i>
   <i type="int" name="NBLK">    -1</i>
   <i type="logical" name="LPLANE"> T  </i>
   <i type="logical" name="LSCALAPACK"> T  </i>
   <i type="logical" name="LSCAAWARE"> F  </i>
   <i type="logical" name="LSCALU"> F  </i>
   <i type="logical" name="LASYNC"> F  </i>
   <i type="logical" name="LORBITALREAL"> F  </i>
  </separator>
  <separator name="miscellaneous" >
   <i type="int" name="IDIOT">     3</i>
   <i type="logical" name="LMUSIC"> F  </i>
   <v name="POMASS">     12.01100000      7.01000000</v>
   <v name="DARWINR">      0.00000000      0.00000000</v>
   <v name="DARWINV">      1.00000000      1.00000000</v>
   <i type="logical" name="LCORR"> T  </i>
  </separator>
  <i type="logical" name="GGA_COMPAT"> T  </i>
  <i type="logical" name="LBERRY"> F  </i>
  <i type="int" name="ICORELEVEL">     0</i>
  <i type="logical" name="LDAU"> F  </i>
  <i type="int" name="I_CONSTRAINED_M">     0</i>
  <separator name="electronic exchange-correlation" >
   <i type="string" name="GGA">--</i>
   <i type="int" name="VOSKOWN">     0</i>
   <i type="logical" name="LHFCALC"> F  </i>
   <i type="string" name="PRECFOCK"></i>
   <i type="logical" name="LSYMGRAD"> F  </i>
   <i type="logical" name="LHFONE"> F  </i>
   <i type="logical" name="LRHFCALC"> F  </i>
   <i type="logical" name="LTHOMAS"> F  </i>
   <i type="logical" name="LMODELHF"> F  </i>
   <i name="ENCUT4O">     -1.00000000</i>
   <i type="int" name="EXXOEP">     0</i>
   <i type="int" name="FOURORBIT">     0</i>
   <i name="AEXX">      0.00000000</i>
   <i name="HFALPHA">      0.00000000</i>
   <i name="MCALPHA">      0.00000000</i>
   <i name="ALDAX">      1.00000000</i>
   <i name="AGGAX">      1.00000000</i>
   <i name="ALDAC">      1.00000000</i>
   <i name="AGGAC">      1.00000000</i>
   <i type="int" name="NKREDX">     1</i>
   <i type="int" name="NKREDY">     1</i>
   <i type="int" name="NKREDZ">     1</i>
   <i type="logical" name="SHIFTRED"> F  </i>
   <i type="logical" name="ODDONLY"> F  </i>
   <i type="logical" name="EVENONLY"> F  </i>
   <i type="int" name="LMAXFOCK">     0</i>
   <i type="int" name="NMAXFOCKAE">     0</i>
   <i type="logical" name="LFOCKAEDFT"> F  </i>
   <i name="HFSCREEN">      0.00000000</i>
   <i name="HFSCREENC">      0.00000000</i>
   <i type="int" name="NBANDSGWLOW">     0</i>
  </separator>
  <separator name="vdW DFT" >
   <i type="logical" name="LUSE_VDW"> F  </i>
   <i name="Zab_VDW">     -0.84910000</i>
   <i name="PARAM1">      0.12340000</i>
   <i name="PARAM2">      1.00000000</i>
   <i name="PARAM3">      0.00000000</i>
  </separator>
  <separator name="model GW" >
   <i type="int" name="MODEL_GW">     0</i>
   <i name="MODEL_EPS0">     48.13015714</i>
   <i name="MODEL_ALPHA">      1.00000000</i>
  </separator>
  <separator name="linear response parameters" >
   <i type="logical" name="LEPSILON"> F  </i>
   <i type="logical" name="LRPA"> F  </i>
   <i type="logical" name="LNABLA"> F  </i>
   <i type="logical" name="LVEL"> F  </i>
   <i type="int" name="KINTER">     0</i>
   <i name="CSHIFT">      0.10000000</i>
   <i name="OMEGAMAX">     -1.00000000</i>
   <i name="DEG_THRESHOLD">      0.00200000</i>
  </separator>
  <separator name="orbital magnetization" >
   <i type="logical" name="NUCIND"> F  </i>
   <v name="MAGPOS">      0.00000000      0.00000000      0.00000000</v>
   <i type="logical" name="LNICSALL"> T  </i>
   <i type="logical" name="ORBITALMAG"> F  </i>
   <i type="logical" name="LMAGBLOCH"> F  </i>
   <i type="logical" name="LCHIMAG"> F  </i>
   <i type="logical" name="LGAUGE"> T  </i>
   <i type="int" name="MAGATOM">     0</i>
   <v name="MAGDIPOL">      0.00000000      0.00000000      0.00000000</v>
   <v name="AVECCONST">      0.00000000      0.00000000      0.00000000</v>
  </separator>
  <separator name="response functions" >
   <i type="logical" name="LADDER"> F  </i>
   <i type="logical" name="LFXC"> F  </i>
   <i type="logical" name="LHARTREE"> T  </i>
   <i type="int" name="IBSE">     0</i>
   <v type="int" name="KPOINT">    -1     0     0     0</v>
   <i type="logical" name="LTCTE"> F  </i>
   <i type="logical" name="LTETE"> F  </i>
   <i type="logical" name="LTRIPLET"> F  </i>
   <i type="logical" name="LFXCEPS"> F  </i>
   <i type="logical" name="LFXHEG"> F  </i>
   <i type="int" name="NATURALO">     0</i>
   <i type="logical" name="L2ORDER"> F  </i>
   <i type="logical" name="LUSEW"> F  </i>
   <i name="ENCUTGW">     -2.00000000</i>
   <i name="ENCUTGWSOFT">     -2.00000000</i>
   <i name="ENCUTLF">     -1.00000000</i>
   <i type="int" name="LMAXMP2">    -1</i>
   <i name="SCISSOR">      0.00000000</i>
   <i type="int" name="NOMEGA">     0</i>
   <i type="int" name="NOMEGAR">     0</i>
   <i type="int" name="NBANDSGW">    -1</i>
   <i type="int" name="NBANDSO">    -1</i>
   <i type="int" name="NBANDSV">    -1</i>
   <i type="int" name="NELM">   120</i>
   <i type="int" name="NELMHF">     1</i>
   <i type="int" name="DIM">     3</i>
   <i type="int" name="ANTIRES">     0</i>
   <i name="OMEGAMAX">    -30.00000000</i>
   <i name="OMEGAMIN">    -30.00000000</i>
   <i name="OMEGATL">   -200.00000000</i>
   <i type="int" name="OMEGAGRID">     0</i>
   <i name="CSHIFT">     -0.10000000</i>
   <i type="logical" name="SELFENERGY"> F  </i>
   <i type="logical" name="LSPECTRAL"> F  </i>
   <i type="logical" name="LSPECTRALGW"> F  </i>
   <i type="logical" name="LSINGLES"> F  </i>
   <i type="logical" name="LFERMIGW"> F  </i>
   <i type="logical" name="ODDONLYGW"> F  </i>
   <i type="logical" name="EVENONLYGW"> F  </i>
   <i type="int" name="NKREDLFX">     1</i>
   <i type="int" name="NKREDLFY">     1</i>
   <i type="int" name="NKREDLFZ">     1</i>
   <i type="int" name="MAXMEM">  1800</i>
   <i type="int" name="TELESCOPE">     0</i>
   <i type="int" name="TAUPAR">     1</i>
   <i type="int" name="OMEGAPAR">    -1</i>
   <i name="LAMBDA">      1.00000000</i>
  </separator>
  <separator name="External order field" >
   <i name="OFIELD_KAPPA">      0.00000000</i>
   <v name="OFIELD_K">      0.00000000      0.00000000      0.00000000</v>
   <i name="OFIELD_Q6_NEAR">      0.00000000</i>
   <i name="OFIELD_Q6_FAR">      0.00000000</i>
   <i name="OFIELD_A">      0.00000000</i>
  </separator>
 </parameters>
 <atominfo>
  <atoms>      49 </atoms>
  <types>       2 </types>
  <array name="atoms" >
   <dimension dim="1">ion</dimension>
   <field type="string">element</field>
   <field type="int">atomtype</field>
   <set>
    <rc><c>C </c><c>   1</c></rc>
    <rc><c>C </c><c>   1</c></rc>
    <rc><c>C </c><c>   1</c></rc>
    <rc><c>C </c><c>   1</c></rc>
    <rc><c>C </c><c>   1</c></rc>
    <rc><c>C </c><c>   1</c></rc>
    <rc><c>C </c><c>   1</c></rc>
    <rc><c>C </c><c>   1</c></rc>
    <rc><c>C </c><c>   1</c></rc>
    <rc><c>C </c><c>   1</c></rc>
    <rc><c>C </c><c>   1</c></rc>
    <rc><c>C </c><c>   1</c></rc>
    <rc><c>C </c><c>   1</c></rc>
    <rc><c>C </c><c>   1</c></rc>
    <rc><c>C </c><c>   1</c></rc>
    <rc><c>C </c><c>   1</c></rc>
    <rc><c>C </c><c>   1</c></rc>
    <rc><c>C </c><c>   1</c></rc>
    <rc><c>C </c><c>   1</c></rc>
    <rc><c>C </c><c>   1</c></rc>
    <rc><c>C </c><c>   1</c></rc>
    <rc><c>C </c><c>   1</c></rc>
    <rc><c>C </c><c>   1</c></rc>
    <rc><c>C </c><c>   1</c></rc>
    <rc><c>C </c><c>   1</c></rc>
    <rc><c>C </c><c>   1</c></rc>
    <rc><c>C </c><c>   1</c></rc>
    <rc><c>C </c><c>   1</c></rc>
    <rc><c>C </c><c>   1</c></rc>
    <rc><c>C </c><c>   1</c></rc>
    <rc><c>C </c><c>   1</c></rc>
    <rc><c>C </c><c>   1</c></rc>
    <rc><c>C </c><c>   1</c></rc>
    <rc><c>C </c><c>   1</c></rc>
    <rc><c>C </c><c>   1</c></rc>
    <rc><c>C </c><c>   1</c></rc>
    <rc><c>C </c><c>   1</c></rc>
    <rc><c>C </c><c>   1</c></rc>
    <rc><c>C </c><c>   1</c></rc>
    <rc><c>C </c><c>   1</c></rc>
    <rc><c>C </c><c>   1</c></rc>
    <rc><c>C </c><c>   1</c></rc>
    <rc><c>C </c><c>   1</c></rc>
    <rc><c>C </c><c>   1</c></rc>
    <rc><c>C </c><c>   1</c></rc>
    <rc><c>C </c><c>   1</c></rc>
    <rc><c>C </c><c>   1</c></rc>
    <rc><c>C </c><c>   1</c></rc>
    <rc><c>Li</c><c>   2</c></rc>
   </set>
  </array>
  <array name="atomtypes" >
   <dimension dim="1">type</dimension>
   <field type="int">atomspertype</field>
   <field type="string">element</field>
   <field>mass</field>
   <field>valence</field>
   <field type="string">pseudopotential</field>
   <set>
    <rc><c>  48</c><c>C </c><c>     12.01100000</c><c>      4.00000000</c><c>  PAW_PBE C 08Apr2002                   </c></rc>
    <rc><c>   1</c><c>Li</c><c>      7.01000000</c><c>      3.00000000</c><c>  PAW_PBE Li_sv 10Sep2004               </c></rc>
   </set>
  </array>
 </atominfo>
 <structure name="initialpos" >
  <crystal>
   <varray name="basis" >
    <v>      12.30000000       0.00000000       0.00000000 </v>
    <v>      -6.15000000      10.65211247       0.00000000 </v>
    <v>       0.00000000       0.00000000      30.00000000 </v>
   </varray>
   <i name="volume">   3930.62950016 </i>
   <varray name="rec_basis" >
    <v>       0.08130081       0.04693905       0.00000000 </v>
    <v>       0.00000000       0.09387809       0.00000000 </v>
    <v>       0.00000000       0.00000000       0.03333333 </v>
   </varray>
  </crystal>
  <varray name="positions" >
   <v>       0.00069168       0.99541666       0.49998612 </v>
   <v>       0.13570752       0.06529461       0.50002869 </v>
   <v>       0.00528682       0.19571106       0.50058609 </v>
   <v>       0.13833518       0.26560218       0.50057170 </v>
   <v>       0.99712702       0.39177707       0.50100754 </v>
   <v>       0.13026968       0.46391674       0.50087604 </v>
   <v>       0.97526623       0.57616636       0.49974051 </v>
   <v>       0.11731876       0.65556017       0.50025836 </v>
   <v>       0.98729726       0.78579945       0.49978844 </v>
   <v>       0.12617716       0.86034230       0.49990407 </v>
   <v>       0.20174420       0.99935984       0.49996315 </v>
   <v>       0.34076841       0.07491797       0.49997416 </v>
   <v>       0.20564900       0.20029985       0.50029029 </v>
   <v>       0.34065624       0.27207656       0.50022199 </v>
   <v>       0.19984457       0.39937158       0.50071372 </v>
   <v>       0.33279713       0.46984879       0.50056375 </v>
   <v>       0.19199209       0.59719431       0.50058322 </v>
   <v>       0.32697969       0.66894440       0.50043978 </v>
   <v>       0.19196150       0.79444851       0.50008107 </v>
   <v>       0.33098870       0.87000208       0.50010093 </v>
   <v>       0.40655756       0.00904940       0.49998696 </v>
   <v>       0.54540405       0.08366039       0.49998134 </v>
   <v>       0.41537712       0.21379237       0.49993588 </v>
   <v>       0.55744946       0.29324157       0.49946986 </v>
   <v>       0.40242993       0.40537510       0.50047012 </v>
   <v>       0.53559216       0.47761928       0.50044748 </v>
   <v>       0.39430443       0.60365582       0.50046434 </v>
   <v>       0.52736225       0.67361877       0.50026175 </v>
   <v>       0.39695450       0.80397139       0.50018869 </v>
   <v>       0.53196727       0.87397152       0.50011628 </v>
   <v>       0.60374810       0.00898380       0.50016676 </v>
   <v>       0.73705382       0.07076953       0.50050530 </v>
   <v>       0.62488765       0.22578393       0.49959691 </v>
   <v>       0.76599571       0.29127341       0.50025991 </v>
   <v>       0.62301774       0.43445421       0.49988325 </v>
   <v>       0.59240615       0.60866974       0.50023153 </v>
   <v>       0.72347200       0.66559306       0.50021997 </v>
   <v>       0.59727190       0.80667286       0.50014313 </v>
   <v>       0.73106729       0.86823424       0.50012855 </v>
   <v>       0.80156259       0.00117311       0.50027601 </v>
   <v>       0.93536716       0.06268160       0.50025728 </v>
   <v>       0.80924606       0.20391568       0.50083025 </v>
   <v>       0.94027672       0.26072818       0.50083145 </v>
   <v>       0.90975834       0.43503138       0.50036590 </v>
   <v>       0.76676574       0.57827823       0.49975349 </v>
   <v>       0.90787378       0.64372456       0.49943208 </v>
   <v>       0.79564026       0.79872732       0.50011285 </v>
   <v>       0.92892615       0.86046430       0.49989995 </v>
   <v>       0.71859306       0.43466862       0.55687285 </v>
  </varray>
 </structure>
 <calculation>
  <scstep>
   <time name="dav">   43.67   43.67</time>
   <time name="total">   46.51   46.51</time>
   <energy>
    <i name="alphaZ">     49.28462660 </i>
    <i name="ewald">  52383.93798048 </i>
    <i name="hartreedc"> -57473.29945559 </i>
    <i name="XCdc">    641.28283695 </i>
    <i name="pawpsdc">   5288.51619703 </i>
    <i name="pawaedc">  -5331.18329077 </i>
    <i name="eentropy">     -0.02699411 </i>
    <i name="bandstr">   -976.74193162 </i>
    <i name="atom">   7265.91972593 </i>
    <i name="e_fr_energy">   1847.68969491 </i>
    <i name="e_wo_entrp">   1847.71668902 </i>
    <i name="e_0_energy">   1847.70319196 </i>
   </energy>
  </scstep>
  <scstep>
   <time name="dav">   52.80   52.80</time>
   <time name="total">   52.80   52.81</time>
   <energy>
    <i name="e_fr_energy">     45.59134596 </i>
    <i name="e_wo_entrp">     45.59588631 </i>
    <i name="e_0_energy">     45.59361614 </i>
   </energy>
  </scstep>
  <scstep>
   <time name="dav">   46.25   46.26</time>
   <time name="total">   46.26   46.26</time>
   <energy>
    <i name="e_fr_energy">   -438.69666213 </i>
    <i name="e_wo_entrp">   -438.69351130 </i>
    <i name="e_0_energy">   -438.69508671 </i>
   </energy>
  </scstep>
  <scstep>
   <time name="dav">   45.73   45.73</time>
   <time name="total">   45.73   45.73</time>
   <energy>
    <i name="e_fr_energy">   -465.33490280 </i>
    <i name="e_wo_entrp">   -465.32987309 </i>
    <i name="e_0_energy">   -465.33238794 </i>
   </energy>
  </scstep>
  <scstep>
   <time name="dav">   52.51   52.51</time>
   <time name="total">   56.84   56.84</time>
   <energy>
    <i name="e_fr_energy">   -466.33773798 </i>
    <i name="e_wo_entrp">   -466.33268049 </i>
    <i name="e_0_energy">   -466.33520923 </i>
   </energy>
  </scstep>
  <scstep>
   <time name="dav">   41.42   41.42</time>
   <time name="total">   48.27   48.28</time>
   <energy>
    <i name="e_fr_energy">   -443.75929883 </i>
    <i name="e_wo_entrp">   -443.75255606 </i>
    <i name="e_0_energy">   -443.75592745 </i>
   </energy>
  </scstep>
  <scstep>
   <time name="dav">   42.29   42.29</time>
   <time name="total">   49.12   49.12</time>
   <energy>
    <i name="e_fr_energy">   -432.80164362 </i>
    <i name="e_wo_entrp">   -432.79644748 </i>
    <i name="e_0_energy">   -432.79904555 </i>
   </energy>
  </scstep>
  <scstep>
   <time name="dav">   42.49   42.50</time>
   <time name="total">   49.20   49.21</time>
   <energy>
    <i name="e_fr_energy">   -432.33945025 </i>
    <i name="e_wo_entrp">   -432.33441257 </i>
    <i name="e_0_energy">   -432.33693141 </i>
   </energy>
  </scstep>
  <scstep>
   <time name="dav">   49.66   49.66</time>
   <time name="total">   56.30   56.31</time>
   <energy>
    <i name="e_fr_energy">   -433.53079853 </i>
    <i name="e_wo_entrp">   -433.52574569 </i>
    <i name="e_0_energy">   -433.52827211 </i>
   </energy>
  </scstep>
  <scstep>
   <time name="dav">   40.39   40.39</time>
   <time name="total">   47.04   47.04</time>
   <energy>
    <i name="e_fr_energy">   -434.03942403 </i>
    <i name="e_wo_entrp">   -434.03427716 </i>
    <i name="e_0_energy">   -434.03685060 </i>
   </energy>
  </scstep>
  <scstep>
   <time name="dav">   43.53   43.54</time>
   <time name="total">   50.21   50.21</time>
   <energy>
    <i name="e_fr_energy">   -434.45285831 </i>
    <i name="e_wo_entrp">   -434.44764104 </i>
    <i name="e_0_energy">   -434.45024968 </i>
   </energy>
  </scstep>
  <scstep>
   <time name="dav">   40.41   40.42</time>
   <time name="total">   47.08   47.08</time>
   <energy>
    <i name="e_fr_energy">   -435.23539552 </i>
    <i name="e_wo_entrp">   -435.22996964 </i>
    <i name="e_0_energy">   -435.23268258 </i>
   </energy>
  </scstep>
  <scstep>
   <time name="dav">   39.63   39.63</time>
   <time name="total">   46.29   46.29</time>
   <energy>
    <i name="e_fr_energy">   -435.32827482 </i>
    <i name="e_wo_entrp">   -435.32242998 </i>
    <i name="e_0_energy">   -435.32535240 </i>
   </energy>
  </scstep>
  <scstep>
   <time name="dav">   40.95   40.95</time>
   <time name="total">   47.52   47.53</time>
   <energy>
    <i name="e_fr_energy">   -435.74567266 </i>
    <i name="e_wo_entrp">   -435.73948761 </i>
    <i name="e_0_energy">   -435.74258014 </i>
   </energy>
  </scstep>
  <scstep>
   <time name="dav">   40.90   40.90</time>
   <time name="total">   47.56   47.57</time>
   <energy>
    <i name="e_fr_energy">   -436.48158549 </i>
    <i name="e_wo_entrp">   -436.47522049 </i>
    <i name="e_0_energy">   -436.47840299 </i>
   </energy>
  </scstep>
  <scstep>
   <time name="dav">   41.38   41.38</time>
   <time name="total">   48.02   48.02</time>
   <energy>
    <i name="e_fr_energy">   -436.87682356 </i>
    <i name="e_wo_entrp">   -436.87040931 </i>
    <i name="e_0_energy">   -436.87361644 </i>
   </energy>
  </scstep>
  <scstep>
   <time name="dav">   40.03   40.03</time>
   <time name="total">   46.56   46.56</time>
   <energy>
    <i name="e_fr_energy">   -437.18604622 </i>
    <i name="e_wo_entrp">   -437.17961073 </i>
    <i name="e_0_energy">   -437.18282847 </i>
   </energy>
  </scstep>
  <scstep>
   <time name="dav">   40.64   40.64</time>
   <time name="total">   47.10   47.11</time>
   <energy>
    <i name="e_fr_energy">   -437.30440943 </i>
    <i name="e_wo_entrp">   -437.29796543 </i>
    <i name="e_0_energy">   -437.30118743 </i>
   </energy>
  </scstep>
  <scstep>
   <time name="dav">   40.49   40.49</time>
   <time name="total">   47.06   47.07</time>
   <energy>
    <i name="e_fr_energy">   -437.34599983 </i>
    <i name="e_wo_entrp">   -437.33955334 </i>
    <i name="e_0_energy">   -437.34277659 </i>
   </energy>
  </scstep>
  <scstep>
   <time name="dav">   39.93   39.93</time>
   <time name="total">   46.49   46.50</time>
   <energy>
    <i name="e_fr_energy">   -437.35756964 </i>
    <i name="e_wo_entrp">   -437.35112203 </i>
    <i name="e_0_energy">   -437.35434584 </i>
   </energy>
  </scstep>
  <scstep>
   <time name="dav">   40.33   40.33</time>
   <time name="total">   46.93   46.93</time>
   <energy>
    <i name="e_fr_energy">   -437.36996769 </i>
    <i name="e_wo_entrp">   -437.36351960 </i>
    <i name="e_0_energy">   -437.36674364 </i>
   </energy>
  </scstep>
  <scstep>
   <time name="dav">   40.08   40.08</time>
   <time name="total">   46.67   46.68</time>
   <energy>
    <i name="e_fr_energy">   -437.39609319 </i>
    <i name="e_wo_entrp">   -437.38964506 </i>
    <i name="e_0_energy">   -437.39286912 </i>
   </energy>
  </scstep>
  <scstep>
   <time name="dav">   40.46   40.46</time>
   <time name="total">   47.06   47.06</time>
   <energy>
    <i name="e_fr_energy">   -437.41574618 </i>
    <i name="e_wo_entrp">   -437.40929805 </i>
    <i name="e_0_energy">   -437.41252211 </i>
   </energy>
  </scstep>
  <scstep>
   <time name="dav">   36.54   36.54</time>
   <time name="total">   43.14   43.14</time>
   <energy>
    <i name="e_fr_energy">   -437.42011627 </i>
    <i name="e_wo_entrp">   -437.41366805 </i>
    <i name="e_0_energy">   -437.41689216 </i>
   </energy>
  </scstep>
  <scstep>
   <time name="dav">   35.29   35.30</time>
   <time name="total">   41.91   41.92</time>
   <energy>
    <i name="e_fr_energy">   -437.42263004 </i>
    <i name="e_wo_entrp">   -437.41618181 </i>
    <i name="e_0_energy">   -437.41940593 </i>
   </energy>
  </scstep>
  <scstep>
   <time name="dav">   34.34   34.34</time>
   <time name="total">   40.96   40.97</time>
   <energy>
    <i name="e_fr_energy">   -437.42362916 </i>
    <i name="e_wo_entrp">   -437.41718096 </i>
    <i name="e_0_energy">   -437.42040506 </i>
   </energy>
  </scstep>
  <scstep>
   <time name="dav">   33.40   33.40</time>
   <time name="total">   40.20   40.20</time>
   <energy>
    <i name="e_fr_energy">   -437.42400345 </i>
    <i name="e_wo_entrp">   -437.41755524 </i>
    <i name="e_0_energy">   -437.42077935 </i>
   </energy>
  </scstep>
  <scstep>
   <time name="dav">   33.54   33.54</time>
   <time name="total">   40.37   40.37</time>
   <energy>
    <i name="e_fr_energy">   -437.42424125 </i>
    <i name="e_wo_entrp">   -437.41779301 </i>
    <i name="e_0_energy">   -437.42101713 </i>
   </energy>
  </scstep>
  <scstep>
   <time name="dav">   33.20   33.20</time>
   <time name="total">   40.14   40.15</time>
   <energy>
    <i name="e_fr_energy">   -437.42435363 </i>
    <i name="e_wo_entrp">   -437.41790540 </i>
    <i name="e_0_energy">   -437.42112951 </i>
   </energy>
  </scstep>
  <scstep>
   <time name="dav">   29.42   29.42</time>
   <time name="total">   36.39   36.40</time>
   <energy>
    <i name="e_fr_energy">   -437.42441256 </i>
    <i name="e_wo_entrp">   -437.41796434 </i>
    <i name="e_0_energy">   -437.42118845 </i>
   </energy>
  </scstep>
  <scstep>
   <time name="dav">   29.86   29.86</time>
   <time name="total">   36.98   36.98</time>
   <energy>
    <i name="e_fr_energy">   -437.42445530 </i>
    <i name="e_wo_entrp">   -437.41800708 </i>
    <i name="e_0_energy">   -437.42123119 </i>
   </energy>
  </scstep>
  <scstep>
   <time name="dav">   29.94   29.94</time>
   <time name="total">   37.09   37.10</time>
   <energy>
    <i name="e_fr_energy">   -437.42447090 </i>
    <i name="e_wo_entrp">   -437.41802268 </i>
    <i name="e_0_energy">   -437.42124679 </i>
   </energy>
  </scstep>
  <scstep>
   <time name="dav">   30.68   30.68</time>
   <time name="total">   37.97   37.98</time>
   <energy>
    <i name="e_fr_energy">   -437.42447567 </i>
    <i name="e_wo_entrp">   -437.41802745 </i>
    <i name="e_0_energy">   -437.42125156 </i>
   </energy>
  </scstep>
  <scstep>
   <time name="dav">   29.18   29.18</time>
   <time name="total">   36.51   36.51</time>
   <energy>
    <i name="e_fr_energy">   -437.42447823 </i>
    <i name="e_wo_entrp">   -437.41803000 </i>
    <i name="e_0_energy">   -437.42125412 </i>
   </energy>
  </scstep>
  <scstep>
   <time name="dav">   29.69   29.69</time>
   <time name="total">   36.99   37.00</time>
   <energy>
    <i name="e_fr_energy">   -437.42447942 </i>
    <i name="e_wo_entrp">   -437.41803120 </i>
    <i name="e_0_energy">   -437.42125531 </i>
   </energy>
  </scstep>
  <scstep>
   <time name="dav">   30.10   30.10</time>
   <time name="total">   33.00   33.01</time>
   <energy>
    <i name="alphaZ">     49.28462660 </i>
    <i name="ewald">  52383.93798048 </i>
    <i name="hartreedc"> -58354.80056688 </i>
    <i name="XCdc">    668.52385449 </i>
    <i name="pawpsdc">  19100.44931566 </i>
    <i name="pawaedc"> -19148.76797431 </i>
    <i name="eentropy">     -0.00644822 </i>
    <i name="bandstr">  -2401.96499361 </i>
    <i name="atom">   7265.91972593 </i>
    <i name="e_fr_energy">   -437.42447985 </i>
    <i name="e_wo_entrp">   -437.41803163 </i>
    <i name="e_0_energy">   -437.42125574 </i>
   </energy>
  </scstep>
  <structure>
   <crystal>
    <varray name="basis" >
     <v>      12.30000000       0.00000000       0.00000000 </v>
     <v>      -6.15000000      10.65211247       0.00000000 </v>
     <v>       0.00000000       0.00000000      30.00000000 </v>
    </varray>
    <i name="volume">   3930.62950016 </i>
    <varray name="rec_basis" >
     <v>       0.08130081       0.04693905       0.00000000 </v>
     <v>       0.00000000       0.09387809       0.00000000 </v>
     <v>       0.00000000       0.00000000       0.03333333 </v>
    </varray>
   </crystal>
   <varray name="positions" >
    <v>       0.00069168       0.99541666       0.49998612 </v>
    <v>       0.13570752       0.06529461       0.50002869 </v>
    <v>       0.00528682       0.19571106       0.50058609 </v>
    <v>       0.13833518       0.26560218       0.50057170 </v>
    <v>       0.99712702       0.39177707       0.50100754 </v>
    <v>       0.13026968       0.46391674       0.50087604 </v>
    <v>       0.97526623       0.57616636       0.49974051 </v>
    <v>       0.11731876       0.65556017       0.50025836 </v>
    <v>       0.98729726       0.78579945       0.49978844 </v>
    <v>       0.12617716       0.86034230       0.49990407 </v>
    <v>       0.20174420       0.99935984       0.49996315 </v>
    <v>       0.34076841       0.07491797       0.49997416 </v>
    <v>       0.20564900       0.20029985       0.50029029 </v>
    <v>       0.34065624       0.27207656       0.50022199 </v>
    <v>       0.19984457       0.39937158       0.50071372 </v>
    <v>       0.33279713       0.46984879       0.50056375 </v>
    <v>       0.19199209       0.59719431       0.50058322 </v>
    <v>       0.32697969       0.66894440       0.50043978 </v>
    <v>       0.19196150       0.79444851       0.50008107 </v>
    <v>       0.33098870       0.87000208       0.50010093 </v>
    <v>       0.40655756       0.00904940       0.49998696 </v>
    <v>       0.54540405       0.08366039       0.49998134 </v>
    <v>       0.41537712       0.21379237       0.49993588 </v>
    <v>       0.55744946       0.29324157       0.49946986 </v>
    <v>       0.40242993       0.40537510       0.50047012 </v>
    <v>       0.53559216       0.47761928       0.50044748 </v>
    <v>       0.39430443       0.60365582       0.50046434 </v>
    <v>       0.52736225       0.67361877       0.50026175 </v>
    <v>       0.39695450       0.80397139       0.50018869 </v>
    <v>       0.53196727       0.87397152       0.50011628 </v>
    <v>       0.60374810       0.00898380       0.50016676 </v>
    <v>       0.73705382       0.07076953       0.50050530 </v>
    <v>       0.62488765       0.22578393       0.49959691 </v>
    <v>       0.76599571       0.29127341       0.50025991 </v>
    <v>       0.62301774       0.43445421       0.49988325 </v>
    <v>       0.59240615       0.60866974       0.50023153 </v>
    <v>       0.72347200       0.66559306       0.50021997 </v>
    <v>       0.59727190       0.80667286       0.50014313 </v>
    <v>       0.73106729       0.86823424       0.50012855 </v>
    <v>       0.80156259       0.00117311       0.50027601 </v>
    <v>       0.93536716       0.06268160       0.50025728 </v>
    <v>       0.80924606       0.20391568       0.50083025 </v>
    <v>       0.94027672       0.26072818       0.50083145 </v>
    <v>       0.90975834       0.43503138       0.50036590 </v>
    <v>       0.76676574       0.57827823       0.49975349 </v>
    <v>       0.90787378       0.64372456       0.49943208 </v>
    <v>       0.79564026       0.79872732       0.50011285 </v>
    <v>       0.92892615       0.86046430       0.49989995 </v>
    <v>       0.71859306       0.43466862       0.55687285 </v>
   </varray>
  </structure>
  <varray name="forces" >
   <v>      -0.02045656       0.00169955       0.01291482 </v>
   <v>       0.01025318      -0.00629020       0.00240317 </v>
   <v>      -0.07425163       0.03820924       0.00445493 </v>
   <v>       0.01189914       0.02564938       0.00405874 </v>
   <v>      -0.09709718       0.11838530      -0.01055578 </v>
   <v>      -0.00165061       0.01931586      -0.00425275 </v>
   <v>       0.01230301      -0.17466049       0.04084746 </v>
   <v>      -0.03913056      -0.00784267      -0.04677572 </v>
   <v>      -0.00935846      -0.07967485      -0.01792235 </v>
   <v>       0.01600142       0.00900698      -0.00201057 </v>
   <v>      -0.01096942       0.00045520      -0.00540155 </v>
   <v>      -0.01741205      -0.01140547      -0.01567995 </v>
   <v>      -0.00822602       0.01347649      -0.01279021 </v>
   <v>      -0.02579879       0.00018455      -0.00081326 </v>
   <v>       0.00476123       0.00266084       0.00461867 </v>
   <v>       0.00380732       0.00644463       0.00208709 </v>
   <v>       0.00660144      -0.00681152      -0.00194110 </v>
   <v>       0.01461632      -0.00148158       0.00039112 </v>
   <v>       0.00446794       0.00439256      -0.00574747 </v>
   <v>      -0.01809019      -0.00250011       0.00437606 </v>
   <v>       0.02886191      -0.00403768      -0.00768000 </v>
   <v>      -0.02297720      -0.04331312      -0.00370975 </v>
   <v>      -0.01121949      -0.01075183       0.01241552 </v>
   <v>       0.01835040      -0.12996938       0.00638201 </v>
   <v>      -0.02858022       0.01653429       0.01324314 </v>
   <v>      -0.14539042       0.05352950      -0.02339190 </v>
   <v>       0.01334881       0.00807492      -0.00290171 </v>
   <v>      -0.03932654       0.02332056       0.01075301 </v>
   <v>       0.01674014      -0.00333131       0.00175075 </v>
   <v>      -0.00707253      -0.00721210       0.00751592 </v>
   <v>      -0.00190590      -0.00241364       0.00408849 </v>
   <v>       0.01225370       0.01569426      -0.01793607 </v>
   <v>       0.16306882       0.05589350       0.05943977 </v>
   <v>      -0.07049895       0.26740667       0.12261229 </v>
   <v>      -0.03131649       0.14018451      -0.18147059 </v>
   <v>       0.00224850      -0.00813410      -0.00790307 </v>
   <v>      -0.03519347      -0.01310666      -0.01218424 </v>
   <v>       0.01285402      -0.01866610       0.01186761 </v>
   <v>       0.00893498      -0.01107054       0.00377447 </v>
   <v>       0.01236601      -0.00495279      -0.00217452 </v>
   <v>      -0.00734016      -0.02258695       0.00717938 </v>
   <v>      -0.09588233      -0.03522348       0.00450161 </v>
   <v>       0.05514250      -0.04187400       0.03185557 </v>
   <v>      -0.16829115       0.04789965       0.05810871 </v>
   <v>       0.12033459      -0.08399871       0.10161363 </v>
   <v>       0.06107010      -0.02799460       0.02302099 </v>
   <v>       0.00300928       0.02594491       0.00570303 </v>
   <v>      -0.01424020       0.00916320       0.00292537 </v>
   <v>       0.38838173      -0.14422270      -0.18166078 </v>
  </varray>
  <varray name="stress" >
   <v>      -1.23311514     -16.22126238       0.25559489 </v>
   <v>     -16.22126238     -20.09379456      -0.09443012 </v>
   <v>       0.25559479      -0.09443007      -0.22253201 </v>
  </varray>
  <energy>
   <i name="e_fr_energy">   -437.42447985 </i>
   <i name="e_wo_entrp">   -437.42125574 </i>
   <i name="e_0_energy">     -0.00644822 </i>
  </energy>
  <time name="totalsc"> 1688.47 1688.67</time>
  <eigenvalues>
   <array>
    <dimension dim="1">band</dimension>
    <dimension dim="2">kpoint</dimension>
    <dimension dim="3">spin</dimension>
    <field>eigene</field>
    <field>occ</field>
    <set>
     <set comment="spin 1">
      <set comment="kpoint 1">
       <r>  -51.4829    1.0000 </r>
       <r>  -22.3168    1.0000 </r>
       <r>  -21.6186    1.0000 </r>
       <r>  -21.4615    1.0000 </r>
       <r>  -21.3809    1.0000 </r>
       <r>  -21.2891    1.0000 </r>
       <r>  -21.1359    1.0000 </r>
       <r>  -20.8609    1.0000 </r>
       <r>  -19.6575    1.0000 </r>
       <r>  -19.5036    1.0000 </r>
       <r>  -19.4833    1.0000 </r>
       <r>  -19.4164    1.0000 </r>
       <r>  -19.3859    1.0000 </r>
       <r>  -19.1408    1.0000 </r>
       <r>  -18.7917    1.0000 </r>
       <r>  -18.6586    1.0000 </r>
       <r>  -18.5377    1.0000 </r>
       <r>  -18.5033    1.0000 </r>
       <r>  -18.2921    1.0000 </r>
       <r>  -17.7108    1.0000 </r>
       <r>  -16.4893    1.0000 </r>
       <r>  -16.4748    1.0000 </r>
       <r>  -16.4441    1.0000 </r>
       <r>  -16.1954    1.0000 </r>
       <r>  -16.0721    1.0000 </r>
       <r>  -15.9512    1.0000 </r>
       <r>  -15.5317    1.0000 </r>
       <r>  -15.4814    1.0000 </r>
       <r>  -15.2894    1.0000 </r>
       <r>  -15.1240    1.0000 </r>
       <r>  -15.0382    1.0000 </r>
       <r>  -14.5868    1.0000 </r>
       <r>  -14.1518    1.0000 </r>
       <r>  -14.0949    1.0000 </r>
       <r>  -13.9634    1.0000 </r>
       <r>  -13.7155    1.0000 </r>
       <r>  -13.5122    1.0000 </r>
       <r>  -12.7418    1.0000 </r>
       <r>  -11.7895    1.0000 </r>
       <r>  -11.6857    1.0000 </r>
       <r>  -11.6747    1.0000 </r>
       <r>  -11.6430    1.0000 </r>
       <r>  -11.5944    1.0000 </r>
       <r>  -11.5135    1.0000 </r>
       <r>  -11.4788    1.0000 </r>
       <r>  -11.3572    1.0000 </r>
       <r>  -11.1775    1.0000 </r>
       <r>  -11.1427    1.0000 </r>
       <r>  -10.7185    1.0000 </r>
       <r>  -10.5806    1.0000 </r>
       <r>  -10.4268    1.0000 </r>
       <r>  -10.2251    1.0000 </r>
       <r>  -10.0796    1.0000 </r>
       <r>  -10.0738    1.0000 </r>
       <r>  -10.0418    1.0000 </r>
       <r>   -9.9140    1.0000 </r>
       <r>   -9.5229    1.0000 </r>
       <r>   -9.4422    1.0000 </r>
       <r>   -9.4038    1.0000 </r>
       <r>   -9.3385    1.0000 </r>
       <r>   -9.2633    1.0000 </r>
       <r>   -9.1955    1.0000 </r>
       <r>   -9.0172    1.0000 </r>
       <r>   -9.0093    1.0000 </r>
       <r>   -8.9508    1.0000 </r>
       <r>   -8.8842    1.0000 </r>
       <r>   -8.8626    1.0000 </r>
       <r>   -8.7393    1.0000 </r>
       <r>   -8.7034    1.0000 </r>
       <r>   -8.6712    1.0000 </r>
       <r>   -8.6215    1.0000 </r>
       <r>   -8.2807    1.0000 </r>
       <r>   -7.9819    1.0000 </r>
       <r>   -7.7694    1.0000 </r>
       <r>   -7.5140    1.0000 </r>
       <r>   -7.3172    1.0000 </r>
       <r>   -7.3116    1.0000 </r>
       <r>   -7.2508    1.0000 </r>
       <r>   -7.2384    1.0000 </r>
       <r>   -7.1978    1.0000 </r>
       <r>   -7.1727    1.0000 </r>
       <r>   -7.1139    1.0000 </r>
       <r>   -7.1028    1.0000 </r>
       <r>   -6.9128    1.0000 </r>
       <r>   -6.4786    1.0000 </r>
       <r>   -6.4310    1.0000 </r>
       <r>   -6.3632    1.0000 </r>
       <r>   -6.3059    1.0000 </r>
       <r>   -6.1995    1.0000 </r>
       <r>   -6.0748    1.0000 </r>
       <r>   -6.0046    1.0000 </r>
       <r>   -5.5691    1.0000 </r>
       <r>   -4.3907    1.0000 </r>
       <r>   -4.3489    1.0000 </r>
       <r>   -4.2852    1.0000 </r>
       <r>   -4.1810    1.0000 </r>
       <r>   -3.9489    1.0000 </r>
       <r>   -3.2258    0.9997 </r>
       <r>   -1.8781    0.0000 </r>
       <r>   -1.6994    0.0000 </r>
       <r>   -1.4626    0.0000 </r>
       <r>   -1.3827    0.0000 </r>
       <r>   -1.2382    0.0000 </r>
       <r>   -0.9156    0.0000 </r>
       <r>   -0.7161    0.0000 </r>
       <r>   -0.0972    0.0000 </r>
       <r>    0.1302    0.0000 </r>
       <r>    0.1771    0.0000 </r>
       <r>    0.2425    0.0000 </r>
       <r>    0.4730    0.0000 </r>
       <r>    0.5132    0.0000 </r>
       <r>    0.6094    0.0000 </r>
       <r>    0.7671    0.0000 </r>
       <r>    0.8146    0.0000 </r>
       <r>    0.8715    0.0000 </r>
       <r>    0.9488    0.0000 </r>
       <r>    1.0184    0.0000 </r>
       <r>    1.1652    0.0000 </r>
       <r>    1.3428    0.0000 </r>
       <r>    1.3949    0.0000 </r>
       <r>    1.3958    0.0000 </r>
       <r>    1.4548    0.0000 </r>
       <r>    1.5287    0.0000 </r>
       <r>    1.8117    0.0000 </r>
       <r>    1.9264    0.0000 </r>
       <r>    2.0196    0.0000 </r>
       <r>    2.0896    0.0000 </r>
       <r>    2.1015    0.0000 </r>
      </set>
      <set comment="kpoint 2">
       <r>  -51.4829    1.0000 </r>
       <r>  -22.2224    1.0000 </r>
       <r>  -21.9448    1.0000 </r>
       <r>  -21.5622    1.0000 </r>
       <r>  -21.3772    1.0000 </r>
       <r>  -21.0184    1.0000 </r>
       <r>  -20.7879    1.0000 </r>
       <r>  -20.5226    1.0000 </r>
       <r>  -20.3561    1.0000 </r>
       <r>  -20.1092    1.0000 </r>
       <r>  -19.6506    1.0000 </r>
       <r>  -19.3488    1.0000 </r>
       <r>  -19.2378    1.0000 </r>
       <r>  -19.0394    1.0000 </r>
       <r>  -18.7547    1.0000 </r>
       <r>  -18.5536    1.0000 </r>
       <r>  -18.3288    1.0000 </r>
       <r>  -17.8594    1.0000 </r>
       <r>  -17.7005    1.0000 </r>
       <r>  -17.4580    1.0000 </r>
       <r>  -17.4158    1.0000 </r>
       <r>  -17.1491    1.0000 </r>
       <r>  -16.9377    1.0000 </r>
       <r>  -16.4947    1.0000 </r>
       <r>  -16.0916    1.0000 </r>
       <r>  -15.7815    1.0000 </r>
       <r>  -15.3872    1.0000 </r>
       <r>  -15.2439    1.0000 </r>
       <r>  -15.1626    1.0000 </r>
       <r>  -14.8859    1.0000 </r>
       <r>  -14.8085    1.0000 </r>
       <r>  -14.4996    1.0000 </r>
       <r>  -14.3392    1.0000 </r>
       <r>  -14.0536    1.0000 </r>
       <r>  -13.6019    1.0000 </r>
       <r>  -13.0402    1.0000 </r>
       <r>  -12.9839    1.0000 </r>
       <r>  -12.7703    1.0000 </r>
       <r>  -12.6776    1.0000 </r>
       <r>  -12.6626    1.0000 </r>
       <r>  -12.3680    1.0000 </r>
       <r>  -12.0469    1.0000 </r>
       <r>  -11.8759    1.0000 </r>
       <r>  -11.4057    1.0000 </r>
       <r>  -11.2768    1.0000 </r>
       <r>  -11.1069    1.0000 </r>
       <r>  -10.8607    1.0000 </r>
       <r>  -10.7446    1.0000 </r>
       <r>  -10.5346    1.0000 </r>
       <r>  -10.4270    1.0000 </r>
       <r>  -10.3170    1.0000 </r>
       <r>  -10.3108    1.0000 </r>
       <r>  -10.1479    1.0000 </r>
       <r>  -10.0049    1.0000 </r>
       <r>   -9.9587    1.0000 </r>
       <r>   -9.7861    1.0000 </r>
       <r>   -9.5762    1.0000 </r>
       <r>   -9.5550    1.0000 </r>
       <r>   -9.4380    1.0000 </r>
       <r>   -9.4027    1.0000 </r>
       <r>   -9.2656    1.0000 </r>
       <r>   -9.2035    1.0000 </r>
       <r>   -9.1241    1.0000 </r>
       <r>   -8.9264    1.0000 </r>
       <r>   -8.8842    1.0000 </r>
       <r>   -8.8786    1.0000 </r>
       <r>   -8.7296    1.0000 </r>
       <r>   -8.6989    1.0000 </r>
       <r>   -8.4710    1.0000 </r>
       <r>   -8.4074    1.0000 </r>
       <r>   -8.2442    1.0000 </r>
       <r>   -8.1628    1.0000 </r>
       <r>   -8.0249    1.0000 </r>
       <r>   -8.0138    1.0000 </r>
       <r>   -7.9599    1.0000 </r>
       <r>   -7.8533    1.0000 </r>
       <r>   -7.6719    1.0000 </r>
       <r>   -7.4096    1.0000 </r>
       <r>   -7.3703    1.0000 </r>
       <r>   -7.2286    1.0000 </r>
       <r>   -7.1070    1.0000 </r>
       <r>   -6.9759    1.0000 </r>
       <r>   -6.8484    1.0000 </r>
       <r>   -6.7731    1.0000 </r>
       <r>   -6.5937    1.0000 </r>
       <r>   -6.5655    1.0000 </r>
       <r>   -6.2329    1.0000 </r>
       <r>   -6.1380    1.0000 </r>
       <r>   -6.0260    1.0000 </r>
       <r>   -5.6129    1.0000 </r>
       <r>   -5.4914    1.0000 </r>
       <r>   -5.3524    1.0000 </r>
       <r>   -5.0373    1.0000 </r>
       <r>   -4.9321    1.0000 </r>
       <r>   -4.7661    1.0000 </r>
       <r>   -4.1658    1.0000 </r>
       <r>   -3.7319    1.0000 </r>
       <r>   -3.1424    0.8562 </r>
       <r>   -1.8065    0.0000 </r>
       <r>   -1.7660    0.0000 </r>
       <r>   -1.0898    0.0000 </r>
       <r>   -1.0292    0.0000 </r>
       <r>   -0.9770    0.0000 </r>
       <r>   -0.9052    0.0000 </r>
       <r>   -0.7536    0.0000 </r>
       <r>   -0.5154    0.0000 </r>
       <r>   -0.3945    0.0000 </r>
       <r>   -0.0936    0.0000 </r>
       <r>    0.1921    0.0000 </r>
       <r>    0.3706    0.0000 </r>
       <r>    0.6047    0.0000 </r>
       <r>    0.6900    0.0000 </r>
       <r>    0.7577    0.0000 </r>
       <r>    0.8270    0.0000 </r>
       <r>    0.9356    0.0000 </r>
       <r>    0.9604    0.0000 </r>
       <r>    1.0746    0.0000 </r>
       <r>    1.1275    0.0000 </r>
       <r>    1.2567    0.0000 </r>
       <r>    1.3456    0.0000 </r>
       <r>    1.3886    0.0000 </r>
       <r>    1.5134    0.0000 </r>
       <r>    1.5534    0.0000 </r>
       <r>    1.6712    0.0000 </r>
       <r>    1.6831    0.0000 </r>
       <r>    1.7982    0.0000 </r>
       <r>    1.8306    0.0000 </r>
       <r>    1.8364    0.0000 </r>
      </set>
      <set comment="kpoint 3">
       <r>  -51.4829    1.0000 </r>
       <r>  -22.2217    1.0000 </r>
       <r>  -21.9461    1.0000 </r>
       <r>  -21.5667    1.0000 </r>
       <r>  -21.3689    1.0000 </r>
       <r>  -21.0203    1.0000 </r>
       <r>  -20.7889    1.0000 </r>
       <r>  -20.5200    1.0000 </r>
       <r>  -20.3575    1.0000 </r>
       <r>  -20.1138    1.0000 </r>
       <r>  -19.6504    1.0000 </r>
       <r>  -19.3492    1.0000 </r>
       <r>  -19.2320    1.0000 </r>
       <r>  -19.0434    1.0000 </r>
       <r>  -18.7469    1.0000 </r>
       <r>  -18.5562    1.0000 </r>
       <r>  -18.3317    1.0000 </r>
       <r>  -17.8595    1.0000 </r>
       <r>  -17.6982    1.0000 </r>
       <r>  -17.4566    1.0000 </r>
       <r>  -17.4191    1.0000 </r>
       <r>  -17.1510    1.0000 </r>
       <r>  -16.9392    1.0000 </r>
       <r>  -16.4991    1.0000 </r>
       <r>  -16.0879    1.0000 </r>
       <r>  -15.7783    1.0000 </r>
       <r>  -15.3855    1.0000 </r>
       <r>  -15.2458    1.0000 </r>
       <r>  -15.1570    1.0000 </r>
       <r>  -14.8854    1.0000 </r>
       <r>  -14.8086    1.0000 </r>
       <r>  -14.5032    1.0000 </r>
       <r>  -14.3432    1.0000 </r>
       <r>  -14.0508    1.0000 </r>
       <r>  -13.6030    1.0000 </r>
       <r>  -13.0424    1.0000 </r>
       <r>  -12.9836    1.0000 </r>
       <r>  -12.7683    1.0000 </r>
       <r>  -12.6811    1.0000 </r>
       <r>  -12.6587    1.0000 </r>
       <r>  -12.3693    1.0000 </r>
       <r>  -12.0468    1.0000 </r>
       <r>  -11.8748    1.0000 </r>
       <r>  -11.4080    1.0000 </r>
       <r>  -11.2776    1.0000 </r>
       <r>  -11.1063    1.0000 </r>
       <r>  -10.8617    1.0000 </r>
       <r>  -10.7414    1.0000 </r>
       <r>  -10.5371    1.0000 </r>
       <r>  -10.4238    1.0000 </r>
       <r>  -10.3219    1.0000 </r>
       <r>  -10.3077    1.0000 </r>
       <r>  -10.1464    1.0000 </r>
       <r>  -10.0054    1.0000 </r>
       <r>   -9.9613    1.0000 </r>
       <r>   -9.7842    1.0000 </r>
       <r>   -9.5859    1.0000 </r>
       <r>   -9.5512    1.0000 </r>
       <r>   -9.4332    1.0000 </r>
       <r>   -9.3908    1.0000 </r>
       <r>   -9.2659    1.0000 </r>
       <r>   -9.2027    1.0000 </r>
       <r>   -9.1271    1.0000 </r>
       <r>   -8.9306    1.0000 </r>
       <r>   -8.8900    1.0000 </r>
       <r>   -8.8757    1.0000 </r>
       <r>   -8.7253    1.0000 </r>
       <r>   -8.6992    1.0000 </r>
       <r>   -8.4751    1.0000 </r>
       <r>   -8.4008    1.0000 </r>
       <r>   -8.2412    1.0000 </r>
       <r>   -8.1712    1.0000 </r>
       <r>   -8.0308    1.0000 </r>
       <r>   -8.0115    1.0000 </r>
       <r>   -7.9642    1.0000 </r>
       <r>   -7.8532    1.0000 </r>
       <r>   -7.6695    1.0000 </r>
       <r>   -7.4131    1.0000 </r>
       <r>   -7.3732    1.0000 </r>
       <r>   -7.2276    1.0000 </r>
       <r>   -7.1039    1.0000 </r>
       <r>   -6.9677    1.0000 </r>
       <r>   -6.8484    1.0000 </r>
       <r>   -6.7761    1.0000 </r>
       <r>   -6.5842    1.0000 </r>
       <r>   -6.5655    1.0000 </r>
       <r>   -6.2320    1.0000 </r>
       <r>   -6.1459    1.0000 </r>
       <r>   -6.0268    1.0000 </r>
       <r>   -5.6079    1.0000 </r>
       <r>   -5.4947    1.0000 </r>
       <r>   -5.3501    1.0000 </r>
       <r>   -5.0452    1.0000 </r>
       <r>   -4.9322    1.0000 </r>
       <r>   -4.7728    1.0000 </r>
       <r>   -4.1635    1.0000 </r>
       <r>   -3.7158    1.0000 </r>
       <r>   -3.1489    0.8940 </r>
       <r>   -1.8223    0.0000 </r>
       <r>   -1.7528    0.0000 </r>
       <r>   -1.0994    0.0000 </r>
       <r>   -1.0400    0.0000 </r>
       <r>   -0.9867    0.0000 </r>
       <r>   -0.8732    0.0000 </r>
       <r>   -0.7599    0.0000 </r>
       <r>   -0.5188    0.0000 </r>
       <r>   -0.3805    0.0000 </r>
       <r>   -0.0962    0.0000 </r>
       <r>    0.2045    0.0000 </r>
       <r>    0.3626    0.0000 </r>
       <r>    0.5890    0.0000 </r>
       <r>    0.6908    0.0000 </r>
       <r>    0.7598    0.0000 </r>
       <r>    0.8453    0.0000 </r>
       <r>    0.9288    0.0000 </r>
       <r>    0.9610    0.0000 </r>
       <r>    1.0775    0.0000 </r>
       <r>    1.1286    0.0000 </r>
       <r>    1.2709    0.0000 </r>
       <r>    1.3417    0.0000 </r>
       <r>    1.3874    0.0000 </r>
       <r>    1.5162    0.0000 </r>
       <r>    1.5522    0.0000 </r>
       <r>    1.6632    0.0000 </r>
       <r>    1.6755    0.0000 </r>
       <r>    1.7978    0.0000 </r>
       <r>    1.8288    0.0000 </r>
       <r>    1.8373    0.0000 </r>
      </set>
      <set comment="kpoint 4">
       <r>  -51.4829    1.0000 </r>
       <r>  -22.1536    1.0000 </r>
       <r>  -22.0028    1.0000 </r>
       <r>  -21.7552    1.0000 </r>
       <r>  -21.1206    1.0000 </r>
       <r>  -21.0733    1.0000 </r>
       <r>  -20.7660    1.0000 </r>
       <r>  -20.2999    1.0000 </r>
       <r>  -20.1505    1.0000 </r>
       <r>  -20.0858    1.0000 </r>
       <r>  -20.0334    1.0000 </r>
       <r>  -19.9222    1.0000 </r>
       <r>  -19.4916    1.0000 </r>
       <r>  -18.4824    1.0000 </r>
       <r>  -18.3768    1.0000 </r>
       <r>  -18.3223    1.0000 </r>
       <r>  -18.2439    1.0000 </r>
       <r>  -17.9826    1.0000 </r>
       <r>  -17.8000    1.0000 </r>
       <r>  -17.5997    1.0000 </r>
       <r>  -17.3503    1.0000 </r>
       <r>  -17.2109    1.0000 </r>
       <r>  -16.9379    1.0000 </r>
       <r>  -16.5931    1.0000 </r>
       <r>  -16.2855    1.0000 </r>
       <r>  -15.8691    1.0000 </r>
       <r>  -15.8168    1.0000 </r>
       <r>  -15.5767    1.0000 </r>
       <r>  -14.9871    1.0000 </r>
       <r>  -14.8063    1.0000 </r>
       <r>  -14.0221    1.0000 </r>
       <r>  -13.9997    1.0000 </r>
       <r>  -13.9123    1.0000 </r>
       <r>  -13.7088    1.0000 </r>
       <r>  -13.6912    1.0000 </r>
       <r>  -13.6283    1.0000 </r>
       <r>  -13.5381    1.0000 </r>
       <r>  -13.0855    1.0000 </r>
       <r>  -12.9089    1.0000 </r>
       <r>  -12.2666    1.0000 </r>
       <r>  -12.1675    1.0000 </r>
       <r>  -12.0335    1.0000 </r>
       <r>  -11.8382    1.0000 </r>
       <r>  -11.5694    1.0000 </r>
       <r>  -11.5312    1.0000 </r>
       <r>  -11.2306    1.0000 </r>
       <r>  -11.1732    1.0000 </r>
       <r>  -10.6200    1.0000 </r>
       <r>  -10.5777    1.0000 </r>
       <r>  -10.3045    1.0000 </r>
       <r>  -10.1912    1.0000 </r>
       <r>  -10.0961    1.0000 </r>
       <r>  -10.0743    1.0000 </r>
       <r>  -10.0573    1.0000 </r>
       <r>   -9.9516    1.0000 </r>
       <r>   -9.8668    1.0000 </r>
       <r>   -9.8448    1.0000 </r>
       <r>   -9.6657    1.0000 </r>
       <r>   -9.2896    1.0000 </r>
       <r>   -9.1842    1.0000 </r>
       <r>   -9.1098    1.0000 </r>
       <r>   -9.1017    1.0000 </r>
       <r>   -9.0189    1.0000 </r>
       <r>   -8.9733    1.0000 </r>
       <r>   -8.7494    1.0000 </r>
       <r>   -8.6885    1.0000 </r>
       <r>   -8.6675    1.0000 </r>
       <r>   -8.5968    1.0000 </r>
       <r>   -8.5059    1.0000 </r>
       <r>   -8.4263    1.0000 </r>
       <r>   -8.2665    1.0000 </r>
       <r>   -8.2018    1.0000 </r>
       <r>   -8.0396    1.0000 </r>
       <r>   -8.0283    1.0000 </r>
       <r>   -7.9293    1.0000 </r>
       <r>   -7.8874    1.0000 </r>
       <r>   -7.8448    1.0000 </r>
       <r>   -7.8181    1.0000 </r>
       <r>   -7.4606    1.0000 </r>
       <r>   -7.4141    1.0000 </r>
       <r>   -7.2789    1.0000 </r>
       <r>   -6.9247    1.0000 </r>
       <r>   -6.8073    1.0000 </r>
       <r>   -6.7843    1.0000 </r>
       <r>   -6.4850    1.0000 </r>
       <r>   -6.1534    1.0000 </r>
       <r>   -6.0796    1.0000 </r>
       <r>   -6.0052    1.0000 </r>
       <r>   -5.9001    1.0000 </r>
       <r>   -5.6618    1.0000 </r>
       <r>   -5.5690    1.0000 </r>
       <r>   -5.2097    1.0000 </r>
       <r>   -5.1251    1.0000 </r>
       <r>   -5.0608    1.0000 </r>
       <r>   -4.8494    1.0000 </r>
       <r>   -4.6971    1.0000 </r>
       <r>   -3.6745    1.0000 </r>
       <r>   -2.6125    0.0000 </r>
       <r>   -2.5125    0.0000 </r>
       <r>   -1.3035    0.0000 </r>
       <r>   -1.2291    0.0000 </r>
       <r>   -1.1880    0.0000 </r>
       <r>   -0.8793    0.0000 </r>
       <r>   -0.6306    0.0000 </r>
       <r>   -0.5003    0.0000 </r>
       <r>   -0.4667    0.0000 </r>
       <r>   -0.2156    0.0000 </r>
       <r>    0.0007    0.0000 </r>
       <r>    0.0160    0.0000 </r>
       <r>    0.1869    0.0000 </r>
       <r>    0.3473    0.0000 </r>
       <r>    0.3825    0.0000 </r>
       <r>    0.4439    0.0000 </r>
       <r>    0.7235    0.0000 </r>
       <r>    0.8056    0.0000 </r>
       <r>    1.1385    0.0000 </r>
       <r>    1.2325    0.0000 </r>
       <r>    1.2371    0.0000 </r>
       <r>    1.2446    0.0000 </r>
       <r>    1.3062    0.0000 </r>
       <r>    1.3371    0.0000 </r>
       <r>    1.4716    0.0000 </r>
       <r>    1.4872    0.0000 </r>
       <r>    1.5163    0.0000 </r>
       <r>    1.7777    0.0000 </r>
       <r>    1.7791    0.0000 </r>
       <r>    1.7934    0.0000 </r>
       <r>    1.9028    0.0000 </r>
      </set>
      <set comment="kpoint 5">
       <r>  -51.4829    1.0000 </r>
       <r>  -22.2579    1.0000 </r>
       <r>  -21.7609    1.0000 </r>
       <r>  -21.6382    1.0000 </r>
       <r>  -21.5511    1.0000 </r>
       <r>  -20.9020    1.0000 </r>
       <r>  -20.8465    1.0000 </r>
       <r>  -20.5442    1.0000 </r>
       <r>  -20.2166    1.0000 </r>
       <r>  -20.0456    1.0000 </r>
       <r>  -19.5969    1.0000 </r>
       <r>  -19.4320    1.0000 </r>
       <r>  -19.4081    1.0000 </r>
       <r>  -19.0057    1.0000 </r>
       <r>  -18.9746    1.0000 </r>
       <r>  -18.4231    1.0000 </r>
       <r>  -18.2843    1.0000 </r>
       <r>  -17.8811    1.0000 </r>
       <r>  -17.6748    1.0000 </r>
       <r>  -17.2594    1.0000 </r>
       <r>  -17.2506    1.0000 </r>
       <r>  -17.0602    1.0000 </r>
       <r>  -17.0134    1.0000 </r>
       <r>  -16.6725    1.0000 </r>
       <r>  -16.3504    1.0000 </r>
       <r>  -15.8258    1.0000 </r>
       <r>  -15.4560    1.0000 </r>
       <r>  -15.2240    1.0000 </r>
       <r>  -15.2026    1.0000 </r>
       <r>  -14.7327    1.0000 </r>
       <r>  -14.6343    1.0000 </r>
       <r>  -14.4339    1.0000 </r>
       <r>  -14.3386    1.0000 </r>
       <r>  -14.1879    1.0000 </r>
       <r>  -13.5806    1.0000 </r>
       <r>  -13.0540    1.0000 </r>
       <r>  -12.9405    1.0000 </r>
       <r>  -12.8796    1.0000 </r>
       <r>  -12.6176    1.0000 </r>
       <r>  -12.4482    1.0000 </r>
       <r>  -12.3956    1.0000 </r>
       <r>  -11.9353    1.0000 </r>
       <r>  -11.8409    1.0000 </r>
       <r>  -11.6292    1.0000 </r>
       <r>  -11.4305    1.0000 </r>
       <r>  -11.1975    1.0000 </r>
       <r>  -10.9823    1.0000 </r>
       <r>  -10.8234    1.0000 </r>
       <r>  -10.5608    1.0000 </r>
       <r>  -10.3622    1.0000 </r>
       <r>  -10.3350    1.0000 </r>
       <r>  -10.2474    1.0000 </r>
       <r>  -10.1621    1.0000 </r>
       <r>   -9.9046    1.0000 </r>
       <r>   -9.8461    1.0000 </r>
       <r>   -9.7116    1.0000 </r>
       <r>   -9.6477    1.0000 </r>
       <r>   -9.5821    1.0000 </r>
       <r>   -9.5523    1.0000 </r>
       <r>   -9.3309    1.0000 </r>
       <r>   -9.2342    1.0000 </r>
       <r>   -9.0543    1.0000 </r>
       <r>   -8.9863    1.0000 </r>
       <r>   -8.9755    1.0000 </r>
       <r>   -8.9247    1.0000 </r>
       <r>   -8.8058    1.0000 </r>
       <r>   -8.7737    1.0000 </r>
       <r>   -8.7496    1.0000 </r>
       <r>   -8.5719    1.0000 </r>
       <r>   -8.4038    1.0000 </r>
       <r>   -8.1784    1.0000 </r>
       <r>   -8.0910    1.0000 </r>
       <r>   -8.0617    1.0000 </r>
       <r>   -8.0276    1.0000 </r>
       <r>   -7.9252    1.0000 </r>
       <r>   -7.8421    1.0000 </r>
       <r>   -7.6024    1.0000 </r>
       <r>   -7.3576    1.0000 </r>
       <r>   -7.2296    1.0000 </r>
       <r>   -7.1736    1.0000 </r>
       <r>   -7.1587    1.0000 </r>
       <r>   -7.1286    1.0000 </r>
       <r>   -7.1114    1.0000 </r>
       <r>   -6.8093    1.0000 </r>
       <r>   -6.6476    1.0000 </r>
       <r>   -6.4411    1.0000 </r>
       <r>   -6.4045    1.0000 </r>
       <r>   -6.0808    1.0000 </r>
       <r>   -5.9912    1.0000 </r>
       <r>   -5.7080    1.0000 </r>
       <r>   -5.4836    1.0000 </r>
       <r>   -5.1198    1.0000 </r>
       <r>   -4.9767    1.0000 </r>
       <r>   -4.8670    1.0000 </r>
       <r>   -4.7889    1.0000 </r>
       <r>   -4.3681    1.0000 </r>
       <r>   -3.9474    1.0000 </r>
       <r>   -2.9142    0.0000 </r>
       <r>   -1.6955    0.0000 </r>
       <r>   -1.6051    0.0000 </r>
       <r>   -1.2000    0.0000 </r>
       <r>   -1.1675    0.0000 </r>
       <r>   -1.1016    0.0000 </r>
       <r>   -0.9305    0.0000 </r>
       <r>   -0.8742    0.0000 </r>
       <r>   -0.4416    0.0000 </r>
       <r>   -0.3752    0.0000 </r>
       <r>    0.0654    0.0000 </r>
       <r>    0.1925    0.0000 </r>
       <r>    0.3392    0.0000 </r>
       <r>    0.4480    0.0000 </r>
       <r>    0.7604    0.0000 </r>
       <r>    0.8136    0.0000 </r>
       <r>    0.8818    0.0000 </r>
       <r>    0.9586    0.0000 </r>
       <r>    1.1151    0.0000 </r>
       <r>    1.1975    0.0000 </r>
       <r>    1.2232    0.0000 </r>
       <r>    1.3110    0.0000 </r>
       <r>    1.3860    0.0000 </r>
       <r>    1.4937    0.0000 </r>
       <r>    1.5486    0.0000 </r>
       <r>    1.5850    0.0000 </r>
       <r>    1.6716    0.0000 </r>
       <r>    1.6939    0.0000 </r>
       <r>    1.7789    0.0000 </r>
       <r>    1.8323    0.0000 </r>
       <r>    1.8365    0.0000 </r>
      </set>
     </set>
     <set comment="spin 2">
      <set comment="kpoint 1">
       <r>  -51.4829    1.0000 </r>
       <r>  -22.3168    1.0000 </r>
       <r>  -21.6186    1.0000 </r>
       <r>  -21.4615    1.0000 </r>
       <r>  -21.3809    1.0000 </r>
       <r>  -21.2891    1.0000 </r>
       <r>  -21.1359    1.0000 </r>
       <r>  -20.8609    1.0000 </r>
       <r>  -19.6575    1.0000 </r>
       <r>  -19.5036    1.0000 </r>
       <r>  -19.4833    1.0000 </r>
       <r>  -19.4164    1.0000 </r>
       <r>  -19.3859    1.0000 </r>
       <r>  -19.1408    1.0000 </r>
       <r>  -18.7917    1.0000 </r>
       <r>  -18.6586    1.0000 </r>
       <r>  -18.5377    1.0000 </r>
       <r>  -18.5033    1.0000 </r>
       <r>  -18.2921    1.0000 </r>
       <r>  -17.7108    1.0000 </r>
       <r>  -16.4893    1.0000 </r>
       <r>  -16.4748    1.0000 </r>
       <r>  -16.4441    1.0000 </r>
       <r>  -16.1954    1.0000 </r>
       <r>  -16.0721    1.0000 </r>
       <r>  -15.9512    1.0000 </r>
       <r>  -15.5317    1.0000 </r>
       <r>  -15.4814    1.0000 </r>
       <r>  -15.2894    1.0000 </r>
       <r>  -15.1240    1.0000 </r>
       <r>  -15.0382    1.0000 </r>
       <r>  -14.5868    1.0000 </r>
       <r>  -14.1518    1.0000 </r>
       <r>  -14.0949    1.0000 </r>
       <r>  -13.9634    1.0000 </r>
       <r>  -13.7155    1.0000 </r>
       <r>  -13.5122    1.0000 </r>
       <r>  -12.7418    1.0000 </r>
       <r>  -11.7895    1.0000 </r>
       <r>  -11.6857    1.0000 </r>
       <r>  -11.6747    1.0000 </r>
       <r>  -11.6430    1.0000 </r>
       <r>  -11.5944    1.0000 </r>
       <r>  -11.5135    1.0000 </r>
       <r>  -11.4788    1.0000 </r>
       <r>  -11.3572    1.0000 </r>
       <r>  -11.1775    1.0000 </r>
       <r>  -11.1427    1.0000 </r>
       <r>  -10.7185    1.0000 </r>
       <r>  -10.5806    1.0000 </r>
       <r>  -10.4268    1.0000 </r>
       <r>  -10.2251    1.0000 </r>
       <r>  -10.0796    1.0000 </r>
       <r>  -10.0738    1.0000 </r>
       <r>  -10.0418    1.0000 </r>
       <r>   -9.9140    1.0000 </r>
       <r>   -9.5229    1.0000 </r>
       <r>   -9.4422    1.0000 </r>
       <r>   -9.4038    1.0000 </r>
       <r>   -9.3385    1.0000 </r>
       <r>   -9.2633    1.0000 </r>
       <r>   -9.1955    1.0000 </r>
       <r>   -9.0172    1.0000 </r>
       <r>   -9.0093    1.0000 </r>
       <r>   -8.9508    1.0000 </r>
       <r>   -8.8842    1.0000 </r>
       <r>   -8.8626    1.0000 </r>
       <r>   -8.7393    1.0000 </r>
       <r>   -8.7034    1.0000 </r>
       <r>   -8.6712    1.0000 </r>
       <r>   -8.6215    1.0000 </r>
       <r>   -8.2807    1.0000 </r>
       <r>   -7.9819    1.0000 </r>
       <r>   -7.7694    1.0000 </r>
       <r>   -7.5140    1.0000 </r>
       <r>   -7.3172    1.0000 </r>
       <r>   -7.3116    1.0000 </r>
       <r>   -7.2508    1.0000 </r>
       <r>   -7.2384    1.0000 </r>
       <r>   -7.1978    1.0000 </r>
       <r>   -7.1727    1.0000 </r>
       <r>   -7.1139    1.0000 </r>
       <r>   -7.1028    1.0000 </r>
       <r>   -6.9128    1.0000 </r>
       <r>   -6.4786    1.0000 </r>
       <r>   -6.4310    1.0000 </r>
       <r>   -6.3632    1.0000 </r>
       <r>   -6.3059    1.0000 </r>
       <r>   -6.1995    1.0000 </r>
       <r>   -6.0748    1.0000 </r>
       <r>   -6.0046    1.0000 </r>
       <r>   -5.5691    1.0000 </r>
       <r>   -4.3907    1.0000 </r>
       <r>   -4.3489    1.0000 </r>
       <r>   -4.2852    1.0000 </r>
       <r>   -4.1810    1.0000 </r>
       <r>   -3.9489    1.0000 </r>
       <r>   -3.2258    0.9997 </r>
       <r>   -1.8781    0.0000 </r>
       <r>   -1.6994    0.0000 </r>
       <r>   -1.4626    0.0000 </r>
       <r>   -1.3827    0.0000 </r>
       <r>   -1.2382    0.0000 </r>
       <r>   -0.9156    0.0000 </r>
       <r>   -0.7161    0.0000 </r>
       <r>   -0.0972    0.0000 </r>
       <r>    0.1302    0.0000 </r>
       <r>    0.1771    0.0000 </r>
       <r>    0.2425    0.0000 </r>
       <r>    0.4736    0.0000 </r>
       <r>    0.5132    0.0000 </r>
       <r>    0.6095    0.0000 </r>
       <r>    0.7672    0.0000 </r>
       <r>    0.8261    0.0000 </r>
       <r>    0.8717    0.0000 </r>
       <r>    0.9490    0.0000 </r>
       <r>    1.0325    0.0000 </r>
       <r>    1.1653    0.0000 </r>
       <r>    1.3628    0.0000 </r>
       <r>    1.3954    0.0000 </r>
       <r>    1.3963    0.0000 </r>
       <r>    1.4552    0.0000 </r>
       <r>    1.5448    0.0000 </r>
       <r>    1.8117    0.0000 </r>
       <r>    1.9211    0.0000 </r>
       <r>    2.0242    0.0000 </r>
       <r>    2.0441    0.0000 </r>
       <r>    2.1408    0.0000 </r>
      </set>
      <set comment="kpoint 2">
       <r>  -51.4829    1.0000 </r>
       <r>  -22.2224    1.0000 </r>
       <r>  -21.9448    1.0000 </r>
       <r>  -21.5622    1.0000 </r>
       <r>  -21.3772    1.0000 </r>
       <r>  -21.0184    1.0000 </r>
       <r>  -20.7879    1.0000 </r>
       <r>  -20.5226    1.0000 </r>
       <r>  -20.3561    1.0000 </r>
       <r>  -20.1092    1.0000 </r>
       <r>  -19.6506    1.0000 </r>
       <r>  -19.3488    1.0000 </r>
       <r>  -19.2378    1.0000 </r>
       <r>  -19.0394    1.0000 </r>
       <r>  -18.7547    1.0000 </r>
       <r>  -18.5536    1.0000 </r>
       <r>  -18.3288    1.0000 </r>
       <r>  -17.8594    1.0000 </r>
       <r>  -17.7005    1.0000 </r>
       <r>  -17.4580    1.0000 </r>
       <r>  -17.4158    1.0000 </r>
       <r>  -17.1491    1.0000 </r>
       <r>  -16.9377    1.0000 </r>
       <r>  -16.4947    1.0000 </r>
       <r>  -16.0916    1.0000 </r>
       <r>  -15.7815    1.0000 </r>
       <r>  -15.3872    1.0000 </r>
       <r>  -15.2439    1.0000 </r>
       <r>  -15.1626    1.0000 </r>
       <r>  -14.8859    1.0000 </r>
       <r>  -14.8085    1.0000 </r>
       <r>  -14.4996    1.0000 </r>
       <r>  -14.3392    1.0000 </r>
       <r>  -14.0536    1.0000 </r>
       <r>  -13.6019    1.0000 </r>
       <r>  -13.0402    1.0000 </r>
       <r>  -12.9839    1.0000 </r>
       <r>  -12.7703    1.0000 </r>
       <r>  -12.6776    1.0000 </r>
       <r>  -12.6626    1.0000 </r>
       <r>  -12.3680    1.0000 </r>
       <r>  -12.0469    1.0000 </r>
       <r>  -11.8759    1.0000 </r>
       <r>  -11.4057    1.0000 </r>
       <r>  -11.2768    1.0000 </r>
       <r>  -11.1069    1.0000 </r>
       <r>  -10.8607    1.0000 </r>
       <r>  -10.7446    1.0000 </r>
       <r>  -10.5346    1.0000 </r>
       <r>  -10.4270    1.0000 </r>
       <r>  -10.3170    1.0000 </r>
       <r>  -10.3108    1.0000 </r>
       <r>  -10.1479    1.0000 </r>
       <r>  -10.0049    1.0000 </r>
       <r>   -9.9587    1.0000 </r>
       <r>   -9.7861    1.0000 </r>
       <r>   -9.5762    1.0000 </r>
       <r>   -9.5550    1.0000 </r>
       <r>   -9.4380    1.0000 </r>
       <r>   -9.4027    1.0000 </r>
       <r>   -9.2656    1.0000 </r>
       <r>   -9.2035    1.0000 </r>
       <r>   -9.1241    1.0000 </r>
       <r>   -8.9264    1.0000 </r>
       <r>   -8.8842    1.0000 </r>
       <r>   -8.8786    1.0000 </r>
       <r>   -8.7296    1.0000 </r>
       <r>   -8.6989    1.0000 </r>
       <r>   -8.4710    1.0000 </r>
       <r>   -8.4074    1.0000 </r>
       <r>   -8.2442    1.0000 </r>
       <r>   -8.1628    1.0000 </r>
       <r>   -8.0249    1.0000 </r>
       <r>   -8.0138    1.0000 </r>
       <r>   -7.9599    1.0000 </r>
       <r>   -7.8533    1.0000 </r>
       <r>   -7.6719    1.0000 </r>
       <r>   -7.4096    1.0000 </r>
       <r>   -7.3703    1.0000 </r>
       <r>   -7.2286    1.0000 </r>
       <r>   -7.1070    1.0000 </r>
       <r>   -6.9759    1.0000 </r>
       <r>   -6.8484    1.0000 </r>
       <r>   -6.7731    1.0000 </r>
       <r>   -6.5937    1.0000 </r>
       <r>   -6.5655    1.0000 </r>
       <r>   -6.2329    1.0000 </r>
       <r>   -6.1380    1.0000 </r>
       <r>   -6.0260    1.0000 </r>
       <r>   -5.6129    1.0000 </r>
       <r>   -5.4914    1.0000 </r>
       <r>   -5.3524    1.0000 </r>
       <r>   -5.0373    1.0000 </r>
       <r>   -4.9321    1.0000 </r>
       <r>   -4.7661    1.0000 </r>
       <r>   -4.1658    1.0000 </r>
       <r>   -3.7319    1.0000 </r>
       <r>   -3.1424    0.8562 </r>
       <r>   -1.8065    0.0000 </r>
       <r>   -1.7660    0.0000 </r>
       <r>   -1.0898    0.0000 </r>
       <r>   -1.0292    0.0000 </r>
       <r>   -0.9770    0.0000 </r>
       <r>   -0.9052    0.0000 </r>
       <r>   -0.7536    0.0000 </r>
       <r>   -0.5154    0.0000 </r>
       <r>   -0.3945    0.0000 </r>
       <r>   -0.0936    0.0000 </r>
       <r>    0.1921    0.0000 </r>
       <r>    0.3709    0.0000 </r>
       <r>    0.6048    0.0000 </r>
       <r>    0.6901    0.0000 </r>
       <r>    0.7578    0.0000 </r>
       <r>    0.8274    0.0000 </r>
       <r>    0.9359    0.0000 </r>
       <r>    0.9709    0.0000 </r>
       <r>    1.0749    0.0000 </r>
       <r>    1.1384    0.0000 </r>
       <r>    1.2588    0.0000 </r>
       <r>    1.3528    0.0000 </r>
       <r>    1.3973    0.0000 </r>
       <r>    1.5275    0.0000 </r>
       <r>    1.5678    0.0000 </r>
       <r>    1.6794    0.0000 </r>
       <r>    1.6911    0.0000 </r>
       <r>    1.8069    0.0000 </r>
       <r>    1.8410    0.0000 </r>
       <r>    1.8509    0.0000 </r>
      </set>
      <set comment="kpoint 3">
       <r>  -51.4829    1.0000 </r>
       <r>  -22.2217    1.0000 </r>
       <r>  -21.9461    1.0000 </r>
       <r>  -21.5667    1.0000 </r>
       <r>  -21.3689    1.0000 </r>
       <r>  -21.0203    1.0000 </r>
       <r>  -20.7889    1.0000 </r>
       <r>  -20.5200    1.0000 </r>
       <r>  -20.3575    1.0000 </r>
       <r>  -20.1138    1.0000 </r>
       <r>  -19.6504    1.0000 </r>
       <r>  -19.3492    1.0000 </r>
       <r>  -19.2320    1.0000 </r>
       <r>  -19.0434    1.0000 </r>
       <r>  -18.7469    1.0000 </r>
       <r>  -18.5562    1.0000 </r>
       <r>  -18.3317    1.0000 </r>
       <r>  -17.8595    1.0000 </r>
       <r>  -17.6982    1.0000 </r>
       <r>  -17.4566    1.0000 </r>
       <r>  -17.4191    1.0000 </r>
       <r>  -17.1510    1.0000 </r>
       <r>  -16.9392    1.0000 </r>
       <r>  -16.4991    1.0000 </r>
       <r>  -16.0879    1.0000 </r>
       <r>  -15.7783    1.0000 </r>
       <r>  -15.3855    1.0000 </r>
       <r>  -15.2458    1.0000 </r>
       <r>  -15.1570    1.0000 </r>
       <r>  -14.8854    1.0000 </r>
       <r>  -14.8086    1.0000 </r>
       <r>  -14.5032    1.0000 </r>
       <r>  -14.3432    1.0000 </r>
       <r>  -14.0508    1.0000 </r>
       <r>  -13.6030    1.0000 </r>
       <r>  -13.0424    1.0000 </r>
       <r>  -12.9836    1.0000 </r>
       <r>  -12.7683    1.0000 </r>
       <r>  -12.6811    1.0000 </r>
       <r>  -12.6587    1.0000 </r>
       <r>  -12.3693    1.0000 </r>
       <r>  -12.0468    1.0000 </r>
       <r>  -11.8748    1.0000 </r>
       <r>  -11.4080    1.0000 </r>
       <r>  -11.2776    1.0000 </r>
       <r>  -11.1063    1.0000 </r>
       <r>  -10.8617    1.0000 </r>
       <r>  -10.7414    1.0000 </r>
       <r>  -10.5371    1.0000 </r>
       <r>  -10.4238    1.0000 </r>
       <r>  -10.3219    1.0000 </r>
       <r>  -10.3077    1.0000 </r>
       <r>  -10.1464    1.0000 </r>
       <r>  -10.0054    1.0000 </r>
       <r>   -9.9613    1.0000 </r>
       <r>   -9.7842    1.0000 </r>
       <r>   -9.5859    1.0000 </r>
       <r>   -9.5512    1.0000 </r>
       <r>   -9.4332    1.0000 </r>
       <r>   -9.3908    1.0000 </r>
       <r>   -9.2659    1.0000 </r>
       <r>   -9.2027    1.0000 </r>
       <r>   -9.1271    1.0000 </r>
       <r>   -8.9306    1.0000 </r>
       <r>   -8.8900    1.0000 </r>
       <r>   -8.8757    1.0000 </r>
       <r>   -8.7253    1.0000 </r>
       <r>   -8.6992    1.0000 </r>
       <r>   -8.4751    1.0000 </r>
       <r>   -8.4008    1.0000 </r>
       <r>   -8.2412    1.0000 </r>
       <r>   -8.1712    1.0000 </r>
       <r>   -8.0308    1.0000 </r>
       <r>   -8.0115    1.0000 </r>
       <r>   -7.9642    1.0000 </r>
       <r>   -7.8532    1.0000 </r>
       <r>   -7.6695    1.0000 </r>
       <r>   -7.4131    1.0000 </r>
       <r>   -7.3732    1.0000 </r>
       <r>   -7.2276    1.0000 </r>
       <r>   -7.1039    1.0000 </r>
       <r>   -6.9677    1.0000 </r>
       <r>   -6.8484    1.0000 </r>
       <r>   -6.7761    1.0000 </r>
       <r>   -6.5842    1.0000 </r>
       <r>   -6.5655    1.0000 </r>
       <r>   -6.2320    1.0000 </r>
       <r>   -6.1459    1.0000 </r>
       <r>   -6.0268    1.0000 </r>
       <r>   -5.6079    1.0000 </r>
       <r>   -5.4947    1.0000 </r>
       <r>   -5.3501    1.0000 </r>
       <r>   -5.0452    1.0000 </r>
       <r>   -4.9322    1.0000 </r>
       <r>   -4.7728    1.0000 </r>
       <r>   -4.1635    1.0000 </r>
       <r>   -3.7158    1.0000 </r>
       <r>   -3.1489    0.8940 </r>
       <r>   -1.8223    0.0000 </r>
       <r>   -1.7528    0.0000 </r>
       <r>   -1.0994    0.0000 </r>
       <r>   -1.0399    0.0000 </r>
       <r>   -0.9867    0.0000 </r>
       <r>   -0.8732    0.0000 </r>
       <r>   -0.7599    0.0000 </r>
       <r>   -0.5188    0.0000 </r>
       <r>   -0.3805    0.0000 </r>
       <r>   -0.0962    0.0000 </r>
       <r>    0.2045    0.0000 </r>
       <r>    0.3629    0.0000 </r>
       <r>    0.5890    0.0000 </r>
       <r>    0.6909    0.0000 </r>
       <r>    0.7600    0.0000 </r>
       <r>    0.8457    0.0000 </r>
       <r>    0.9290    0.0000 </r>
       <r>    0.9716    0.0000 </r>
       <r>    1.0777    0.0000 </r>
       <r>    1.1399    0.0000 </r>
       <r>    1.2721    0.0000 </r>
       <r>    1.3496    0.0000 </r>
       <r>    1.3961    0.0000 </r>
       <r>    1.5302    0.0000 </r>
       <r>    1.5666    0.0000 </r>
       <r>    1.6651    0.0000 </r>
       <r>    1.6897    0.0000 </r>
       <r>    1.8067    0.0000 </r>
       <r>    1.8392    0.0000 </r>
       <r>    1.8514    0.0000 </r>
      </set>
      <set comment="kpoint 4">
       <r>  -51.4829    1.0000 </r>
       <r>  -22.1536    1.0000 </r>
       <r>  -22.0028    1.0000 </r>
       <r>  -21.7552    1.0000 </r>
       <r>  -21.1206    1.0000 </r>
       <r>  -21.0733    1.0000 </r>
       <r>  -20.7660    1.0000 </r>
       <r>  -20.2999    1.0000 </r>
       <r>  -20.1505    1.0000 </r>
       <r>  -20.0858    1.0000 </r>
       <r>  -20.0334    1.0000 </r>
       <r>  -19.9222    1.0000 </r>
       <r>  -19.4916    1.0000 </r>
       <r>  -18.4824    1.0000 </r>
       <r>  -18.3768    1.0000 </r>
       <r>  -18.3223    1.0000 </r>
       <r>  -18.2439    1.0000 </r>
       <r>  -17.9826    1.0000 </r>
       <r>  -17.8000    1.0000 </r>
       <r>  -17.5997    1.0000 </r>
       <r>  -17.3503    1.0000 </r>
       <r>  -17.2109    1.0000 </r>
       <r>  -16.9379    1.0000 </r>
       <r>  -16.5931    1.0000 </r>
       <r>  -16.2855    1.0000 </r>
       <r>  -15.8691    1.0000 </r>
       <r>  -15.8168    1.0000 </r>
       <r>  -15.5767    1.0000 </r>
       <r>  -14.9871    1.0000 </r>
       <r>  -14.8063    1.0000 </r>
       <r>  -14.0221    1.0000 </r>
       <r>  -13.9997    1.0000 </r>
       <r>  -13.9123    1.0000 </r>
       <r>  -13.7088    1.0000 </r>
       <r>  -13.6912    1.0000 </r>
       <r>  -13.6283    1.0000 </r>
       <r>  -13.5381    1.0000 </r>
       <r>  -13.0855    1.0000 </r>
       <r>  -12.9089    1.0000 </r>
       <r>  -12.2666    1.0000 </r>
       <r>  -12.1675    1.0000 </r>
       <r>  -12.0335    1.0000 </r>
       <r>  -11.8382    1.0000 </r>
       <r>  -11.5694    1.0000 </r>
       <r>  -11.5312    1.0000 </r>
       <r>  -11.2306    1.0000 </r>
       <r>  -11.1732    1.0000 </r>
       <r>  -10.6200    1.0000 </r>
       <r>  -10.5777    1.0000 </r>
       <r>  -10.3045    1.0000 </r>
       <r>  -10.1912    1.0000 </r>
       <r>  -10.0961    1.0000 </r>
       <r>  -10.0743    1.0000 </r>
       <r>  -10.0573    1.0000 </r>
       <r>   -9.9516    1.0000 </r>
       <r>   -9.8668    1.0000 </r>
       <r>   -9.8448    1.0000 </r>
       <r>   -9.6657    1.0000 </r>
       <r>   -9.2896    1.0000 </r>
       <r>   -9.1842    1.0000 </r>
       <r>   -9.1098    1.0000 </r>
       <r>   -9.1017    1.0000 </r>
       <r>   -9.0189    1.0000 </r>
       <r>   -8.9733    1.0000 </r>
       <r>   -8.7494    1.0000 </r>
       <r>   -8.6885    1.0000 </r>
       <r>   -8.6675    1.0000 </r>
       <r>   -8.5968    1.0000 </r>
       <r>   -8.5059    1.0000 </r>
       <r>   -8.4263    1.0000 </r>
       <r>   -8.2665    1.0000 </r>
       <r>   -8.2018    1.0000 </r>
       <r>   -8.0396    1.0000 </r>
       <r>   -8.0283    1.0000 </r>
       <r>   -7.9293    1.0000 </r>
       <r>   -7.8874    1.0000 </r>
       <r>   -7.8448    1.0000 </r>
       <r>   -7.8181    1.0000 </r>
       <r>   -7.4606    1.0000 </r>
       <r>   -7.4141    1.0000 </r>
       <r>   -7.2789    1.0000 </r>
       <r>   -6.9247    1.0000 </r>
       <r>   -6.8073    1.0000 </r>
       <r>   -6.7843    1.0000 </r>
       <r>   -6.4850    1.0000 </r>
       <r>   -6.1534    1.0000 </r>
       <r>   -6.0796    1.0000 </r>
       <r>   -6.0052    1.0000 </r>
       <r>   -5.9001    1.0000 </r>
       <r>   -5.6618    1.0000 </r>
       <r>   -5.5690    1.0000 </r>
       <r>   -5.2097    1.0000 </r>
       <r>   -5.1251    1.0000 </r>
       <r>   -5.0608    1.0000 </r>
       <r>   -4.8494    1.0000 </r>
       <r>   -4.6971    1.0000 </r>
       <r>   -3.6745    1.0000 </r>
       <r>   -2.6125    0.0000 </r>
       <r>   -2.5125    0.0000 </r>
       <r>   -1.3035    0.0000 </r>
       <r>   -1.2291    0.0000 </r>
       <r>   -1.1880    0.0000 </r>
       <r>   -0.8793    0.0000 </r>
       <r>   -0.6306    0.0000 </r>
       <r>   -0.5003    0.0000 </r>
       <r>   -0.4667    0.0000 </r>
       <r>   -0.2156    0.0000 </r>
       <r>    0.0007    0.0000 </r>
       <r>    0.0160    0.0000 </r>
       <r>    0.1869    0.0000 </r>
       <r>    0.3474    0.0000 </r>
       <r>    0.3827    0.0000 </r>
       <r>    0.4443    0.0000 </r>
       <r>    0.7235    0.0000 </r>
       <r>    0.8056    0.0000 </r>
       <r>    1.1396    0.0000 </r>
       <r>    1.2356    0.0000 </r>
       <r>    1.2483    0.0000 </r>
       <r>    1.2525    0.0000 </r>
       <r>    1.3167    0.0000 </r>
       <r>    1.3477    0.0000 </r>
       <r>    1.4837    0.0000 </r>
       <r>    1.4980    0.0000 </r>
       <r>    1.5302    0.0000 </r>
       <r>    1.7985    0.0000 </r>
       <r>    1.8011    0.0000 </r>
       <r>    1.8071    0.0000 </r>
       <r>    1.9136    0.0000 </r>
      </set>
      <set comment="kpoint 5">
       <r>  -51.4829    1.0000 </r>
       <r>  -22.2579    1.0000 </r>
       <r>  -21.7609    1.0000 </r>
       <r>  -21.6382    1.0000 </r>
       <r>  -21.5511    1.0000 </r>
       <r>  -20.9020    1.0000 </r>
       <r>  -20.8465    1.0000 </r>
       <r>  -20.5442    1.0000 </r>
       <r>  -20.2166    1.0000 </r>
       <r>  -20.0456    1.0000 </r>
       <r>  -19.5969    1.0000 </r>
       <r>  -19.4320    1.0000 </r>
       <r>  -19.4081    1.0000 </r>
       <r>  -19.0057    1.0000 </r>
       <r>  -18.9746    1.0000 </r>
       <r>  -18.4231    1.0000 </r>
       <r>  -18.2843    1.0000 </r>
       <r>  -17.8811    1.0000 </r>
       <r>  -17.6748    1.0000 </r>
       <r>  -17.2594    1.0000 </r>
       <r>  -17.2506    1.0000 </r>
       <r>  -17.0602    1.0000 </r>
       <r>  -17.0134    1.0000 </r>
       <r>  -16.6725    1.0000 </r>
       <r>  -16.3504    1.0000 </r>
       <r>  -15.8258    1.0000 </r>
       <r>  -15.4560    1.0000 </r>
       <r>  -15.2240    1.0000 </r>
       <r>  -15.2026    1.0000 </r>
       <r>  -14.7327    1.0000 </r>
       <r>  -14.6343    1.0000 </r>
       <r>  -14.4339    1.0000 </r>
       <r>  -14.3386    1.0000 </r>
       <r>  -14.1879    1.0000 </r>
       <r>  -13.5806    1.0000 </r>
       <r>  -13.0540    1.0000 </r>
       <r>  -12.9405    1.0000 </r>
       <r>  -12.8796    1.0000 </r>
       <r>  -12.6176    1.0000 </r>
       <r>  -12.4482    1.0000 </r>
       <r>  -12.3956    1.0000 </r>
       <r>  -11.9353    1.0000 </r>
       <r>  -11.8409    1.0000 </r>
       <r>  -11.6292    1.0000 </r>
       <r>  -11.4305    1.0000 </r>
       <r>  -11.1975    1.0000 </r>
       <r>  -10.9823    1.0000 </r>
       <r>  -10.8234    1.0000 </r>
       <r>  -10.5608    1.0000 </r>
       <r>  -10.3622    1.0000 </r>
       <r>  -10.3350    1.0000 </r>
       <r>  -10.2474    1.0000 </r>
       <r>  -10.1621    1.0000 </r>
       <r>   -9.9046    1.0000 </r>
       <r>   -9.8461    1.0000 </r>
       <r>   -9.7116    1.0000 </r>
       <r>   -9.6477    1.0000 </r>
       <r>   -9.5821    1.0000 </r>
       <r>   -9.5523    1.0000 </r>
       <r>   -9.3309    1.0000 </r>
       <r>   -9.2342    1.0000 </r>
       <r>   -9.0543    1.0000 </r>
       <r>   -8.9863    1.0000 </r>
       <r>   -8.9755    1.0000 </r>
       <r>   -8.9247    1.0000 </r>
       <r>   -8.8058    1.0000 </r>
       <r>   -8.7737    1.0000 </r>
       <r>   -8.7496    1.0000 </r>
       <r>   -8.5719    1.0000 </r>
       <r>   -8.4038    1.0000 </r>
       <r>   -8.1784    1.0000 </r>
       <r>   -8.0910    1.0000 </r>
       <r>   -8.0617    1.0000 </r>
       <r>   -8.0276    1.0000 </r>
       <r>   -7.9252    1.0000 </r>
       <r>   -7.8421    1.0000 </r>
       <r>   -7.6024    1.0000 </r>
       <r>   -7.3576    1.0000 </r>
       <r>   -7.2296    1.0000 </r>
       <r>   -7.1736    1.0000 </r>
       <r>   -7.1587    1.0000 </r>
       <r>   -7.1286    1.0000 </r>
       <r>   -7.1114    1.0000 </r>
       <r>   -6.8093    1.0000 </r>
       <r>   -6.6476    1.0000 </r>
       <r>   -6.4411    1.0000 </r>
       <r>   -6.4045    1.0000 </r>
       <r>   -6.0808    1.0000 </r>
       <r>   -5.9912    1.0000 </r>
       <r>   -5.7080    1.0000 </r>
       <r>   -5.4836    1.0000 </r>
       <r>   -5.1198    1.0000 </r>
       <r>   -4.9767    1.0000 </r>
       <r>   -4.8670    1.0000 </r>
       <r>   -4.7889    1.0000 </r>
       <r>   -4.3681    1.0000 </r>
       <r>   -3.9474    1.0000 </r>
       <r>   -2.9142    0.0000 </r>
       <r>   -1.6955    0.0000 </r>
       <r>   -1.6051    0.0000 </r>
       <r>   -1.2000    0.0000 </r>
       <r>   -1.1675    0.0000 </r>
       <r>   -1.1016    0.0000 </r>
       <r>   -0.9305    0.0000 </r>
       <r>   -0.8742    0.0000 </r>
       <r>   -0.4416    0.0000 </r>
       <r>   -0.3752    0.0000 </r>
       <r>    0.0654    0.0000 </r>
       <r>    0.1925    0.0000 </r>
       <r>    0.3395    0.0000 </r>
       <r>    0.4480    0.0000 </r>
       <r>    0.7606    0.0000 </r>
       <r>    0.8141    0.0000 </r>
       <r>    0.8820    0.0000 </r>
       <r>    0.9692    0.0000 </r>
       <r>    1.1242    0.0000 </r>
       <r>    1.2005    0.0000 </r>
       <r>    1.2233    0.0000 </r>
       <r>    1.3176    0.0000 </r>
       <r>    1.3944    0.0000 </r>
       <r>    1.5077    0.0000 </r>
       <r>    1.5630    0.0000 </r>
       <r>    1.5867    0.0000 </r>
       <r>    1.6865    0.0000 </r>
       <r>    1.6950    0.0000 </r>
       <r>    1.7877    0.0000 </r>
       <r>    1.8403    0.0000 </r>
       <r>    1.8507    0.0000 </r>
      </set>
     </set>
    </set>
   </array>
  </eigenvalues>
  <separator name="orbital magnetization" >
   <v name="MAGDIPOLOUT">      0.00000000      0.00000000      0.00000000</v>
  </separator>
  <dos>
   <i name="efermi">     -3.10483006 </i>
   <total>
    <array>
     <dimension dim="1">gridpoints</dimension>
     <dimension dim="2">spin</dimension>
     <field>energy</field>
     <field>total</field>
     <field>integrated</field>
     <set>
      <set comment="spin 1">
       <r>   -54.1641     0.0000     0.0000 </r>
       <r>   -53.9675     0.0000     0.0000 </r>
       <r>   -53.7709     0.0000     0.0000 </r>
       <r>   -53.5742     0.0000     0.0000 </r>
       <r>   -53.3776     0.0000     0.0000 </r>
       <r>   -53.1810     0.0000     0.0000 </r>
       <r>   -52.9844     0.0000     0.0000 </r>
       <r>   -52.7878     0.0000     0.0000 </r>
       <r>   -52.5911     0.0000     0.0000 </r>
       <r>   -52.3945     0.0000     0.0000 </r>
       <r>   -52.1979     0.0000     0.0000 </r>
       <r>   -52.0013     0.0000     0.0000 </r>
       <r>   -51.8047     0.0000     0.0000 </r>
       <r>   -51.6080     0.0010     0.0002 </r>
       <r>   -51.4114     4.9752     0.9784 </r>
       <r>   -51.2148     0.1097     1.0000 </r>
       <r>   -51.0182     0.0000     1.0000 </r>
       <r>   -50.8216     0.0000     1.0000 </r>
       <r>   -50.6249     0.0000     1.0000 </r>
       <r>   -50.4283     0.0000     1.0000 </r>
       <r>   -50.2317     0.0000     1.0000 </r>
       <r>   -50.0351     0.0000     1.0000 </r>
       <r>   -49.8385     0.0000     1.0000 </r>
       <r>   -49.6418     0.0000     1.0000 </r>
       <r>   -49.4452     0.0000     1.0000 </r>
       <r>   -49.2486     0.0000     1.0000 </r>
       <r>   -49.0520     0.0000     1.0000 </r>
       <r>   -48.8554     0.0000     1.0000 </r>
       <r>   -48.6587     0.0000     1.0000 </r>
       <r>   -48.4621     0.0000     1.0000 </r>
       <r>   -48.2655     0.0000     1.0000 </r>
       <r>   -48.0689     0.0000     1.0000 </r>
       <r>   -47.8723     0.0000     1.0000 </r>
       <r>   -47.6756     0.0000     1.0000 </r>
       <r>   -47.4790     0.0000     1.0000 </r>
       <r>   -47.2824     0.0000     1.0000 </r>
       <r>   -47.0858     0.0000     1.0000 </r>
       <r>   -46.8892     0.0000     1.0000 </r>
       <r>   -46.6925     0.0000     1.0000 </r>
       <r>   -46.4959     0.0000     1.0000 </r>
       <r>   -46.2993     0.0000     1.0000 </r>
       <r>   -46.1027     0.0000     1.0000 </r>
       <r>   -45.9061     0.0000     1.0000 </r>
       <r>   -45.7094     0.0000     1.0000 </r>
       <r>   -45.5128     0.0000     1.0000 </r>
       <r>   -45.3162     0.0000     1.0000 </r>
       <r>   -45.1196     0.0000     1.0000 </r>
       <r>   -44.9230     0.0000     1.0000 </r>
       <r>   -44.7263     0.0000     1.0000 </r>
       <r>   -44.5297     0.0000     1.0000 </r>
       <r>   -44.3331     0.0000     1.0000 </r>
       <r>   -44.1365     0.0000     1.0000 </r>
       <r>   -43.9399     0.0000     1.0000 </r>
       <r>   -43.7432     0.0000     1.0000 </r>
       <r>   -43.5466     0.0000     1.0000 </r>
       <r>   -43.3500     0.0000     1.0000 </r>
       <r>   -43.1534     0.0000     1.0000 </r>
       <r>   -42.9568     0.0000     1.0000 </r>
       <r>   -42.7601     0.0000     1.0000 </r>
       <r>   -42.5635     0.0000     1.0000 </r>
       <r>   -42.3669     0.0000     1.0000 </r>
       <r>   -42.1703     0.0000     1.0000 </r>
       <r>   -41.9737     0.0000     1.0000 </r>
       <r>   -41.7770     0.0000     1.0000 </r>
       <r>   -41.5804     0.0000     1.0000 </r>
       <r>   -41.3838     0.0000     1.0000 </r>
       <r>   -41.1872     0.0000     1.0000 </r>
       <r>   -40.9906     0.0000     1.0000 </r>
       <r>   -40.7939     0.0000     1.0000 </r>
       <r>   -40.5973     0.0000     1.0000 </r>
       <r>   -40.4007     0.0000     1.0000 </r>
       <r>   -40.2041     0.0000     1.0000 </r>
       <r>   -40.0075     0.0000     1.0000 </r>
       <r>   -39.8108     0.0000     1.0000 </r>
       <r>   -39.6142     0.0000     1.0000 </r>
       <r>   -39.4176     0.0000     1.0000 </r>
       <r>   -39.2210     0.0000     1.0000 </r>
       <r>   -39.0243     0.0000     1.0000 </r>
       <r>   -38.8277     0.0000     1.0000 </r>
       <r>   -38.6311     0.0000     1.0000 </r>
       <r>   -38.4345     0.0000     1.0000 </r>
       <r>   -38.2379     0.0000     1.0000 </r>
       <r>   -38.0412     0.0000     1.0000 </r>
       <r>   -37.8446     0.0000     1.0000 </r>
       <r>   -37.6480     0.0000     1.0000 </r>
       <r>   -37.4514     0.0000     1.0000 </r>
       <r>   -37.2548     0.0000     1.0000 </r>
       <r>   -37.0581     0.0000     1.0000 </r>
       <r>   -36.8615     0.0000     1.0000 </r>
       <r>   -36.6649     0.0000     1.0000 </r>
       <r>   -36.4683     0.0000     1.0000 </r>
       <r>   -36.2717     0.0000     1.0000 </r>
       <r>   -36.0750     0.0000     1.0000 </r>
       <r>   -35.8784     0.0000     1.0000 </r>
       <r>   -35.6818     0.0000     1.0000 </r>
       <r>   -35.4852     0.0000     1.0000 </r>
       <r>   -35.2886     0.0000     1.0000 </r>
       <r>   -35.0919     0.0000     1.0000 </r>
       <r>   -34.8953     0.0000     1.0000 </r>
       <r>   -34.6987     0.0000     1.0000 </r>
       <r>   -34.5021     0.0000     1.0000 </r>
       <r>   -34.3055     0.0000     1.0000 </r>
       <r>   -34.1088     0.0000     1.0000 </r>
       <r>   -33.9122     0.0000     1.0000 </r>
       <r>   -33.7156     0.0000     1.0000 </r>
       <r>   -33.5190     0.0000     1.0000 </r>
       <r>   -33.3224     0.0000     1.0000 </r>
       <r>   -33.1257     0.0000     1.0000 </r>
       <r>   -32.9291     0.0000     1.0000 </r>
       <r>   -32.7325     0.0000     1.0000 </r>
       <r>   -32.5359     0.0000     1.0000 </r>
       <r>   -32.3393     0.0000     1.0000 </r>
       <r>   -32.1426     0.0000     1.0000 </r>
       <r>   -31.9460     0.0000     1.0000 </r>
       <r>   -31.7494     0.0000     1.0000 </r>
       <r>   -31.5528     0.0000     1.0000 </r>
       <r>   -31.3562     0.0000     1.0000 </r>
       <r>   -31.1595     0.0000     1.0000 </r>
       <r>   -30.9629     0.0000     1.0000 </r>
       <r>   -30.7663     0.0000     1.0000 </r>
       <r>   -30.5697     0.0000     1.0000 </r>
       <r>   -30.3731     0.0000     1.0000 </r>
       <r>   -30.1764     0.0000     1.0000 </r>
       <r>   -29.9798     0.0000     1.0000 </r>
       <r>   -29.7832     0.0000     1.0000 </r>
       <r>   -29.5866     0.0000     1.0000 </r>
       <r>   -29.3900     0.0000     1.0000 </r>
       <r>   -29.1933     0.0000     1.0000 </r>
       <r>   -28.9967     0.0000     1.0000 </r>
       <r>   -28.8001     0.0000     1.0000 </r>
       <r>   -28.6035     0.0000     1.0000 </r>
       <r>   -28.4069     0.0000     1.0000 </r>
       <r>   -28.2102     0.0000     1.0000 </r>
       <r>   -28.0136     0.0000     1.0000 </r>
       <r>   -27.8170     0.0000     1.0000 </r>
       <r>   -27.6204     0.0000     1.0000 </r>
       <r>   -27.4238     0.0000     1.0000 </r>
       <r>   -27.2271     0.0000     1.0000 </r>
       <r>   -27.0305     0.0000     1.0000 </r>
       <r>   -26.8339     0.0000     1.0000 </r>
       <r>   -26.6373     0.0000     1.0000 </r>
       <r>   -26.4407     0.0000     1.0000 </r>
       <r>   -26.2440     0.0000     1.0000 </r>
       <r>   -26.0474     0.0000     1.0000 </r>
       <r>   -25.8508     0.0000     1.0000 </r>
       <r>   -25.6542     0.0000     1.0000 </r>
       <r>   -25.4575     0.0000     1.0000 </r>
       <r>   -25.2609     0.0000     1.0000 </r>
       <r>   -25.0643     0.0000     1.0000 </r>
       <r>   -24.8677     0.0000     1.0000 </r>
       <r>   -24.6711     0.0000     1.0000 </r>
       <r>   -24.4744     0.0000     1.0000 </r>
       <r>   -24.2778     0.0000     1.0000 </r>
       <r>   -24.0812     0.0000     1.0000 </r>
       <r>   -23.8846     0.0000     1.0000 </r>
       <r>   -23.6880     0.0000     1.0000 </r>
       <r>   -23.4913     0.0000     1.0000 </r>
       <r>   -23.2947     0.0000     1.0000 </r>
       <r>   -23.0981     0.0000     1.0000 </r>
       <r>   -22.9015     0.0000     1.0000 </r>
       <r>   -22.7049     0.0000     1.0000 </r>
       <r>   -22.5082     0.0000     1.0000 </r>
       <r>   -22.3116     0.4009     1.0788 </r>
       <r>   -22.1150     4.5275     1.9690 </r>
       <r>   -21.9184     3.0372     2.5662 </r>
       <r>   -21.7218     2.4362     3.0452 </r>
       <r>   -21.5251     4.8745     4.0036 </r>
       <r>   -21.3285     3.7345     4.7379 </r>
       <r>   -21.1319     1.5560     5.0438 </r>
       <r>   -20.9353     4.4910     5.9269 </r>
       <r>   -20.7387     5.5926     7.0265 </r>
       <r>   -20.5420     1.6541     7.3517 </r>
       <r>   -20.3454     3.6941     8.0781 </r>
       <r>   -20.1488     3.9250     8.8498 </r>
       <r>   -19.9522     6.0570    10.0407 </r>
       <r>   -19.7556     0.9280    10.2232 </r>
       <r>   -19.5589     3.8529    10.9808 </r>
       <r>   -19.3623     6.2315    12.2060 </r>
       <r>   -19.1657     4.1172    13.0155 </r>
       <r>   -18.9691     4.2961    13.8602 </r>
       <r>   -18.7725     1.7248    14.1994 </r>
       <r>   -18.5758     3.0929    14.8075 </r>
       <r>   -18.3792     5.6025    15.9090 </r>
       <r>   -18.1826     6.6291    17.2125 </r>
       <r>   -17.9860     0.5739    17.3253 </r>
       <r>   -17.7894     4.6567    18.2409 </r>
       <r>   -17.5927     5.0647    19.2367 </r>
       <r>   -17.3961     4.4102    20.1038 </r>
       <r>   -17.1995     4.7492    21.0376 </r>
       <r>   -17.0029     4.5173    21.9258 </r>
       <r>   -16.8063     3.7676    22.6666 </r>
       <r>   -16.6096     1.4512    22.9520 </r>
       <r>   -16.4130     4.6498    23.8662 </r>
       <r>   -16.2164     2.5037    24.3585 </r>
       <r>   -16.0198     3.1837    24.9845 </r>
       <r>   -15.8232     2.9980    25.5739 </r>
       <r>   -15.6265     3.3889    26.2403 </r>
       <r>   -15.4299     3.2429    26.8779 </r>
       <r>   -15.2333     4.9798    27.8570 </r>
       <r>   -15.0367     5.6270    28.9634 </r>
       <r>   -14.8401     3.9694    29.7439 </r>
       <r>   -14.6434     4.6029    30.6489 </r>
       <r>   -14.4468     3.7508    31.3864 </r>
       <r>   -14.2502     4.2784    32.2276 </r>
       <r>   -14.0536     3.5447    32.9245 </r>
       <r>   -13.8570     4.8375    33.8757 </r>
       <r>   -13.6603     2.8814    34.4422 </r>
       <r>   -13.4637     6.1588    35.6532 </r>
       <r>   -13.2671     0.0687    35.6667 </r>
       <r>   -13.0705     1.5922    35.9797 </r>
       <r>   -12.8739     7.8733    37.5278 </r>
       <r>   -12.6772     5.4618    38.6017 </r>
       <r>   -12.4806     3.9353    39.3754 </r>
       <r>   -12.2840     4.6401    40.2878 </r>
       <r>   -12.0874     2.2705    40.7342 </r>
       <r>   -11.8907     4.9774    41.7128 </r>
       <r>   -11.6941     4.7586    42.6485 </r>
       <r>   -11.4975     5.5553    43.7408 </r>
       <r>   -11.3009     5.2710    44.7771 </r>
       <r>   -11.1043     7.2866    46.2098 </r>
       <r>   -10.9076     2.5272    46.7067 </r>
       <r>   -10.7110     5.3682    47.7622 </r>
       <r>   -10.5144     6.0955    48.9607 </r>
       <r>   -10.3178     7.8916    50.5124 </r>
       <r>   -10.1212     9.6776    52.4152 </r>
       <r>    -9.9245    10.8769    54.5538 </r>
       <r>    -9.7279     7.6562    56.0592 </r>
       <r>    -9.5313     8.9200    57.8130 </r>
       <r>    -9.3347     8.0642    59.3986 </r>
       <r>    -9.1381    10.8647    61.5348 </r>
       <r>    -8.9414    11.4896    63.7939 </r>
       <r>    -8.7448    12.9525    66.3407 </r>
       <r>    -8.5482    11.0429    68.5119 </r>
       <r>    -8.3516     7.9013    70.0655 </r>
       <r>    -8.1550     7.5164    71.5434 </r>
       <r>    -7.9583    13.2025    74.1392 </r>
       <r>    -7.7617    10.2740    76.1593 </r>
       <r>    -7.5651     3.5865    76.8645 </r>
       <r>    -7.3685     6.5591    78.1541 </r>
       <r>    -7.1719    10.6101    80.2403 </r>
       <r>    -6.9752     8.4061    81.8931 </r>
       <r>    -6.7786     8.4811    83.5607 </r>
       <r>    -6.5820     5.3614    84.6148 </r>
       <r>    -6.3854     6.7437    85.9408 </r>
       <r>    -6.1888     4.1915    86.7649 </r>
       <r>    -5.9921     9.7933    88.6905 </r>
       <r>    -5.7955     2.7103    89.2234 </r>
       <r>    -5.5989     3.9708    90.0041 </r>
       <r>    -5.4023     5.7745    91.1395 </r>
       <r>    -5.2057     2.7537    91.6809 </r>
       <r>    -5.0090     5.8857    92.8382 </r>
       <r>    -4.8124     6.2150    94.0602 </r>
       <r>    -4.6158     4.2027    94.8865 </r>
       <r>    -4.4192     0.2280    94.9313 </r>
       <r>    -4.2226     2.7704    95.4761 </r>
       <r>    -4.0259     2.6878    96.0045 </r>
       <r>    -3.8293     1.6756    96.3340 </r>
       <r>    -3.6327     3.2398    96.9710 </r>
       <r>    -3.4361     0.1474    97.0000 </r>
       <r>    -3.2395     0.2072    97.0407 </r>
       <r>    -3.0428     2.6142    97.5547 </r>
       <r>    -2.8462     1.1035    97.7717 </r>
       <r>    -2.6496     0.1969    97.8104 </r>
       <r>    -2.4530     2.0423    98.2120 </r>
       <r>    -2.2564     0.0521    98.2222 </r>
       <r>    -2.0597     0.0000    98.2222 </r>
       <r>    -1.8631     0.5823    98.3367 </r>
       <r>    -1.6665     5.9022    99.4972 </r>
       <r>    -1.4699     1.6675    99.8251 </r>
       <r>    -1.2733     2.0405   100.2263 </r>
       <r>    -1.0766     7.7631   101.7527 </r>
       <r>    -0.8800     9.1163   103.5451 </r>
       <r>    -0.6834     5.0713   104.5423 </r>
       <r>    -0.4868     4.1920   105.3665 </r>
       <r>    -0.2902     6.0503   106.5561 </r>
       <r>    -0.0935     2.6036   107.0680 </r>
       <r>     0.1031     4.7289   107.9978 </r>
       <r>     0.2997     6.5189   109.2796 </r>
       <r>     0.4963     8.0501   110.8624 </r>
       <r>     0.6929     5.0407   111.8535 </r>
       <r>     0.8896    12.1384   114.2401 </r>
       <r>     1.0862     9.2126   116.0515 </r>
       <r>     1.2828    12.9339   118.5946 </r>
       <r>     1.4794    13.6710   121.2826 </r>
       <r>     1.6760    13.2331   123.8845 </r>
       <r>     1.8727    16.7874   127.1852 </r>
       <r>     2.0693     3.2310   127.8205 </r>
       <r>     2.2659     0.9129   128.0000 </r>
       <r>     2.4625     0.0000   128.0000 </r>
       <r>     2.6592     0.0000   128.0000 </r>
       <r>     2.8558     0.0000   128.0000 </r>
       <r>     3.0524     0.0000   128.0000 </r>
       <r>     3.2490     0.0000   128.0000 </r>
       <r>     3.4456     0.0000   128.0000 </r>
       <r>     3.6423     0.0000   128.0000 </r>
       <r>     3.8389     0.0000   128.0000 </r>
       <r>     4.0355     0.0000   128.0000 </r>
       <r>     4.2321     0.0000   128.0000 </r>
       <r>     4.4287     0.0000   128.0000 </r>
       <r>     4.6254     0.0000   128.0000 </r>
       <r>     4.8220     0.0000   128.0000 </r>
      </set>
      <set comment="spin 2">
       <r>   -54.1641     0.0000     0.0000 </r>
       <r>   -53.9675     0.0000     0.0000 </r>
       <r>   -53.7709     0.0000     0.0000 </r>
       <r>   -53.5742     0.0000     0.0000 </r>
       <r>   -53.3776     0.0000     0.0000 </r>
       <r>   -53.1810     0.0000     0.0000 </r>
       <r>   -52.9844     0.0000     0.0000 </r>
       <r>   -52.7878     0.0000     0.0000 </r>
       <r>   -52.5911     0.0000     0.0000 </r>
       <r>   -52.3945     0.0000     0.0000 </r>
       <r>   -52.1979     0.0000     0.0000 </r>
       <r>   -52.0013     0.0000     0.0000 </r>
       <r>   -51.8047     0.0000     0.0000 </r>
       <r>   -51.6080     0.0010     0.0002 </r>
       <r>   -51.4114     4.9752     0.9784 </r>
       <r>   -51.2148     0.1097     1.0000 </r>
       <r>   -51.0182     0.0000     1.0000 </r>
       <r>   -50.8216     0.0000     1.0000 </r>
       <r>   -50.6249     0.0000     1.0000 </r>
       <r>   -50.4283     0.0000     1.0000 </r>
       <r>   -50.2317     0.0000     1.0000 </r>
       <r>   -50.0351     0.0000     1.0000 </r>
       <r>   -49.8385     0.0000     1.0000 </r>
       <r>   -49.6418     0.0000     1.0000 </r>
       <r>   -49.4452     0.0000     1.0000 </r>
       <r>   -49.2486     0.0000     1.0000 </r>
       <r>   -49.0520     0.0000     1.0000 </r>
       <r>   -48.8554     0.0000     1.0000 </r>
       <r>   -48.6587     0.0000     1.0000 </r>
       <r>   -48.4621     0.0000     1.0000 </r>
       <r>   -48.2655     0.0000     1.0000 </r>
       <r>   -48.0689     0.0000     1.0000 </r>
       <r>   -47.8723     0.0000     1.0000 </r>
       <r>   -47.6756     0.0000     1.0000 </r>
       <r>   -47.4790     0.0000     1.0000 </r>
       <r>   -47.2824     0.0000     1.0000 </r>
       <r>   -47.0858     0.0000     1.0000 </r>
       <r>   -46.8892     0.0000     1.0000 </r>
       <r>   -46.6925     0.0000     1.0000 </r>
       <r>   -46.4959     0.0000     1.0000 </r>
       <r>   -46.2993     0.0000     1.0000 </r>
       <r>   -46.1027     0.0000     1.0000 </r>
       <r>   -45.9061     0.0000     1.0000 </r>
       <r>   -45.7094     0.0000     1.0000 </r>
       <r>   -45.5128     0.0000     1.0000 </r>
       <r>   -45.3162     0.0000     1.0000 </r>
       <r>   -45.1196     0.0000     1.0000 </r>
       <r>   -44.9230     0.0000     1.0000 </r>
       <r>   -44.7263     0.0000     1.0000 </r>
       <r>   -44.5297     0.0000     1.0000 </r>
       <r>   -44.3331     0.0000     1.0000 </r>
       <r>   -44.1365     0.0000     1.0000 </r>
       <r>   -43.9399     0.0000     1.0000 </r>
       <r>   -43.7432     0.0000     1.0000 </r>
       <r>   -43.5466     0.0000     1.0000 </r>
       <r>   -43.3500     0.0000     1.0000 </r>
       <r>   -43.1534     0.0000     1.0000 </r>
       <r>   -42.9568     0.0000     1.0000 </r>
       <r>   -42.7601     0.0000     1.0000 </r>
       <r>   -42.5635     0.0000     1.0000 </r>
       <r>   -42.3669     0.0000     1.0000 </r>
       <r>   -42.1703     0.0000     1.0000 </r>
       <r>   -41.9737     0.0000     1.0000 </r>
       <r>   -41.7770     0.0000     1.0000 </r>
       <r>   -41.5804     0.0000     1.0000 </r>
       <r>   -41.3838     0.0000     1.0000 </r>
       <r>   -41.1872     0.0000     1.0000 </r>
       <r>   -40.9906     0.0000     1.0000 </r>
       <r>   -40.7939     0.0000     1.0000 </r>
       <r>   -40.5973     0.0000     1.0000 </r>
       <r>   -40.4007     0.0000     1.0000 </r>
       <r>   -40.2041     0.0000     1.0000 </r>
       <r>   -40.0075     0.0000     1.0000 </r>
       <r>   -39.8108     0.0000     1.0000 </r>
       <r>   -39.6142     0.0000     1.0000 </r>
       <r>   -39.4176     0.0000     1.0000 </r>
       <r>   -39.2210     0.0000     1.0000 </r>
       <r>   -39.0243     0.0000     1.0000 </r>
       <r>   -38.8277     0.0000     1.0000 </r>
       <r>   -38.6311     0.0000     1.0000 </r>
       <r>   -38.4345     0.0000     1.0000 </r>
       <r>   -38.2379     0.0000     1.0000 </r>
       <r>   -38.0412     0.0000     1.0000 </r>
       <r>   -37.8446     0.0000     1.0000 </r>
       <r>   -37.6480     0.0000     1.0000 </r>
       <r>   -37.4514     0.0000     1.0000 </r>
       <r>   -37.2548     0.0000     1.0000 </r>
       <r>   -37.0581     0.0000     1.0000 </r>
       <r>   -36.8615     0.0000     1.0000 </r>
       <r>   -36.6649     0.0000     1.0000 </r>
       <r>   -36.4683     0.0000     1.0000 </r>
       <r>   -36.2717     0.0000     1.0000 </r>
       <r>   -36.0750     0.0000     1.0000 </r>
       <r>   -35.8784     0.0000     1.0000 </r>
       <r>   -35.6818     0.0000     1.0000 </r>
       <r>   -35.4852     0.0000     1.0000 </r>
       <r>   -35.2886     0.0000     1.0000 </r>
       <r>   -35.0919     0.0000     1.0000 </r>
       <r>   -34.8953     0.0000     1.0000 </r>
       <r>   -34.6987     0.0000     1.0000 </r>
       <r>   -34.5021     0.0000     1.0000 </r>
       <r>   -34.3055     0.0000     1.0000 </r>
       <r>   -34.1088     0.0000     1.0000 </r>
       <r>   -33.9122     0.0000     1.0000 </r>
       <r>   -33.7156     0.0000     1.0000 </r>
       <r>   -33.5190     0.0000     1.0000 </r>
       <r>   -33.3224     0.0000     1.0000 </r>
       <r>   -33.1257     0.0000     1.0000 </r>
       <r>   -32.9291     0.0000     1.0000 </r>
       <r>   -32.7325     0.0000     1.0000 </r>
       <r>   -32.5359     0.0000     1.0000 </r>
       <r>   -32.3393     0.0000     1.0000 </r>
       <r>   -32.1426     0.0000     1.0000 </r>
       <r>   -31.9460     0.0000     1.0000 </r>
       <r>   -31.7494     0.0000     1.0000 </r>
       <r>   -31.5528     0.0000     1.0000 </r>
       <r>   -31.3562     0.0000     1.0000 </r>
       <r>   -31.1595     0.0000     1.0000 </r>
       <r>   -30.9629     0.0000     1.0000 </r>
       <r>   -30.7663     0.0000     1.0000 </r>
       <r>   -30.5697     0.0000     1.0000 </r>
       <r>   -30.3731     0.0000     1.0000 </r>
       <r>   -30.1764     0.0000     1.0000 </r>
       <r>   -29.9798     0.0000     1.0000 </r>
       <r>   -29.7832     0.0000     1.0000 </r>
       <r>   -29.5866     0.0000     1.0000 </r>
       <r>   -29.3900     0.0000     1.0000 </r>
       <r>   -29.1933     0.0000     1.0000 </r>
       <r>   -28.9967     0.0000     1.0000 </r>
       <r>   -28.8001     0.0000     1.0000 </r>
       <r>   -28.6035     0.0000     1.0000 </r>
       <r>   -28.4069     0.0000     1.0000 </r>
       <r>   -28.2102     0.0000     1.0000 </r>
       <r>   -28.0136     0.0000     1.0000 </r>
       <r>   -27.8170     0.0000     1.0000 </r>
       <r>   -27.6204     0.0000     1.0000 </r>
       <r>   -27.4238     0.0000     1.0000 </r>
       <r>   -27.2271     0.0000     1.0000 </r>
       <r>   -27.0305     0.0000     1.0000 </r>
       <r>   -26.8339     0.0000     1.0000 </r>
       <r>   -26.6373     0.0000     1.0000 </r>
       <r>   -26.4407     0.0000     1.0000 </r>
       <r>   -26.2440     0.0000     1.0000 </r>
       <r>   -26.0474     0.0000     1.0000 </r>
       <r>   -25.8508     0.0000     1.0000 </r>
       <r>   -25.6542     0.0000     1.0000 </r>
       <r>   -25.4575     0.0000     1.0000 </r>
       <r>   -25.2609     0.0000     1.0000 </r>
       <r>   -25.0643     0.0000     1.0000 </r>
       <r>   -24.8677     0.0000     1.0000 </r>
       <r>   -24.6711     0.0000     1.0000 </r>
       <r>   -24.4744     0.0000     1.0000 </r>
       <r>   -24.2778     0.0000     1.0000 </r>
       <r>   -24.0812     0.0000     1.0000 </r>
       <r>   -23.8846     0.0000     1.0000 </r>
       <r>   -23.6880     0.0000     1.0000 </r>
       <r>   -23.4913     0.0000     1.0000 </r>
       <r>   -23.2947     0.0000     1.0000 </r>
       <r>   -23.0981     0.0000     1.0000 </r>
       <r>   -22.9015     0.0000     1.0000 </r>
       <r>   -22.7049     0.0000     1.0000 </r>
       <r>   -22.5082     0.0000     1.0000 </r>
       <r>   -22.3116     0.4009     1.0788 </r>
       <r>   -22.1150     4.5275     1.9690 </r>
       <r>   -21.9184     3.0372     2.5662 </r>
       <r>   -21.7218     2.4362     3.0452 </r>
       <r>   -21.5251     4.8745     4.0036 </r>
       <r>   -21.3285     3.7345     4.7379 </r>
       <r>   -21.1319     1.5560     5.0439 </r>
       <r>   -20.9353     4.4910     5.9269 </r>
       <r>   -20.7387     5.5926     7.0265 </r>
       <r>   -20.5420     1.6541     7.3517 </r>
       <r>   -20.3454     3.6941     8.0781 </r>
       <r>   -20.1488     3.9250     8.8498 </r>
       <r>   -19.9522     6.0570    10.0407 </r>
       <r>   -19.7556     0.9280    10.2232 </r>
       <r>   -19.5589     3.8529    10.9808 </r>
       <r>   -19.3623     6.2315    12.2060 </r>
       <r>   -19.1657     4.1172    13.0155 </r>
       <r>   -18.9691     4.2961    13.8602 </r>
       <r>   -18.7725     1.7248    14.1994 </r>
       <r>   -18.5758     3.0929    14.8075 </r>
       <r>   -18.3792     5.6025    15.9090 </r>
       <r>   -18.1826     6.6291    17.2125 </r>
       <r>   -17.9860     0.5739    17.3253 </r>
       <r>   -17.7894     4.6567    18.2409 </r>
       <r>   -17.5927     5.0647    19.2367 </r>
       <r>   -17.3961     4.4102    20.1038 </r>
       <r>   -17.1995     4.7492    21.0376 </r>
       <r>   -17.0029     4.5173    21.9258 </r>
       <r>   -16.8063     3.7676    22.6666 </r>
       <r>   -16.6096     1.4512    22.9520 </r>
       <r>   -16.4130     4.6498    23.8662 </r>
       <r>   -16.2164     2.5037    24.3585 </r>
       <r>   -16.0198     3.1837    24.9845 </r>
       <r>   -15.8232     2.9980    25.5739 </r>
       <r>   -15.6265     3.3889    26.2403 </r>
       <r>   -15.4299     3.2430    26.8779 </r>
       <r>   -15.2333     4.9798    27.8570 </r>
       <r>   -15.0367     5.6270    28.9634 </r>
       <r>   -14.8401     3.9694    29.7439 </r>
       <r>   -14.6434     4.6029    30.6489 </r>
       <r>   -14.4468     3.7508    31.3864 </r>
       <r>   -14.2502     4.2784    32.2276 </r>
       <r>   -14.0536     3.5447    32.9245 </r>
       <r>   -13.8570     4.8375    33.8757 </r>
       <r>   -13.6603     2.8814    34.4422 </r>
       <r>   -13.4637     6.1588    35.6532 </r>
       <r>   -13.2671     0.0687    35.6667 </r>
       <r>   -13.0705     1.5922    35.9797 </r>
       <r>   -12.8739     7.8733    37.5278 </r>
       <r>   -12.6772     5.4618    38.6017 </r>
       <r>   -12.4806     3.9353    39.3754 </r>
       <r>   -12.2840     4.6401    40.2878 </r>
       <r>   -12.0874     2.2705    40.7342 </r>
       <r>   -11.8907     4.9774    41.7128 </r>
       <r>   -11.6941     4.7586    42.6485 </r>
       <r>   -11.4975     5.5553    43.7408 </r>
       <r>   -11.3009     5.2710    44.7771 </r>
       <r>   -11.1043     7.2866    46.2098 </r>
       <r>   -10.9076     2.5272    46.7067 </r>
       <r>   -10.7110     5.3682    47.7622 </r>
       <r>   -10.5144     6.0955    48.9607 </r>
       <r>   -10.3178     7.8916    50.5124 </r>
       <r>   -10.1212     9.6776    52.4152 </r>
       <r>    -9.9245    10.8769    54.5538 </r>
       <r>    -9.7279     7.6562    56.0592 </r>
       <r>    -9.5313     8.9200    57.8130 </r>
       <r>    -9.3347     8.0642    59.3986 </r>
       <r>    -9.1381    10.8647    61.5348 </r>
       <r>    -8.9414    11.4896    63.7939 </r>
       <r>    -8.7448    12.9525    66.3407 </r>
       <r>    -8.5482    11.0429    68.5119 </r>
       <r>    -8.3516     7.9013    70.0655 </r>
       <r>    -8.1550     7.5164    71.5434 </r>
       <r>    -7.9583    13.2025    74.1393 </r>
       <r>    -7.7617    10.2740    76.1593 </r>
       <r>    -7.5651     3.5864    76.8645 </r>
       <r>    -7.3685     6.5591    78.1541 </r>
       <r>    -7.1719    10.6101    80.2403 </r>
       <r>    -6.9752     8.4061    81.8931 </r>
       <r>    -6.7786     8.4811    83.5607 </r>
       <r>    -6.5820     5.3614    84.6148 </r>
       <r>    -6.3854     6.7437    85.9408 </r>
       <r>    -6.1888     4.1915    86.7649 </r>
       <r>    -5.9921     9.7933    88.6905 </r>
       <r>    -5.7955     2.7102    89.2234 </r>
       <r>    -5.5989     3.9708    90.0041 </r>
       <r>    -5.4023     5.7744    91.1395 </r>
       <r>    -5.2057     2.7537    91.6809 </r>
       <r>    -5.0090     5.8857    92.8382 </r>
       <r>    -4.8124     6.2150    94.0602 </r>
       <r>    -4.6158     4.2027    94.8865 </r>
       <r>    -4.4192     0.2280    94.9313 </r>
       <r>    -4.2226     2.7705    95.4761 </r>
       <r>    -4.0259     2.6878    96.0045 </r>
       <r>    -3.8293     1.6756    96.3340 </r>
       <r>    -3.6327     3.2398    96.9710 </r>
       <r>    -3.4361     0.1474    97.0000 </r>
       <r>    -3.2395     0.2072    97.0407 </r>
       <r>    -3.0428     2.6142    97.5547 </r>
       <r>    -2.8462     1.1035    97.7717 </r>
       <r>    -2.6496     0.1969    97.8104 </r>
       <r>    -2.4530     2.0423    98.2120 </r>
       <r>    -2.2564     0.0521    98.2222 </r>
       <r>    -2.0597     0.0000    98.2222 </r>
       <r>    -1.8631     0.5823    98.3367 </r>
       <r>    -1.6665     5.9022    99.4972 </r>
       <r>    -1.4699     1.6675    99.8251 </r>
       <r>    -1.2733     2.0405   100.2263 </r>
       <r>    -1.0766     7.7631   101.7527 </r>
       <r>    -0.8800     9.1151   103.5449 </r>
       <r>    -0.6834     5.0725   104.5422 </r>
       <r>    -0.4868     4.1920   105.3665 </r>
       <r>    -0.2902     6.0503   106.5561 </r>
       <r>    -0.0935     2.6035   107.0680 </r>
       <r>     0.1031     4.7290   107.9978 </r>
       <r>     0.2997     6.5145   109.2787 </r>
       <r>     0.4963     8.0499   110.8615 </r>
       <r>     0.6929     5.0405   111.8525 </r>
       <r>     0.8896    12.0803   114.2277 </r>
       <r>     1.0862     9.0520   116.0076 </r>
       <r>     1.2828    12.7213   118.5088 </r>
       <r>     1.4794    13.3262   121.1290 </r>
       <r>     1.6760    13.4053   123.7648 </r>
       <r>     1.8727    16.6311   127.0348 </r>
       <r>     2.0693     4.1646   127.8536 </r>
       <r>     2.2659     0.7443   128.0000 </r>
       <r>     2.4625     0.0001   128.0000 </r>
       <r>     2.6592     0.0000   128.0000 </r>
       <r>     2.8558     0.0000   128.0000 </r>
       <r>     3.0524     0.0000   128.0000 </r>
       <r>     3.2490     0.0000   128.0000 </r>
       <r>     3.4456     0.0000   128.0000 </r>
       <r>     3.6423     0.0000   128.0000 </r>
       <r>     3.8389     0.0000   128.0000 </r>
       <r>     4.0355     0.0000   128.0000 </r>
       <r>     4.2321     0.0000   128.0000 </r>
       <r>     4.4287     0.0000   128.0000 </r>
       <r>     4.6254     0.0000   128.0000 </r>
       <r>     4.8220     0.0000   128.0000 </r>
      </set>
     </set>
    </array>
   </total>
  </dos>
 </calculation>
 <structure name="finalpos" >
  <crystal>
   <varray name="basis" >
    <v>      12.30000000       0.00000000       0.00000000 </v>
    <v>      -6.15000000      10.65211247       0.00000000 </v>
    <v>       0.00000000       0.00000000      30.00000000 </v>
   </varray>
   <i name="volume">   3930.62950016 </i>
   <varray name="rec_basis" >
    <v>       0.08130081       0.04693905       0.00000000 </v>
    <v>       0.00000000       0.09387809       0.00000000 </v>
    <v>       0.00000000       0.00000000       0.03333333 </v>
   </varray>
  </crystal>
  <varray name="positions" >
   <v>       0.00069168       0.99541666       0.49998612 </v>
   <v>       0.13570752       0.06529461       0.50002869 </v>
   <v>       0.00528682       0.19571106       0.50058609 </v>
   <v>       0.13833518       0.26560218       0.50057170 </v>
   <v>       0.99712702       0.39177707       0.50100754 </v>
   <v>       0.13026968       0.46391674       0.50087604 </v>
   <v>       0.97526623       0.57616636       0.49974051 </v>
   <v>       0.11731876       0.65556017       0.50025836 </v>
   <v>       0.98729726       0.78579945       0.49978844 </v>
   <v>       0.12617716       0.86034230       0.49990407 </v>
   <v>       0.20174420       0.99935984       0.49996315 </v>
   <v>       0.34076841       0.07491797       0.49997416 </v>
   <v>       0.20564900       0.20029985       0.50029029 </v>
   <v>       0.34065624       0.27207656       0.50022199 </v>
   <v>       0.19984457       0.39937158       0.50071372 </v>
   <v>       0.33279713       0.46984879       0.50056375 </v>
   <v>       0.19199209       0.59719431       0.50058322 </v>
   <v>       0.32697969       0.66894440       0.50043978 </v>
   <v>       0.19196150       0.79444851       0.50008107 </v>
   <v>       0.33098870       0.87000208       0.50010093 </v>
   <v>       0.40655756       0.00904940       0.49998696 </v>
   <v>       0.54540405       0.08366039       0.49998134 </v>
   <v>       0.41537712       0.21379237       0.49993588 </v>
   <v>       0.55744946       0.29324157       0.49946986 </v>
   <v>       0.40242993       0.40537510       0.50047012 </v>
   <v>       0.53559216       0.47761928       0.50044748 </v>
   <v>       0.39430443       0.60365582       0.50046434 </v>
   <v>       0.52736225       0.67361877       0.50026175 </v>
   <v>       0.39695450       0.80397139       0.50018869 </v>
   <v>       0.53196727       0.87397152       0.50011628 </v>
   <v>       0.60374810       0.00898380       0.50016676 </v>
   <v>       0.73705382       0.07076953       0.50050530 </v>
   <v>       0.62488765       0.22578393       0.49959691 </v>
   <v>       0.76599571       0.29127341       0.50025991 </v>
   <v>       0.62301774       0.43445421       0.49988325 </v>
   <v>       0.59240615       0.60866974       0.50023153 </v>
   <v>       0.72347200       0.66559306       0.50021997 </v>
   <v>       0.59727190       0.80667286       0.50014313 </v>
   <v>       0.73106729       0.86823424       0.50012855 </v>
   <v>       0.80156259       0.00117311       0.50027601 </v>
   <v>       0.93536716       0.06268160       0.50025728 </v>
   <v>       0.80924606       0.20391568       0.50083025 </v>
   <v>       0.94027672       0.26072818       0.50083145 </v>
   <v>       0.90975834       0.43503138       0.50036590 </v>
   <v>       0.76676574       0.57827823       0.49975349 </v>
   <v>       0.90787378       0.64372456       0.49943208 </v>
   <v>       0.79564026       0.79872732       0.50011285 </v>
   <v>       0.92892615       0.86046430       0.49989995 </v>
   <v>       0.71859306       0.43466862       0.55687285 </v>
  </varray>
 </structure>
</modeling>
