Li defective graphene MACE training lab 
           1
    12.300000    0.000000    0.000000
    -6.150000   10.652112    0.000000
     0.000000    0.000000   30.000000
   C    Li
  48   1
Direct configuration=     1
   0.00069168  0.99541666  0.49998612
   0.13570752  0.06529461  0.50002869
   0.00528682  0.19571106  0.50058609
   0.13833518  0.26560218  0.50057170
   0.99712702  0.39177707  0.50100754
   0.13026968  0.46391674  0.50087604
   0.97526623  0.57616636  0.49974051
   0.11731876  0.65556017  0.50025836
   0.98729726  0.78579945  0.49978844
   0.12617716  0.86034230  0.49990407
   0.20174420  0.99935984  0.49996315
   0.34076841  0.07491797  0.49997416
   0.20564900  0.20029985  0.50029029
   0.34065624  0.27207656  0.50022199
   0.19984457  0.39937158  0.50071372
   0.33279713  0.46984879  0.50056375
   0.19199209  0.59719431  0.50058322
   0.32697969  0.66894440  0.50043978
   0.19196150  0.79444851  0.50008107
   0.33098870  0.87000208  0.50010093
   0.40655756  0.00904940  0.49998696
   0.54540405  0.08366039  0.49998134
   0.41537712  0.21379237  0.49993588
   0.55744946  0.29324157  0.49946986
   0.40242993  0.40537510  0.50047012
   0.53559216  0.47761928  0.50044748
   0.39430443  0.60365582  0.50046434
   0.52736225  0.67361877  0.50026175
   0.39695450  0.80397139  0.50018869
   0.53196727  0.87397152  0.50011628
   0.60374810  0.00898380  0.50016676
   0.73705382  0.07076953  0.50050530
   0.62488765  0.22578393  0.49959691
   0.76599571  0.29127341  0.50025991
   0.62301774  0.43445421  0.49988325
   0.59240615  0.60866974  0.50023153
   0.72347200  0.66559306  0.50021997
   0.59727190  0.80667286  0.50014313
   0.73106729  0.86823424  0.50012855
   0.80156259  0.00117311  0.50027601
   0.93536716  0.06268160  0.50025728
   0.80924606  0.20391568  0.50083025
   0.94027672  0.26072818  0.50083145
   0.90975834  0.43503138  0.50036590
   0.76676574  0.57827823  0.49975349
   0.90787378  0.64372456  0.49943208
   0.79564026  0.79872732  0.50011285
   0.92892615  0.86046430  0.49989995
   0.71859306  0.43466862  0.55687285
