C  Li                                   
   1.00000000000000     
    12.3000000000000007    0.0000000000000000    0.0000000000000000
    -6.1500000000000004   10.6521124665485960    0.0000000000000000
     0.0000000000000000    0.0000000000000000   30.0000000000000000
   C    Li
    48     1
Direct
  0.0006916778430011  0.9954166619161740  0.4999861213579777
  0.1357075151021760  0.0652946127500655  0.5000286917742187
  0.0052868211480828  0.1957110595594145  0.5005860911735596
  0.1383351842666656  0.2656021781735163  0.5005716988784386
  0.9971270228265041  0.3917770723058354  0.5010075445766518
  0.1302696793735549  0.4639167377132551  0.5008760404335035
  0.9752662264751208  0.5761663594602950  0.4997405097192527
  0.1173187571918035  0.6555601703329330  0.5002583561053058
  0.9872972644680473  0.7857994526800596  0.4997884411372482
  0.1261771640388005  0.8603422965515435  0.4999040677514799
  0.2017442022838836  0.9993598419638658  0.4999631473080441
  0.3407684139705438  0.0749179697642504  0.4999741583728152
  0.2056490008366154  0.2002998544292538  0.5002902915992706
  0.3406562434602094  0.2720765632820630  0.5002219919918360
  0.1998445686087464  0.3993715777289140  0.5007137194794282
  0.3327971261569616  0.4698487945028873  0.5005637543698782
  0.1919920902839536  0.5971943096876089  0.5005832186333379
  0.3269796893176675  0.6689444045171129  0.5004397803526786
  0.1919614987499187  0.7944485074715857  0.5000810734846013
  0.3309886993598212  0.8700020758622955  0.5001009346090157
  0.4065575600139937  0.0090494017481291  0.4999869552976151
  0.5454040476473310  0.0836603919518097  0.4999813360446623
  0.4153771156354011  0.2137923701366162  0.4999358826013420
  0.5574494605638662  0.2932415666290211  0.4994698609793460
  0.4024299297465319  0.4053750968633096  0.5004701169273602
  0.5355921624706355  0.4776192830565691  0.5004474776172714
  0.3943044340985367  0.6036558157913845  0.5004643365793697
  0.5273622516463163  0.6736187685433066  0.5002617519455299
  0.3969544968427385  0.8039713882337693  0.5001886918626042
  0.5319672696980149  0.8739715155317427  0.5001162773843220
  0.6037481000962259  0.0089837975205285  0.5001667587214769
  0.7370538190189180  0.0707695316014139  0.5005053015408976
  0.6248876519261941  0.2257839308531686  0.4995969080747003
  0.7659957099460613  0.2912734077560373  0.5002599054418866
  0.6230177445902640  0.4344542113984815  0.4998832544153373
  0.5924061463024586  0.6086697437410109  0.5002315271624767
  0.7234720009185409  0.6655930573607520  0.5002199652112793
  0.5972719036319845  0.8066728619635484  0.5001431329113544
  0.7310672891494576  0.8682342416361450  0.5001285495059093
  0.8015625911092812  0.0011731109688782  0.5002760136812370
  0.9353671550132674  0.0626816041203568  0.5002572805032059
  0.8092460556539507  0.2039156823299848  0.5008302457402962
  0.9402767180194687  0.2607281755431856  0.5008314521533705
  0.9097583386302617  0.4350313809762199  0.5003658959424442
  0.7667657403251766  0.5782782314320372  0.4997534944774031
  0.9078737775977714  0.6437245569187979  0.4994320750587633
  0.7956402566707581  0.7987273240911890  0.5001128472539875
  0.9289261491032690  0.8604643034542434  0.4998999492598060
  0.6708054047720466  0.4345614141303358  0.5568728516125816
 
  0.00000000E+00  0.00000000E+00  0.00000000E+00
  0.00000000E+00  0.00000000E+00  0.00000000E+00
  0.00000000E+00  0.00000000E+00  0.00000000E+00
  0.00000000E+00  0.00000000E+00  0.00000000E+00
  0.00000000E+00  0.00000000E+00  0.00000000E+00
  0.00000000E+00  0.00000000E+00  0.00000000E+00
  0.00000000E+00  0.00000000E+00  0.00000000E+00
  0.00000000E+00  0.00000000E+00  0.00000000E+00
  0.00000000E+00  0.00000000E+00  0.00000000E+00
  0.00000000E+00  0.00000000E+00  0.00000000E+00
  0.00000000E+00  0.00000000E+00  0.00000000E+00
  0.00000000E+00  0.00000000E+00  0.00000000E+00
  0.00000000E+00  0.00000000E+00  0.00000000E+00
  0.00000000E+00  0.00000000E+00  0.00000000E+00
  0.00000000E+00  0.00000000E+00  0.00000000E+00
  0.00000000E+00  0.00000000E+00  0.00000000E+00
  0.00000000E+00  0.00000000E+00  0.00000000E+00
  0.00000000E+00  0.00000000E+00  0.00000000E+00
  0.00000000E+00  0.00000000E+00  0.00000000E+00
  0.00000000E+00  0.00000000E+00  0.00000000E+00
  0.00000000E+00  0.00000000E+00  0.00000000E+00
  0.00000000E+00  0.00000000E+00  0.00000000E+00
  0.00000000E+00  0.00000000E+00  0.00000000E+00
  0.00000000E+00  0.00000000E+00  0.00000000E+00
  0.00000000E+00  0.00000000E+00  0.00000000E+00
  0.00000000E+00  0.00000000E+00  0.00000000E+00
  0.00000000E+00  0.00000000E+00  0.00000000E+00
  0.00000000E+00  0.00000000E+00  0.00000000E+00
  0.00000000E+00  0.00000000E+00  0.00000000E+00
  0.00000000E+00  0.00000000E+00  0.00000000E+00
  0.00000000E+00  0.00000000E+00  0.00000000E+00
  0.00000000E+00  0.00000000E+00  0.00000000E+00
  0.00000000E+00  0.00000000E+00  0.00000000E+00
  0.00000000E+00  0.00000000E+00  0.00000000E+00
  0.00000000E+00  0.00000000E+00  0.00000000E+00
  0.00000000E+00  0.00000000E+00  0.00000000E+00
  0.00000000E+00  0.00000000E+00  0.00000000E+00
  0.00000000E+00  0.00000000E+00  0.00000000E+00
  0.00000000E+00  0.00000000E+00  0.00000000E+00
  0.00000000E+00  0.00000000E+00  0.00000000E+00
  0.00000000E+00  0.00000000E+00  0.00000000E+00
  0.00000000E+00  0.00000000E+00  0.00000000E+00
  0.00000000E+00  0.00000000E+00  0.00000000E+00
  0.00000000E+00  0.00000000E+00  0.00000000E+00
  0.00000000E+00  0.00000000E+00  0.00000000E+00
  0.00000000E+00  0.00000000E+00  0.00000000E+00
  0.00000000E+00  0.00000000E+00  0.00000000E+00
  0.00000000E+00  0.00000000E+00  0.00000000E+00
  0.00000000E+00  0.00000000E+00  0.00000000E+00
