  49  49   0   0
  0.8021693E+02  0.1230000E-08  0.1230000E-08  0.3000000E-08  0.5000000E-15
  1.000000000000000E-004
  CAR 
 Li defective graphene MACE training lab 
      4.78624015    -53.97096482  301     -3.08131452      1.00000000
    -53.971  0.0000E+00  0.0000E+00  0.0000E+00  0.0000E+00
    -53.775  0.0000E+00  0.0000E+00  0.0000E+00  0.0000E+00
    -53.579  0.0000E+00  0.0000E+00  0.0000E+00  0.0000E+00
    -53.383  0.0000E+00  0.0000E+00  0.0000E+00  0.0000E+00
    -53.188  0.0000E+00  0.0000E+00  0.0000E+00  0.0000E+00
    -52.992  0.0000E+00  0.0000E+00  0.0000E+00  0.0000E+00
    -52.796  0.0000E+00  0.0000E+00  0.0000E+00  0.0000E+00
    -52.600  0.0000E+00  0.0000E+00  0.0000E+00  0.0000E+00
    -52.404  0.0000E+00  0.0000E+00  0.0000E+00  0.0000E+00
    -52.208  0.0000E+00  0.0000E+00  0.0000E+00  0.0000E+00
    -52.012  0.0000E+00  0.0000E+00  0.0000E+00  0.0000E+00
    -51.817  0.0000E+00  0.0000E+00  0.0000E+00  0.0000E+00
    -51.621  0.0000E+00  0.0000E+00  0.0000E+00  0.0000E+00
    -51.425  0.1080E-02  0.1080E-02  0.2115E-03  0.2115E-03
    -51.229  0.4992E+01  0.4992E+01  0.9780E+00  0.9780E+00
    -51.033  0.1122E+00  0.1122E+00  0.1000E+01  0.1000E+01
    -50.837  0.0000E+00  0.0000E+00  0.1000E+01  0.1000E+01
    -50.641  0.0000E+00  0.0000E+00  0.1000E+01  0.1000E+01
    -50.446  0.0000E+00  0.0000E+00  0.1000E+01  0.1000E+01
    -50.250  0.0000E+00  0.0000E+00  0.1000E+01  0.1000E+01
    -50.054  0.0000E+00  0.0000E+00  0.1000E+01  0.1000E+01
    -49.858  0.0000E+00  0.0000E+00  0.1000E+01  0.1000E+01
    -49.662  0.0000E+00  0.0000E+00  0.1000E+01  0.1000E+01
    -49.466  0.0000E+00  0.0000E+00  0.1000E+01  0.1000E+01
    -49.270  0.0000E+00  0.0000E+00  0.1000E+01  0.1000E+01
    -49.075  0.0000E+00  0.0000E+00  0.1000E+01  0.1000E+01
    -48.879  0.0000E+00  0.0000E+00  0.1000E+01  0.1000E+01
    -48.683  0.0000E+00  0.0000E+00  0.1000E+01  0.1000E+01
    -48.487  0.0000E+00  0.0000E+00  0.1000E+01  0.1000E+01
    -48.291  0.0000E+00  0.0000E+00  0.1000E+01  0.1000E+01
    -48.095  0.0000E+00  0.0000E+00  0.1000E+01  0.1000E+01
    -47.899  0.0000E+00  0.0000E+00  0.1000E+01  0.1000E+01
    -47.704  0.0000E+00  0.0000E+00  0.1000E+01  0.1000E+01
    -47.508  0.0000E+00  0.0000E+00  0.1000E+01  0.1000E+01
    -47.312  0.0000E+00  0.0000E+00  0.1000E+01  0.1000E+01
    -47.116  0.0000E+00  0.0000E+00  0.1000E+01  0.1000E+01
    -46.920  0.0000E+00  0.0000E+00  0.1000E+01  0.1000E+01
    -46.724  0.0000E+00  0.0000E+00  0.1000E+01  0.1000E+01
    -46.528  0.0000E+00  0.0000E+00  0.1000E+01  0.1000E+01
    -46.333  0.0000E+00  0.0000E+00  0.1000E+01  0.1000E+01
    -46.137  0.0000E+00  0.0000E+00  0.1000E+01  0.1000E+01
    -45.941  0.0000E+00  0.0000E+00  0.1000E+01  0.1000E+01
    -45.745  0.0000E+00  0.0000E+00  0.1000E+01  0.1000E+01
    -45.549  0.0000E+00  0.0000E+00  0.1000E+01  0.1000E+01
    -45.353  0.0000E+00  0.0000E+00  0.1000E+01  0.1000E+01
    -45.157  0.0000E+00  0.0000E+00  0.1000E+01  0.1000E+01
    -44.962  0.0000E+00  0.0000E+00  0.1000E+01  0.1000E+01
    -44.766  0.0000E+00  0.0000E+00  0.1000E+01  0.1000E+01
    -44.570  0.0000E+00  0.0000E+00  0.1000E+01  0.1000E+01
    -44.374  0.0000E+00  0.0000E+00  0.1000E+01  0.1000E+01
    -44.178  0.0000E+00  0.0000E+00  0.1000E+01  0.1000E+01
    -43.982  0.0000E+00  0.0000E+00  0.1000E+01  0.1000E+01
    -43.786  0.0000E+00  0.0000E+00  0.1000E+01  0.1000E+01
    -43.591  0.0000E+00  0.0000E+00  0.1000E+01  0.1000E+01
    -43.395  0.0000E+00  0.0000E+00  0.1000E+01  0.1000E+01
    -43.199  0.0000E+00  0.0000E+00  0.1000E+01  0.1000E+01
    -43.003  0.0000E+00  0.0000E+00  0.1000E+01  0.1000E+01
    -42.807  0.0000E+00  0.0000E+00  0.1000E+01  0.1000E+01
    -42.611  0.0000E+00  0.0000E+00  0.1000E+01  0.1000E+01
    -42.415  0.0000E+00  0.0000E+00  0.1000E+01  0.1000E+01
    -42.220  0.0000E+00  0.0000E+00  0.1000E+01  0.1000E+01
    -42.024  0.0000E+00  0.0000E+00  0.1000E+01  0.1000E+01
    -41.828  0.0000E+00  0.0000E+00  0.1000E+01  0.1000E+01
    -41.632  0.0000E+00  0.0000E+00  0.1000E+01  0.1000E+01
    -41.436  0.0000E+00  0.0000E+00  0.1000E+01  0.1000E+01
    -41.240  0.0000E+00  0.0000E+00  0.1000E+01  0.1000E+01
    -41.044  0.0000E+00  0.0000E+00  0.1000E+01  0.1000E+01
    -40.849  0.0000E+00  0.0000E+00  0.1000E+01  0.1000E+01
    -40.653  0.0000E+00  0.0000E+00  0.1000E+01  0.1000E+01
    -40.457  0.0000E+00  0.0000E+00  0.1000E+01  0.1000E+01
    -40.261  0.0000E+00  0.0000E+00  0.1000E+01  0.1000E+01
    -40.065  0.0000E+00  0.0000E+00  0.1000E+01  0.1000E+01
    -39.869  0.0000E+00  0.0000E+00  0.1000E+01  0.1000E+01
    -39.673  0.0000E+00  0.0000E+00  0.1000E+01  0.1000E+01
    -39.478  0.0000E+00  0.0000E+00  0.1000E+01  0.1000E+01
    -39.282  0.0000E+00  0.0000E+00  0.1000E+01  0.1000E+01
    -39.086  0.0000E+00  0.0000E+00  0.1000E+01  0.1000E+01
    -38.890  0.0000E+00  0.0000E+00  0.1000E+01  0.1000E+01
    -38.694  0.0000E+00  0.0000E+00  0.1000E+01  0.1000E+01
    -38.498  0.0000E+00  0.0000E+00  0.1000E+01  0.1000E+01
    -38.302  0.0000E+00  0.0000E+00  0.1000E+01  0.1000E+01
    -38.107  0.0000E+00  0.0000E+00  0.1000E+01  0.1000E+01
    -37.911  0.0000E+00  0.0000E+00  0.1000E+01  0.1000E+01
    -37.715  0.0000E+00  0.0000E+00  0.1000E+01  0.1000E+01
    -37.519  0.0000E+00  0.0000E+00  0.1000E+01  0.1000E+01
    -37.323  0.0000E+00  0.0000E+00  0.1000E+01  0.1000E+01
    -37.127  0.0000E+00  0.0000E+00  0.1000E+01  0.1000E+01
    -36.931  0.0000E+00  0.0000E+00  0.1000E+01  0.1000E+01
    -36.736  0.0000E+00  0.0000E+00  0.1000E+01  0.1000E+01
    -36.540  0.0000E+00  0.0000E+00  0.1000E+01  0.1000E+01
    -36.344  0.0000E+00  0.0000E+00  0.1000E+01  0.1000E+01
    -36.148  0.0000E+00  0.0000E+00  0.1000E+01  0.1000E+01
    -35.952  0.0000E+00  0.0000E+00  0.1000E+01  0.1000E+01
    -35.756  0.0000E+00  0.0000E+00  0.1000E+01  0.1000E+01
    -35.560  0.0000E+00  0.0000E+00  0.1000E+01  0.1000E+01
    -35.365  0.0000E+00  0.0000E+00  0.1000E+01  0.1000E+01
    -35.169  0.0000E+00  0.0000E+00  0.1000E+01  0.1000E+01
    -34.973  0.0000E+00  0.0000E+00  0.1000E+01  0.1000E+01
    -34.777  0.0000E+00  0.0000E+00  0.1000E+01  0.1000E+01
    -34.581  0.0000E+00  0.0000E+00  0.1000E+01  0.1000E+01
    -34.385  0.0000E+00  0.0000E+00  0.1000E+01  0.1000E+01
    -34.189  0.0000E+00  0.0000E+00  0.1000E+01  0.1000E+01
    -33.994  0.0000E+00  0.0000E+00  0.1000E+01  0.1000E+01
    -33.798  0.0000E+00  0.0000E+00  0.1000E+01  0.1000E+01
    -33.602  0.0000E+00  0.0000E+00  0.1000E+01  0.1000E+01
    -33.406  0.0000E+00  0.0000E+00  0.1000E+01  0.1000E+01
    -33.210  0.0000E+00  0.0000E+00  0.1000E+01  0.1000E+01
    -33.014  0.0000E+00  0.0000E+00  0.1000E+01  0.1000E+01
    -32.818  0.0000E+00  0.0000E+00  0.1000E+01  0.1000E+01
    -32.623  0.0000E+00  0.0000E+00  0.1000E+01  0.1000E+01
    -32.427  0.0000E+00  0.0000E+00  0.1000E+01  0.1000E+01
    -32.231  0.0000E+00  0.0000E+00  0.1000E+01  0.1000E+01
    -32.035  0.0000E+00  0.0000E+00  0.1000E+01  0.1000E+01
    -31.839  0.0000E+00  0.0000E+00  0.1000E+01  0.1000E+01
    -31.643  0.0000E+00  0.0000E+00  0.1000E+01  0.1000E+01
    -31.447  0.0000E+00  0.0000E+00  0.1000E+01  0.1000E+01
    -31.252  0.0000E+00  0.0000E+00  0.1000E+01  0.1000E+01
    -31.056  0.0000E+00  0.0000E+00  0.1000E+01  0.1000E+01
    -30.860  0.0000E+00  0.0000E+00  0.1000E+01  0.1000E+01
    -30.664  0.0000E+00  0.0000E+00  0.1000E+01  0.1000E+01
    -30.468  0.0000E+00  0.0000E+00  0.1000E+01  0.1000E+01
    -30.272  0.0000E+00  0.0000E+00  0.1000E+01  0.1000E+01
    -30.076  0.0000E+00  0.0000E+00  0.1000E+01  0.1000E+01
    -29.881  0.0000E+00  0.0000E+00  0.1000E+01  0.1000E+01
    -29.685  0.0000E+00  0.0000E+00  0.1000E+01  0.1000E+01
    -29.489  0.0000E+00  0.0000E+00  0.1000E+01  0.1000E+01
    -29.293  0.0000E+00  0.0000E+00  0.1000E+01  0.1000E+01
    -29.097  0.0000E+00  0.0000E+00  0.1000E+01  0.1000E+01
    -28.901  0.0000E+00  0.0000E+00  0.1000E+01  0.1000E+01
    -28.705  0.0000E+00  0.0000E+00  0.1000E+01  0.1000E+01
    -28.510  0.0000E+00  0.0000E+00  0.1000E+01  0.1000E+01
    -28.314  0.0000E+00  0.0000E+00  0.1000E+01  0.1000E+01
    -28.118  0.0000E+00  0.0000E+00  0.1000E+01  0.1000E+01
    -27.922  0.0000E+00  0.0000E+00  0.1000E+01  0.1000E+01
    -27.726  0.0000E+00  0.0000E+00  0.1000E+01  0.1000E+01
    -27.530  0.0000E+00  0.0000E+00  0.1000E+01  0.1000E+01
    -27.334  0.0000E+00  0.0000E+00  0.1000E+01  0.1000E+01
    -27.139  0.0000E+00  0.0000E+00  0.1000E+01  0.1000E+01
    -26.943  0.0000E+00  0.0000E+00  0.1000E+01  0.1000E+01
    -26.747  0.0000E+00  0.0000E+00  0.1000E+01  0.1000E+01
    -26.551  0.0000E+00  0.0000E+00  0.1000E+01  0.1000E+01
    -26.355  0.0000E+00  0.0000E+00  0.1000E+01  0.1000E+01
    -26.159  0.0000E+00  0.0000E+00  0.1000E+01  0.1000E+01
    -25.963  0.0000E+00  0.0000E+00  0.1000E+01  0.1000E+01
    -25.768  0.0000E+00  0.0000E+00  0.1000E+01  0.1000E+01
    -25.572  0.0000E+00  0.0000E+00  0.1000E+01  0.1000E+01
    -25.376  0.0000E+00  0.0000E+00  0.1000E+01  0.1000E+01
    -25.180  0.0000E+00  0.0000E+00  0.1000E+01  0.1000E+01
    -24.984  0.0000E+00  0.0000E+00  0.1000E+01  0.1000E+01
    -24.788  0.0000E+00  0.0000E+00  0.1000E+01  0.1000E+01
    -24.592  0.0000E+00  0.0000E+00  0.1000E+01  0.1000E+01
    -24.397  0.0000E+00  0.0000E+00  0.1000E+01  0.1000E+01
    -24.201  0.0000E+00  0.0000E+00  0.1000E+01  0.1000E+01
    -24.005  0.0000E+00  0.0000E+00  0.1000E+01  0.1000E+01
    -23.809  0.0000E+00  0.0000E+00  0.1000E+01  0.1000E+01
    -23.613  0.0000E+00  0.0000E+00  0.1000E+01  0.1000E+01
    -23.417  0.0000E+00  0.0000E+00  0.1000E+01  0.1000E+01
    -23.221  0.0000E+00  0.0000E+00  0.1000E+01  0.1000E+01
    -23.026  0.0000E+00  0.0000E+00  0.1000E+01  0.1000E+01
    -22.830  0.0000E+00  0.0000E+00  0.1000E+01  0.1000E+01
    -22.634  0.0000E+00  0.0000E+00  0.1000E+01  0.1000E+01
    -22.438  0.3983E-03  0.3983E-03  0.1000E+01  0.1000E+01
    -22.242  0.2362E+01  0.2362E+01  0.1463E+01  0.1463E+01
    -22.046  0.2877E+01  0.2877E+01  0.2026E+01  0.2026E+01
    -21.850  0.3277E+01  0.3277E+01  0.2668E+01  0.2668E+01
    -21.655  0.2875E+01  0.2875E+01  0.3231E+01  0.3231E+01
    -21.459  0.4861E+01  0.4861E+01  0.4183E+01  0.4183E+01
    -21.263  0.3455E+01  0.3455E+01  0.4860E+01  0.4860E+01
    -21.067  0.2709E+01  0.2709E+01  0.5390E+01  0.5390E+01
    -20.871  0.3914E+01  0.3914E+01  0.6157E+01  0.6157E+01
    -20.675  0.4860E+01  0.4860E+01  0.7109E+01  0.7109E+01
    -20.479  0.3071E+01  0.3071E+01  0.7710E+01  0.7710E+01
    -20.284  0.3434E+01  0.3434E+01  0.8383E+01  0.8383E+01
    -20.088  0.4770E+01  0.4770E+01  0.9317E+01  0.9317E+01
    -19.892  0.4244E+01  0.4244E+01  0.1015E+02  0.1015E+02
    -19.696  0.6929E+00  0.6929E+00  0.1028E+02  0.1028E+02
    -19.500  0.4492E+01  0.4492E+01  0.1116E+02  0.1116E+02
    -19.304  0.6869E+01  0.6869E+01  0.1251E+02  0.1251E+02
    -19.108  0.2976E+01  0.2976E+01  0.1309E+02  0.1309E+02
    -18.912  0.4537E+01  0.4537E+01  0.1398E+02  0.1398E+02
    -18.717  0.2243E+01  0.2243E+01  0.1442E+02  0.1442E+02
    -18.521  0.3927E+01  0.3927E+01  0.1519E+02  0.1519E+02
    -18.325  0.5712E+01  0.5712E+01  0.1631E+02  0.1631E+02
    -18.129  0.4668E+01  0.4668E+01  0.1722E+02  0.1722E+02
    -17.933  0.1112E+01  0.1112E+01  0.1744E+02  0.1744E+02
    -17.737  0.4836E+01  0.4836E+01  0.1839E+02  0.1839E+02
    -17.541  0.4767E+01  0.4767E+01  0.1932E+02  0.1932E+02
    -17.346  0.5202E+01  0.5202E+01  0.2034E+02  0.2034E+02
    -17.150  0.4923E+01  0.4923E+01  0.2130E+02  0.2130E+02
    -16.954  0.4391E+01  0.4391E+01  0.2216E+02  0.2216E+02
    -16.758  0.2574E+01  0.2574E+01  0.2267E+02  0.2267E+02
    -16.562  0.2065E+01  0.2065E+01  0.2307E+02  0.2307E+02
    -16.366  0.4524E+01  0.4524E+01  0.2396E+02  0.2396E+02
    -16.170  0.2357E+01  0.2357E+01  0.2442E+02  0.2442E+02
    -15.975  0.3061E+01  0.3061E+01  0.2502E+02  0.2502E+02
    -15.779  0.4544E+01  0.4544E+01  0.2591E+02  0.2591E+02
    -15.583  0.2034E+01  0.2034E+01  0.2631E+02  0.2631E+02
    -15.387  0.3969E+01  0.3969E+01  0.2709E+02  0.2709E+02
    -15.191  0.5802E+01  0.5802E+01  0.2822E+02  0.2822E+02
    -14.995  0.4335E+01  0.4335E+01  0.2907E+02  0.2907E+02
    -14.799  0.4794E+01  0.4794E+01  0.3001E+02  0.3001E+02
    -14.604  0.3806E+01  0.3806E+01  0.3075E+02  0.3075E+02
    -14.408  0.3790E+01  0.3790E+01  0.3150E+02  0.3150E+02
    -14.212  0.3939E+01  0.3939E+01  0.3227E+02  0.3227E+02
    -14.016  0.4843E+01  0.4843E+01  0.3322E+02  0.3322E+02
    -13.820  0.3424E+01  0.3424E+01  0.3389E+02  0.3389E+02
    -13.624  0.3807E+01  0.3807E+01  0.3463E+02  0.3463E+02
    -13.428  0.5264E+01  0.5264E+01  0.3566E+02  0.3566E+02
    -13.233  0.1049E-01  0.1049E-01  0.3567E+02  0.3567E+02
    -13.037  0.3096E+01  0.3096E+01  0.3627E+02  0.3627E+02
    -12.841  0.6890E+01  0.6890E+01  0.3762E+02  0.3762E+02
    -12.645  0.6428E+01  0.6428E+01  0.3888E+02  0.3888E+02
    -12.449  0.2834E+01  0.2834E+01  0.3944E+02  0.3944E+02
    -12.253  0.4577E+01  0.4577E+01  0.4033E+02  0.4033E+02
    -12.057  0.2667E+01  0.2667E+01  0.4086E+02  0.4086E+02
    -11.862  0.5024E+01  0.5024E+01  0.4184E+02  0.4184E+02
    -11.666  0.4729E+01  0.4729E+01  0.4277E+02  0.4277E+02
    -11.470  0.5564E+01  0.5564E+01  0.4386E+02  0.4386E+02
    -11.274  0.5158E+01  0.5158E+01  0.4487E+02  0.4487E+02
    -11.078  0.7292E+01  0.7292E+01  0.4629E+02  0.4629E+02
    -10.882  0.2361E+01  0.2361E+01  0.4676E+02  0.4676E+02
    -10.686  0.5473E+01  0.5473E+01  0.4783E+02  0.4783E+02
    -10.491  0.6305E+01  0.6305E+01  0.4906E+02  0.4906E+02
    -10.295  0.9403E+01  0.9403E+01  0.5090E+02  0.5090E+02
    -10.099  0.8779E+01  0.8779E+01  0.5262E+02  0.5262E+02
     -9.903  0.1065E+02  0.1065E+02  0.5471E+02  0.5471E+02
     -9.707  0.7240E+01  0.7240E+01  0.5613E+02  0.5613E+02
     -9.511  0.9537E+01  0.9537E+01  0.5800E+02  0.5800E+02
     -9.315  0.7775E+01  0.7775E+01  0.5952E+02  0.5952E+02
     -9.120  0.1106E+02  0.1106E+02  0.6169E+02  0.6169E+02
     -8.924  0.1216E+02  0.1216E+02  0.6407E+02  0.6407E+02
     -8.728  0.1235E+02  0.1235E+02  0.6649E+02  0.6649E+02
     -8.532  0.1033E+02  0.1033E+02  0.6851E+02  0.6851E+02
     -8.336  0.8011E+01  0.8011E+01  0.7008E+02  0.7008E+02
     -8.140  0.7990E+01  0.7990E+01  0.7164E+02  0.7164E+02
     -7.944  0.1327E+02  0.1327E+02  0.7424E+02  0.7424E+02
     -7.749  0.9742E+01  0.9742E+01  0.7615E+02  0.7615E+02
     -7.553  0.3566E+01  0.3566E+01  0.7685E+02  0.7685E+02
     -7.357  0.6981E+01  0.6981E+01  0.7822E+02  0.7822E+02
     -7.161  0.1060E+02  0.1060E+02  0.8029E+02  0.8029E+02
     -6.965  0.8350E+01  0.8350E+01  0.8193E+02  0.8193E+02
     -6.769  0.8185E+01  0.8185E+01  0.8353E+02  0.8353E+02
     -6.573  0.5456E+01  0.5456E+01  0.8460E+02  0.8460E+02
     -6.378  0.6810E+01  0.6810E+01  0.8593E+02  0.8593E+02
     -6.182  0.4785E+01  0.4785E+01  0.8687E+02  0.8687E+02
     -5.986  0.9249E+01  0.9249E+01  0.8868E+02  0.8868E+02
     -5.790  0.2765E+01  0.2765E+01  0.8922E+02  0.8922E+02
     -5.594  0.4287E+01  0.4287E+01  0.9006E+02  0.9006E+02
     -5.398  0.5417E+01  0.5417E+01  0.9113E+02  0.9113E+02
     -5.202  0.2950E+01  0.2950E+01  0.9170E+02  0.9170E+02
     -5.007  0.6129E+01  0.6129E+01  0.9290E+02  0.9290E+02
     -4.811  0.5621E+01  0.5621E+01  0.9400E+02  0.9400E+02
     -4.615  0.4428E+01  0.4428E+01  0.9487E+02  0.9487E+02
     -4.419  0.5809E+00  0.5809E+00  0.9499E+02  0.9499E+02
     -4.223  0.2390E+01  0.2390E+01  0.9545E+02  0.9545E+02
     -4.027  0.2806E+01  0.2806E+01  0.9600E+02  0.9600E+02
     -3.831  0.1685E+01  0.1685E+01  0.9633E+02  0.9633E+02
     -3.636  0.3094E+01  0.3094E+01  0.9694E+02  0.9694E+02
     -3.440  0.3096E+00  0.3096E+00  0.9700E+02  0.9700E+02
     -3.244  0.8720E-01  0.8720E-01  0.9702E+02  0.9702E+02
     -3.048  0.2707E+01  0.2707E+01  0.9755E+02  0.9755E+02
     -2.852  0.1071E+01  0.1071E+01  0.9776E+02  0.9776E+02
     -2.656  0.2291E+00  0.2291E+00  0.9780E+02  0.9780E+02
     -2.460  0.2036E+01  0.2036E+01  0.9820E+02  0.9820E+02
     -2.265  0.1106E+00  0.1106E+00  0.9822E+02  0.9822E+02
     -2.069  0.3287E-07  0.3287E-07  0.9822E+02  0.9822E+02
     -1.873  0.7293E+00  0.7293E+00  0.9837E+02  0.9837E+02
     -1.677  0.5740E+01  0.5740E+01  0.9949E+02  0.9949E+02
     -1.481  0.1899E+01  0.1899E+01  0.9986E+02  0.9986E+02
     -1.285  0.1721E+01  0.1721E+01  0.1002E+03  0.1002E+03
     -1.089  0.8299E+01  0.8299E+01  0.1018E+03  0.1018E+03
     -0.894  0.9451E+01  0.9451E+01  0.1037E+03  0.1037E+03
     -0.698  0.3969E+01  0.3969E+01  0.1045E+03  0.1045E+03
     -0.502  0.2579E+01  0.2579E+01  0.1050E+03  0.1050E+03
     -0.306  0.7898E+01  0.7898E+01  0.1065E+03  0.1065E+03
     -0.110  0.9832E+00  0.9832E+00  0.1067E+03  0.1067E+03
      0.086  0.5837E+01  0.5837E+01  0.1078E+03  0.1078E+03
      0.282  0.6967E+01  0.6966E+01  0.1092E+03  0.1092E+03
      0.477  0.7934E+01  0.7930E+01  0.1108E+03  0.1108E+03
      0.673  0.5422E+01  0.5422E+01  0.1118E+03  0.1118E+03
      0.869  0.9735E+01  0.9686E+01  0.1137E+03  0.1137E+03
      1.065  0.1074E+02  0.1063E+02  0.1158E+03  0.1158E+03
      1.261  0.1314E+02  0.1283E+02  0.1184E+03  0.1183E+03
      1.457  0.1343E+02  0.1333E+02  0.1210E+03  0.1209E+03
      1.653  0.1283E+02  0.1293E+02  0.1235E+03  0.1235E+03
      1.848  0.1679E+02  0.1607E+02  0.1268E+03  0.1266E+03
      2.044  0.4741E+01  0.6106E+01  0.1278E+03  0.1278E+03
      2.240  0.1215E+01  0.1026E+01  0.1280E+03  0.1280E+03
      2.436  0.1632E-04  0.1200E-03  0.1280E+03  0.1280E+03
      2.632  0.0000E+00  0.0000E+00  0.1280E+03  0.1280E+03
      2.828  0.0000E+00  0.0000E+00  0.1280E+03  0.1280E+03
      3.024  0.0000E+00  0.0000E+00  0.1280E+03  0.1280E+03
      3.219  0.0000E+00  0.0000E+00  0.1280E+03  0.1280E+03
      3.415  0.0000E+00  0.0000E+00  0.1280E+03  0.1280E+03
      3.611  0.0000E+00  0.0000E+00  0.1280E+03  0.1280E+03
      3.807  0.0000E+00  0.0000E+00  0.1280E+03  0.1280E+03
      4.003  0.0000E+00  0.0000E+00  0.1280E+03  0.1280E+03
      4.199  0.0000E+00  0.0000E+00  0.1280E+03  0.1280E+03
      4.395  0.0000E+00  0.0000E+00  0.1280E+03  0.1280E+03
      4.590  0.0000E+00  0.0000E+00  0.1280E+03  0.1280E+03
      4.786  0.0000E+00  0.0000E+00  0.1280E+03  0.1280E+03
