       N       E                     dE             d eps       ncg     rms          rms(c)
DAV:   1     0.184597655303E+04    0.18460E+04   -0.64238E+04  3144   0.105E+03
DAV:   2     0.455733699905E+02   -0.18004E+04   -0.16541E+04  3960   0.230E+02
DAV:   3    -0.438202306325E+03   -0.48378E+03   -0.47950E+03  3352   0.127E+02
DAV:   4    -0.465025546003E+03   -0.26823E+02   -0.26499E+02  3304   0.389E+01
DAV:   5    -0.466152970900E+03   -0.11274E+01   -0.11149E+01  4080   0.663E+00    0.315E+01
DAV:   6    -0.443453798396E+03    0.22699E+02   -0.22899E+01  2888   0.127E+01    0.182E+01
DAV:   7    -0.432466839950E+03    0.10987E+02   -0.15119E+01  3008   0.964E+00    0.978E+00
DAV:   8    -0.431984181404E+03    0.48266E+00   -0.41222E+00  2976   0.465E+00    0.371E+00
DAV:   9    -0.433146779623E+03   -0.11626E+01   -0.58147E-01  3680   0.202E+00    0.159E+00
DAV:  10    -0.433655110445E+03   -0.50833E+00   -0.16367E-01  2824   0.103E+00    0.100E+00
DAV:  11    -0.434072117372E+03   -0.41701E+00   -0.53699E-02  3016   0.521E-01    0.832E-01
DAV:  12    -0.434835825094E+03   -0.76371E+00   -0.15681E-01  2808   0.698E-01    0.618E-01
DAV:  13    -0.434971774332E+03   -0.13595E+00   -0.11128E-01  2744   0.584E-01    0.454E-01
DAV:  14    -0.435348305883E+03   -0.37653E+00   -0.59234E-02  2824   0.431E-01    0.309E-01
DAV:  15    -0.436093646752E+03   -0.74534E+00   -0.35553E-02  2856   0.274E-01    0.206E-01
DAV:  16    -0.436489139497E+03   -0.39549E+00   -0.74219E-03  2920   0.169E-01    0.154E-01
DAV:  17    -0.436800740207E+03   -0.31160E+00   -0.59782E-03  2768   0.152E-01    0.105E-01
DAV:  18    -0.436933049479E+03   -0.13231E+00   -0.29621E-03  2824   0.104E-01    0.757E-02
DAV:  19    -0.436977718642E+03   -0.44669E-01   -0.13956E-03  2864   0.737E-02    0.549E-02
DAV:  20    -0.436989950966E+03   -0.12232E-01   -0.62509E-04  2816   0.569E-02    0.392E-02
DAV:  21    -0.437001641661E+03   -0.11691E-01   -0.23869E-04  2832   0.434E-02    0.278E-02
DAV:  22    -0.437026125929E+03   -0.24484E-01   -0.12223E-04  2792   0.374E-02    0.175E-02
DAV:  23    -0.437048077359E+03   -0.21951E-01   -0.67284E-05  2848   0.299E-02    0.991E-03
DAV:  24    -0.437052527288E+03   -0.44499E-02   -0.34944E-05  2592   0.217E-02    0.698E-03
DAV:  25    -0.437055414863E+03   -0.28876E-02   -0.50320E-05  2520   0.207E-02    0.400E-03
DAV:  26    -0.437056514817E+03   -0.11000E-02   -0.25163E-05  2336   0.164E-02    0.258E-03
DAV:  27    -0.437056928943E+03   -0.41413E-03   -0.62548E-06  2312   0.876E-03    0.162E-03
DAV:  28    -0.437057186748E+03   -0.25781E-03   -0.25230E-06  2248   0.502E-03    0.116E-03
DAV:  29    -0.437057316704E+03   -0.12996E-03   -0.11167E-06  2224   0.295E-03    0.771E-04
DAV:  30    -0.437057382910E+03   -0.66206E-04   -0.41192E-07  1920   0.174E-03    0.433E-04
DAV:  31    -0.437057428212E+03   -0.45302E-04   -0.26672E-07  1864   0.111E-03    0.400E-04
DAV:  32    -0.437057447557E+03   -0.19345E-04   -0.88249E-08  1928   0.700E-04    0.218E-04
DAV:  33    -0.437057452961E+03   -0.54040E-05   -0.13727E-08  1992   0.456E-04    0.142E-04
DAV:  34    -0.437057455934E+03   -0.29725E-05    0.39481E-09  1856   0.268E-04    0.140E-04
DAV:  35    -0.437057457269E+03   -0.13357E-05    0.13771E-08  1880   0.172E-04    0.121E-04
DAV:  36    -0.437057457790E+03   -0.52042E-06    0.16842E-08  1912   0.109E-04
   1 F= -.43705746E+03 E0= -.43705427E+03  d E =-.637888E-02  mag=     0.0000
