<?xml version="1.0" encoding="ISO-8859-1"?>
<modeling>
 <generator>
  <i name="program" type="string">vasp </i>
  <i name="version" type="string">5.4.1  </i>
  <i name="subversion" type="string">24Jun15 (build Jul 23 2024 06:15:33) complex                          parallel </i>
  <i name="platform" type="string">IFC91_ompi </i>
  <i name="date" type="string">2026 05 05 </i>
  <i name="time" type="string">14:58:12 </i>
 </generator>
 <incar>
  <i type="string" name="SYSTEM"> Li defective graphene MACE training lab</i>
  <i type="int" name="ISTART">     0</i>
  <i type="string" name="PREC">accurate</i>
  <i type="string" name="ALGO"> Normal</i>
  <i type="logical" name="ADDGRID"> T  </i>
  <i type="int" name="ISPIN">     2</i>
  <i type="int" name="ICHARG">     2</i>
  <i type="int" name="NELM">   120</i>
  <i type="int" name="IBRION">    -1</i>
  <i name="EDIFF">      0.00000100</i>
  <i type="int" name="NSW">     0</i>
  <i type="int" name="ISIF">     2</i>
  <i type="int" name="ISYM">     0</i>
  <i name="ENCUT">    520.00000000</i>
  <v name="MAGMOM">      0.10000000      0.10000000      0.10000000      0.10000000      0.10000000      0.10000000      0.10000000      0.10000000      0.10000000      0.10000000      0.10000000      0.10000000      0.10000000      0.10000000      0.10000000      0.10000000      0.10000000      0.10000000      0.10000000      0.10000000
      0.10000000      0.10000000      0.10000000      0.10000000      0.10000000      0.10000000      0.10000000      0.10000000      0.10000000      0.10000000      0.10000000      0.10000000      0.10000000      0.10000000      0.10000000      0.10000000      0.10000000      0.10000000      0.10000000      0.10000000
      0.10000000      0.10000000      0.10000000      0.10000000      0.10000000      0.10000000      0.10000000      0.10000000      1.00000000</v>
  <i type="string" name="LREAL"> Auto</i>
  <i type="int" name="ISMEAR">     0</i>
  <i name="SIGMA">      0.05000000</i>
  <i type="logical" name="LWAVE"> F  </i>
  <i type="logical" name="LCHARG"> F  </i>
  <i type="logical" name="LASPH"> T  </i>
  <v type="int" name="KPOINT_BSE">    -1     0     0     0</v>
  <i type="int" name="NELM">   120</i>
  <i type="logical" name="LASPH"> T  </i>
 </incar>
 <kpoints>
  <generation param="Gamma">
   <v type="int" name="divisions">       3        3        1 </v>
   <v name="usershift">      0.00000000       0.00000000       0.00000000 </v>
   <v name="genvec1">      0.33333333       0.00000000       0.00000000 </v>
   <v name="genvec2">      0.00000000       0.33333333       0.00000000 </v>
   <v name="genvec3">      0.00000000       0.00000000       1.00000000 </v>
   <v name="shift">      0.00000000       0.00000000       0.00000000 </v>
  </generation>
  <varray name="kpointlist" >
   <v>       0.00000000       0.00000000       0.00000000 </v>
   <v>       0.33333333      -0.00000000       0.00000000 </v>
   <v>       0.00000000       0.33333333       0.00000000 </v>
   <v>       0.33333333       0.33333333       0.00000000 </v>
   <v>      -0.33333333       0.33333333       0.00000000 </v>
  </varray>
  <varray name="weights" >
   <v>       0.11111111 </v>
   <v>       0.22222222 </v>
   <v>       0.22222222 </v>
   <v>       0.22222222 </v>
   <v>       0.22222222 </v>
  </varray>
 </kpoints>
 <parameters>
  <separator name="general" >
   <i type="string" name="SYSTEM">Li defective graphene MACE training lab</i>
   <i type="logical" name="LCOMPAT"> F  </i>
  </separator>
  <separator name="electronic" >
   <i type="string" name="PREC">accura</i>
   <i name="ENMAX">    520.00000000</i>
   <i name="ENAUG">    644.87300000</i>
   <i name="EDIFF">      0.00000100</i>
   <i type="int" name="IALGO">    38</i>
   <i type="int" name="IWAVPR">    10</i>
   <i type="int" name="NBANDS">   128</i>
   <i name="NELECT">    195.00000000</i>
   <i type="int" name="TURBO">     0</i>
   <i type="int" name="IRESTART">     0</i>
   <i type="int" name="NREBOOT">     0</i>
   <i type="int" name="NMIN">     0</i>
   <i name="EREF">      0.00000000</i>
   <separator name="electronic smearing" >
    <i type="int" name="ISMEAR">     0</i>
    <i name="SIGMA">      0.05000000</i>
    <i name="KSPACING">      0.50000000</i>
    <i type="logical" name="KGAMMA"> T  </i>
   </separator>
   <separator name="electronic projectors" >
    <i type="logical" name="LREAL"> T  </i>
    <v name="ROPT">     -0.00025000     -0.00025000</v>
    <i type="int" name="LMAXPAW">  -100</i>
    <i type="int" name="LMAXMIX">     2</i>
    <i type="logical" name="NLSPLINE"> F  </i>
   </separator>
   <separator name="electronic startup" >
    <i type="int" name="ISTART">     0</i>
    <i type="int" name="ICHARG">     2</i>
    <i type="int" name="INIWAV">     1</i>
   </separator>
   <separator name="electronic spin" >
    <i type="int" name="ISPIN">     2</i>
    <i type="logical" name="LNONCOLLINEAR"> F  </i>
    <v name="MAGMOM">      0.10000000      0.10000000      0.10000000      0.10000000      0.10000000      0.10000000      0.10000000      0.10000000      0.10000000      0.10000000      0.10000000      0.10000000      0.10000000      0.10000000      0.10000000      0.10000000      0.10000000      0.10000000      0.10000000      0.10000000
      0.10000000      0.10000000      0.10000000      0.10000000      0.10000000      0.10000000      0.10000000      0.10000000      0.10000000      0.10000000      0.10000000      0.10000000      0.10000000      0.10000000      0.10000000      0.10000000      0.10000000      0.10000000      0.10000000      0.10000000
      0.10000000      0.10000000      0.10000000      0.10000000      0.10000000      0.10000000      0.10000000      0.10000000      1.00000000</v>
    <i name="NUPDOWN">     -1.00000000</i>
    <i type="logical" name="LSORBIT"> F  </i>
    <v name="SAXIS">      0.00000000      0.00000000      1.00000000</v>
    <i type="logical" name="LSPIRAL"> F  </i>
    <v name="QSPIRAL">      0.00000000      0.00000000      0.00000000</v>
    <i type="logical" name="LZEROZ"> F  </i>
   </separator>
   <separator name="electronic exchange-correlation" >
    <i type="logical" name="LASPH"> T  </i>
    <i type="logical" name="LMETAGGA"> F  </i>
   </separator>
   <separator name="electronic convergence" >
    <i type="int" name="NELM">   120</i>
    <i type="int" name="NELMDL">    -5</i>
    <i type="int" name="NELMIN">     2</i>
    <i name="ENINI">    520.00000000</i>
    <separator name="electronic convergence detail" >
     <i type="logical" name="LDIAG"> T  </i>
     <i type="logical" name="LSUBROT"> F  </i>
     <i name="WEIMIN">      0.00000000</i>
     <i name="EBREAK">      0.00000000</i>
     <i name="DEPER">      0.30000000</i>
     <i type="int" name="NRMM">     4</i>
     <i name="TIME">      0.40000000</i>
    </separator>
   </separator>
   <separator name="electronic mixer" >
    <i name="AMIX">      0.40000000</i>
    <i name="BMIX">      1.00000000</i>
    <i name="AMIN">      0.10000000</i>
    <i name="AMIX_MAG">      1.60000000</i>
    <i name="BMIX_MAG">      1.00000000</i>
    <separator name="electronic mixer details" >
     <i type="int" name="IMIX">     4</i>
     <i type="logical" name="MIXFIRST"> F  </i>
     <i type="int" name="MAXMIX">   -45</i>
     <i name="WC">    100.00000000</i>
     <i type="int" name="INIMIX">     1</i>
     <i type="int" name="MIXPRE">     1</i>
     <i type="int" name="MREMOVE">     5</i>
    </separator>
   </separator>
   <separator name="electronic dipolcorrection" >
    <i type="logical" name="LDIPOL"> F  </i>
    <i type="logical" name="LMONO"> F  </i>
    <i type="int" name="IDIPOL">     0</i>
    <i name="EPSILON">      1.00000000</i>
    <v name="DIPOL">   -100.00000000   -100.00000000   -100.00000000</v>
    <i name="EFIELD">      0.00000000</i>
   </separator>
  </separator>
  <separator name="grids" >
   <i type="int" name="NGX">    96</i>
   <i type="int" name="NGY">    96</i>
   <i type="int" name="NGZ">   224</i>
   <i type="int" name="NGXF">   192</i>
   <i type="int" name="NGYF">   192</i>
   <i type="int" name="NGZF">   448</i>
   <i type="logical" name="ADDGRID"> T  </i>
  </separator>
  <separator name="ionic" >
   <i type="int" name="NSW">     0</i>
   <i type="int" name="IBRION">    -1</i>
   <i type="int" name="ISIF">     2</i>
   <i name="PSTRESS">      0.00000000</i>
   <i name="EDIFFG">      0.00001000</i>
   <i type="int" name="NFREE">     0</i>
   <i name="POTIM">      0.50000000</i>
   <i name="SMASS">     -3.00000000</i>
   <i name="SCALEE">      1.00000000</i>
  </separator>
  <separator name="ionic md" >
   <i name="TEBEG">      0.00010000</i>
   <i name="TEEND">      0.00010000</i>
   <i type="int" name="NBLOCK">     1</i>
   <i type="int" name="KBLOCK">     1</i>
   <i type="int" name="NPACO">   256</i>
   <i name="APACO">     16.00000000</i>
  </separator>
  <separator name="symmetry" >
   <i type="int" name="ISYM">     0</i>
   <i name="SYMPREC">      0.00001000</i>
  </separator>
  <separator name="dos" >
   <i type="logical" name="LORBIT"> F  </i>
   <v name="RWIGS">     -1.00000000     -1.00000000</v>
   <i type="int" name="NEDOS">   301</i>
   <i name="EMIN">     10.00000000</i>
   <i name="EMAX">    -10.00000000</i>
   <i name="EFERMI">      0.00000000</i>
  </separator>
  <separator name="writing" >
   <i type="int" name="NWRITE">     2</i>
   <i type="logical" name="LWAVE"> F  </i>
   <i type="logical" name="LCHARG"> F  </i>
   <i type="logical" name="LPARD"> F  </i>
   <i type="logical" name="LVTOT"> F  </i>
   <i type="logical" name="LVHAR"> F  </i>
   <i type="logical" name="LELF"> F  </i>
   <i type="logical" name="LOPTICS"> F  </i>
   <v name="STM">      0.00000000      0.00000000      0.00000000      0.00000000      0.00000000      0.00000000      0.00000000</v>
  </separator>
  <separator name="performance" >
   <i type="int" name="NPAR">     4</i>
   <i type="int" name="NSIM">     4</i>
   <i type="int" name="NBLK">    -1</i>
   <i type="logical" name="LPLANE"> T  </i>
   <i type="logical" name="LSCALAPACK"> T  </i>
   <i type="logical" name="LSCAAWARE"> F  </i>
   <i type="logical" name="LSCALU"> F  </i>
   <i type="logical" name="LASYNC"> F  </i>
   <i type="logical" name="LORBITALREAL"> F  </i>
  </separator>
  <separator name="miscellaneous" >
   <i type="int" name="IDIOT">     3</i>
   <i type="logical" name="LMUSIC"> F  </i>
   <v name="POMASS">     12.01100000      7.01000000</v>
   <v name="DARWINR">      0.00000000      0.00000000</v>
   <v name="DARWINV">      1.00000000      1.00000000</v>
   <i type="logical" name="LCORR"> T  </i>
  </separator>
  <i type="logical" name="GGA_COMPAT"> T  </i>
  <i type="logical" name="LBERRY"> F  </i>
  <i type="int" name="ICORELEVEL">     0</i>
  <i type="logical" name="LDAU"> F  </i>
  <i type="int" name="I_CONSTRAINED_M">     0</i>
  <separator name="electronic exchange-correlation" >
   <i type="string" name="GGA">--</i>
   <i type="int" name="VOSKOWN">     0</i>
   <i type="logical" name="LHFCALC"> F  </i>
   <i type="string" name="PRECFOCK"></i>
   <i type="logical" name="LSYMGRAD"> F  </i>
   <i type="logical" name="LHFONE"> F  </i>
   <i type="logical" name="LRHFCALC"> F  </i>
   <i type="logical" name="LTHOMAS"> F  </i>
   <i type="logical" name="LMODELHF"> F  </i>
   <i name="ENCUT4O">     -1.00000000</i>
   <i type="int" name="EXXOEP">     0</i>
   <i type="int" name="FOURORBIT">     0</i>
   <i name="AEXX">      0.00000000</i>
   <i name="HFALPHA">      0.00000000</i>
   <i name="MCALPHA">      0.00000000</i>
   <i name="ALDAX">      1.00000000</i>
   <i name="AGGAX">      1.00000000</i>
   <i name="ALDAC">      1.00000000</i>
   <i name="AGGAC">      1.00000000</i>
   <i type="int" name="NKREDX">     1</i>
   <i type="int" name="NKREDY">     1</i>
   <i type="int" name="NKREDZ">     1</i>
   <i type="logical" name="SHIFTRED"> F  </i>
   <i type="logical" name="ODDONLY"> F  </i>
   <i type="logical" name="EVENONLY"> F  </i>
   <i type="int" name="LMAXFOCK">     0</i>
   <i type="int" name="NMAXFOCKAE">     0</i>
   <i type="logical" name="LFOCKAEDFT"> F  </i>
   <i name="HFSCREEN">      0.00000000</i>
   <i name="HFSCREENC">      0.00000000</i>
   <i type="int" name="NBANDSGWLOW">     0</i>
  </separator>
  <separator name="vdW DFT" >
   <i type="logical" name="LUSE_VDW"> F  </i>
   <i name="Zab_VDW">     -0.84910000</i>
   <i name="PARAM1">      0.12340000</i>
   <i name="PARAM2">      1.00000000</i>
   <i name="PARAM3">      0.00000000</i>
  </separator>
  <separator name="model GW" >
   <i type="int" name="MODEL_GW">     0</i>
   <i name="MODEL_EPS0">     48.13015714</i>
   <i name="MODEL_ALPHA">      1.00000000</i>
  </separator>
  <separator name="linear response parameters" >
   <i type="logical" name="LEPSILON"> F  </i>
   <i type="logical" name="LRPA"> F  </i>
   <i type="logical" name="LNABLA"> F  </i>
   <i type="logical" name="LVEL"> F  </i>
   <i type="int" name="KINTER">     0</i>
   <i name="CSHIFT">      0.10000000</i>
   <i name="OMEGAMAX">     -1.00000000</i>
   <i name="DEG_THRESHOLD">      0.00200000</i>
  </separator>
  <separator name="orbital magnetization" >
   <i type="logical" name="NUCIND"> F  </i>
   <v name="MAGPOS">      0.00000000      0.00000000      0.00000000</v>
   <i type="logical" name="LNICSALL"> T  </i>
   <i type="logical" name="ORBITALMAG"> F  </i>
   <i type="logical" name="LMAGBLOCH"> F  </i>
   <i type="logical" name="LCHIMAG"> F  </i>
   <i type="logical" name="LGAUGE"> T  </i>
   <i type="int" name="MAGATOM">     0</i>
   <v name="MAGDIPOL">      0.00000000      0.00000000      0.00000000</v>
   <v name="AVECCONST">      0.00000000      0.00000000      0.00000000</v>
  </separator>
  <separator name="response functions" >
   <i type="logical" name="LADDER"> F  </i>
   <i type="logical" name="LFXC"> F  </i>
   <i type="logical" name="LHARTREE"> T  </i>
   <i type="int" name="IBSE">     0</i>
   <v type="int" name="KPOINT">    -1     0     0     0</v>
   <i type="logical" name="LTCTE"> F  </i>
   <i type="logical" name="LTETE"> F  </i>
   <i type="logical" name="LTRIPLET"> F  </i>
   <i type="logical" name="LFXCEPS"> F  </i>
   <i type="logical" name="LFXHEG"> F  </i>
   <i type="int" name="NATURALO">     0</i>
   <i type="logical" name="L2ORDER"> F  </i>
   <i type="logical" name="LUSEW"> F  </i>
   <i name="ENCUTGW">     -2.00000000</i>
   <i name="ENCUTGWSOFT">     -2.00000000</i>
   <i name="ENCUTLF">     -1.00000000</i>
   <i type="int" name="LMAXMP2">    -1</i>
   <i name="SCISSOR">      0.00000000</i>
   <i type="int" name="NOMEGA">     0</i>
   <i type="int" name="NOMEGAR">     0</i>
   <i type="int" name="NBANDSGW">    -1</i>
   <i type="int" name="NBANDSO">    -1</i>
   <i type="int" name="NBANDSV">    -1</i>
   <i type="int" name="NELM">   120</i>
   <i type="int" name="NELMHF">     1</i>
   <i type="int" name="DIM">     3</i>
   <i type="int" name="ANTIRES">     0</i>
   <i name="OMEGAMAX">    -30.00000000</i>
   <i name="OMEGAMIN">    -30.00000000</i>
   <i name="OMEGATL">   -200.00000000</i>
   <i type="int" name="OMEGAGRID">     0</i>
   <i name="CSHIFT">     -0.10000000</i>
   <i type="logical" name="SELFENERGY"> F  </i>
   <i type="logical" name="LSPECTRAL"> F  </i>
   <i type="logical" name="LSPECTRALGW"> F  </i>
   <i type="logical" name="LSINGLES"> F  </i>
   <i type="logical" name="LFERMIGW"> F  </i>
   <i type="logical" name="ODDONLYGW"> F  </i>
   <i type="logical" name="EVENONLYGW"> F  </i>
   <i type="int" name="NKREDLFX">     1</i>
   <i type="int" name="NKREDLFY">     1</i>
   <i type="int" name="NKREDLFZ">     1</i>
   <i type="int" name="MAXMEM">  1800</i>
   <i type="int" name="TELESCOPE">     0</i>
   <i type="int" name="TAUPAR">     1</i>
   <i type="int" name="OMEGAPAR">    -1</i>
   <i name="LAMBDA">      1.00000000</i>
  </separator>
  <separator name="External order field" >
   <i name="OFIELD_KAPPA">      0.00000000</i>
   <v name="OFIELD_K">      0.00000000      0.00000000      0.00000000</v>
   <i name="OFIELD_Q6_NEAR">      0.00000000</i>
   <i name="OFIELD_Q6_FAR">      0.00000000</i>
   <i name="OFIELD_A">      0.00000000</i>
  </separator>
 </parameters>
 <atominfo>
  <atoms>      49 </atoms>
  <types>       2 </types>
  <array name="atoms" >
   <dimension dim="1">ion</dimension>
   <field type="string">element</field>
   <field type="int">atomtype</field>
   <set>
    <rc><c>C </c><c>   1</c></rc>
    <rc><c>C </c><c>   1</c></rc>
    <rc><c>C </c><c>   1</c></rc>
    <rc><c>C </c><c>   1</c></rc>
    <rc><c>C </c><c>   1</c></rc>
    <rc><c>C </c><c>   1</c></rc>
    <rc><c>C </c><c>   1</c></rc>
    <rc><c>C </c><c>   1</c></rc>
    <rc><c>C </c><c>   1</c></rc>
    <rc><c>C </c><c>   1</c></rc>
    <rc><c>C </c><c>   1</c></rc>
    <rc><c>C </c><c>   1</c></rc>
    <rc><c>C </c><c>   1</c></rc>
    <rc><c>C </c><c>   1</c></rc>
    <rc><c>C </c><c>   1</c></rc>
    <rc><c>C </c><c>   1</c></rc>
    <rc><c>C </c><c>   1</c></rc>
    <rc><c>C </c><c>   1</c></rc>
    <rc><c>C </c><c>   1</c></rc>
    <rc><c>C </c><c>   1</c></rc>
    <rc><c>C </c><c>   1</c></rc>
    <rc><c>C </c><c>   1</c></rc>
    <rc><c>C </c><c>   1</c></rc>
    <rc><c>C </c><c>   1</c></rc>
    <rc><c>C </c><c>   1</c></rc>
    <rc><c>C </c><c>   1</c></rc>
    <rc><c>C </c><c>   1</c></rc>
    <rc><c>C </c><c>   1</c></rc>
    <rc><c>C </c><c>   1</c></rc>
    <rc><c>C </c><c>   1</c></rc>
    <rc><c>C </c><c>   1</c></rc>
    <rc><c>C </c><c>   1</c></rc>
    <rc><c>C </c><c>   1</c></rc>
    <rc><c>C </c><c>   1</c></rc>
    <rc><c>C </c><c>   1</c></rc>
    <rc><c>C </c><c>   1</c></rc>
    <rc><c>C </c><c>   1</c></rc>
    <rc><c>C </c><c>   1</c></rc>
    <rc><c>C </c><c>   1</c></rc>
    <rc><c>C </c><c>   1</c></rc>
    <rc><c>C </c><c>   1</c></rc>
    <rc><c>C </c><c>   1</c></rc>
    <rc><c>C </c><c>   1</c></rc>
    <rc><c>C </c><c>   1</c></rc>
    <rc><c>C </c><c>   1</c></rc>
    <rc><c>C </c><c>   1</c></rc>
    <rc><c>C </c><c>   1</c></rc>
    <rc><c>C </c><c>   1</c></rc>
    <rc><c>Li</c><c>   2</c></rc>
   </set>
  </array>
  <array name="atomtypes" >
   <dimension dim="1">type</dimension>
   <field type="int">atomspertype</field>
   <field type="string">element</field>
   <field>mass</field>
   <field>valence</field>
   <field type="string">pseudopotential</field>
   <set>
    <rc><c>  48</c><c>C </c><c>     12.01100000</c><c>      4.00000000</c><c>  PAW_PBE C 08Apr2002                   </c></rc>
    <rc><c>   1</c><c>Li</c><c>      7.01000000</c><c>      3.00000000</c><c>  PAW_PBE Li_sv 10Sep2004               </c></rc>
   </set>
  </array>
 </atominfo>
 <structure name="initialpos" >
  <crystal>
   <varray name="basis" >
    <v>      12.30000000       0.00000000       0.00000000 </v>
    <v>      -6.15000000      10.65211247       0.00000000 </v>
    <v>       0.00000000       0.00000000      30.00000000 </v>
   </varray>
   <i name="volume">   3930.62950016 </i>
   <varray name="rec_basis" >
    <v>       0.08130081       0.04693905       0.00000000 </v>
    <v>       0.00000000       0.09387809       0.00000000 </v>
    <v>       0.00000000       0.00000000       0.03333333 </v>
   </varray>
  </crystal>
  <varray name="positions" >
   <v>       0.00069168       0.99541666       0.49998612 </v>
   <v>       0.13570752       0.06529461       0.50002869 </v>
   <v>       0.00528682       0.19571106       0.50058609 </v>
   <v>       0.13833518       0.26560218       0.50057170 </v>
   <v>       0.99712702       0.39177707       0.50100754 </v>
   <v>       0.13026968       0.46391674       0.50087604 </v>
   <v>       0.97526623       0.57616636       0.49974051 </v>
   <v>       0.11731876       0.65556017       0.50025836 </v>
   <v>       0.98729726       0.78579945       0.49978844 </v>
   <v>       0.12617716       0.86034230       0.49990407 </v>
   <v>       0.20174420       0.99935984       0.49996315 </v>
   <v>       0.34076841       0.07491797       0.49997416 </v>
   <v>       0.20564900       0.20029985       0.50029029 </v>
   <v>       0.34065624       0.27207656       0.50022199 </v>
   <v>       0.19984457       0.39937158       0.50071372 </v>
   <v>       0.33279713       0.46984879       0.50056375 </v>
   <v>       0.19199209       0.59719431       0.50058322 </v>
   <v>       0.32697969       0.66894440       0.50043978 </v>
   <v>       0.19196150       0.79444851       0.50008107 </v>
   <v>       0.33098870       0.87000208       0.50010093 </v>
   <v>       0.40655756       0.00904940       0.49998696 </v>
   <v>       0.54540405       0.08366039       0.49998134 </v>
   <v>       0.41537712       0.21379237       0.49993588 </v>
   <v>       0.55744946       0.29324157       0.49946986 </v>
   <v>       0.40242993       0.40537510       0.50047012 </v>
   <v>       0.53559216       0.47761928       0.50044748 </v>
   <v>       0.39430443       0.60365582       0.50046434 </v>
   <v>       0.52736225       0.67361877       0.50026175 </v>
   <v>       0.39695450       0.80397139       0.50018869 </v>
   <v>       0.53196727       0.87397152       0.50011628 </v>
   <v>       0.60374810       0.00898380       0.50016676 </v>
   <v>       0.73705382       0.07076953       0.50050530 </v>
   <v>       0.62488765       0.22578393       0.49959691 </v>
   <v>       0.76599571       0.29127341       0.50025991 </v>
   <v>       0.62301774       0.43445421       0.49988325 </v>
   <v>       0.59240615       0.60866974       0.50023153 </v>
   <v>       0.72347200       0.66559306       0.50021997 </v>
   <v>       0.59727190       0.80667286       0.50014313 </v>
   <v>       0.73106729       0.86823424       0.50012855 </v>
   <v>       0.80156259       0.00117311       0.50027601 </v>
   <v>       0.93536716       0.06268160       0.50025728 </v>
   <v>       0.80924606       0.20391568       0.50083025 </v>
   <v>       0.94027672       0.26072818       0.50083145 </v>
   <v>       0.90975834       0.43503138       0.50036590 </v>
   <v>       0.76676574       0.57827823       0.49975349 </v>
   <v>       0.90787378       0.64372456       0.49943208 </v>
   <v>       0.79564026       0.79872732       0.50011285 </v>
   <v>       0.92892615       0.86046430       0.49989995 </v>
   <v>       0.67080540       0.43456141       0.55687285 </v>
  </varray>
 </structure>
 <calculation>
  <scstep>
   <time name="dav">   44.05   44.07</time>
   <time name="total">   46.97   46.99</time>
   <energy>
    <i name="alphaZ">     49.28462660 </i>
    <i name="ewald">  52398.77909324 </i>
    <i name="hartreedc"> -57484.86966190 </i>
    <i name="XCdc">    641.36179543 </i>
    <i name="pawpsdc">   5288.51619703 </i>
    <i name="pawaedc">  -5331.18329077 </i>
    <i name="eentropy">     -0.02915410 </i>
    <i name="bandstr">   -981.80277843 </i>
    <i name="atom">   7265.91972593 </i>
    <i name="e_fr_energy">   1845.97655303 </i>
    <i name="e_wo_entrp">   1846.00570713 </i>
    <i name="e_0_energy">   1845.99113008 </i>
   </energy>
  </scstep>
  <scstep>
   <time name="dav">   53.01   53.01</time>
   <time name="total">   53.01   53.01</time>
   <energy>
    <i name="e_fr_energy">     45.57336999 </i>
    <i name="e_wo_entrp">     45.57468951 </i>
    <i name="e_0_energy">     45.57402975 </i>
   </energy>
  </scstep>
  <scstep>
   <time name="dav">   46.38   46.39</time>
   <time name="total">   46.39   46.39</time>
   <energy>
    <i name="e_fr_energy">   -438.20230632 </i>
    <i name="e_wo_entrp">   -438.19912482 </i>
    <i name="e_0_energy">   -438.20071557 </i>
   </energy>
  </scstep>
  <scstep>
   <time name="dav">   46.03   46.05</time>
   <time name="total">   46.03   46.07</time>
   <energy>
    <i name="e_fr_energy">   -465.02554600 </i>
    <i name="e_wo_entrp">   -465.02069840 </i>
    <i name="e_0_energy">   -465.02312220 </i>
   </energy>
  </scstep>
  <scstep>
   <time name="dav">   54.61   54.65</time>
   <time name="total">   58.67   58.72</time>
   <energy>
    <i name="e_fr_energy">   -466.15297090 </i>
    <i name="e_wo_entrp">   -466.14809681 </i>
    <i name="e_0_energy">   -466.15053385 </i>
   </energy>
  </scstep>
  <scstep>
   <time name="dav">   41.28   41.30</time>
   <time name="total">   48.07   48.10</time>
   <energy>
    <i name="e_fr_energy">   -443.45379840 </i>
    <i name="e_wo_entrp">   -443.44686899 </i>
    <i name="e_0_energy">   -443.45033369 </i>
   </energy>
  </scstep>
  <scstep>
   <time name="dav">   42.52   42.53</time>
   <time name="total">   49.30   49.32</time>
   <energy>
    <i name="e_fr_energy">   -432.46683995 </i>
    <i name="e_wo_entrp">   -432.46150999 </i>
    <i name="e_0_energy">   -432.46417497 </i>
   </energy>
  </scstep>
  <scstep>
   <time name="dav">   42.15   42.17</time>
   <time name="total">   48.93   48.95</time>
   <energy>
    <i name="e_fr_energy">   -431.98418140 </i>
    <i name="e_wo_entrp">   -431.97915157 </i>
    <i name="e_0_energy">   -431.98166649 </i>
   </energy>
  </scstep>
  <scstep>
   <time name="dav">   49.83   49.83</time>
   <time name="total">   56.37   56.38</time>
   <energy>
    <i name="e_fr_energy">   -433.14677962 </i>
    <i name="e_wo_entrp">   -433.14174680 </i>
    <i name="e_0_energy">   -433.14426321 </i>
   </energy>
  </scstep>
  <scstep>
   <time name="dav">   40.52   40.54</time>
   <time name="total">   47.19   47.22</time>
   <energy>
    <i name="e_fr_energy">   -433.65511045 </i>
    <i name="e_wo_entrp">   -433.65002765 </i>
    <i name="e_0_energy">   -433.65256905 </i>
   </energy>
  </scstep>
  <scstep>
   <time name="dav">   42.61   42.61</time>
   <time name="total">   49.28   49.29</time>
   <energy>
    <i name="e_fr_energy">   -434.07211737 </i>
    <i name="e_wo_entrp">   -434.06697776 </i>
    <i name="e_0_energy">   -434.06954757 </i>
   </energy>
  </scstep>
  <scstep>
   <time name="dav">   40.32   40.32</time>
   <time name="total">   46.95   46.96</time>
   <energy>
    <i name="e_fr_energy">   -434.83582509 </i>
    <i name="e_wo_entrp">   -434.83047870 </i>
    <i name="e_0_energy">   -434.83315190 </i>
   </energy>
  </scstep>
  <scstep>
   <time name="dav">   39.57   39.60</time>
   <time name="total">   46.15   46.18</time>
   <energy>
    <i name="e_fr_energy">   -434.97177433 </i>
    <i name="e_wo_entrp">   -434.96604061 </i>
    <i name="e_0_energy">   -434.96890747 </i>
   </energy>
  </scstep>
  <scstep>
   <time name="dav">   40.40   40.43</time>
   <time name="total">   46.99   47.03</time>
   <energy>
    <i name="e_fr_energy">   -435.34830588 </i>
    <i name="e_wo_entrp">   -435.34222780 </i>
    <i name="e_0_energy">   -435.34526684 </i>
   </energy>
  </scstep>
  <scstep>
   <time name="dav">   40.74   40.74</time>
   <time name="total">   47.22   47.23</time>
   <energy>
    <i name="e_fr_energy">   -436.09364675 </i>
    <i name="e_wo_entrp">   -436.08736726 </i>
    <i name="e_0_energy">   -436.09050701 </i>
   </energy>
  </scstep>
  <scstep>
   <time name="dav">   41.54   41.54</time>
   <time name="total">   48.42   48.43</time>
   <energy>
    <i name="e_fr_energy">   -436.48913950 </i>
    <i name="e_wo_entrp">   -436.48280433 </i>
    <i name="e_0_energy">   -436.48597191 </i>
   </energy>
  </scstep>
  <scstep>
   <time name="dav">   39.81   39.81</time>
   <time name="total">   46.61   46.61</time>
   <energy>
    <i name="e_fr_energy">   -436.80074021 </i>
    <i name="e_wo_entrp">   -436.79437733 </i>
    <i name="e_0_energy">   -436.79755877 </i>
   </energy>
  </scstep>
  <scstep>
   <time name="dav">   40.45   40.45</time>
   <time name="total">   47.17   47.17</time>
   <energy>
    <i name="e_fr_energy">   -436.93304948 </i>
    <i name="e_wo_entrp">   -436.92667539 </i>
    <i name="e_0_energy">   -436.92986244 </i>
   </energy>
  </scstep>
  <scstep>
   <time name="dav">   40.87   40.87</time>
   <time name="total">   47.56   47.56</time>
   <energy>
    <i name="e_fr_energy">   -436.97771864 </i>
    <i name="e_wo_entrp">   -436.97134213 </i>
    <i name="e_0_energy">   -436.97453039 </i>
   </energy>
  </scstep>
  <scstep>
   <time name="dav">   40.35   40.35</time>
   <time name="total">   47.02   47.03</time>
   <energy>
    <i name="e_fr_energy">   -436.98995097 </i>
    <i name="e_wo_entrp">   -436.98357325 </i>
    <i name="e_0_energy">   -436.98676211 </i>
   </energy>
  </scstep>
  <scstep>
   <time name="dav">   40.53   40.54</time>
   <time name="total">   47.22   47.22</time>
   <energy>
    <i name="e_fr_energy">   -437.00164166 </i>
    <i name="e_wo_entrp">   -436.99526291 </i>
    <i name="e_0_energy">   -436.99845228 </i>
   </energy>
  </scstep>
  <scstep>
   <time name="dav">   40.18   40.18</time>
   <time name="total">   46.87   46.88</time>
   <energy>
    <i name="e_fr_energy">   -437.02612593 </i>
    <i name="e_wo_entrp">   -437.01974718 </i>
    <i name="e_0_energy">   -437.02293656 </i>
   </energy>
  </scstep>
  <scstep>
   <time name="dav">   40.80   40.80</time>
   <time name="total">   47.46   47.46</time>
   <energy>
    <i name="e_fr_energy">   -437.04807736 </i>
    <i name="e_wo_entrp">   -437.04169879 </i>
    <i name="e_0_energy">   -437.04488807 </i>
   </energy>
  </scstep>
  <scstep>
   <time name="dav">   37.96   37.96</time>
   <time name="total">   44.48   44.49</time>
   <energy>
    <i name="e_fr_energy">   -437.05252729 </i>
    <i name="e_wo_entrp">   -437.04614839 </i>
    <i name="e_0_energy">   -437.04933784 </i>
   </energy>
  </scstep>
  <scstep>
   <time name="dav">   37.15   37.16</time>
   <time name="total">   43.81   43.82</time>
   <energy>
    <i name="e_fr_energy">   -437.05541486 </i>
    <i name="e_wo_entrp">   -437.04903583 </i>
    <i name="e_0_energy">   -437.05222534 </i>
   </energy>
  </scstep>
  <scstep>
   <time name="dav">   35.16   35.16</time>
   <time name="total">   41.92   41.92</time>
   <energy>
    <i name="e_fr_energy">   -437.05651482 </i>
    <i name="e_wo_entrp">   -437.05013597 </i>
    <i name="e_0_energy">   -437.05332539 </i>
   </energy>
  </scstep>
  <scstep>
   <time name="dav">   34.70   34.70</time>
   <time name="total">   41.54   41.54</time>
   <energy>
    <i name="e_fr_energy">   -437.05692894 </i>
    <i name="e_wo_entrp">   -437.05055012 </i>
    <i name="e_0_energy">   -437.05373953 </i>
   </energy>
  </scstep>
  <scstep>
   <time name="dav">   34.02   34.03</time>
   <time name="total">   40.90   40.90</time>
   <energy>
    <i name="e_fr_energy">   -437.05718675 </i>
    <i name="e_wo_entrp">   -437.05080782 </i>
    <i name="e_0_energy">   -437.05399728 </i>
   </energy>
  </scstep>
  <scstep>
   <time name="dav">   33.75   33.75</time>
   <time name="total">   40.60   40.60</time>
   <energy>
    <i name="e_fr_energy">   -437.05731670 </i>
    <i name="e_wo_entrp">   -437.05093779 </i>
    <i name="e_0_energy">   -437.05412725 </i>
   </energy>
  </scstep>
  <scstep>
   <time name="dav">   30.39   30.39</time>
   <time name="total">   37.29   37.30</time>
   <energy>
    <i name="e_fr_energy">   -437.05738291 </i>
    <i name="e_wo_entrp">   -437.05100404 </i>
    <i name="e_0_energy">   -437.05419348 </i>
   </energy>
  </scstep>
  <scstep>
   <time name="dav">   29.83   29.83</time>
   <time name="total">   36.72   36.72</time>
   <energy>
    <i name="e_fr_energy">   -437.05742821 </i>
    <i name="e_wo_entrp">   -437.05104934 </i>
    <i name="e_0_energy">   -437.05423877 </i>
   </energy>
  </scstep>
  <scstep>
   <time name="dav">   30.52   30.52</time>
   <time name="total">   37.43   37.44</time>
   <energy>
    <i name="e_fr_energy">   -437.05744756 </i>
    <i name="e_wo_entrp">   -437.05106867 </i>
    <i name="e_0_energy">   -437.05425811 </i>
   </energy>
  </scstep>
  <scstep>
   <time name="dav">   31.19   31.19</time>
   <time name="total">   38.08   38.08</time>
   <energy>
    <i name="e_fr_energy">   -437.05745296 </i>
    <i name="e_wo_entrp">   -437.05107408 </i>
    <i name="e_0_energy">   -437.05426352 </i>
   </energy>
  </scstep>
  <scstep>
   <time name="dav">   29.71   29.71</time>
   <time name="total">   36.70   36.70</time>
   <energy>
    <i name="e_fr_energy">   -437.05745593 </i>
    <i name="e_wo_entrp">   -437.05107706 </i>
    <i name="e_0_energy">   -437.05426649 </i>
   </energy>
  </scstep>
  <scstep>
   <time name="dav">   29.95   29.97</time>
   <time name="total">   36.85   36.88</time>
   <energy>
    <i name="e_fr_energy">   -437.05745727 </i>
    <i name="e_wo_entrp">   -437.05107839 </i>
    <i name="e_0_energy">   -437.05426783 </i>
   </energy>
  </scstep>
  <scstep>
   <time name="dav">   30.42   30.44</time>
   <time name="total">   33.31   33.34</time>
   <energy>
    <i name="alphaZ">     49.28462660 </i>
    <i name="ewald">  52398.77909324 </i>
    <i name="hartreedc"> -58370.96217758 </i>
    <i name="XCdc">    668.75342247 </i>
    <i name="pawpsdc">  19118.33556223 </i>
    <i name="pawaedc"> -19166.46272993 </i>
    <i name="eentropy">     -0.00637888 </i>
    <i name="bandstr">  -2400.69860187 </i>
    <i name="atom">   7265.91972593 </i>
    <i name="e_fr_energy">   -437.05745779 </i>
    <i name="e_wo_entrp">   -437.05107891 </i>
    <i name="e_0_energy">   -437.05426835 </i>
   </energy>
  </scstep>
  <structure>
   <crystal>
    <varray name="basis" >
     <v>      12.30000000       0.00000000       0.00000000 </v>
     <v>      -6.15000000      10.65211247       0.00000000 </v>
     <v>       0.00000000       0.00000000      30.00000000 </v>
    </varray>
    <i name="volume">   3930.62950016 </i>
    <varray name="rec_basis" >
     <v>       0.08130081       0.04693905       0.00000000 </v>
     <v>       0.00000000       0.09387809       0.00000000 </v>
     <v>       0.00000000       0.00000000       0.03333333 </v>
    </varray>
   </crystal>
   <varray name="positions" >
    <v>       0.00069168       0.99541666       0.49998612 </v>
    <v>       0.13570752       0.06529461       0.50002869 </v>
    <v>       0.00528682       0.19571106       0.50058609 </v>
    <v>       0.13833518       0.26560218       0.50057170 </v>
    <v>       0.99712702       0.39177707       0.50100754 </v>
    <v>       0.13026968       0.46391674       0.50087604 </v>
    <v>       0.97526623       0.57616636       0.49974051 </v>
    <v>       0.11731876       0.65556017       0.50025836 </v>
    <v>       0.98729726       0.78579945       0.49978844 </v>
    <v>       0.12617716       0.86034230       0.49990407 </v>
    <v>       0.20174420       0.99935984       0.49996315 </v>
    <v>       0.34076841       0.07491797       0.49997416 </v>
    <v>       0.20564900       0.20029985       0.50029029 </v>
    <v>       0.34065624       0.27207656       0.50022199 </v>
    <v>       0.19984457       0.39937158       0.50071372 </v>
    <v>       0.33279713       0.46984879       0.50056375 </v>
    <v>       0.19199209       0.59719431       0.50058322 </v>
    <v>       0.32697969       0.66894440       0.50043978 </v>
    <v>       0.19196150       0.79444851       0.50008107 </v>
    <v>       0.33098870       0.87000208       0.50010093 </v>
    <v>       0.40655756       0.00904940       0.49998696 </v>
    <v>       0.54540405       0.08366039       0.49998134 </v>
    <v>       0.41537712       0.21379237       0.49993588 </v>
    <v>       0.55744946       0.29324157       0.49946986 </v>
    <v>       0.40242993       0.40537510       0.50047012 </v>
    <v>       0.53559216       0.47761928       0.50044748 </v>
    <v>       0.39430443       0.60365582       0.50046434 </v>
    <v>       0.52736225       0.67361877       0.50026175 </v>
    <v>       0.39695450       0.80397139       0.50018869 </v>
    <v>       0.53196727       0.87397152       0.50011628 </v>
    <v>       0.60374810       0.00898380       0.50016676 </v>
    <v>       0.73705382       0.07076953       0.50050530 </v>
    <v>       0.62488765       0.22578393       0.49959691 </v>
    <v>       0.76599571       0.29127341       0.50025991 </v>
    <v>       0.62301774       0.43445421       0.49988325 </v>
    <v>       0.59240615       0.60866974       0.50023153 </v>
    <v>       0.72347200       0.66559306       0.50021997 </v>
    <v>       0.59727190       0.80667286       0.50014313 </v>
    <v>       0.73106729       0.86823424       0.50012855 </v>
    <v>       0.80156259       0.00117311       0.50027601 </v>
    <v>       0.93536716       0.06268160       0.50025728 </v>
    <v>       0.80924606       0.20391568       0.50083025 </v>
    <v>       0.94027672       0.26072818       0.50083145 </v>
    <v>       0.90975834       0.43503138       0.50036590 </v>
    <v>       0.76676574       0.57827823       0.49975349 </v>
    <v>       0.90787378       0.64372456       0.49943208 </v>
    <v>       0.79564026       0.79872732       0.50011285 </v>
    <v>       0.92892615       0.86046430       0.49989995 </v>
    <v>       0.67080540       0.43456141       0.55687285 </v>
   </varray>
  </structure>
  <varray name="forces" >
   <v>      -0.03470433       0.00757272       0.01341158 </v>
   <v>       0.02502400      -0.02052670       0.00210889 </v>
   <v>      -0.13447011       0.06847991       0.00765990 </v>
   <v>       0.02815724       0.04869946       0.00225548 </v>
   <v>      -0.14403335       0.19494340      -0.04681605 </v>
   <v>      -0.01060410       0.01650661      -0.00630892 </v>
   <v>      -0.01411563      -0.28582310       0.06270878 </v>
   <v>      -0.03472749      -0.00790914      -0.05330920 </v>
   <v>      -0.01429969      -0.12242139      -0.02721036 </v>
   <v>       0.02647807       0.00982678      -0.00360823 </v>
   <v>      -0.02466666       0.00715817      -0.00430175 </v>
   <v>      -0.02545272      -0.02009491      -0.01400999 </v>
   <v>      -0.00594846       0.02251829      -0.01331900 </v>
   <v>      -0.07109854       0.00117146      -0.00195004 </v>
   <v>       0.00843214      -0.01033915       0.00493285 </v>
   <v>       0.01613161      -0.00218349       0.00193576 </v>
   <v>      -0.00802833      -0.00614395      -0.00027459 </v>
   <v>       0.02406172      -0.00084531       0.00155482 </v>
   <v>       0.00570994       0.00289582      -0.00593445 </v>
   <v>      -0.02458996      -0.00810616       0.00538740 </v>
   <v>       0.05170346       0.00192828      -0.01267335 </v>
   <v>      -0.03423669      -0.07306889      -0.00906454 </v>
   <v>      -0.00400209      -0.02002286       0.01646155 </v>
   <v>       0.02742685      -0.25221909      -0.03459626 </v>
   <v>      -0.12111823      -0.01287550       0.03627455 </v>
   <v>      -0.17528578       0.05414200      -0.05803244 </v>
   <v>       0.01172355       0.02850086      -0.00721307 </v>
   <v>      -0.06848014       0.03236348       0.01183166 </v>
   <v>       0.02718325       0.00029878       0.00180111 </v>
   <v>      -0.01293694      -0.01329647       0.00767243 </v>
   <v>      -0.00770350       0.00418119       0.00419066 </v>
   <v>       0.01822847       0.02226098      -0.01989428 </v>
   <v>       0.29027379       0.14529399       0.11753362 </v>
   <v>      -0.02231468       0.24859618       0.05153851 </v>
   <v>      -0.34682012       0.24521212      -1.81224798 </v>
   <v>      -0.03140894       0.04252485       0.02994031 </v>
   <v>      -0.00678604      -0.05091372      -0.01882481 </v>
   <v>       0.00491657      -0.02634957       0.00956130 </v>
   <v>       0.02564997      -0.02046266       0.00463359 </v>
   <v>       0.01591994      -0.00238239      -0.00151774 </v>
   <v>      -0.00486849      -0.04885871       0.00610188 </v>
   <v>      -0.20149594      -0.02872123      -0.02992528 </v>
   <v>       0.12458033      -0.07455925       0.05427466 </v>
   <v>      -0.12257709       0.03433513      -0.00385041 </v>
   <v>       0.14513148      -0.09800324       0.07350904 </v>
   <v>       0.08288525      -0.06474418       0.05808832 </v>
   <v>       0.00171389       0.07624273       0.01207209 </v>
   <v>      -0.02781666       0.00372420       0.00244134 </v>
   <v>       0.77325916      -0.04850633       1.58500069 </v>
  </varray>
  <varray name="stress" >
   <v>      -1.07242055     -16.22420282       0.52113036 </v>
   <v>     -16.22420289     -20.12245466      -0.02619456 </v>
   <v>       0.52113070      -0.02619433       1.00467543 </v>
  </varray>
  <energy>
   <i name="e_fr_energy">   -437.05745779 </i>
   <i name="e_wo_entrp">   -437.05426835 </i>
   <i name="e_0_energy">     -0.00637888 </i>
  </energy>
  <time name="totalsc"> 1700.79 1701.28</time>
  <eigenvalues>
   <array>
    <dimension dim="1">band</dimension>
    <dimension dim="2">kpoint</dimension>
    <dimension dim="3">spin</dimension>
    <field>eigene</field>
    <field>occ</field>
    <set>
     <set comment="spin 1">
      <set comment="kpoint 1">
       <r>  -51.3002    1.0000 </r>
       <r>  -22.3250    1.0000 </r>
       <r>  -21.6350    1.0000 </r>
       <r>  -21.4685    1.0000 </r>
       <r>  -21.3797    1.0000 </r>
       <r>  -21.2865    1.0000 </r>
       <r>  -21.1295    1.0000 </r>
       <r>  -20.8483    1.0000 </r>
       <r>  -19.6614    1.0000 </r>
       <r>  -19.5132    1.0000 </r>
       <r>  -19.4822    1.0000 </r>
       <r>  -19.4112    1.0000 </r>
       <r>  -19.3793    1.0000 </r>
       <r>  -19.1323    1.0000 </r>
       <r>  -18.7914    1.0000 </r>
       <r>  -18.6524    1.0000 </r>
       <r>  -18.5479    1.0000 </r>
       <r>  -18.4772    1.0000 </r>
       <r>  -18.2864    1.0000 </r>
       <r>  -17.6940    1.0000 </r>
       <r>  -16.5149    1.0000 </r>
       <r>  -16.4758    1.0000 </r>
       <r>  -16.4239    1.0000 </r>
       <r>  -16.1924    1.0000 </r>
       <r>  -16.0720    1.0000 </r>
       <r>  -15.9419    1.0000 </r>
       <r>  -15.5237    1.0000 </r>
       <r>  -15.4784    1.0000 </r>
       <r>  -15.2882    1.0000 </r>
       <r>  -15.1196    1.0000 </r>
       <r>  -15.0342    1.0000 </r>
       <r>  -14.5775    1.0000 </r>
       <r>  -14.1484    1.0000 </r>
       <r>  -14.0878    1.0000 </r>
       <r>  -13.9633    1.0000 </r>
       <r>  -13.7019    1.0000 </r>
       <r>  -13.5063    1.0000 </r>
       <r>  -12.7092    1.0000 </r>
       <r>  -11.7870    1.0000 </r>
       <r>  -11.6958    1.0000 </r>
       <r>  -11.6800    1.0000 </r>
       <r>  -11.6303    1.0000 </r>
       <r>  -11.5931    1.0000 </r>
       <r>  -11.5162    1.0000 </r>
       <r>  -11.4738    1.0000 </r>
       <r>  -11.3522    1.0000 </r>
       <r>  -11.1769    1.0000 </r>
       <r>  -11.1277    1.0000 </r>
       <r>  -10.7129    1.0000 </r>
       <r>  -10.5633    1.0000 </r>
       <r>  -10.4419    1.0000 </r>
       <r>  -10.2011    1.0000 </r>
       <r>  -10.0737    1.0000 </r>
       <r>  -10.0713    1.0000 </r>
       <r>  -10.0312    1.0000 </r>
       <r>   -9.9045    1.0000 </r>
       <r>   -9.5605    1.0000 </r>
       <r>   -9.4206    1.0000 </r>
       <r>   -9.4133    1.0000 </r>
       <r>   -9.3372    1.0000 </r>
       <r>   -9.2667    1.0000 </r>
       <r>   -9.1828    1.0000 </r>
       <r>   -9.0290    1.0000 </r>
       <r>   -8.9970    1.0000 </r>
       <r>   -8.9387    1.0000 </r>
       <r>   -8.8601    1.0000 </r>
       <r>   -8.8566    1.0000 </r>
       <r>   -8.7456    1.0000 </r>
       <r>   -8.7033    1.0000 </r>
       <r>   -8.6624    1.0000 </r>
       <r>   -8.6079    1.0000 </r>
       <r>   -8.2632    1.0000 </r>
       <r>   -7.9414    1.0000 </r>
       <r>   -7.7685    1.0000 </r>
       <r>   -7.4719    1.0000 </r>
       <r>   -7.3397    1.0000 </r>
       <r>   -7.3092    1.0000 </r>
       <r>   -7.2586    1.0000 </r>
       <r>   -7.2307    1.0000 </r>
       <r>   -7.2110    1.0000 </r>
       <r>   -7.1560    1.0000 </r>
       <r>   -7.1026    1.0000 </r>
       <r>   -7.0991    1.0000 </r>
       <r>   -6.9013    1.0000 </r>
       <r>   -6.4813    1.0000 </r>
       <r>   -6.4292    1.0000 </r>
       <r>   -6.3568    1.0000 </r>
       <r>   -6.3013    1.0000 </r>
       <r>   -6.2076    1.0000 </r>
       <r>   -6.0616    1.0000 </r>
       <r>   -5.9838    1.0000 </r>
       <r>   -5.5484    1.0000 </r>
       <r>   -4.4452    1.0000 </r>
       <r>   -4.3519    1.0000 </r>
       <r>   -4.2601    1.0000 </r>
       <r>   -4.1786    1.0000 </r>
       <r>   -3.9213    1.0000 </r>
       <r>   -3.2076    0.9998 </r>
       <r>   -1.8813    0.0000 </r>
       <r>   -1.7020    0.0000 </r>
       <r>   -1.5050    0.0000 </r>
       <r>   -1.3765    0.0000 </r>
       <r>   -1.2321    0.0000 </r>
       <r>   -0.9180    0.0000 </r>
       <r>   -0.7285    0.0000 </r>
       <r>    0.0164    0.0000 </r>
       <r>    0.0923    0.0000 </r>
       <r>    0.1665    0.0000 </r>
       <r>    0.2681    0.0000 </r>
       <r>    0.4795    0.0000 </r>
       <r>    0.5284    0.0000 </r>
       <r>    0.6469    0.0000 </r>
       <r>    0.6635    0.0000 </r>
       <r>    0.8131    0.0000 </r>
       <r>    0.8586    0.0000 </r>
       <r>    1.0084    0.0000 </r>
       <r>    1.0446    0.0000 </r>
       <r>    1.1977    0.0000 </r>
       <r>    1.3422    0.0000 </r>
       <r>    1.3937    0.0000 </r>
       <r>    1.3997    0.0000 </r>
       <r>    1.4632    0.0000 </r>
       <r>    1.5294    0.0000 </r>
       <r>    1.8032    0.0000 </r>
       <r>    1.9107    0.0000 </r>
       <r>    2.0285    0.0000 </r>
       <r>    2.0870    0.0000 </r>
       <r>    2.0954    0.0000 </r>
      </set>
      <set comment="kpoint 2">
       <r>  -51.3002    1.0000 </r>
       <r>  -22.2341    1.0000 </r>
       <r>  -21.9486    1.0000 </r>
       <r>  -21.5587    1.0000 </r>
       <r>  -21.3853    1.0000 </r>
       <r>  -21.0213    1.0000 </r>
       <r>  -20.7826    1.0000 </r>
       <r>  -20.5236    1.0000 </r>
       <r>  -20.3550    1.0000 </r>
       <r>  -20.0970    1.0000 </r>
       <r>  -19.6496    1.0000 </r>
       <r>  -19.3464    1.0000 </r>
       <r>  -19.2423    1.0000 </r>
       <r>  -19.0273    1.0000 </r>
       <r>  -18.7479    1.0000 </r>
       <r>  -18.5543    1.0000 </r>
       <r>  -18.3182    1.0000 </r>
       <r>  -17.8593    1.0000 </r>
       <r>  -17.6952    1.0000 </r>
       <r>  -17.4552    1.0000 </r>
       <r>  -17.4157    1.0000 </r>
       <r>  -17.1422    1.0000 </r>
       <r>  -16.9308    1.0000 </r>
       <r>  -16.4820    1.0000 </r>
       <r>  -16.0962    1.0000 </r>
       <r>  -15.7801    1.0000 </r>
       <r>  -15.3846    1.0000 </r>
       <r>  -15.2381    1.0000 </r>
       <r>  -15.1618    1.0000 </r>
       <r>  -14.8808    1.0000 </r>
       <r>  -14.8063    1.0000 </r>
       <r>  -14.4933    1.0000 </r>
       <r>  -14.3277    1.0000 </r>
       <r>  -14.0484    1.0000 </r>
       <r>  -13.5901    1.0000 </r>
       <r>  -13.0396    1.0000 </r>
       <r>  -12.9761    1.0000 </r>
       <r>  -12.7677    1.0000 </r>
       <r>  -12.6703    1.0000 </r>
       <r>  -12.6576    1.0000 </r>
       <r>  -12.3639    1.0000 </r>
       <r>  -12.0409    1.0000 </r>
       <r>  -11.8648    1.0000 </r>
       <r>  -11.3997    1.0000 </r>
       <r>  -11.2674    1.0000 </r>
       <r>  -11.0971    1.0000 </r>
       <r>  -10.8483    1.0000 </r>
       <r>  -10.7404    1.0000 </r>
       <r>  -10.5292    1.0000 </r>
       <r>  -10.4224    1.0000 </r>
       <r>  -10.3316    1.0000 </r>
       <r>  -10.3026    1.0000 </r>
       <r>  -10.1439    1.0000 </r>
       <r>  -10.0000    1.0000 </r>
       <r>   -9.9678    1.0000 </r>
       <r>   -9.7786    1.0000 </r>
       <r>   -9.5766    1.0000 </r>
       <r>   -9.5518    1.0000 </r>
       <r>   -9.4369    1.0000 </r>
       <r>   -9.4099    1.0000 </r>
       <r>   -9.2632    1.0000 </r>
       <r>   -9.1862    1.0000 </r>
       <r>   -9.1171    1.0000 </r>
       <r>   -8.9251    1.0000 </r>
       <r>   -8.8916    1.0000 </r>
       <r>   -8.8595    1.0000 </r>
       <r>   -8.7213    1.0000 </r>
       <r>   -8.6884    1.0000 </r>
       <r>   -8.4534    1.0000 </r>
       <r>   -8.4033    1.0000 </r>
       <r>   -8.2430    1.0000 </r>
       <r>   -8.1684    1.0000 </r>
       <r>   -8.0209    1.0000 </r>
       <r>   -7.9946    1.0000 </r>
       <r>   -7.9454    1.0000 </r>
       <r>   -7.8339    1.0000 </r>
       <r>   -7.6591    1.0000 </r>
       <r>   -7.4061    1.0000 </r>
       <r>   -7.3576    1.0000 </r>
       <r>   -7.2114    1.0000 </r>
       <r>   -7.1131    1.0000 </r>
       <r>   -6.9834    1.0000 </r>
       <r>   -6.8320    1.0000 </r>
       <r>   -6.7610    1.0000 </r>
       <r>   -6.5893    1.0000 </r>
       <r>   -6.5572    1.0000 </r>
       <r>   -6.2248    1.0000 </r>
       <r>   -6.1456    1.0000 </r>
       <r>   -6.0186    1.0000 </r>
       <r>   -5.6290    1.0000 </r>
       <r>   -5.4767    1.0000 </r>
       <r>   -5.3426    1.0000 </r>
       <r>   -5.0578    1.0000 </r>
       <r>   -4.9199    1.0000 </r>
       <r>   -4.7499    1.0000 </r>
       <r>   -4.1610    1.0000 </r>
       <r>   -3.7343    1.0000 </r>
       <r>   -3.1165    0.8401 </r>
       <r>   -1.8290    0.0000 </r>
       <r>   -1.7663    0.0000 </r>
       <r>   -1.0859    0.0000 </r>
       <r>   -1.0741    0.0000 </r>
       <r>   -0.9843    0.0000 </r>
       <r>   -0.9474    0.0000 </r>
       <r>   -0.7198    0.0000 </r>
       <r>   -0.4645    0.0000 </r>
       <r>   -0.3750    0.0000 </r>
       <r>   -0.0196    0.0000 </r>
       <r>    0.1490    0.0000 </r>
       <r>    0.3820    0.0000 </r>
       <r>    0.6005    0.0000 </r>
       <r>    0.6681    0.0000 </r>
       <r>    0.7884    0.0000 </r>
       <r>    0.8512    0.0000 </r>
       <r>    0.9580    0.0000 </r>
       <r>    0.9759    0.0000 </r>
       <r>    1.0702    0.0000 </r>
       <r>    1.1239    0.0000 </r>
       <r>    1.2281    0.0000 </r>
       <r>    1.3494    0.0000 </r>
       <r>    1.3894    0.0000 </r>
       <r>    1.5099    0.0000 </r>
       <r>    1.5547    0.0000 </r>
       <r>    1.6742    0.0000 </r>
       <r>    1.6892    0.0000 </r>
       <r>    1.8006    0.0000 </r>
       <r>    1.8303    0.0000 </r>
       <r>    1.8373    0.0000 </r>
      </set>
      <set comment="kpoint 3">
       <r>  -51.3002    1.0000 </r>
       <r>  -22.2315    1.0000 </r>
       <r>  -21.9535    1.0000 </r>
       <r>  -21.5753    1.0000 </r>
       <r>  -21.3543    1.0000 </r>
       <r>  -21.0277    1.0000 </r>
       <r>  -20.7879    1.0000 </r>
       <r>  -20.5147    1.0000 </r>
       <r>  -20.3592    1.0000 </r>
       <r>  -20.1148    1.0000 </r>
       <r>  -19.6505    1.0000 </r>
       <r>  -19.3440    1.0000 </r>
       <r>  -19.2211    1.0000 </r>
       <r>  -19.0398    1.0000 </r>
       <r>  -18.7228    1.0000 </r>
       <r>  -18.5634    1.0000 </r>
       <r>  -18.3286    1.0000 </r>
       <r>  -17.8563    1.0000 </r>
       <r>  -17.6890    1.0000 </r>
       <r>  -17.4536    1.0000 </r>
       <r>  -17.4275    1.0000 </r>
       <r>  -17.1487    1.0000 </r>
       <r>  -16.9368    1.0000 </r>
       <r>  -16.4967    1.0000 </r>
       <r>  -16.0801    1.0000 </r>
       <r>  -15.7695    1.0000 </r>
       <r>  -15.3823    1.0000 </r>
       <r>  -15.2403    1.0000 </r>
       <r>  -15.1440    1.0000 </r>
       <r>  -14.8788    1.0000 </r>
       <r>  -14.8063    1.0000 </r>
       <r>  -14.5045    1.0000 </r>
       <r>  -14.3409    1.0000 </r>
       <r>  -14.0430    1.0000 </r>
       <r>  -13.5932    1.0000 </r>
       <r>  -13.0422    1.0000 </r>
       <r>  -12.9771    1.0000 </r>
       <r>  -12.7657    1.0000 </r>
       <r>  -12.6785    1.0000 </r>
       <r>  -12.6498    1.0000 </r>
       <r>  -12.3680    1.0000 </r>
       <r>  -12.0432    1.0000 </r>
       <r>  -11.8616    1.0000 </r>
       <r>  -11.3989    1.0000 </r>
       <r>  -11.2676    1.0000 </r>
       <r>  -11.0932    1.0000 </r>
       <r>  -10.8525    1.0000 </r>
       <r>  -10.7287    1.0000 </r>
       <r>  -10.5369    1.0000 </r>
       <r>  -10.4164    1.0000 </r>
       <r>  -10.3303    1.0000 </r>
       <r>  -10.3103    1.0000 </r>
       <r>  -10.1403    1.0000 </r>
       <r>   -9.9997    1.0000 </r>
       <r>   -9.9776    1.0000 </r>
       <r>   -9.7709    1.0000 </r>
       <r>   -9.6022    1.0000 </r>
       <r>   -9.5410    1.0000 </r>
       <r>   -9.4271    1.0000 </r>
       <r>   -9.3699    1.0000 </r>
       <r>   -9.2682    1.0000 </r>
       <r>   -9.1859    1.0000 </r>
       <r>   -9.1269    1.0000 </r>
       <r>   -8.9391    1.0000 </r>
       <r>   -8.9083    1.0000 </r>
       <r>   -8.8498    1.0000 </r>
       <r>   -8.7151    1.0000 </r>
       <r>   -8.6838    1.0000 </r>
       <r>   -8.4665    1.0000 </r>
       <r>   -8.3835    1.0000 </r>
       <r>   -8.2280    1.0000 </r>
       <r>   -8.1940    1.0000 </r>
       <r>   -8.0258    1.0000 </r>
       <r>   -7.9980    1.0000 </r>
       <r>   -7.9615    1.0000 </r>
       <r>   -7.8329    1.0000 </r>
       <r>   -7.6520    1.0000 </r>
       <r>   -7.4168    1.0000 </r>
       <r>   -7.3723    1.0000 </r>
       <r>   -7.2102    1.0000 </r>
       <r>   -7.0962    1.0000 </r>
       <r>   -6.9567    1.0000 </r>
       <r>   -6.8305    1.0000 </r>
       <r>   -6.7696    1.0000 </r>
       <r>   -6.5633    1.0000 </r>
       <r>   -6.5589    1.0000 </r>
       <r>   -6.2198    1.0000 </r>
       <r>   -6.1706    1.0000 </r>
       <r>   -6.0226    1.0000 </r>
       <r>   -5.6121    1.0000 </r>
       <r>   -5.4916    1.0000 </r>
       <r>   -5.3351    1.0000 </r>
       <r>   -5.0794    1.0000 </r>
       <r>   -4.9233    1.0000 </r>
       <r>   -4.7620    1.0000 </r>
       <r>   -4.1543    1.0000 </r>
       <r>   -3.6986    1.0000 </r>
       <r>   -3.1287    0.9100 </r>
       <r>   -1.8476    0.0000 </r>
       <r>   -1.7401    0.0000 </r>
       <r>   -1.1351    0.0000 </r>
       <r>   -1.0873    0.0000 </r>
       <r>   -0.9946    0.0000 </r>
       <r>   -0.8912    0.0000 </r>
       <r>   -0.7356    0.0000 </r>
       <r>   -0.4720    0.0000 </r>
       <r>   -0.3469    0.0000 </r>
       <r>   -0.0253    0.0000 </r>
       <r>    0.1760    0.0000 </r>
       <r>    0.3538    0.0000 </r>
       <r>    0.5775    0.0000 </r>
       <r>    0.6816    0.0000 </r>
       <r>    0.7815    0.0000 </r>
       <r>    0.8885    0.0000 </r>
       <r>    0.9571    0.0000 </r>
       <r>    0.9718    0.0000 </r>
       <r>    1.0848    0.0000 </r>
       <r>    1.1278    0.0000 </r>
       <r>    1.2794    0.0000 </r>
       <r>    1.3317    0.0000 </r>
       <r>    1.3861    0.0000 </r>
       <r>    1.5144    0.0000 </r>
       <r>    1.5502    0.0000 </r>
       <r>    1.6585    0.0000 </r>
       <r>    1.6753    0.0000 </r>
       <r>    1.7931    0.0000 </r>
       <r>    1.8284    0.0000 </r>
       <r>    1.8379    0.0000 </r>
      </set>
      <set comment="kpoint 4">
       <r>  -51.3002    1.0000 </r>
       <r>  -22.1703    1.0000 </r>
       <r>  -22.0031    1.0000 </r>
       <r>  -21.7525    1.0000 </r>
       <r>  -21.1266    1.0000 </r>
       <r>  -21.0750    1.0000 </r>
       <r>  -20.7599    1.0000 </r>
       <r>  -20.3059    1.0000 </r>
       <r>  -20.1579    1.0000 </r>
       <r>  -20.0818    1.0000 </r>
       <r>  -20.0314    1.0000 </r>
       <r>  -19.9071    1.0000 </r>
       <r>  -19.4743    1.0000 </r>
       <r>  -18.4896    1.0000 </r>
       <r>  -18.3699    1.0000 </r>
       <r>  -18.3125    1.0000 </r>
       <r>  -18.2438    1.0000 </r>
       <r>  -17.9783    1.0000 </r>
       <r>  -17.7965    1.0000 </r>
       <r>  -17.5932    1.0000 </r>
       <r>  -17.3505    1.0000 </r>
       <r>  -17.2099    1.0000 </r>
       <r>  -16.9350    1.0000 </r>
       <r>  -16.5843    1.0000 </r>
       <r>  -16.2788    1.0000 </r>
       <r>  -15.8711    1.0000 </r>
       <r>  -15.8090    1.0000 </r>
       <r>  -15.5703    1.0000 </r>
       <r>  -14.9849    1.0000 </r>
       <r>  -14.7890    1.0000 </r>
       <r>  -14.0234    1.0000 </r>
       <r>  -13.9949    1.0000 </r>
       <r>  -13.9106    1.0000 </r>
       <r>  -13.7165    1.0000 </r>
       <r>  -13.6856    1.0000 </r>
       <r>  -13.6233    1.0000 </r>
       <r>  -13.5290    1.0000 </r>
       <r>  -13.0780    1.0000 </r>
       <r>  -12.9015    1.0000 </r>
       <r>  -12.2528    1.0000 </r>
       <r>  -12.1649    1.0000 </r>
       <r>  -12.0262    1.0000 </r>
       <r>  -11.8250    1.0000 </r>
       <r>  -11.5666    1.0000 </r>
       <r>  -11.5246    1.0000 </r>
       <r>  -11.2128    1.0000 </r>
       <r>  -11.1712    1.0000 </r>
       <r>  -10.6136    1.0000 </r>
       <r>  -10.5582    1.0000 </r>
       <r>  -10.3065    1.0000 </r>
       <r>  -10.2222    1.0000 </r>
       <r>  -10.0996    1.0000 </r>
       <r>  -10.0688    1.0000 </r>
       <r>  -10.0599    1.0000 </r>
       <r>   -9.9389    1.0000 </r>
       <r>   -9.8612    1.0000 </r>
       <r>   -9.8350    1.0000 </r>
       <r>   -9.6500    1.0000 </r>
       <r>   -9.2850    1.0000 </r>
       <r>   -9.1834    1.0000 </r>
       <r>   -9.1119    1.0000 </r>
       <r>   -9.0899    1.0000 </r>
       <r>   -9.0326    1.0000 </r>
       <r>   -8.9769    1.0000 </r>
       <r>   -8.7398    1.0000 </r>
       <r>   -8.6888    1.0000 </r>
       <r>   -8.6729    1.0000 </r>
       <r>   -8.5549    1.0000 </r>
       <r>   -8.5099    1.0000 </r>
       <r>   -8.4117    1.0000 </r>
       <r>   -8.2636    1.0000 </r>
       <r>   -8.1570    1.0000 </r>
       <r>   -8.0497    1.0000 </r>
       <r>   -8.0220    1.0000 </r>
       <r>   -7.9574    1.0000 </r>
       <r>   -7.8888    1.0000 </r>
       <r>   -7.8310    1.0000 </r>
       <r>   -7.7940    1.0000 </r>
       <r>   -7.4565    1.0000 </r>
       <r>   -7.3828    1.0000 </r>
       <r>   -7.2644    1.0000 </r>
       <r>   -6.9111    1.0000 </r>
       <r>   -6.8043    1.0000 </r>
       <r>   -6.7640    1.0000 </r>
       <r>   -6.4777    1.0000 </r>
       <r>   -6.1587    1.0000 </r>
       <r>   -6.0806    1.0000 </r>
       <r>   -6.0038    1.0000 </r>
       <r>   -5.9114    1.0000 </r>
       <r>   -5.6502    1.0000 </r>
       <r>   -5.5720    1.0000 </r>
       <r>   -5.2070    1.0000 </r>
       <r>   -5.1593    1.0000 </r>
       <r>   -5.0412    1.0000 </r>
       <r>   -4.8459    1.0000 </r>
       <r>   -4.6656    1.0000 </r>
       <r>   -3.6614    1.0000 </r>
       <r>   -2.6126    0.0000 </r>
       <r>   -2.5063    0.0000 </r>
       <r>   -1.3128    0.0000 </r>
       <r>   -1.2222    0.0000 </r>
       <r>   -1.1968    0.0000 </r>
       <r>   -0.9649    0.0000 </r>
       <r>   -0.6353    0.0000 </r>
       <r>   -0.4940    0.0000 </r>
       <r>   -0.4440    0.0000 </r>
       <r>   -0.1210    0.0000 </r>
       <r>    0.0004    0.0000 </r>
       <r>    0.0191    0.0000 </r>
       <r>    0.2023    0.0000 </r>
       <r>    0.3380    0.0000 </r>
       <r>    0.4066    0.0000 </r>
       <r>    0.4288    0.0000 </r>
       <r>    0.7700    0.0000 </r>
       <r>    0.8660    0.0000 </r>
       <r>    1.1423    0.0000 </r>
       <r>    1.1963    0.0000 </r>
       <r>    1.2366    0.0000 </r>
       <r>    1.2465    0.0000 </r>
       <r>    1.2795    0.0000 </r>
       <r>    1.3339    0.0000 </r>
       <r>    1.4609    0.0000 </r>
       <r>    1.4849    0.0000 </r>
       <r>    1.5159    0.0000 </r>
       <r>    1.7747    0.0000 </r>
       <r>    1.7779    0.0000 </r>
       <r>    1.7922    0.0000 </r>
       <r>    1.9095    0.0000 </r>
      </set>
      <set comment="kpoint 5">
       <r>  -51.3002    1.0000 </r>
       <r>  -22.2685    1.0000 </r>
       <r>  -21.7648    1.0000 </r>
       <r>  -21.6438    1.0000 </r>
       <r>  -21.5499    1.0000 </r>
       <r>  -20.9059    1.0000 </r>
       <r>  -20.8440    1.0000 </r>
       <r>  -20.5412    1.0000 </r>
       <r>  -20.2131    1.0000 </r>
       <r>  -20.0371    1.0000 </r>
       <r>  -19.5931    1.0000 </r>
       <r>  -19.4307    1.0000 </r>
       <r>  -19.4096    1.0000 </r>
       <r>  -19.0086    1.0000 </r>
       <r>  -18.9614    1.0000 </r>
       <r>  -18.4210    1.0000 </r>
       <r>  -18.2754    1.0000 </r>
       <r>  -17.8741    1.0000 </r>
       <r>  -17.6719    1.0000 </r>
       <r>  -17.2582    1.0000 </r>
       <r>  -17.2447    1.0000 </r>
       <r>  -17.0700    1.0000 </r>
       <r>  -16.9937    1.0000 </r>
       <r>  -16.6672    1.0000 </r>
       <r>  -16.3510    1.0000 </r>
       <r>  -15.8207    1.0000 </r>
       <r>  -15.4514    1.0000 </r>
       <r>  -15.2275    1.0000 </r>
       <r>  -15.1931    1.0000 </r>
       <r>  -14.7333    1.0000 </r>
       <r>  -14.6308    1.0000 </r>
       <r>  -14.4255    1.0000 </r>
       <r>  -14.3322    1.0000 </r>
       <r>  -14.1812    1.0000 </r>
       <r>  -13.5686    1.0000 </r>
       <r>  -13.0520    1.0000 </r>
       <r>  -12.9394    1.0000 </r>
       <r>  -12.8721    1.0000 </r>
       <r>  -12.6156    1.0000 </r>
       <r>  -12.4411    1.0000 </r>
       <r>  -12.3856    1.0000 </r>
       <r>  -11.9286    1.0000 </r>
       <r>  -11.8188    1.0000 </r>
       <r>  -11.6250    1.0000 </r>
       <r>  -11.4322    1.0000 </r>
       <r>  -11.1823    1.0000 </r>
       <r>  -10.9755    1.0000 </r>
       <r>  -10.8202    1.0000 </r>
       <r>  -10.5559    1.0000 </r>
       <r>  -10.3575    1.0000 </r>
       <r>  -10.3457    1.0000 </r>
       <r>  -10.2454    1.0000 </r>
       <r>  -10.1556    1.0000 </r>
       <r>   -9.8959    1.0000 </r>
       <r>   -9.8538    1.0000 </r>
       <r>   -9.7116    1.0000 </r>
       <r>   -9.6390    1.0000 </r>
       <r>   -9.6003    1.0000 </r>
       <r>   -9.5496    1.0000 </r>
       <r>   -9.3280    1.0000 </r>
       <r>   -9.2091    1.0000 </r>
       <r>   -9.0513    1.0000 </r>
       <r>   -8.9890    1.0000 </r>
       <r>   -8.9656    1.0000 </r>
       <r>   -8.9166    1.0000 </r>
       <r>   -8.8183    1.0000 </r>
       <r>   -8.7672    1.0000 </r>
       <r>   -8.7280    1.0000 </r>
       <r>   -8.5559    1.0000 </r>
       <r>   -8.3968    1.0000 </r>
       <r>   -8.1833    1.0000 </r>
       <r>   -8.0948    1.0000 </r>
       <r>   -8.0566    1.0000 </r>
       <r>   -8.0103    1.0000 </r>
       <r>   -7.9124    1.0000 </r>
       <r>   -7.8044    1.0000 </r>
       <r>   -7.5851    1.0000 </r>
       <r>   -7.3531    1.0000 </r>
       <r>   -7.2249    1.0000 </r>
       <r>   -7.1638    1.0000 </r>
       <r>   -7.1435    1.0000 </r>
       <r>   -7.1375    1.0000 </r>
       <r>   -7.1141    1.0000 </r>
       <r>   -6.7975    1.0000 </r>
       <r>   -6.6444    1.0000 </r>
       <r>   -6.4384    1.0000 </r>
       <r>   -6.3905    1.0000 </r>
       <r>   -6.0898    1.0000 </r>
       <r>   -5.9829    1.0000 </r>
       <r>   -5.7104    1.0000 </r>
       <r>   -5.4779    1.0000 </r>
       <r>   -5.1061    1.0000 </r>
       <r>   -4.9892    1.0000 </r>
       <r>   -4.8807    1.0000 </r>
       <r>   -4.7613    1.0000 </r>
       <r>   -4.3557    1.0000 </r>
       <r>   -3.9504    1.0000 </r>
       <r>   -2.8988    0.0000 </r>
       <r>   -1.7132    0.0000 </r>
       <r>   -1.6032    0.0000 </r>
       <r>   -1.2219    0.0000 </r>
       <r>   -1.1638    0.0000 </r>
       <r>   -1.0938    0.0000 </r>
       <r>   -0.9869    0.0000 </r>
       <r>   -0.8734    0.0000 </r>
       <r>   -0.3899    0.0000 </r>
       <r>   -0.3573    0.0000 </r>
       <r>    0.1389    0.0000 </r>
       <r>    0.1767    0.0000 </r>
       <r>    0.3461    0.0000 </r>
       <r>    0.4540    0.0000 </r>
       <r>    0.7299    0.0000 </r>
       <r>    0.8070    0.0000 </r>
       <r>    0.9459    0.0000 </r>
       <r>    0.9854    0.0000 </r>
       <r>    1.1105    0.0000 </r>
       <r>    1.1919    0.0000 </r>
       <r>    1.2373    0.0000 </r>
       <r>    1.2834    0.0000 </r>
       <r>    1.3853    0.0000 </r>
       <r>    1.4856    0.0000 </r>
       <r>    1.5514    0.0000 </r>
       <r>    1.5769    0.0000 </r>
       <r>    1.6720    0.0000 </r>
       <r>    1.7035    0.0000 </r>
       <r>    1.7802    0.0000 </r>
       <r>    1.8271    0.0000 </r>
       <r>    1.8362    0.0000 </r>
      </set>
     </set>
     <set comment="spin 2">
      <set comment="kpoint 1">
       <r>  -51.3002    1.0000 </r>
       <r>  -22.3250    1.0000 </r>
       <r>  -21.6350    1.0000 </r>
       <r>  -21.4685    1.0000 </r>
       <r>  -21.3797    1.0000 </r>
       <r>  -21.2865    1.0000 </r>
       <r>  -21.1295    1.0000 </r>
       <r>  -20.8483    1.0000 </r>
       <r>  -19.6614    1.0000 </r>
       <r>  -19.5132    1.0000 </r>
       <r>  -19.4822    1.0000 </r>
       <r>  -19.4112    1.0000 </r>
       <r>  -19.3793    1.0000 </r>
       <r>  -19.1323    1.0000 </r>
       <r>  -18.7914    1.0000 </r>
       <r>  -18.6524    1.0000 </r>
       <r>  -18.5479    1.0000 </r>
       <r>  -18.4772    1.0000 </r>
       <r>  -18.2864    1.0000 </r>
       <r>  -17.6940    1.0000 </r>
       <r>  -16.5149    1.0000 </r>
       <r>  -16.4758    1.0000 </r>
       <r>  -16.4239    1.0000 </r>
       <r>  -16.1924    1.0000 </r>
       <r>  -16.0720    1.0000 </r>
       <r>  -15.9419    1.0000 </r>
       <r>  -15.5237    1.0000 </r>
       <r>  -15.4784    1.0000 </r>
       <r>  -15.2882    1.0000 </r>
       <r>  -15.1196    1.0000 </r>
       <r>  -15.0342    1.0000 </r>
       <r>  -14.5775    1.0000 </r>
       <r>  -14.1484    1.0000 </r>
       <r>  -14.0878    1.0000 </r>
       <r>  -13.9633    1.0000 </r>
       <r>  -13.7019    1.0000 </r>
       <r>  -13.5063    1.0000 </r>
       <r>  -12.7092    1.0000 </r>
       <r>  -11.7870    1.0000 </r>
       <r>  -11.6958    1.0000 </r>
       <r>  -11.6800    1.0000 </r>
       <r>  -11.6303    1.0000 </r>
       <r>  -11.5931    1.0000 </r>
       <r>  -11.5162    1.0000 </r>
       <r>  -11.4738    1.0000 </r>
       <r>  -11.3522    1.0000 </r>
       <r>  -11.1769    1.0000 </r>
       <r>  -11.1277    1.0000 </r>
       <r>  -10.7129    1.0000 </r>
       <r>  -10.5633    1.0000 </r>
       <r>  -10.4419    1.0000 </r>
       <r>  -10.2011    1.0000 </r>
       <r>  -10.0737    1.0000 </r>
       <r>  -10.0713    1.0000 </r>
       <r>  -10.0312    1.0000 </r>
       <r>   -9.9045    1.0000 </r>
       <r>   -9.5605    1.0000 </r>
       <r>   -9.4206    1.0000 </r>
       <r>   -9.4133    1.0000 </r>
       <r>   -9.3372    1.0000 </r>
       <r>   -9.2667    1.0000 </r>
       <r>   -9.1828    1.0000 </r>
       <r>   -9.0290    1.0000 </r>
       <r>   -8.9970    1.0000 </r>
       <r>   -8.9387    1.0000 </r>
       <r>   -8.8601    1.0000 </r>
       <r>   -8.8566    1.0000 </r>
       <r>   -8.7456    1.0000 </r>
       <r>   -8.7033    1.0000 </r>
       <r>   -8.6624    1.0000 </r>
       <r>   -8.6079    1.0000 </r>
       <r>   -8.2632    1.0000 </r>
       <r>   -7.9414    1.0000 </r>
       <r>   -7.7685    1.0000 </r>
       <r>   -7.4719    1.0000 </r>
       <r>   -7.3397    1.0000 </r>
       <r>   -7.3092    1.0000 </r>
       <r>   -7.2586    1.0000 </r>
       <r>   -7.2307    1.0000 </r>
       <r>   -7.2110    1.0000 </r>
       <r>   -7.1560    1.0000 </r>
       <r>   -7.1026    1.0000 </r>
       <r>   -7.0991    1.0000 </r>
       <r>   -6.9013    1.0000 </r>
       <r>   -6.4813    1.0000 </r>
       <r>   -6.4292    1.0000 </r>
       <r>   -6.3568    1.0000 </r>
       <r>   -6.3013    1.0000 </r>
       <r>   -6.2076    1.0000 </r>
       <r>   -6.0616    1.0000 </r>
       <r>   -5.9838    1.0000 </r>
       <r>   -5.5484    1.0000 </r>
       <r>   -4.4452    1.0000 </r>
       <r>   -4.3519    1.0000 </r>
       <r>   -4.2601    1.0000 </r>
       <r>   -4.1786    1.0000 </r>
       <r>   -3.9213    1.0000 </r>
       <r>   -3.2076    0.9998 </r>
       <r>   -1.8813    0.0000 </r>
       <r>   -1.7020    0.0000 </r>
       <r>   -1.5050    0.0000 </r>
       <r>   -1.3765    0.0000 </r>
       <r>   -1.2321    0.0000 </r>
       <r>   -0.9180    0.0000 </r>
       <r>   -0.7285    0.0000 </r>
       <r>    0.0165    0.0000 </r>
       <r>    0.0923    0.0000 </r>
       <r>    0.1665    0.0000 </r>
       <r>    0.2681    0.0000 </r>
       <r>    0.4800    0.0000 </r>
       <r>    0.5284    0.0000 </r>
       <r>    0.6470    0.0000 </r>
       <r>    0.6636    0.0000 </r>
       <r>    0.8242    0.0000 </r>
       <r>    0.8588    0.0000 </r>
       <r>    1.0182    0.0000 </r>
       <r>    1.0493    0.0000 </r>
       <r>    1.1978    0.0000 </r>
       <r>    1.3622    0.0000 </r>
       <r>    1.3941    0.0000 </r>
       <r>    1.4001    0.0000 </r>
       <r>    1.4637    0.0000 </r>
       <r>    1.5453    0.0000 </r>
       <r>    1.8032    0.0000 </r>
       <r>    1.9097    0.0000 </r>
       <r>    2.0314    0.0000 </r>
       <r>    2.0417    0.0000 </r>
       <r>    2.1155    0.0000 </r>
      </set>
      <set comment="kpoint 2">
       <r>  -51.3002    1.0000 </r>
       <r>  -22.2341    1.0000 </r>
       <r>  -21.9486    1.0000 </r>
       <r>  -21.5587    1.0000 </r>
       <r>  -21.3853    1.0000 </r>
       <r>  -21.0213    1.0000 </r>
       <r>  -20.7826    1.0000 </r>
       <r>  -20.5236    1.0000 </r>
       <r>  -20.3550    1.0000 </r>
       <r>  -20.0970    1.0000 </r>
       <r>  -19.6496    1.0000 </r>
       <r>  -19.3464    1.0000 </r>
       <r>  -19.2423    1.0000 </r>
       <r>  -19.0273    1.0000 </r>
       <r>  -18.7479    1.0000 </r>
       <r>  -18.5543    1.0000 </r>
       <r>  -18.3182    1.0000 </r>
       <r>  -17.8593    1.0000 </r>
       <r>  -17.6952    1.0000 </r>
       <r>  -17.4552    1.0000 </r>
       <r>  -17.4157    1.0000 </r>
       <r>  -17.1422    1.0000 </r>
       <r>  -16.9308    1.0000 </r>
       <r>  -16.4820    1.0000 </r>
       <r>  -16.0962    1.0000 </r>
       <r>  -15.7801    1.0000 </r>
       <r>  -15.3846    1.0000 </r>
       <r>  -15.2381    1.0000 </r>
       <r>  -15.1618    1.0000 </r>
       <r>  -14.8808    1.0000 </r>
       <r>  -14.8063    1.0000 </r>
       <r>  -14.4933    1.0000 </r>
       <r>  -14.3277    1.0000 </r>
       <r>  -14.0484    1.0000 </r>
       <r>  -13.5901    1.0000 </r>
       <r>  -13.0396    1.0000 </r>
       <r>  -12.9761    1.0000 </r>
       <r>  -12.7677    1.0000 </r>
       <r>  -12.6703    1.0000 </r>
       <r>  -12.6576    1.0000 </r>
       <r>  -12.3639    1.0000 </r>
       <r>  -12.0409    1.0000 </r>
       <r>  -11.8648    1.0000 </r>
       <r>  -11.3997    1.0000 </r>
       <r>  -11.2674    1.0000 </r>
       <r>  -11.0971    1.0000 </r>
       <r>  -10.8483    1.0000 </r>
       <r>  -10.7404    1.0000 </r>
       <r>  -10.5292    1.0000 </r>
       <r>  -10.4224    1.0000 </r>
       <r>  -10.3316    1.0000 </r>
       <r>  -10.3026    1.0000 </r>
       <r>  -10.1439    1.0000 </r>
       <r>  -10.0000    1.0000 </r>
       <r>   -9.9678    1.0000 </r>
       <r>   -9.7786    1.0000 </r>
       <r>   -9.5766    1.0000 </r>
       <r>   -9.5518    1.0000 </r>
       <r>   -9.4369    1.0000 </r>
       <r>   -9.4099    1.0000 </r>
       <r>   -9.2632    1.0000 </r>
       <r>   -9.1862    1.0000 </r>
       <r>   -9.1171    1.0000 </r>
       <r>   -8.9251    1.0000 </r>
       <r>   -8.8916    1.0000 </r>
       <r>   -8.8595    1.0000 </r>
       <r>   -8.7213    1.0000 </r>
       <r>   -8.6884    1.0000 </r>
       <r>   -8.4534    1.0000 </r>
       <r>   -8.4033    1.0000 </r>
       <r>   -8.2430    1.0000 </r>
       <r>   -8.1684    1.0000 </r>
       <r>   -8.0209    1.0000 </r>
       <r>   -7.9946    1.0000 </r>
       <r>   -7.9454    1.0000 </r>
       <r>   -7.8339    1.0000 </r>
       <r>   -7.6591    1.0000 </r>
       <r>   -7.4061    1.0000 </r>
       <r>   -7.3576    1.0000 </r>
       <r>   -7.2114    1.0000 </r>
       <r>   -7.1131    1.0000 </r>
       <r>   -6.9834    1.0000 </r>
       <r>   -6.8320    1.0000 </r>
       <r>   -6.7610    1.0000 </r>
       <r>   -6.5893    1.0000 </r>
       <r>   -6.5572    1.0000 </r>
       <r>   -6.2248    1.0000 </r>
       <r>   -6.1456    1.0000 </r>
       <r>   -6.0186    1.0000 </r>
       <r>   -5.6290    1.0000 </r>
       <r>   -5.4767    1.0000 </r>
       <r>   -5.3426    1.0000 </r>
       <r>   -5.0578    1.0000 </r>
       <r>   -4.9199    1.0000 </r>
       <r>   -4.7499    1.0000 </r>
       <r>   -4.1610    1.0000 </r>
       <r>   -3.7343    1.0000 </r>
       <r>   -3.1165    0.8401 </r>
       <r>   -1.8290    0.0000 </r>
       <r>   -1.7663    0.0000 </r>
       <r>   -1.0859    0.0000 </r>
       <r>   -1.0741    0.0000 </r>
       <r>   -0.9843    0.0000 </r>
       <r>   -0.9474    0.0000 </r>
       <r>   -0.7198    0.0000 </r>
       <r>   -0.4645    0.0000 </r>
       <r>   -0.3750    0.0000 </r>
       <r>   -0.0196    0.0000 </r>
       <r>    0.1490    0.0000 </r>
       <r>    0.3824    0.0000 </r>
       <r>    0.6005    0.0000 </r>
       <r>    0.6682    0.0000 </r>
       <r>    0.7887    0.0000 </r>
       <r>    0.8516    0.0000 </r>
       <r>    0.9666    0.0000 </r>
       <r>    0.9777    0.0000 </r>
       <r>    1.0708    0.0000 </r>
       <r>    1.1338    0.0000 </r>
       <r>    1.2312    0.0000 </r>
       <r>    1.3561    0.0000 </r>
       <r>    1.3983    0.0000 </r>
       <r>    1.5241    0.0000 </r>
       <r>    1.5690    0.0000 </r>
       <r>    1.6863    0.0000 </r>
       <r>    1.6931    0.0000 </r>
       <r>    1.8096    0.0000 </r>
       <r>    1.8415    0.0000 </r>
       <r>    1.8512    0.0000 </r>
      </set>
      <set comment="kpoint 3">
       <r>  -51.3002    1.0000 </r>
       <r>  -22.2315    1.0000 </r>
       <r>  -21.9535    1.0000 </r>
       <r>  -21.5753    1.0000 </r>
       <r>  -21.3543    1.0000 </r>
       <r>  -21.0277    1.0000 </r>
       <r>  -20.7879    1.0000 </r>
       <r>  -20.5147    1.0000 </r>
       <r>  -20.3592    1.0000 </r>
       <r>  -20.1148    1.0000 </r>
       <r>  -19.6505    1.0000 </r>
       <r>  -19.3440    1.0000 </r>
       <r>  -19.2211    1.0000 </r>
       <r>  -19.0398    1.0000 </r>
       <r>  -18.7228    1.0000 </r>
       <r>  -18.5634    1.0000 </r>
       <r>  -18.3286    1.0000 </r>
       <r>  -17.8563    1.0000 </r>
       <r>  -17.6890    1.0000 </r>
       <r>  -17.4536    1.0000 </r>
       <r>  -17.4275    1.0000 </r>
       <r>  -17.1487    1.0000 </r>
       <r>  -16.9368    1.0000 </r>
       <r>  -16.4967    1.0000 </r>
       <r>  -16.0801    1.0000 </r>
       <r>  -15.7695    1.0000 </r>
       <r>  -15.3823    1.0000 </r>
       <r>  -15.2403    1.0000 </r>
       <r>  -15.1440    1.0000 </r>
       <r>  -14.8788    1.0000 </r>
       <r>  -14.8063    1.0000 </r>
       <r>  -14.5045    1.0000 </r>
       <r>  -14.3409    1.0000 </r>
       <r>  -14.0430    1.0000 </r>
       <r>  -13.5932    1.0000 </r>
       <r>  -13.0422    1.0000 </r>
       <r>  -12.9771    1.0000 </r>
       <r>  -12.7657    1.0000 </r>
       <r>  -12.6785    1.0000 </r>
       <r>  -12.6498    1.0000 </r>
       <r>  -12.3680    1.0000 </r>
       <r>  -12.0432    1.0000 </r>
       <r>  -11.8616    1.0000 </r>
       <r>  -11.3989    1.0000 </r>
       <r>  -11.2676    1.0000 </r>
       <r>  -11.0932    1.0000 </r>
       <r>  -10.8525    1.0000 </r>
       <r>  -10.7287    1.0000 </r>
       <r>  -10.5369    1.0000 </r>
       <r>  -10.4164    1.0000 </r>
       <r>  -10.3303    1.0000 </r>
       <r>  -10.3103    1.0000 </r>
       <r>  -10.1403    1.0000 </r>
       <r>   -9.9997    1.0000 </r>
       <r>   -9.9776    1.0000 </r>
       <r>   -9.7709    1.0000 </r>
       <r>   -9.6022    1.0000 </r>
       <r>   -9.5410    1.0000 </r>
       <r>   -9.4271    1.0000 </r>
       <r>   -9.3699    1.0000 </r>
       <r>   -9.2682    1.0000 </r>
       <r>   -9.1859    1.0000 </r>
       <r>   -9.1269    1.0000 </r>
       <r>   -8.9391    1.0000 </r>
       <r>   -8.9083    1.0000 </r>
       <r>   -8.8498    1.0000 </r>
       <r>   -8.7151    1.0000 </r>
       <r>   -8.6838    1.0000 </r>
       <r>   -8.4665    1.0000 </r>
       <r>   -8.3835    1.0000 </r>
       <r>   -8.2280    1.0000 </r>
       <r>   -8.1940    1.0000 </r>
       <r>   -8.0258    1.0000 </r>
       <r>   -7.9980    1.0000 </r>
       <r>   -7.9615    1.0000 </r>
       <r>   -7.8329    1.0000 </r>
       <r>   -7.6520    1.0000 </r>
       <r>   -7.4168    1.0000 </r>
       <r>   -7.3723    1.0000 </r>
       <r>   -7.2102    1.0000 </r>
       <r>   -7.0962    1.0000 </r>
       <r>   -6.9567    1.0000 </r>
       <r>   -6.8305    1.0000 </r>
       <r>   -6.7696    1.0000 </r>
       <r>   -6.5633    1.0000 </r>
       <r>   -6.5589    1.0000 </r>
       <r>   -6.2198    1.0000 </r>
       <r>   -6.1706    1.0000 </r>
       <r>   -6.0226    1.0000 </r>
       <r>   -5.6121    1.0000 </r>
       <r>   -5.4916    1.0000 </r>
       <r>   -5.3351    1.0000 </r>
       <r>   -5.0794    1.0000 </r>
       <r>   -4.9233    1.0000 </r>
       <r>   -4.7620    1.0000 </r>
       <r>   -4.1543    1.0000 </r>
       <r>   -3.6986    1.0000 </r>
       <r>   -3.1287    0.9100 </r>
       <r>   -1.8476    0.0000 </r>
       <r>   -1.7401    0.0000 </r>
       <r>   -1.1351    0.0000 </r>
       <r>   -1.0873    0.0000 </r>
       <r>   -0.9946    0.0000 </r>
       <r>   -0.8912    0.0000 </r>
       <r>   -0.7356    0.0000 </r>
       <r>   -0.4720    0.0000 </r>
       <r>   -0.3469    0.0000 </r>
       <r>   -0.0253    0.0000 </r>
       <r>    0.1760    0.0000 </r>
       <r>    0.3542    0.0000 </r>
       <r>    0.5775    0.0000 </r>
       <r>    0.6817    0.0000 </r>
       <r>    0.7818    0.0000 </r>
       <r>    0.8891    0.0000 </r>
       <r>    0.9614    0.0000 </r>
       <r>    0.9779    0.0000 </r>
       <r>    1.0849    0.0000 </r>
       <r>    1.1390    0.0000 </r>
       <r>    1.2799    0.0000 </r>
       <r>    1.3401    0.0000 </r>
       <r>    1.3947    0.0000 </r>
       <r>    1.5283    0.0000 </r>
       <r>    1.5646    0.0000 </r>
       <r>    1.6600    0.0000 </r>
       <r>    1.6897    0.0000 </r>
       <r>    1.8026    0.0000 </r>
       <r>    1.8396    0.0000 </r>
       <r>    1.8491    0.0000 </r>
      </set>
      <set comment="kpoint 4">
       <r>  -51.3002    1.0000 </r>
       <r>  -22.1703    1.0000 </r>
       <r>  -22.0031    1.0000 </r>
       <r>  -21.7525    1.0000 </r>
       <r>  -21.1266    1.0000 </r>
       <r>  -21.0750    1.0000 </r>
       <r>  -20.7599    1.0000 </r>
       <r>  -20.3059    1.0000 </r>
       <r>  -20.1579    1.0000 </r>
       <r>  -20.0818    1.0000 </r>
       <r>  -20.0314    1.0000 </r>
       <r>  -19.9071    1.0000 </r>
       <r>  -19.4743    1.0000 </r>
       <r>  -18.4896    1.0000 </r>
       <r>  -18.3699    1.0000 </r>
       <r>  -18.3125    1.0000 </r>
       <r>  -18.2438    1.0000 </r>
       <r>  -17.9783    1.0000 </r>
       <r>  -17.7965    1.0000 </r>
       <r>  -17.5932    1.0000 </r>
       <r>  -17.3505    1.0000 </r>
       <r>  -17.2099    1.0000 </r>
       <r>  -16.9350    1.0000 </r>
       <r>  -16.5843    1.0000 </r>
       <r>  -16.2788    1.0000 </r>
       <r>  -15.8711    1.0000 </r>
       <r>  -15.8090    1.0000 </r>
       <r>  -15.5703    1.0000 </r>
       <r>  -14.9849    1.0000 </r>
       <r>  -14.7890    1.0000 </r>
       <r>  -14.0234    1.0000 </r>
       <r>  -13.9949    1.0000 </r>
       <r>  -13.9106    1.0000 </r>
       <r>  -13.7165    1.0000 </r>
       <r>  -13.6856    1.0000 </r>
       <r>  -13.6233    1.0000 </r>
       <r>  -13.5290    1.0000 </r>
       <r>  -13.0780    1.0000 </r>
       <r>  -12.9015    1.0000 </r>
       <r>  -12.2528    1.0000 </r>
       <r>  -12.1649    1.0000 </r>
       <r>  -12.0262    1.0000 </r>
       <r>  -11.8250    1.0000 </r>
       <r>  -11.5666    1.0000 </r>
       <r>  -11.5246    1.0000 </r>
       <r>  -11.2128    1.0000 </r>
       <r>  -11.1712    1.0000 </r>
       <r>  -10.6136    1.0000 </r>
       <r>  -10.5582    1.0000 </r>
       <r>  -10.3065    1.0000 </r>
       <r>  -10.2222    1.0000 </r>
       <r>  -10.0996    1.0000 </r>
       <r>  -10.0688    1.0000 </r>
       <r>  -10.0599    1.0000 </r>
       <r>   -9.9389    1.0000 </r>
       <r>   -9.8612    1.0000 </r>
       <r>   -9.8350    1.0000 </r>
       <r>   -9.6500    1.0000 </r>
       <r>   -9.2850    1.0000 </r>
       <r>   -9.1834    1.0000 </r>
       <r>   -9.1119    1.0000 </r>
       <r>   -9.0899    1.0000 </r>
       <r>   -9.0326    1.0000 </r>
       <r>   -8.9769    1.0000 </r>
       <r>   -8.7398    1.0000 </r>
       <r>   -8.6888    1.0000 </r>
       <r>   -8.6729    1.0000 </r>
       <r>   -8.5549    1.0000 </r>
       <r>   -8.5099    1.0000 </r>
       <r>   -8.4117    1.0000 </r>
       <r>   -8.2636    1.0000 </r>
       <r>   -8.1570    1.0000 </r>
       <r>   -8.0497    1.0000 </r>
       <r>   -8.0220    1.0000 </r>
       <r>   -7.9574    1.0000 </r>
       <r>   -7.8888    1.0000 </r>
       <r>   -7.8310    1.0000 </r>
       <r>   -7.7940    1.0000 </r>
       <r>   -7.4565    1.0000 </r>
       <r>   -7.3828    1.0000 </r>
       <r>   -7.2644    1.0000 </r>
       <r>   -6.9111    1.0000 </r>
       <r>   -6.8043    1.0000 </r>
       <r>   -6.7640    1.0000 </r>
       <r>   -6.4777    1.0000 </r>
       <r>   -6.1587    1.0000 </r>
       <r>   -6.0806    1.0000 </r>
       <r>   -6.0038    1.0000 </r>
       <r>   -5.9114    1.0000 </r>
       <r>   -5.6502    1.0000 </r>
       <r>   -5.5720    1.0000 </r>
       <r>   -5.2070    1.0000 </r>
       <r>   -5.1593    1.0000 </r>
       <r>   -5.0412    1.0000 </r>
       <r>   -4.8459    1.0000 </r>
       <r>   -4.6656    1.0000 </r>
       <r>   -3.6614    1.0000 </r>
       <r>   -2.6126    0.0000 </r>
       <r>   -2.5063    0.0000 </r>
       <r>   -1.3128    0.0000 </r>
       <r>   -1.2222    0.0000 </r>
       <r>   -1.1968    0.0000 </r>
       <r>   -0.9649    0.0000 </r>
       <r>   -0.6353    0.0000 </r>
       <r>   -0.4940    0.0000 </r>
       <r>   -0.4440    0.0000 </r>
       <r>   -0.1210    0.0000 </r>
       <r>    0.0004    0.0000 </r>
       <r>    0.0191    0.0000 </r>
       <r>    0.2023    0.0000 </r>
       <r>    0.3381    0.0000 </r>
       <r>    0.4068    0.0000 </r>
       <r>    0.4291    0.0000 </r>
       <r>    0.7701    0.0000 </r>
       <r>    0.8660    0.0000 </r>
       <r>    1.1434    0.0000 </r>
       <r>    1.1970    0.0000 </r>
       <r>    1.2488    0.0000 </r>
       <r>    1.2533    0.0000 </r>
       <r>    1.2909    0.0000 </r>
       <r>    1.3442    0.0000 </r>
       <r>    1.4740    0.0000 </r>
       <r>    1.4959    0.0000 </r>
       <r>    1.5295    0.0000 </r>
       <r>    1.7942    0.0000 </r>
       <r>    1.8001    0.0000 </r>
       <r>    1.8068    0.0000 </r>
       <r>    1.9194    0.0000 </r>
      </set>
      <set comment="kpoint 5">
       <r>  -51.3002    1.0000 </r>
       <r>  -22.2685    1.0000 </r>
       <r>  -21.7648    1.0000 </r>
       <r>  -21.6438    1.0000 </r>
       <r>  -21.5499    1.0000 </r>
       <r>  -20.9059    1.0000 </r>
       <r>  -20.8440    1.0000 </r>
       <r>  -20.5412    1.0000 </r>
       <r>  -20.2131    1.0000 </r>
       <r>  -20.0371    1.0000 </r>
       <r>  -19.5931    1.0000 </r>
       <r>  -19.4307    1.0000 </r>
       <r>  -19.4096    1.0000 </r>
       <r>  -19.0086    1.0000 </r>
       <r>  -18.9614    1.0000 </r>
       <r>  -18.4210    1.0000 </r>
       <r>  -18.2754    1.0000 </r>
       <r>  -17.8741    1.0000 </r>
       <r>  -17.6719    1.0000 </r>
       <r>  -17.2582    1.0000 </r>
       <r>  -17.2447    1.0000 </r>
       <r>  -17.0700    1.0000 </r>
       <r>  -16.9937    1.0000 </r>
       <r>  -16.6672    1.0000 </r>
       <r>  -16.3510    1.0000 </r>
       <r>  -15.8207    1.0000 </r>
       <r>  -15.4514    1.0000 </r>
       <r>  -15.2275    1.0000 </r>
       <r>  -15.1931    1.0000 </r>
       <r>  -14.7333    1.0000 </r>
       <r>  -14.6308    1.0000 </r>
       <r>  -14.4255    1.0000 </r>
       <r>  -14.3322    1.0000 </r>
       <r>  -14.1812    1.0000 </r>
       <r>  -13.5686    1.0000 </r>
       <r>  -13.0520    1.0000 </r>
       <r>  -12.9394    1.0000 </r>
       <r>  -12.8721    1.0000 </r>
       <r>  -12.6156    1.0000 </r>
       <r>  -12.4411    1.0000 </r>
       <r>  -12.3856    1.0000 </r>
       <r>  -11.9286    1.0000 </r>
       <r>  -11.8188    1.0000 </r>
       <r>  -11.6250    1.0000 </r>
       <r>  -11.4322    1.0000 </r>
       <r>  -11.1823    1.0000 </r>
       <r>  -10.9755    1.0000 </r>
       <r>  -10.8202    1.0000 </r>
       <r>  -10.5559    1.0000 </r>
       <r>  -10.3575    1.0000 </r>
       <r>  -10.3457    1.0000 </r>
       <r>  -10.2454    1.0000 </r>
       <r>  -10.1556    1.0000 </r>
       <r>   -9.8959    1.0000 </r>
       <r>   -9.8538    1.0000 </r>
       <r>   -9.7116    1.0000 </r>
       <r>   -9.6390    1.0000 </r>
       <r>   -9.6003    1.0000 </r>
       <r>   -9.5496    1.0000 </r>
       <r>   -9.3280    1.0000 </r>
       <r>   -9.2091    1.0000 </r>
       <r>   -9.0513    1.0000 </r>
       <r>   -8.9890    1.0000 </r>
       <r>   -8.9656    1.0000 </r>
       <r>   -8.9166    1.0000 </r>
       <r>   -8.8183    1.0000 </r>
       <r>   -8.7672    1.0000 </r>
       <r>   -8.7280    1.0000 </r>
       <r>   -8.5559    1.0000 </r>
       <r>   -8.3968    1.0000 </r>
       <r>   -8.1833    1.0000 </r>
       <r>   -8.0948    1.0000 </r>
       <r>   -8.0566    1.0000 </r>
       <r>   -8.0103    1.0000 </r>
       <r>   -7.9124    1.0000 </r>
       <r>   -7.8044    1.0000 </r>
       <r>   -7.5851    1.0000 </r>
       <r>   -7.3531    1.0000 </r>
       <r>   -7.2249    1.0000 </r>
       <r>   -7.1638    1.0000 </r>
       <r>   -7.1435    1.0000 </r>
       <r>   -7.1375    1.0000 </r>
       <r>   -7.1141    1.0000 </r>
       <r>   -6.7975    1.0000 </r>
       <r>   -6.6444    1.0000 </r>
       <r>   -6.4384    1.0000 </r>
       <r>   -6.3905    1.0000 </r>
       <r>   -6.0898    1.0000 </r>
       <r>   -5.9829    1.0000 </r>
       <r>   -5.7104    1.0000 </r>
       <r>   -5.4779    1.0000 </r>
       <r>   -5.1061    1.0000 </r>
       <r>   -4.9892    1.0000 </r>
       <r>   -4.8807    1.0000 </r>
       <r>   -4.7613    1.0000 </r>
       <r>   -4.3557    1.0000 </r>
       <r>   -3.9504    1.0000 </r>
       <r>   -2.8988    0.0000 </r>
       <r>   -1.7132    0.0000 </r>
       <r>   -1.6032    0.0000 </r>
       <r>   -1.2219    0.0000 </r>
       <r>   -1.1638    0.0000 </r>
       <r>   -1.0938    0.0000 </r>
       <r>   -0.9869    0.0000 </r>
       <r>   -0.8734    0.0000 </r>
       <r>   -0.3899    0.0000 </r>
       <r>   -0.3573    0.0000 </r>
       <r>    0.1389    0.0000 </r>
       <r>    0.1767    0.0000 </r>
       <r>    0.3464    0.0000 </r>
       <r>    0.4540    0.0000 </r>
       <r>    0.7301    0.0000 </r>
       <r>    0.8075    0.0000 </r>
       <r>    0.9526    0.0000 </r>
       <r>    0.9894    0.0000 </r>
       <r>    1.1187    0.0000 </r>
       <r>    1.1951    0.0000 </r>
       <r>    1.2376    0.0000 </r>
       <r>    1.2890    0.0000 </r>
       <r>    1.3941    0.0000 </r>
       <r>    1.5010    0.0000 </r>
       <r>    1.5653    0.0000 </r>
       <r>    1.5784    0.0000 </r>
       <r>    1.6872    0.0000 </r>
       <r>    1.7044    0.0000 </r>
       <r>    1.7891    0.0000 </r>
       <r>    1.8361    0.0000 </r>
       <r>    1.8484    0.0000 </r>
      </set>
     </set>
    </set>
   </array>
  </eigenvalues>
  <separator name="orbital magnetization" >
   <v name="MAGDIPOLOUT">      0.00000000      0.00000000      0.00000000</v>
  </separator>
  <dos>
   <i name="efermi">     -3.08131452 </i>
   <total>
    <array>
     <dimension dim="1">gridpoints</dimension>
     <dimension dim="2">spin</dimension>
     <field>energy</field>
     <field>total</field>
     <field>integrated</field>
     <set>
      <set comment="spin 1">
       <r>   -53.9710     0.0000     0.0000 </r>
       <r>   -53.7751     0.0000     0.0000 </r>
       <r>   -53.5793     0.0000     0.0000 </r>
       <r>   -53.3834     0.0000     0.0000 </r>
       <r>   -53.1875     0.0000     0.0000 </r>
       <r>   -52.9917     0.0000     0.0000 </r>
       <r>   -52.7958     0.0000     0.0000 </r>
       <r>   -52.6000     0.0000     0.0000 </r>
       <r>   -52.4041     0.0000     0.0000 </r>
       <r>   -52.2082     0.0000     0.0000 </r>
       <r>   -52.0124     0.0000     0.0000 </r>
       <r>   -51.8165     0.0000     0.0000 </r>
       <r>   -51.6207     0.0000     0.0000 </r>
       <r>   -51.4248     0.0011     0.0002 </r>
       <r>   -51.2290     4.9924     0.9780 </r>
       <r>   -51.0331     0.1122     1.0000 </r>
       <r>   -50.8372     0.0000     1.0000 </r>
       <r>   -50.6414     0.0000     1.0000 </r>
       <r>   -50.4455     0.0000     1.0000 </r>
       <r>   -50.2497     0.0000     1.0000 </r>
       <r>   -50.0538     0.0000     1.0000 </r>
       <r>   -49.8580     0.0000     1.0000 </r>
       <r>   -49.6621     0.0000     1.0000 </r>
       <r>   -49.4662     0.0000     1.0000 </r>
       <r>   -49.2704     0.0000     1.0000 </r>
       <r>   -49.0745     0.0000     1.0000 </r>
       <r>   -48.8787     0.0000     1.0000 </r>
       <r>   -48.6828     0.0000     1.0000 </r>
       <r>   -48.4870     0.0000     1.0000 </r>
       <r>   -48.2911     0.0000     1.0000 </r>
       <r>   -48.0952     0.0000     1.0000 </r>
       <r>   -47.8994     0.0000     1.0000 </r>
       <r>   -47.7035     0.0000     1.0000 </r>
       <r>   -47.5077     0.0000     1.0000 </r>
       <r>   -47.3118     0.0000     1.0000 </r>
       <r>   -47.1160     0.0000     1.0000 </r>
       <r>   -46.9201     0.0000     1.0000 </r>
       <r>   -46.7242     0.0000     1.0000 </r>
       <r>   -46.5284     0.0000     1.0000 </r>
       <r>   -46.3325     0.0000     1.0000 </r>
       <r>   -46.1367     0.0000     1.0000 </r>
       <r>   -45.9408     0.0000     1.0000 </r>
       <r>   -45.7450     0.0000     1.0000 </r>
       <r>   -45.5491     0.0000     1.0000 </r>
       <r>   -45.3532     0.0000     1.0000 </r>
       <r>   -45.1574     0.0000     1.0000 </r>
       <r>   -44.9615     0.0000     1.0000 </r>
       <r>   -44.7657     0.0000     1.0000 </r>
       <r>   -44.5698     0.0000     1.0000 </r>
       <r>   -44.3740     0.0000     1.0000 </r>
       <r>   -44.1781     0.0000     1.0000 </r>
       <r>   -43.9822     0.0000     1.0000 </r>
       <r>   -43.7864     0.0000     1.0000 </r>
       <r>   -43.5905     0.0000     1.0000 </r>
       <r>   -43.3947     0.0000     1.0000 </r>
       <r>   -43.1988     0.0000     1.0000 </r>
       <r>   -43.0030     0.0000     1.0000 </r>
       <r>   -42.8071     0.0000     1.0000 </r>
       <r>   -42.6112     0.0000     1.0000 </r>
       <r>   -42.4154     0.0000     1.0000 </r>
       <r>   -42.2195     0.0000     1.0000 </r>
       <r>   -42.0237     0.0000     1.0000 </r>
       <r>   -41.8278     0.0000     1.0000 </r>
       <r>   -41.6320     0.0000     1.0000 </r>
       <r>   -41.4361     0.0000     1.0000 </r>
       <r>   -41.2402     0.0000     1.0000 </r>
       <r>   -41.0444     0.0000     1.0000 </r>
       <r>   -40.8485     0.0000     1.0000 </r>
       <r>   -40.6527     0.0000     1.0000 </r>
       <r>   -40.4568     0.0000     1.0000 </r>
       <r>   -40.2610     0.0000     1.0000 </r>
       <r>   -40.0651     0.0000     1.0000 </r>
       <r>   -39.8692     0.0000     1.0000 </r>
       <r>   -39.6734     0.0000     1.0000 </r>
       <r>   -39.4775     0.0000     1.0000 </r>
       <r>   -39.2817     0.0000     1.0000 </r>
       <r>   -39.0858     0.0000     1.0000 </r>
       <r>   -38.8899     0.0000     1.0000 </r>
       <r>   -38.6941     0.0000     1.0000 </r>
       <r>   -38.4982     0.0000     1.0000 </r>
       <r>   -38.3024     0.0000     1.0000 </r>
       <r>   -38.1065     0.0000     1.0000 </r>
       <r>   -37.9107     0.0000     1.0000 </r>
       <r>   -37.7148     0.0000     1.0000 </r>
       <r>   -37.5189     0.0000     1.0000 </r>
       <r>   -37.3231     0.0000     1.0000 </r>
       <r>   -37.1272     0.0000     1.0000 </r>
       <r>   -36.9314     0.0000     1.0000 </r>
       <r>   -36.7355     0.0000     1.0000 </r>
       <r>   -36.5397     0.0000     1.0000 </r>
       <r>   -36.3438     0.0000     1.0000 </r>
       <r>   -36.1479     0.0000     1.0000 </r>
       <r>   -35.9521     0.0000     1.0000 </r>
       <r>   -35.7562     0.0000     1.0000 </r>
       <r>   -35.5604     0.0000     1.0000 </r>
       <r>   -35.3645     0.0000     1.0000 </r>
       <r>   -35.1687     0.0000     1.0000 </r>
       <r>   -34.9728     0.0000     1.0000 </r>
       <r>   -34.7769     0.0000     1.0000 </r>
       <r>   -34.5811     0.0000     1.0000 </r>
       <r>   -34.3852     0.0000     1.0000 </r>
       <r>   -34.1894     0.0000     1.0000 </r>
       <r>   -33.9935     0.0000     1.0000 </r>
       <r>   -33.7977     0.0000     1.0000 </r>
       <r>   -33.6018     0.0000     1.0000 </r>
       <r>   -33.4059     0.0000     1.0000 </r>
       <r>   -33.2101     0.0000     1.0000 </r>
       <r>   -33.0142     0.0000     1.0000 </r>
       <r>   -32.8184     0.0000     1.0000 </r>
       <r>   -32.6225     0.0000     1.0000 </r>
       <r>   -32.4267     0.0000     1.0000 </r>
       <r>   -32.2308     0.0000     1.0000 </r>
       <r>   -32.0349     0.0000     1.0000 </r>
       <r>   -31.8391     0.0000     1.0000 </r>
       <r>   -31.6432     0.0000     1.0000 </r>
       <r>   -31.4474     0.0000     1.0000 </r>
       <r>   -31.2515     0.0000     1.0000 </r>
       <r>   -31.0557     0.0000     1.0000 </r>
       <r>   -30.8598     0.0000     1.0000 </r>
       <r>   -30.6639     0.0000     1.0000 </r>
       <r>   -30.4681     0.0000     1.0000 </r>
       <r>   -30.2722     0.0000     1.0000 </r>
       <r>   -30.0764     0.0000     1.0000 </r>
       <r>   -29.8805     0.0000     1.0000 </r>
       <r>   -29.6847     0.0000     1.0000 </r>
       <r>   -29.4888     0.0000     1.0000 </r>
       <r>   -29.2929     0.0000     1.0000 </r>
       <r>   -29.0971     0.0000     1.0000 </r>
       <r>   -28.9012     0.0000     1.0000 </r>
       <r>   -28.7054     0.0000     1.0000 </r>
       <r>   -28.5095     0.0000     1.0000 </r>
       <r>   -28.3137     0.0000     1.0000 </r>
       <r>   -28.1178     0.0000     1.0000 </r>
       <r>   -27.9219     0.0000     1.0000 </r>
       <r>   -27.7261     0.0000     1.0000 </r>
       <r>   -27.5302     0.0000     1.0000 </r>
       <r>   -27.3344     0.0000     1.0000 </r>
       <r>   -27.1385     0.0000     1.0000 </r>
       <r>   -26.9427     0.0000     1.0000 </r>
       <r>   -26.7468     0.0000     1.0000 </r>
       <r>   -26.5509     0.0000     1.0000 </r>
       <r>   -26.3551     0.0000     1.0000 </r>
       <r>   -26.1592     0.0000     1.0000 </r>
       <r>   -25.9634     0.0000     1.0000 </r>
       <r>   -25.7675     0.0000     1.0000 </r>
       <r>   -25.5716     0.0000     1.0000 </r>
       <r>   -25.3758     0.0000     1.0000 </r>
       <r>   -25.1799     0.0000     1.0000 </r>
       <r>   -24.9841     0.0000     1.0000 </r>
       <r>   -24.7882     0.0000     1.0000 </r>
       <r>   -24.5924     0.0000     1.0000 </r>
       <r>   -24.3965     0.0000     1.0000 </r>
       <r>   -24.2006     0.0000     1.0000 </r>
       <r>   -24.0048     0.0000     1.0000 </r>
       <r>   -23.8089     0.0000     1.0000 </r>
       <r>   -23.6131     0.0000     1.0000 </r>
       <r>   -23.4172     0.0000     1.0000 </r>
       <r>   -23.2214     0.0000     1.0000 </r>
       <r>   -23.0255     0.0000     1.0000 </r>
       <r>   -22.8296     0.0000     1.0000 </r>
       <r>   -22.6338     0.0000     1.0000 </r>
       <r>   -22.4379     0.0004     1.0001 </r>
       <r>   -22.2421     2.3622     1.4627 </r>
       <r>   -22.0462     2.8772     2.0262 </r>
       <r>   -21.8504     3.2767     2.6680 </r>
       <r>   -21.6545     2.8754     3.2312 </r>
       <r>   -21.4586     4.8607     4.1832 </r>
       <r>   -21.2628     3.4546     4.8598 </r>
       <r>   -21.0669     2.7093     5.3904 </r>
       <r>   -20.8711     3.9135     6.1569 </r>
       <r>   -20.6752     4.8603     7.1089 </r>
       <r>   -20.4794     3.0708     7.7103 </r>
       <r>   -20.2835     3.4337     8.3828 </r>
       <r>   -20.0876     4.7703     9.3171 </r>
       <r>   -19.8918     4.2440    10.1483 </r>
       <r>   -19.6959     0.6929    10.2840 </r>
       <r>   -19.5001     4.4922    11.1639 </r>
       <r>   -19.3042     6.8693    12.5093 </r>
       <r>   -19.1084     2.9757    13.0921 </r>
       <r>   -18.9125     4.5367    13.9806 </r>
       <r>   -18.7166     2.2427    14.4199 </r>
       <r>   -18.5208     3.9265    15.1889 </r>
       <r>   -18.3249     5.7124    16.3077 </r>
       <r>   -18.1291     4.6685    17.2221 </r>
       <r>   -17.9332     1.1116    17.4398 </r>
       <r>   -17.7374     4.8360    18.3870 </r>
       <r>   -17.5415     4.7667    19.3206 </r>
       <r>   -17.3456     5.2023    20.3395 </r>
       <r>   -17.1498     4.9225    21.3036 </r>
       <r>   -16.9539     4.3909    22.1636 </r>
       <r>   -16.7581     2.5745    22.6678 </r>
       <r>   -16.5622     2.0648    23.0722 </r>
       <r>   -16.3664     4.5237    23.9582 </r>
       <r>   -16.1705     2.3571    24.4199 </r>
       <r>   -15.9746     3.0610    25.0194 </r>
       <r>   -15.7788     4.5444    25.9094 </r>
       <r>   -15.5829     2.0337    26.3077 </r>
       <r>   -15.3871     3.9695    27.0852 </r>
       <r>   -15.1912     5.8015    28.2215 </r>
       <r>   -14.9954     4.3348    29.0705 </r>
       <r>   -14.7995     4.7945    30.0095 </r>
       <r>   -14.6036     3.8060    30.7549 </r>
       <r>   -14.4078     3.7904    31.4973 </r>
       <r>   -14.2119     3.9394    32.2689 </r>
       <r>   -14.0161     4.8432    33.2175 </r>
       <r>   -13.8202     3.4244    33.8881 </r>
       <r>   -13.6244     3.8066    34.6337 </r>
       <r>   -13.4285     5.2636    35.6646 </r>
       <r>   -13.2326     0.0105    35.6667 </r>
       <r>   -13.0368     3.0958    36.2730 </r>
       <r>   -12.8409     6.8896    37.6224 </r>
       <r>   -12.6451     6.4285    38.8814 </r>
       <r>   -12.4492     2.8342    39.4365 </r>
       <r>   -12.2533     4.5772    40.3330 </r>
       <r>   -12.0575     2.6674    40.8555 </r>
       <r>   -11.8616     5.0236    41.8394 </r>
       <r>   -11.6658     4.7286    42.7655 </r>
       <r>   -11.4699     5.5640    43.8553 </r>
       <r>   -11.2741     5.1585    44.8656 </r>
       <r>   -11.0782     7.2919    46.2937 </r>
       <r>   -10.8823     2.3609    46.7561 </r>
       <r>   -10.6865     5.4731    47.8281 </r>
       <r>   -10.4906     6.3049    49.0630 </r>
       <r>   -10.2948     9.4028    50.9046 </r>
       <r>   -10.0989     8.7794    52.6241 </r>
       <r>    -9.9031    10.6481    54.7096 </r>
       <r>    -9.7072     7.2404    56.1277 </r>
       <r>    -9.5113     9.5374    57.9956 </r>
       <r>    -9.3155     7.7751    59.5185 </r>
       <r>    -9.1196    11.0631    61.6852 </r>
       <r>    -8.9238    12.1646    64.0678 </r>
       <r>    -8.7279    12.3545    66.4875 </r>
       <r>    -8.5321    10.3257    68.5099 </r>
       <r>    -8.3362     8.0114    70.0790 </r>
       <r>    -8.1403     7.9896    71.6438 </r>
       <r>    -7.9445    13.2737    74.2435 </r>
       <r>    -7.7486     9.7418    76.1515 </r>
       <r>    -7.5528     3.5659    76.8499 </r>
       <r>    -7.3569     6.9813    78.2173 </r>
       <r>    -7.1611    10.6024    80.2938 </r>
       <r>    -6.9652     8.3503    81.9293 </r>
       <r>    -6.7693     8.1852    83.5324 </r>
       <r>    -6.5735     5.4558    84.6010 </r>
       <r>    -6.3776     6.8098    85.9347 </r>
       <r>    -6.1818     4.7852    86.8719 </r>
       <r>    -5.9859     9.2486    88.6833 </r>
       <r>    -5.7901     2.7649    89.2249 </r>
       <r>    -5.5942     4.2873    90.0646 </r>
       <r>    -5.3983     5.4168    91.1255 </r>
       <r>    -5.2025     2.9502    91.7033 </r>
       <r>    -5.0066     6.1295    92.9038 </r>
       <r>    -4.8108     5.6213    94.0048 </r>
       <r>    -4.6149     4.4278    94.8720 </r>
       <r>    -4.4191     0.5809    94.9858 </r>
       <r>    -4.2232     2.3898    95.4538 </r>
       <r>    -4.0273     2.8058    96.0034 </r>
       <r>    -3.8315     1.6846    96.3333 </r>
       <r>    -3.6356     3.0943    96.9394 </r>
       <r>    -3.4398     0.3096    97.0000 </r>
       <r>    -3.2439     0.0872    97.0171 </r>
       <r>    -3.0481     2.7065    97.5472 </r>
       <r>    -2.8522     1.0710    97.7569 </r>
       <r>    -2.6563     0.2291    97.8018 </r>
       <r>    -2.4605     2.0358    98.2006 </r>
       <r>    -2.2646     0.1106    98.2222 </r>
       <r>    -2.0688     0.0000    98.2222 </r>
       <r>    -1.8729     0.7293    98.3651 </r>
       <r>    -1.6771     5.7398    99.4892 </r>
       <r>    -1.4812     1.8988    99.8611 </r>
       <r>    -1.2853     1.7207   100.1982 </r>
       <r>    -1.0895     8.2990   101.8236 </r>
       <r>    -0.8936     9.4510   103.6746 </r>
       <r>    -0.6978     3.9688   104.4519 </r>
       <r>    -0.5019     2.5795   104.9572 </r>
       <r>    -0.3061     7.8976   106.5040 </r>
       <r>    -0.1102     0.9832   106.6965 </r>
       <r>     0.0857     5.8373   107.8398 </r>
       <r>     0.2815     6.9671   109.2044 </r>
       <r>     0.4774     7.9343   110.7584 </r>
       <r>     0.6732     5.4216   111.8202 </r>
       <r>     0.8691     9.7350   113.7269 </r>
       <r>     1.0650    10.7354   115.8295 </r>
       <r>     1.2608    13.1400   118.4031 </r>
       <r>     1.4567    13.4279   121.0330 </r>
       <r>     1.6525    12.8286   123.5456 </r>
       <r>     1.8484    16.7875   126.8335 </r>
       <r>     2.0442     4.7409   127.7621 </r>
       <r>     2.2401     1.2148   128.0000 </r>
       <r>     2.4360     0.0000   128.0000 </r>
       <r>     2.6318     0.0000   128.0000 </r>
       <r>     2.8277     0.0000   128.0000 </r>
       <r>     3.0235     0.0000   128.0000 </r>
       <r>     3.2194     0.0000   128.0000 </r>
       <r>     3.4152     0.0000   128.0000 </r>
       <r>     3.6111     0.0000   128.0000 </r>
       <r>     3.8070     0.0000   128.0000 </r>
       <r>     4.0028     0.0000   128.0000 </r>
       <r>     4.1987     0.0000   128.0000 </r>
       <r>     4.3945     0.0000   128.0000 </r>
       <r>     4.5904     0.0000   128.0000 </r>
       <r>     4.7862     0.0000   128.0000 </r>
      </set>
      <set comment="spin 2">
       <r>   -53.9710     0.0000     0.0000 </r>
       <r>   -53.7751     0.0000     0.0000 </r>
       <r>   -53.5793     0.0000     0.0000 </r>
       <r>   -53.3834     0.0000     0.0000 </r>
       <r>   -53.1875     0.0000     0.0000 </r>
       <r>   -52.9917     0.0000     0.0000 </r>
       <r>   -52.7958     0.0000     0.0000 </r>
       <r>   -52.6000     0.0000     0.0000 </r>
       <r>   -52.4041     0.0000     0.0000 </r>
       <r>   -52.2082     0.0000     0.0000 </r>
       <r>   -52.0124     0.0000     0.0000 </r>
       <r>   -51.8165     0.0000     0.0000 </r>
       <r>   -51.6207     0.0000     0.0000 </r>
       <r>   -51.4248     0.0011     0.0002 </r>
       <r>   -51.2290     4.9924     0.9780 </r>
       <r>   -51.0331     0.1122     1.0000 </r>
       <r>   -50.8372     0.0000     1.0000 </r>
       <r>   -50.6414     0.0000     1.0000 </r>
       <r>   -50.4455     0.0000     1.0000 </r>
       <r>   -50.2497     0.0000     1.0000 </r>
       <r>   -50.0538     0.0000     1.0000 </r>
       <r>   -49.8580     0.0000     1.0000 </r>
       <r>   -49.6621     0.0000     1.0000 </r>
       <r>   -49.4662     0.0000     1.0000 </r>
       <r>   -49.2704     0.0000     1.0000 </r>
       <r>   -49.0745     0.0000     1.0000 </r>
       <r>   -48.8787     0.0000     1.0000 </r>
       <r>   -48.6828     0.0000     1.0000 </r>
       <r>   -48.4870     0.0000     1.0000 </r>
       <r>   -48.2911     0.0000     1.0000 </r>
       <r>   -48.0952     0.0000     1.0000 </r>
       <r>   -47.8994     0.0000     1.0000 </r>
       <r>   -47.7035     0.0000     1.0000 </r>
       <r>   -47.5077     0.0000     1.0000 </r>
       <r>   -47.3118     0.0000     1.0000 </r>
       <r>   -47.1160     0.0000     1.0000 </r>
       <r>   -46.9201     0.0000     1.0000 </r>
       <r>   -46.7242     0.0000     1.0000 </r>
       <r>   -46.5284     0.0000     1.0000 </r>
       <r>   -46.3325     0.0000     1.0000 </r>
       <r>   -46.1367     0.0000     1.0000 </r>
       <r>   -45.9408     0.0000     1.0000 </r>
       <r>   -45.7450     0.0000     1.0000 </r>
       <r>   -45.5491     0.0000     1.0000 </r>
       <r>   -45.3532     0.0000     1.0000 </r>
       <r>   -45.1574     0.0000     1.0000 </r>
       <r>   -44.9615     0.0000     1.0000 </r>
       <r>   -44.7657     0.0000     1.0000 </r>
       <r>   -44.5698     0.0000     1.0000 </r>
       <r>   -44.3740     0.0000     1.0000 </r>
       <r>   -44.1781     0.0000     1.0000 </r>
       <r>   -43.9822     0.0000     1.0000 </r>
       <r>   -43.7864     0.0000     1.0000 </r>
       <r>   -43.5905     0.0000     1.0000 </r>
       <r>   -43.3947     0.0000     1.0000 </r>
       <r>   -43.1988     0.0000     1.0000 </r>
       <r>   -43.0030     0.0000     1.0000 </r>
       <r>   -42.8071     0.0000     1.0000 </r>
       <r>   -42.6112     0.0000     1.0000 </r>
       <r>   -42.4154     0.0000     1.0000 </r>
       <r>   -42.2195     0.0000     1.0000 </r>
       <r>   -42.0237     0.0000     1.0000 </r>
       <r>   -41.8278     0.0000     1.0000 </r>
       <r>   -41.6320     0.0000     1.0000 </r>
       <r>   -41.4361     0.0000     1.0000 </r>
       <r>   -41.2402     0.0000     1.0000 </r>
       <r>   -41.0444     0.0000     1.0000 </r>
       <r>   -40.8485     0.0000     1.0000 </r>
       <r>   -40.6527     0.0000     1.0000 </r>
       <r>   -40.4568     0.0000     1.0000 </r>
       <r>   -40.2610     0.0000     1.0000 </r>
       <r>   -40.0651     0.0000     1.0000 </r>
       <r>   -39.8692     0.0000     1.0000 </r>
       <r>   -39.6734     0.0000     1.0000 </r>
       <r>   -39.4775     0.0000     1.0000 </r>
       <r>   -39.2817     0.0000     1.0000 </r>
       <r>   -39.0858     0.0000     1.0000 </r>
       <r>   -38.8899     0.0000     1.0000 </r>
       <r>   -38.6941     0.0000     1.0000 </r>
       <r>   -38.4982     0.0000     1.0000 </r>
       <r>   -38.3024     0.0000     1.0000 </r>
       <r>   -38.1065     0.0000     1.0000 </r>
       <r>   -37.9107     0.0000     1.0000 </r>
       <r>   -37.7148     0.0000     1.0000 </r>
       <r>   -37.5189     0.0000     1.0000 </r>
       <r>   -37.3231     0.0000     1.0000 </r>
       <r>   -37.1272     0.0000     1.0000 </r>
       <r>   -36.9314     0.0000     1.0000 </r>
       <r>   -36.7355     0.0000     1.0000 </r>
       <r>   -36.5397     0.0000     1.0000 </r>
       <r>   -36.3438     0.0000     1.0000 </r>
       <r>   -36.1479     0.0000     1.0000 </r>
       <r>   -35.9521     0.0000     1.0000 </r>
       <r>   -35.7562     0.0000     1.0000 </r>
       <r>   -35.5604     0.0000     1.0000 </r>
       <r>   -35.3645     0.0000     1.0000 </r>
       <r>   -35.1687     0.0000     1.0000 </r>
       <r>   -34.9728     0.0000     1.0000 </r>
       <r>   -34.7769     0.0000     1.0000 </r>
       <r>   -34.5811     0.0000     1.0000 </r>
       <r>   -34.3852     0.0000     1.0000 </r>
       <r>   -34.1894     0.0000     1.0000 </r>
       <r>   -33.9935     0.0000     1.0000 </r>
       <r>   -33.7977     0.0000     1.0000 </r>
       <r>   -33.6018     0.0000     1.0000 </r>
       <r>   -33.4059     0.0000     1.0000 </r>
       <r>   -33.2101     0.0000     1.0000 </r>
       <r>   -33.0142     0.0000     1.0000 </r>
       <r>   -32.8184     0.0000     1.0000 </r>
       <r>   -32.6225     0.0000     1.0000 </r>
       <r>   -32.4267     0.0000     1.0000 </r>
       <r>   -32.2308     0.0000     1.0000 </r>
       <r>   -32.0349     0.0000     1.0000 </r>
       <r>   -31.8391     0.0000     1.0000 </r>
       <r>   -31.6432     0.0000     1.0000 </r>
       <r>   -31.4474     0.0000     1.0000 </r>
       <r>   -31.2515     0.0000     1.0000 </r>
       <r>   -31.0557     0.0000     1.0000 </r>
       <r>   -30.8598     0.0000     1.0000 </r>
       <r>   -30.6639     0.0000     1.0000 </r>
       <r>   -30.4681     0.0000     1.0000 </r>
       <r>   -30.2722     0.0000     1.0000 </r>
       <r>   -30.0764     0.0000     1.0000 </r>
       <r>   -29.8805     0.0000     1.0000 </r>
       <r>   -29.6847     0.0000     1.0000 </r>
       <r>   -29.4888     0.0000     1.0000 </r>
       <r>   -29.2929     0.0000     1.0000 </r>
       <r>   -29.0971     0.0000     1.0000 </r>
       <r>   -28.9012     0.0000     1.0000 </r>
       <r>   -28.7054     0.0000     1.0000 </r>
       <r>   -28.5095     0.0000     1.0000 </r>
       <r>   -28.3137     0.0000     1.0000 </r>
       <r>   -28.1178     0.0000     1.0000 </r>
       <r>   -27.9219     0.0000     1.0000 </r>
       <r>   -27.7261     0.0000     1.0000 </r>
       <r>   -27.5302     0.0000     1.0000 </r>
       <r>   -27.3344     0.0000     1.0000 </r>
       <r>   -27.1385     0.0000     1.0000 </r>
       <r>   -26.9427     0.0000     1.0000 </r>
       <r>   -26.7468     0.0000     1.0000 </r>
       <r>   -26.5509     0.0000     1.0000 </r>
       <r>   -26.3551     0.0000     1.0000 </r>
       <r>   -26.1592     0.0000     1.0000 </r>
       <r>   -25.9634     0.0000     1.0000 </r>
       <r>   -25.7675     0.0000     1.0000 </r>
       <r>   -25.5716     0.0000     1.0000 </r>
       <r>   -25.3758     0.0000     1.0000 </r>
       <r>   -25.1799     0.0000     1.0000 </r>
       <r>   -24.9841     0.0000     1.0000 </r>
       <r>   -24.7882     0.0000     1.0000 </r>
       <r>   -24.5924     0.0000     1.0000 </r>
       <r>   -24.3965     0.0000     1.0000 </r>
       <r>   -24.2006     0.0000     1.0000 </r>
       <r>   -24.0048     0.0000     1.0000 </r>
       <r>   -23.8089     0.0000     1.0000 </r>
       <r>   -23.6131     0.0000     1.0000 </r>
       <r>   -23.4172     0.0000     1.0000 </r>
       <r>   -23.2214     0.0000     1.0000 </r>
       <r>   -23.0255     0.0000     1.0000 </r>
       <r>   -22.8296     0.0000     1.0000 </r>
       <r>   -22.6338     0.0000     1.0000 </r>
       <r>   -22.4379     0.0004     1.0001 </r>
       <r>   -22.2421     2.3622     1.4627 </r>
       <r>   -22.0462     2.8772     2.0262 </r>
       <r>   -21.8504     3.2767     2.6680 </r>
       <r>   -21.6545     2.8754     3.2312 </r>
       <r>   -21.4586     4.8607     4.1832 </r>
       <r>   -21.2628     3.4546     4.8598 </r>
       <r>   -21.0669     2.7093     5.3904 </r>
       <r>   -20.8711     3.9135     6.1569 </r>
       <r>   -20.6752     4.8603     7.1089 </r>
       <r>   -20.4794     3.0708     7.7103 </r>
       <r>   -20.2835     3.4337     8.3828 </r>
       <r>   -20.0876     4.7703     9.3171 </r>
       <r>   -19.8918     4.2440    10.1483 </r>
       <r>   -19.6959     0.6929    10.2840 </r>
       <r>   -19.5001     4.4922    11.1639 </r>
       <r>   -19.3042     6.8693    12.5093 </r>
       <r>   -19.1084     2.9757    13.0921 </r>
       <r>   -18.9125     4.5367    13.9806 </r>
       <r>   -18.7166     2.2427    14.4199 </r>
       <r>   -18.5208     3.9265    15.1889 </r>
       <r>   -18.3249     5.7125    16.3077 </r>
       <r>   -18.1291     4.6685    17.2221 </r>
       <r>   -17.9332     1.1116    17.4398 </r>
       <r>   -17.7374     4.8360    18.3870 </r>
       <r>   -17.5415     4.7667    19.3206 </r>
       <r>   -17.3456     5.2023    20.3395 </r>
       <r>   -17.1498     4.9225    21.3036 </r>
       <r>   -16.9539     4.3909    22.1636 </r>
       <r>   -16.7581     2.5745    22.6678 </r>
       <r>   -16.5622     2.0649    23.0722 </r>
       <r>   -16.3664     4.5237    23.9582 </r>
       <r>   -16.1705     2.3571    24.4199 </r>
       <r>   -15.9746     3.0610    25.0194 </r>
       <r>   -15.7788     4.5444    25.9094 </r>
       <r>   -15.5829     2.0337    26.3077 </r>
       <r>   -15.3871     3.9695    27.0852 </r>
       <r>   -15.1912     5.8015    28.2215 </r>
       <r>   -14.9954     4.3348    29.0705 </r>
       <r>   -14.7995     4.7945    30.0095 </r>
       <r>   -14.6036     3.8060    30.7549 </r>
       <r>   -14.4078     3.7904    31.4973 </r>
       <r>   -14.2119     3.9394    32.2689 </r>
       <r>   -14.0161     4.8432    33.2175 </r>
       <r>   -13.8202     3.4244    33.8881 </r>
       <r>   -13.6244     3.8066    34.6337 </r>
       <r>   -13.4285     5.2636    35.6646 </r>
       <r>   -13.2326     0.0105    35.6667 </r>
       <r>   -13.0368     3.0958    36.2730 </r>
       <r>   -12.8409     6.8896    37.6224 </r>
       <r>   -12.6451     6.4285    38.8814 </r>
       <r>   -12.4492     2.8342    39.4365 </r>
       <r>   -12.2533     4.5772    40.3330 </r>
       <r>   -12.0575     2.6674    40.8555 </r>
       <r>   -11.8616     5.0236    41.8394 </r>
       <r>   -11.6658     4.7286    42.7655 </r>
       <r>   -11.4699     5.5640    43.8553 </r>
       <r>   -11.2741     5.1585    44.8656 </r>
       <r>   -11.0782     7.2919    46.2937 </r>
       <r>   -10.8823     2.3609    46.7561 </r>
       <r>   -10.6865     5.4731    47.8281 </r>
       <r>   -10.4906     6.3049    49.0630 </r>
       <r>   -10.2948     9.4029    50.9046 </r>
       <r>   -10.0989     8.7794    52.6241 </r>
       <r>    -9.9031    10.6481    54.7096 </r>
       <r>    -9.7072     7.2404    56.1277 </r>
       <r>    -9.5113     9.5374    57.9956 </r>
       <r>    -9.3155     7.7751    59.5185 </r>
       <r>    -9.1196    11.0631    61.6852 </r>
       <r>    -8.9238    12.1647    64.0678 </r>
       <r>    -8.7279    12.3545    66.4875 </r>
       <r>    -8.5321    10.3257    68.5099 </r>
       <r>    -8.3362     8.0114    70.0790 </r>
       <r>    -8.1403     7.9896    71.6438 </r>
       <r>    -7.9445    13.2737    74.2435 </r>
       <r>    -7.7486     9.7417    76.1515 </r>
       <r>    -7.5528     3.5659    76.8499 </r>
       <r>    -7.3569     6.9813    78.2173 </r>
       <r>    -7.1611    10.6024    80.2938 </r>
       <r>    -6.9652     8.3502    81.9293 </r>
       <r>    -6.7693     8.1852    83.5324 </r>
       <r>    -6.5735     5.4557    84.6010 </r>
       <r>    -6.3776     6.8098    85.9347 </r>
       <r>    -6.1818     4.7852    86.8719 </r>
       <r>    -5.9859     9.2486    88.6833 </r>
       <r>    -5.7901     2.7649    89.2249 </r>
       <r>    -5.5942     4.2873    90.0646 </r>
       <r>    -5.3983     5.4168    91.1255 </r>
       <r>    -5.2025     2.9502    91.7033 </r>
       <r>    -5.0066     6.1295    92.9038 </r>
       <r>    -4.8108     5.6213    94.0048 </r>
       <r>    -4.6149     4.4278    94.8720 </r>
       <r>    -4.4191     0.5809    94.9858 </r>
       <r>    -4.2232     2.3898    95.4538 </r>
       <r>    -4.0273     2.8058    96.0034 </r>
       <r>    -3.8315     1.6846    96.3333 </r>
       <r>    -3.6356     3.0943    96.9394 </r>
       <r>    -3.4398     0.3096    97.0000 </r>
       <r>    -3.2439     0.0872    97.0171 </r>
       <r>    -3.0481     2.7065    97.5472 </r>
       <r>    -2.8522     1.0710    97.7569 </r>
       <r>    -2.6563     0.2291    97.8018 </r>
       <r>    -2.4605     2.0358    98.2006 </r>
       <r>    -2.2646     0.1106    98.2222 </r>
       <r>    -2.0688     0.0000    98.2222 </r>
       <r>    -1.8729     0.7293    98.3651 </r>
       <r>    -1.6771     5.7398    99.4892 </r>
       <r>    -1.4812     1.8988    99.8611 </r>
       <r>    -1.2853     1.7208   100.1982 </r>
       <r>    -1.0895     8.2989   101.8236 </r>
       <r>    -0.8936     9.4508   103.6746 </r>
       <r>    -0.6978     3.9690   104.4519 </r>
       <r>    -0.5019     2.5795   104.9571 </r>
       <r>    -0.3061     7.8976   106.5039 </r>
       <r>    -0.1102     0.9832   106.6965 </r>
       <r>     0.0857     5.8372   107.8398 </r>
       <r>     0.2815     6.9657   109.2041 </r>
       <r>     0.4774     7.9302   110.7572 </r>
       <r>     0.6732     5.4221   111.8192 </r>
       <r>     0.8691     9.6859   113.7163 </r>
       <r>     1.0650    10.6347   115.7991 </r>
       <r>     1.2608    12.8310   118.3122 </r>
       <r>     1.4567    13.3335   120.9237 </r>
       <r>     1.6525    12.9287   123.4558 </r>
       <r>     1.8484    16.0695   126.6032 </r>
       <r>     2.0442     6.1061   127.7991 </r>
       <r>     2.2401     1.0256   128.0000 </r>
       <r>     2.4360     0.0001   128.0000 </r>
       <r>     2.6318     0.0000   128.0000 </r>
       <r>     2.8277     0.0000   128.0000 </r>
       <r>     3.0235     0.0000   128.0000 </r>
       <r>     3.2194     0.0000   128.0000 </r>
       <r>     3.4152     0.0000   128.0000 </r>
       <r>     3.6111     0.0000   128.0000 </r>
       <r>     3.8070     0.0000   128.0000 </r>
       <r>     4.0028     0.0000   128.0000 </r>
       <r>     4.1987     0.0000   128.0000 </r>
       <r>     4.3945     0.0000   128.0000 </r>
       <r>     4.5904     0.0000   128.0000 </r>
       <r>     4.7862     0.0000   128.0000 </r>
      </set>
     </set>
    </array>
   </total>
  </dos>
 </calculation>
 <structure name="finalpos" >
  <crystal>
   <varray name="basis" >
    <v>      12.30000000       0.00000000       0.00000000 </v>
    <v>      -6.15000000      10.65211247       0.00000000 </v>
    <v>       0.00000000       0.00000000      30.00000000 </v>
   </varray>
   <i name="volume">   3930.62950016 </i>
   <varray name="rec_basis" >
    <v>       0.08130081       0.04693905       0.00000000 </v>
    <v>       0.00000000       0.09387809       0.00000000 </v>
    <v>       0.00000000       0.00000000       0.03333333 </v>
   </varray>
  </crystal>
  <varray name="positions" >
   <v>       0.00069168       0.99541666       0.49998612 </v>
   <v>       0.13570752       0.06529461       0.50002869 </v>
   <v>       0.00528682       0.19571106       0.50058609 </v>
   <v>       0.13833518       0.26560218       0.50057170 </v>
   <v>       0.99712702       0.39177707       0.50100754 </v>
   <v>       0.13026968       0.46391674       0.50087604 </v>
   <v>       0.97526623       0.57616636       0.49974051 </v>
   <v>       0.11731876       0.65556017       0.50025836 </v>
   <v>       0.98729726       0.78579945       0.49978844 </v>
   <v>       0.12617716       0.86034230       0.49990407 </v>
   <v>       0.20174420       0.99935984       0.49996315 </v>
   <v>       0.34076841       0.07491797       0.49997416 </v>
   <v>       0.20564900       0.20029985       0.50029029 </v>
   <v>       0.34065624       0.27207656       0.50022199 </v>
   <v>       0.19984457       0.39937158       0.50071372 </v>
   <v>       0.33279713       0.46984879       0.50056375 </v>
   <v>       0.19199209       0.59719431       0.50058322 </v>
   <v>       0.32697969       0.66894440       0.50043978 </v>
   <v>       0.19196150       0.79444851       0.50008107 </v>
   <v>       0.33098870       0.87000208       0.50010093 </v>
   <v>       0.40655756       0.00904940       0.49998696 </v>
   <v>       0.54540405       0.08366039       0.49998134 </v>
   <v>       0.41537712       0.21379237       0.49993588 </v>
   <v>       0.55744946       0.29324157       0.49946986 </v>
   <v>       0.40242993       0.40537510       0.50047012 </v>
   <v>       0.53559216       0.47761928       0.50044748 </v>
   <v>       0.39430443       0.60365582       0.50046434 </v>
   <v>       0.52736225       0.67361877       0.50026175 </v>
   <v>       0.39695450       0.80397139       0.50018869 </v>
   <v>       0.53196727       0.87397152       0.50011628 </v>
   <v>       0.60374810       0.00898380       0.50016676 </v>
   <v>       0.73705382       0.07076953       0.50050530 </v>
   <v>       0.62488765       0.22578393       0.49959691 </v>
   <v>       0.76599571       0.29127341       0.50025991 </v>
   <v>       0.62301774       0.43445421       0.49988325 </v>
   <v>       0.59240615       0.60866974       0.50023153 </v>
   <v>       0.72347200       0.66559306       0.50021997 </v>
   <v>       0.59727190       0.80667286       0.50014313 </v>
   <v>       0.73106729       0.86823424       0.50012855 </v>
   <v>       0.80156259       0.00117311       0.50027601 </v>
   <v>       0.93536716       0.06268160       0.50025728 </v>
   <v>       0.80924606       0.20391568       0.50083025 </v>
   <v>       0.94027672       0.26072818       0.50083145 </v>
   <v>       0.90975834       0.43503138       0.50036590 </v>
   <v>       0.76676574       0.57827823       0.49975349 </v>
   <v>       0.90787378       0.64372456       0.49943208 </v>
   <v>       0.79564026       0.79872732       0.50011285 </v>
   <v>       0.92892615       0.86046430       0.49989995 </v>
   <v>       0.67080540       0.43456141       0.55687285 </v>
  </varray>
 </structure>
</modeling>
