  55  55   0   0
  0.7146599E+02  0.1230000E-08  0.1230000E-08  0.3000000E-08  0.5000000E-15
  1.000000000000000E-004
  CAR 
 Li defective graphene MACE training lab 
      4.37258635    -52.53544972  301     -3.05248468      1.00000000
    -52.535  0.0000E+00  0.0000E+00  0.0000E+00  0.0000E+00
    -52.346  0.0000E+00  0.0000E+00  0.0000E+00  0.0000E+00
    -52.156  0.0000E+00  0.0000E+00  0.0000E+00  0.0000E+00
    -51.966  0.0000E+00  0.0000E+00  0.0000E+00  0.0000E+00
    -51.777  0.0000E+00  0.0000E+00  0.0000E+00  0.0000E+00
    -51.587  0.0000E+00  0.0000E+00  0.0000E+00  0.0000E+00
    -51.397  0.0000E+00  0.0000E+00  0.0000E+00  0.0000E+00
    -51.208  0.0000E+00  0.0000E+00  0.0000E+00  0.0000E+00
    -51.018  0.0000E+00  0.0000E+00  0.0000E+00  0.0000E+00
    -50.828  0.0000E+00  0.0000E+00  0.0000E+00  0.0000E+00
    -50.639  0.0000E+00  0.0000E+00  0.0000E+00  0.0000E+00
    -50.449  0.0000E+00  0.0000E+00  0.0000E+00  0.0000E+00
    -50.259  0.0000E+00  0.0000E+00  0.0000E+00  0.0000E+00
    -50.069  0.1685E-02  0.1410E-02  0.3197E-03  0.2674E-03
    -49.880  0.5135E+01  0.5120E+01  0.9745E+00  0.9715E+00
    -49.690  0.1346E+00  0.1505E+00  0.1000E+01  0.1000E+01
    -49.500  0.0000E+00  0.0000E+00  0.1000E+01  0.1000E+01
    -49.311  0.0000E+00  0.0000E+00  0.1000E+01  0.1000E+01
    -49.121  0.0000E+00  0.0000E+00  0.1000E+01  0.1000E+01
    -48.931  0.0000E+00  0.0000E+00  0.1000E+01  0.1000E+01
    -48.742  0.0000E+00  0.0000E+00  0.1000E+01  0.1000E+01
    -48.552  0.0000E+00  0.0000E+00  0.1000E+01  0.1000E+01
    -48.362  0.0000E+00  0.0000E+00  0.1000E+01  0.1000E+01
    -48.173  0.0000E+00  0.0000E+00  0.1000E+01  0.1000E+01
    -47.983  0.0000E+00  0.0000E+00  0.1000E+01  0.1000E+01
    -47.793  0.0000E+00  0.0000E+00  0.1000E+01  0.1000E+01
    -47.603  0.0000E+00  0.0000E+00  0.1000E+01  0.1000E+01
    -47.414  0.0000E+00  0.0000E+00  0.1000E+01  0.1000E+01
    -47.224  0.0000E+00  0.0000E+00  0.1000E+01  0.1000E+01
    -47.034  0.0000E+00  0.0000E+00  0.1000E+01  0.1000E+01
    -46.845  0.0000E+00  0.0000E+00  0.1000E+01  0.1000E+01
    -46.655  0.0000E+00  0.0000E+00  0.1000E+01  0.1000E+01
    -46.465  0.0000E+00  0.0000E+00  0.1000E+01  0.1000E+01
    -46.276  0.0000E+00  0.0000E+00  0.1000E+01  0.1000E+01
    -46.086  0.0000E+00  0.0000E+00  0.1000E+01  0.1000E+01
    -45.896  0.0000E+00  0.0000E+00  0.1000E+01  0.1000E+01
    -45.706  0.0000E+00  0.0000E+00  0.1000E+01  0.1000E+01
    -45.517  0.0000E+00  0.0000E+00  0.1000E+01  0.1000E+01
    -45.327  0.0000E+00  0.0000E+00  0.1000E+01  0.1000E+01
    -45.137  0.0000E+00  0.0000E+00  0.1000E+01  0.1000E+01
    -44.948  0.0000E+00  0.0000E+00  0.1000E+01  0.1000E+01
    -44.758  0.0000E+00  0.0000E+00  0.1000E+01  0.1000E+01
    -44.568  0.0000E+00  0.0000E+00  0.1000E+01  0.1000E+01
    -44.379  0.0000E+00  0.0000E+00  0.1000E+01  0.1000E+01
    -44.189  0.0000E+00  0.0000E+00  0.1000E+01  0.1000E+01
    -43.999  0.0000E+00  0.0000E+00  0.1000E+01  0.1000E+01
    -43.810  0.0000E+00  0.0000E+00  0.1000E+01  0.1000E+01
    -43.620  0.0000E+00  0.0000E+00  0.1000E+01  0.1000E+01
    -43.430  0.0000E+00  0.0000E+00  0.1000E+01  0.1000E+01
    -43.240  0.0000E+00  0.0000E+00  0.1000E+01  0.1000E+01
    -43.051  0.0000E+00  0.0000E+00  0.1000E+01  0.1000E+01
    -42.861  0.0000E+00  0.0000E+00  0.1000E+01  0.1000E+01
    -42.671  0.0000E+00  0.0000E+00  0.1000E+01  0.1000E+01
    -42.482  0.0000E+00  0.0000E+00  0.1000E+01  0.1000E+01
    -42.292  0.0000E+00  0.0000E+00  0.1000E+01  0.1000E+01
    -42.102  0.0000E+00  0.0000E+00  0.1000E+01  0.1000E+01
    -41.913  0.0000E+00  0.0000E+00  0.1000E+01  0.1000E+01
    -41.723  0.0000E+00  0.0000E+00  0.1000E+01  0.1000E+01
    -41.533  0.0000E+00  0.0000E+00  0.1000E+01  0.1000E+01
    -41.344  0.0000E+00  0.0000E+00  0.1000E+01  0.1000E+01
    -41.154  0.0000E+00  0.0000E+00  0.1000E+01  0.1000E+01
    -40.964  0.0000E+00  0.0000E+00  0.1000E+01  0.1000E+01
    -40.774  0.0000E+00  0.0000E+00  0.1000E+01  0.1000E+01
    -40.585  0.0000E+00  0.0000E+00  0.1000E+01  0.1000E+01
    -40.395  0.0000E+00  0.0000E+00  0.1000E+01  0.1000E+01
    -40.205  0.0000E+00  0.0000E+00  0.1000E+01  0.1000E+01
    -40.016  0.0000E+00  0.0000E+00  0.1000E+01  0.1000E+01
    -39.826  0.0000E+00  0.0000E+00  0.1000E+01  0.1000E+01
    -39.636  0.0000E+00  0.0000E+00  0.1000E+01  0.1000E+01
    -39.447  0.0000E+00  0.0000E+00  0.1000E+01  0.1000E+01
    -39.257  0.0000E+00  0.0000E+00  0.1000E+01  0.1000E+01
    -39.067  0.0000E+00  0.0000E+00  0.1000E+01  0.1000E+01
    -38.878  0.0000E+00  0.0000E+00  0.1000E+01  0.1000E+01
    -38.688  0.0000E+00  0.0000E+00  0.1000E+01  0.1000E+01
    -38.498  0.0000E+00  0.0000E+00  0.1000E+01  0.1000E+01
    -38.308  0.0000E+00  0.0000E+00  0.1000E+01  0.1000E+01
    -38.119  0.0000E+00  0.0000E+00  0.1000E+01  0.1000E+01
    -37.929  0.0000E+00  0.0000E+00  0.1000E+01  0.1000E+01
    -37.739  0.0000E+00  0.0000E+00  0.1000E+01  0.1000E+01
    -37.550  0.0000E+00  0.0000E+00  0.1000E+01  0.1000E+01
    -37.360  0.0000E+00  0.0000E+00  0.1000E+01  0.1000E+01
    -37.170  0.0000E+00  0.0000E+00  0.1000E+01  0.1000E+01
    -36.981  0.0000E+00  0.0000E+00  0.1000E+01  0.1000E+01
    -36.791  0.0000E+00  0.0000E+00  0.1000E+01  0.1000E+01
    -36.601  0.0000E+00  0.0000E+00  0.1000E+01  0.1000E+01
    -36.412  0.0000E+00  0.0000E+00  0.1000E+01  0.1000E+01
    -36.222  0.0000E+00  0.0000E+00  0.1000E+01  0.1000E+01
    -36.032  0.0000E+00  0.0000E+00  0.1000E+01  0.1000E+01
    -35.842  0.0000E+00  0.0000E+00  0.1000E+01  0.1000E+01
    -35.653  0.0000E+00  0.0000E+00  0.1000E+01  0.1000E+01
    -35.463  0.0000E+00  0.0000E+00  0.1000E+01  0.1000E+01
    -35.273  0.0000E+00  0.0000E+00  0.1000E+01  0.1000E+01
    -35.084  0.0000E+00  0.0000E+00  0.1000E+01  0.1000E+01
    -34.894  0.0000E+00  0.0000E+00  0.1000E+01  0.1000E+01
    -34.704  0.0000E+00  0.0000E+00  0.1000E+01  0.1000E+01
    -34.515  0.0000E+00  0.0000E+00  0.1000E+01  0.1000E+01
    -34.325  0.0000E+00  0.0000E+00  0.1000E+01  0.1000E+01
    -34.135  0.0000E+00  0.0000E+00  0.1000E+01  0.1000E+01
    -33.945  0.0000E+00  0.0000E+00  0.1000E+01  0.1000E+01
    -33.756  0.0000E+00  0.0000E+00  0.1000E+01  0.1000E+01
    -33.566  0.0000E+00  0.0000E+00  0.1000E+01  0.1000E+01
    -33.376  0.0000E+00  0.0000E+00  0.1000E+01  0.1000E+01
    -33.187  0.0000E+00  0.0000E+00  0.1000E+01  0.1000E+01
    -32.997  0.0000E+00  0.0000E+00  0.1000E+01  0.1000E+01
    -32.807  0.0000E+00  0.0000E+00  0.1000E+01  0.1000E+01
    -32.618  0.0000E+00  0.0000E+00  0.1000E+01  0.1000E+01
    -32.428  0.0000E+00  0.0000E+00  0.1000E+01  0.1000E+01
    -32.238  0.0000E+00  0.0000E+00  0.1000E+01  0.1000E+01
    -32.049  0.0000E+00  0.0000E+00  0.1000E+01  0.1000E+01
    -31.859  0.0000E+00  0.0000E+00  0.1000E+01  0.1000E+01
    -31.669  0.0000E+00  0.0000E+00  0.1000E+01  0.1000E+01
    -31.479  0.0000E+00  0.0000E+00  0.1000E+01  0.1000E+01
    -31.290  0.0000E+00  0.0000E+00  0.1000E+01  0.1000E+01
    -31.100  0.0000E+00  0.0000E+00  0.1000E+01  0.1000E+01
    -30.910  0.0000E+00  0.0000E+00  0.1000E+01  0.1000E+01
    -30.721  0.0000E+00  0.0000E+00  0.1000E+01  0.1000E+01
    -30.531  0.0000E+00  0.0000E+00  0.1000E+01  0.1000E+01
    -30.341  0.0000E+00  0.0000E+00  0.1000E+01  0.1000E+01
    -30.152  0.0000E+00  0.0000E+00  0.1000E+01  0.1000E+01
    -29.962  0.0000E+00  0.0000E+00  0.1000E+01  0.1000E+01
    -29.772  0.0000E+00  0.0000E+00  0.1000E+01  0.1000E+01
    -29.583  0.0000E+00  0.0000E+00  0.1000E+01  0.1000E+01
    -29.393  0.0000E+00  0.0000E+00  0.1000E+01  0.1000E+01
    -29.203  0.0000E+00  0.0000E+00  0.1000E+01  0.1000E+01
    -29.013  0.0000E+00  0.0000E+00  0.1000E+01  0.1000E+01
    -28.824  0.0000E+00  0.0000E+00  0.1000E+01  0.1000E+01
    -28.634  0.0000E+00  0.0000E+00  0.1000E+01  0.1000E+01
    -28.444  0.0000E+00  0.0000E+00  0.1000E+01  0.1000E+01
    -28.255  0.0000E+00  0.0000E+00  0.1000E+01  0.1000E+01
    -28.065  0.0000E+00  0.0000E+00  0.1000E+01  0.1000E+01
    -27.875  0.0000E+00  0.0000E+00  0.1000E+01  0.1000E+01
    -27.686  0.0000E+00  0.0000E+00  0.1000E+01  0.1000E+01
    -27.496  0.0000E+00  0.0000E+00  0.1000E+01  0.1000E+01
    -27.306  0.0000E+00  0.0000E+00  0.1000E+01  0.1000E+01
    -27.117  0.0000E+00  0.0000E+00  0.1000E+01  0.1000E+01
    -26.927  0.0000E+00  0.0000E+00  0.1000E+01  0.1000E+01
    -26.737  0.0000E+00  0.0000E+00  0.1000E+01  0.1000E+01
    -26.547  0.0000E+00  0.0000E+00  0.1000E+01  0.1000E+01
    -26.358  0.0000E+00  0.0000E+00  0.1000E+01  0.1000E+01
    -26.168  0.0000E+00  0.0000E+00  0.1000E+01  0.1000E+01
    -25.978  0.0000E+00  0.0000E+00  0.1000E+01  0.1000E+01
    -25.789  0.0000E+00  0.0000E+00  0.1000E+01  0.1000E+01
    -25.599  0.0000E+00  0.0000E+00  0.1000E+01  0.1000E+01
    -25.409  0.0000E+00  0.0000E+00  0.1000E+01  0.1000E+01
    -25.220  0.0000E+00  0.0000E+00  0.1000E+01  0.1000E+01
    -25.030  0.0000E+00  0.0000E+00  0.1000E+01  0.1000E+01
    -24.840  0.0000E+00  0.0000E+00  0.1000E+01  0.1000E+01
    -24.651  0.0000E+00  0.0000E+00  0.1000E+01  0.1000E+01
    -24.461  0.0000E+00  0.0000E+00  0.1000E+01  0.1000E+01
    -24.271  0.0000E+00  0.0000E+00  0.1000E+01  0.1000E+01
    -24.081  0.0000E+00  0.0000E+00  0.1000E+01  0.1000E+01
    -23.892  0.0000E+00  0.0000E+00  0.1000E+01  0.1000E+01
    -23.702  0.0000E+00  0.0000E+00  0.1000E+01  0.1000E+01
    -23.512  0.0000E+00  0.0000E+00  0.1000E+01  0.1000E+01
    -23.323  0.0000E+00  0.0000E+00  0.1000E+01  0.1000E+01
    -23.133  0.0000E+00  0.0000E+00  0.1000E+01  0.1000E+01
    -22.943  0.6445E-03  0.6416E-03  0.1000E+01  0.1000E+01
    -22.754  0.1865E+01  0.1863E+01  0.1354E+01  0.1354E+01
    -22.564  0.3387E+01  0.3389E+01  0.1996E+01  0.1996E+01
    -22.374  0.4876E+01  0.4875E+01  0.2921E+01  0.2921E+01
    -22.184  0.1006E+01  0.1007E+01  0.3112E+01  0.3112E+01
    -21.995  0.7326E+01  0.7325E+01  0.4502E+01  0.4502E+01
    -21.805  0.2054E+01  0.2054E+01  0.4891E+01  0.4891E+01
    -21.615  0.1415E+01  0.1415E+01  0.5160E+01  0.5160E+01
    -21.426  0.8108E+01  0.8107E+01  0.6698E+01  0.6698E+01
    -21.236  0.2180E+01  0.2181E+01  0.7111E+01  0.7111E+01
    -21.046  0.3431E+01  0.3431E+01  0.7762E+01  0.7762E+01
    -20.857  0.2036E+01  0.2034E+01  0.8148E+01  0.8148E+01
    -20.667  0.6958E+01  0.6958E+01  0.9468E+01  0.9468E+01
    -20.477  0.5114E+01  0.5115E+01  0.1044E+02  0.1044E+02
    -20.288  0.6063E-01  0.6060E-01  0.1045E+02  0.1045E+02
    -20.098  0.3736E+01  0.3735E+01  0.1116E+02  0.1116E+02
    -19.908  0.7383E+01  0.7380E+01  0.1256E+02  0.1256E+02
    -19.718  0.2913E+01  0.2915E+01  0.1311E+02  0.1311E+02
    -19.529  0.6775E+01  0.6775E+01  0.1440E+02  0.1440E+02
    -19.339  0.2526E+00  0.2529E+00  0.1444E+02  0.1444E+02
    -19.149  0.4821E+00  0.4817E+00  0.1454E+02  0.1454E+02
    -18.960  0.9363E+01  0.9362E+01  0.1631E+02  0.1631E+02
    -18.770  0.5381E+01  0.5382E+01  0.1733E+02  0.1733E+02
    -18.580  0.2346E+01  0.2346E+01  0.1778E+02  0.1778E+02
    -18.391  0.5772E+01  0.5771E+01  0.1887E+02  0.1887E+02
    -18.201  0.1257E+01  0.1258E+01  0.1911E+02  0.1911E+02
    -18.011  0.3821E+00  0.3813E+00  0.1918E+02  0.1918E+02
    -17.822  0.1222E+02  0.1222E+02  0.2150E+02  0.2150E+02
    -17.632  0.3153E+01  0.3153E+01  0.2210E+02  0.2210E+02
    -17.442  0.7489E+01  0.7490E+01  0.2352E+02  0.2352E+02
    -17.252  0.1352E+01  0.1353E+01  0.2378E+02  0.2378E+02
    -17.063  0.1152E-01  0.1148E-01  0.2378E+02  0.2378E+02
    -16.873  0.2930E+01  0.2929E+01  0.2434E+02  0.2434E+02
    -16.683  0.7600E+01  0.7601E+01  0.2578E+02  0.2578E+02
    -16.494  0.2798E+00  0.2795E+00  0.2583E+02  0.2583E+02
    -16.304  0.3237E+01  0.3237E+01  0.2644E+02  0.2644E+02
    -16.114  0.1317E+01  0.1316E+01  0.2669E+02  0.2669E+02
    -15.925  0.4781E+01  0.4781E+01  0.2760E+02  0.2760E+02
    -15.735  0.1030E+02  0.1030E+02  0.2955E+02  0.2955E+02
    -15.545  0.5282E-02  0.5296E-02  0.2956E+02  0.2956E+02
    -15.356  0.2465E+01  0.2462E+01  0.3002E+02  0.3002E+02
    -15.166  0.1159E+02  0.1159E+02  0.3222E+02  0.3222E+02
    -14.976  0.1663E+00  0.1660E+00  0.3225E+02  0.3225E+02
    -14.786  0.6845E+01  0.6845E+01  0.3355E+02  0.3355E+02
    -14.597  0.1265E+01  0.1264E+01  0.3379E+02  0.3379E+02
    -14.407  0.4393E+01  0.4392E+01  0.3462E+02  0.3462E+02
    -14.217  0.7406E+01  0.7407E+01  0.3603E+02  0.3603E+02
    -14.028  0.1014E+01  0.1015E+01  0.3622E+02  0.3622E+02
    -13.838  0.4674E+00  0.4672E+00  0.3631E+02  0.3631E+02
    -13.648  0.7558E+01  0.7198E+01  0.3774E+02  0.3768E+02
    -13.459  0.9846E+01  0.1005E+02  0.3961E+02  0.3958E+02
    -13.269  0.2994E+01  0.3151E+01  0.4018E+02  0.4018E+02
    -13.079  0.6664E+01  0.6665E+01  0.4144E+02  0.4144E+02
    -12.890  0.1327E+01  0.1326E+01  0.4170E+02  0.4170E+02
    -12.700  0.9987E+01  0.9987E+01  0.4359E+02  0.4359E+02
    -12.510  0.2744E+01  0.2745E+01  0.4411E+02  0.4411E+02
    -12.320  0.7553E-02  0.7527E-02  0.4411E+02  0.4411E+02
    -12.131  0.3926E+01  0.3926E+01  0.4486E+02  0.4486E+02
    -11.941  0.1395E+02  0.1395E+02  0.4750E+02  0.4750E+02
    -11.751  0.3202E+01  0.3204E+01  0.4811E+02  0.4811E+02
    -11.562  0.1642E+01  0.1641E+01  0.4842E+02  0.4842E+02
    -11.372  0.5387E+01  0.5388E+01  0.4944E+02  0.4944E+02
    -11.182  0.2254E+01  0.2253E+01  0.4987E+02  0.4987E+02
    -10.993  0.8371E+01  0.8372E+01  0.5146E+02  0.5146E+02
    -10.803  0.1070E+02  0.1068E+02  0.5349E+02  0.5349E+02
    -10.613  0.1076E+02  0.1010E+02  0.5553E+02  0.5540E+02
    -10.424  0.1029E+02  0.6133E+01  0.5748E+02  0.5656E+02
    -10.234  0.9143E+01  0.1397E+02  0.5922E+02  0.5921E+02
    -10.044  0.9974E+01  0.9970E+01  0.6111E+02  0.6111E+02
     -9.854  0.1452E+02  0.1453E+02  0.6386E+02  0.6386E+02
     -9.665  0.7751E+01  0.7753E+01  0.6533E+02  0.6533E+02
     -9.475  0.1728E+02  0.1728E+02  0.6861E+02  0.6861E+02
     -9.285  0.1453E+02  0.1453E+02  0.7137E+02  0.7137E+02
     -9.096  0.5277E+01  0.5279E+01  0.7237E+02  0.7237E+02
     -8.906  0.1019E+02  0.1019E+02  0.7430E+02  0.7430E+02
     -8.716  0.6871E+01  0.6764E+01  0.7560E+02  0.7558E+02
     -8.527  0.1642E+02  0.1652E+02  0.7872E+02  0.7872E+02
     -8.337  0.1464E+02  0.1464E+02  0.8149E+02  0.8149E+02
     -8.147  0.3833E+01  0.3835E+01  0.8222E+02  0.8222E+02
     -7.957  0.9777E-01  0.9691E-01  0.8224E+02  0.8224E+02
     -7.768  0.8641E+01  0.8635E+01  0.8388E+02  0.8388E+02
     -7.578  0.1455E+02  0.1453E+02  0.8664E+02  0.8663E+02
     -7.388  0.7188E+01  0.7217E+01  0.8800E+02  0.8800E+02
     -7.199  0.6321E+01  0.6297E+01  0.8920E+02  0.8920E+02
     -7.009  0.4984E+01  0.4920E+01  0.9015E+02  0.9013E+02
     -6.819  0.9562E+01  0.4890E+01  0.9196E+02  0.9106E+02
     -6.630  0.7513E+01  0.1212E+02  0.9339E+02  0.9336E+02
     -6.440  0.1145E+02  0.1159E+02  0.9556E+02  0.9556E+02
     -6.250  0.5647E+01  0.5652E+01  0.9663E+02  0.9663E+02
     -6.061  0.6996E+01  0.6991E+01  0.9796E+02  0.9796E+02
     -5.871  0.8767E+00  0.8814E+00  0.9812E+02  0.9812E+02
     -5.681  0.3490E+01  0.3489E+01  0.9879E+02  0.9878E+02
     -5.491  0.5124E+01  0.5018E+01  0.9976E+02  0.9974E+02
     -5.302  0.1912E+02  0.1440E+02  0.1034E+03  0.1025E+03
     -5.112  0.2076E+01  0.6746E+01  0.1038E+03  0.1037E+03
     -4.922  0.4983E+01  0.1957E+01  0.1047E+03  0.1041E+03
     -4.733  0.2289E+01  0.5468E+01  0.1052E+03  0.1052E+03
     -4.543  0.4992E+01  0.4927E+01  0.1061E+03  0.1061E+03
     -4.353  0.3553E+01  0.3611E+01  0.1068E+03  0.1068E+03
     -4.164  0.5276E+01  0.5281E+01  0.1078E+03  0.1078E+03
     -3.974  0.5217E+01  0.2673E+01  0.1088E+03  0.1083E+03
     -3.784  0.4791E-01  0.2598E+01  0.1088E+03  0.1088E+03
     -3.595  0.0000E+00  0.1960E-06  0.1088E+03  0.1088E+03
     -3.405  0.2811E-04  0.2371E-04  0.1088E+03  0.1088E+03
     -3.215  0.1949E+01  0.1936E+01  0.1091E+03  0.1091E+03
     -3.025  0.4701E+01  0.4072E+00  0.1100E+03  0.1092E+03
     -2.836  0.9653E+00  0.9755E-16  0.1102E+03  0.1092E+03
     -2.646  0.0000E+00  0.6744E-02  0.1102E+03  0.1092E+03
     -2.456  0.7425E-07  0.5214E+01  0.1102E+03  0.1102E+03
     -2.267  0.9557E+00  0.9341E+00  0.1104E+03  0.1104E+03
     -2.077  0.6600E+01  0.6640E+01  0.1117E+03  0.1116E+03
     -1.887  0.2856E+01  0.2678E+01  0.1122E+03  0.1122E+03
     -1.698  0.7054E+01  0.6587E+01  0.1135E+03  0.1134E+03
     -1.508  0.9457E+01  0.8916E+01  0.1153E+03  0.1151E+03
     -1.318  0.8154E+01  0.9311E+01  0.1169E+03  0.1169E+03
     -1.129  0.5981E+01  0.6029E+01  0.1180E+03  0.1180E+03
     -0.939  0.4495E+01  0.4501E+01  0.1189E+03  0.1189E+03
     -0.749  0.7128E+01  0.7131E+01  0.1202E+03  0.1202E+03
     -0.559  0.4279E+01  0.4008E-01  0.1210E+03  0.1202E+03
     -0.370  0.2057E+01  0.1279E+01  0.1214E+03  0.1205E+03
     -0.180  0.4008E+01  0.8712E+01  0.1222E+03  0.1221E+03
      0.010  0.5166E+01  0.5397E+01  0.1232E+03  0.1231E+03
      0.199  0.7668E+01  0.7465E+01  0.1246E+03  0.1246E+03
      0.389  0.8502E+01  0.7712E+01  0.1262E+03  0.1260E+03
      0.579  0.4284E+01  0.4581E+01  0.1270E+03  0.1269E+03
      0.768  0.1209E+02  0.1225E+02  0.1293E+03  0.1292E+03
      0.958  0.8629E+01  0.7444E+01  0.1310E+03  0.1306E+03
      1.148  0.6969E+01  0.7392E+01  0.1323E+03  0.1320E+03
      1.337  0.9429E+01  0.9697E+01  0.1341E+03  0.1339E+03
      1.527  0.1640E+02  0.1610E+02  0.1372E+03  0.1369E+03
      1.717  0.1199E+02  0.1249E+02  0.1395E+03  0.1393E+03
      1.907  0.2832E+01  0.3745E+01  0.1400E+03  0.1400E+03
      2.096  0.1503E-03  0.4895E-03  0.1400E+03  0.1400E+03
      2.286  0.0000E+00  0.0000E+00  0.1400E+03  0.1400E+03
      2.476  0.0000E+00  0.0000E+00  0.1400E+03  0.1400E+03
      2.665  0.0000E+00  0.0000E+00  0.1400E+03  0.1400E+03
      2.855  0.0000E+00  0.0000E+00  0.1400E+03  0.1400E+03
      3.045  0.0000E+00  0.0000E+00  0.1400E+03  0.1400E+03
      3.234  0.0000E+00  0.0000E+00  0.1400E+03  0.1400E+03
      3.424  0.0000E+00  0.0000E+00  0.1400E+03  0.1400E+03
      3.614  0.0000E+00  0.0000E+00  0.1400E+03  0.1400E+03
      3.804  0.0000E+00  0.0000E+00  0.1400E+03  0.1400E+03
      3.993  0.0000E+00  0.0000E+00  0.1400E+03  0.1400E+03
      4.183  0.0000E+00  0.0000E+00  0.1400E+03  0.1400E+03
      4.373  0.0000E+00  0.0000E+00  0.1400E+03  0.1400E+03
