  51  51   0   0
  0.7707117E+02  0.1230000E-08  0.1230000E-08  0.3000000E-08  0.5000000E-15
  1.000000000000000E-004
  CAR 
 Li defective graphene MACE training lab 
      4.83886619    -54.80778368  301     -2.56417596      1.00000000
    -54.808  0.0000E+00  0.0000E+00  0.0000E+00  0.0000E+00
    -54.609  0.0000E+00  0.0000E+00  0.0000E+00  0.0000E+00
    -54.410  0.0000E+00  0.0000E+00  0.0000E+00  0.0000E+00
    -54.211  0.0000E+00  0.0000E+00  0.0000E+00  0.0000E+00
    -54.012  0.0000E+00  0.0000E+00  0.0000E+00  0.0000E+00
    -53.814  0.0000E+00  0.0000E+00  0.0000E+00  0.0000E+00
    -53.615  0.0000E+00  0.0000E+00  0.0000E+00  0.0000E+00
    -53.416  0.0000E+00  0.0000E+00  0.0000E+00  0.0000E+00
    -53.217  0.0000E+00  0.0000E+00  0.0000E+00  0.0000E+00
    -53.018  0.0000E+00  0.0000E+00  0.0000E+00  0.0000E+00
    -52.820  0.0000E+00  0.0000E+00  0.0000E+00  0.0000E+00
    -52.621  0.0000E+00  0.0000E+00  0.0000E+00  0.0000E+00
    -52.422  0.0000E+00  0.0000E+00  0.0000E+00  0.0000E+00
    -52.223  0.8686E-03  0.7413E-03  0.1727E-03  0.1474E-03
    -52.024  0.4926E+01  0.4915E+01  0.9796E+00  0.9774E+00
    -51.825  0.1028E+00  0.1134E+00  0.1000E+01  0.1000E+01
    -51.627  0.0000E+00  0.0000E+00  0.1000E+01  0.1000E+01
    -51.428  0.0000E+00  0.0000E+00  0.1000E+01  0.1000E+01
    -51.229  0.0000E+00  0.0000E+00  0.1000E+01  0.1000E+01
    -51.030  0.0000E+00  0.0000E+00  0.1000E+01  0.1000E+01
    -50.831  0.0000E+00  0.0000E+00  0.1000E+01  0.1000E+01
    -50.633  0.0000E+00  0.0000E+00  0.1000E+01  0.1000E+01
    -50.434  0.0000E+00  0.0000E+00  0.1000E+01  0.1000E+01
    -50.235  0.0000E+00  0.0000E+00  0.1000E+01  0.1000E+01
    -50.036  0.0000E+00  0.0000E+00  0.1000E+01  0.1000E+01
    -49.837  0.0000E+00  0.0000E+00  0.1000E+01  0.1000E+01
    -49.638  0.0000E+00  0.0000E+00  0.1000E+01  0.1000E+01
    -49.440  0.0000E+00  0.0000E+00  0.1000E+01  0.1000E+01
    -49.241  0.0000E+00  0.0000E+00  0.1000E+01  0.1000E+01
    -49.042  0.0000E+00  0.0000E+00  0.1000E+01  0.1000E+01
    -48.843  0.0000E+00  0.0000E+00  0.1000E+01  0.1000E+01
    -48.644  0.0000E+00  0.0000E+00  0.1000E+01  0.1000E+01
    -48.445  0.0000E+00  0.0000E+00  0.1000E+01  0.1000E+01
    -48.247  0.0000E+00  0.0000E+00  0.1000E+01  0.1000E+01
    -48.048  0.0000E+00  0.0000E+00  0.1000E+01  0.1000E+01
    -47.849  0.0000E+00  0.0000E+00  0.1000E+01  0.1000E+01
    -47.650  0.0000E+00  0.0000E+00  0.1000E+01  0.1000E+01
    -47.451  0.0000E+00  0.0000E+00  0.1000E+01  0.1000E+01
    -47.253  0.0000E+00  0.0000E+00  0.1000E+01  0.1000E+01
    -47.054  0.0000E+00  0.0000E+00  0.1000E+01  0.1000E+01
    -46.855  0.0000E+00  0.0000E+00  0.1000E+01  0.1000E+01
    -46.656  0.0000E+00  0.0000E+00  0.1000E+01  0.1000E+01
    -46.457  0.0000E+00  0.0000E+00  0.1000E+01  0.1000E+01
    -46.258  0.0000E+00  0.0000E+00  0.1000E+01  0.1000E+01
    -46.060  0.0000E+00  0.0000E+00  0.1000E+01  0.1000E+01
    -45.861  0.0000E+00  0.0000E+00  0.1000E+01  0.1000E+01
    -45.662  0.0000E+00  0.0000E+00  0.1000E+01  0.1000E+01
    -45.463  0.0000E+00  0.0000E+00  0.1000E+01  0.1000E+01
    -45.264  0.0000E+00  0.0000E+00  0.1000E+01  0.1000E+01
    -45.065  0.0000E+00  0.0000E+00  0.1000E+01  0.1000E+01
    -44.867  0.0000E+00  0.0000E+00  0.1000E+01  0.1000E+01
    -44.668  0.0000E+00  0.0000E+00  0.1000E+01  0.1000E+01
    -44.469  0.0000E+00  0.0000E+00  0.1000E+01  0.1000E+01
    -44.270  0.0000E+00  0.0000E+00  0.1000E+01  0.1000E+01
    -44.071  0.0000E+00  0.0000E+00  0.1000E+01  0.1000E+01
    -43.873  0.0000E+00  0.0000E+00  0.1000E+01  0.1000E+01
    -43.674  0.0000E+00  0.0000E+00  0.1000E+01  0.1000E+01
    -43.475  0.0000E+00  0.0000E+00  0.1000E+01  0.1000E+01
    -43.276  0.0000E+00  0.0000E+00  0.1000E+01  0.1000E+01
    -43.077  0.0000E+00  0.0000E+00  0.1000E+01  0.1000E+01
    -42.878  0.0000E+00  0.0000E+00  0.1000E+01  0.1000E+01
    -42.680  0.0000E+00  0.0000E+00  0.1000E+01  0.1000E+01
    -42.481  0.0000E+00  0.0000E+00  0.1000E+01  0.1000E+01
    -42.282  0.0000E+00  0.0000E+00  0.1000E+01  0.1000E+01
    -42.083  0.0000E+00  0.0000E+00  0.1000E+01  0.1000E+01
    -41.884  0.0000E+00  0.0000E+00  0.1000E+01  0.1000E+01
    -41.686  0.0000E+00  0.0000E+00  0.1000E+01  0.1000E+01
    -41.487  0.0000E+00  0.0000E+00  0.1000E+01  0.1000E+01
    -41.288  0.0000E+00  0.0000E+00  0.1000E+01  0.1000E+01
    -41.089  0.0000E+00  0.0000E+00  0.1000E+01  0.1000E+01
    -40.890  0.0000E+00  0.0000E+00  0.1000E+01  0.1000E+01
    -40.691  0.0000E+00  0.0000E+00  0.1000E+01  0.1000E+01
    -40.493  0.0000E+00  0.0000E+00  0.1000E+01  0.1000E+01
    -40.294  0.0000E+00  0.0000E+00  0.1000E+01  0.1000E+01
    -40.095  0.0000E+00  0.0000E+00  0.1000E+01  0.1000E+01
    -39.896  0.0000E+00  0.0000E+00  0.1000E+01  0.1000E+01
    -39.697  0.0000E+00  0.0000E+00  0.1000E+01  0.1000E+01
    -39.498  0.0000E+00  0.0000E+00  0.1000E+01  0.1000E+01
    -39.300  0.0000E+00  0.0000E+00  0.1000E+01  0.1000E+01
    -39.101  0.0000E+00  0.0000E+00  0.1000E+01  0.1000E+01
    -38.902  0.0000E+00  0.0000E+00  0.1000E+01  0.1000E+01
    -38.703  0.0000E+00  0.0000E+00  0.1000E+01  0.1000E+01
    -38.504  0.0000E+00  0.0000E+00  0.1000E+01  0.1000E+01
    -38.306  0.0000E+00  0.0000E+00  0.1000E+01  0.1000E+01
    -38.107  0.0000E+00  0.0000E+00  0.1000E+01  0.1000E+01
    -37.908  0.0000E+00  0.0000E+00  0.1000E+01  0.1000E+01
    -37.709  0.0000E+00  0.0000E+00  0.1000E+01  0.1000E+01
    -37.510  0.0000E+00  0.0000E+00  0.1000E+01  0.1000E+01
    -37.311  0.0000E+00  0.0000E+00  0.1000E+01  0.1000E+01
    -37.113  0.0000E+00  0.0000E+00  0.1000E+01  0.1000E+01
    -36.914  0.0000E+00  0.0000E+00  0.1000E+01  0.1000E+01
    -36.715  0.0000E+00  0.0000E+00  0.1000E+01  0.1000E+01
    -36.516  0.0000E+00  0.0000E+00  0.1000E+01  0.1000E+01
    -36.317  0.0000E+00  0.0000E+00  0.1000E+01  0.1000E+01
    -36.119  0.0000E+00  0.0000E+00  0.1000E+01  0.1000E+01
    -35.920  0.0000E+00  0.0000E+00  0.1000E+01  0.1000E+01
    -35.721  0.0000E+00  0.0000E+00  0.1000E+01  0.1000E+01
    -35.522  0.0000E+00  0.0000E+00  0.1000E+01  0.1000E+01
    -35.323  0.0000E+00  0.0000E+00  0.1000E+01  0.1000E+01
    -35.124  0.0000E+00  0.0000E+00  0.1000E+01  0.1000E+01
    -34.926  0.0000E+00  0.0000E+00  0.1000E+01  0.1000E+01
    -34.727  0.0000E+00  0.0000E+00  0.1000E+01  0.1000E+01
    -34.528  0.0000E+00  0.0000E+00  0.1000E+01  0.1000E+01
    -34.329  0.0000E+00  0.0000E+00  0.1000E+01  0.1000E+01
    -34.130  0.0000E+00  0.0000E+00  0.1000E+01  0.1000E+01
    -33.931  0.0000E+00  0.0000E+00  0.1000E+01  0.1000E+01
    -33.733  0.0000E+00  0.0000E+00  0.1000E+01  0.1000E+01
    -33.534  0.0000E+00  0.0000E+00  0.1000E+01  0.1000E+01
    -33.335  0.0000E+00  0.0000E+00  0.1000E+01  0.1000E+01
    -33.136  0.0000E+00  0.0000E+00  0.1000E+01  0.1000E+01
    -32.937  0.0000E+00  0.0000E+00  0.1000E+01  0.1000E+01
    -32.739  0.0000E+00  0.0000E+00  0.1000E+01  0.1000E+01
    -32.540  0.0000E+00  0.0000E+00  0.1000E+01  0.1000E+01
    -32.341  0.0000E+00  0.0000E+00  0.1000E+01  0.1000E+01
    -32.142  0.0000E+00  0.0000E+00  0.1000E+01  0.1000E+01
    -31.943  0.0000E+00  0.0000E+00  0.1000E+01  0.1000E+01
    -31.744  0.0000E+00  0.0000E+00  0.1000E+01  0.1000E+01
    -31.546  0.0000E+00  0.0000E+00  0.1000E+01  0.1000E+01
    -31.347  0.0000E+00  0.0000E+00  0.1000E+01  0.1000E+01
    -31.148  0.0000E+00  0.0000E+00  0.1000E+01  0.1000E+01
    -30.949  0.0000E+00  0.0000E+00  0.1000E+01  0.1000E+01
    -30.750  0.0000E+00  0.0000E+00  0.1000E+01  0.1000E+01
    -30.551  0.0000E+00  0.0000E+00  0.1000E+01  0.1000E+01
    -30.353  0.0000E+00  0.0000E+00  0.1000E+01  0.1000E+01
    -30.154  0.0000E+00  0.0000E+00  0.1000E+01  0.1000E+01
    -29.955  0.0000E+00  0.0000E+00  0.1000E+01  0.1000E+01
    -29.756  0.0000E+00  0.0000E+00  0.1000E+01  0.1000E+01
    -29.557  0.0000E+00  0.0000E+00  0.1000E+01  0.1000E+01
    -29.359  0.0000E+00  0.0000E+00  0.1000E+01  0.1000E+01
    -29.160  0.0000E+00  0.0000E+00  0.1000E+01  0.1000E+01
    -28.961  0.0000E+00  0.0000E+00  0.1000E+01  0.1000E+01
    -28.762  0.0000E+00  0.0000E+00  0.1000E+01  0.1000E+01
    -28.563  0.0000E+00  0.0000E+00  0.1000E+01  0.1000E+01
    -28.364  0.0000E+00  0.0000E+00  0.1000E+01  0.1000E+01
    -28.166  0.0000E+00  0.0000E+00  0.1000E+01  0.1000E+01
    -27.967  0.0000E+00  0.0000E+00  0.1000E+01  0.1000E+01
    -27.768  0.0000E+00  0.0000E+00  0.1000E+01  0.1000E+01
    -27.569  0.0000E+00  0.0000E+00  0.1000E+01  0.1000E+01
    -27.370  0.0000E+00  0.0000E+00  0.1000E+01  0.1000E+01
    -27.172  0.0000E+00  0.0000E+00  0.1000E+01  0.1000E+01
    -26.973  0.0000E+00  0.0000E+00  0.1000E+01  0.1000E+01
    -26.774  0.0000E+00  0.0000E+00  0.1000E+01  0.1000E+01
    -26.575  0.0000E+00  0.0000E+00  0.1000E+01  0.1000E+01
    -26.376  0.0000E+00  0.0000E+00  0.1000E+01  0.1000E+01
    -26.177  0.0000E+00  0.0000E+00  0.1000E+01  0.1000E+01
    -25.979  0.0000E+00  0.0000E+00  0.1000E+01  0.1000E+01
    -25.780  0.0000E+00  0.0000E+00  0.1000E+01  0.1000E+01
    -25.581  0.0000E+00  0.0000E+00  0.1000E+01  0.1000E+01
    -25.382  0.0000E+00  0.0000E+00  0.1000E+01  0.1000E+01
    -25.183  0.0000E+00  0.0000E+00  0.1000E+01  0.1000E+01
    -24.984  0.0000E+00  0.0000E+00  0.1000E+01  0.1000E+01
    -24.786  0.0000E+00  0.0000E+00  0.1000E+01  0.1000E+01
    -24.587  0.0000E+00  0.0000E+00  0.1000E+01  0.1000E+01
    -24.388  0.0000E+00  0.0000E+00  0.1000E+01  0.1000E+01
    -24.189  0.0000E+00  0.0000E+00  0.1000E+01  0.1000E+01
    -23.990  0.0000E+00  0.0000E+00  0.1000E+01  0.1000E+01
    -23.792  0.0000E+00  0.0000E+00  0.1000E+01  0.1000E+01
    -23.593  0.0000E+00  0.0000E+00  0.1000E+01  0.1000E+01
    -23.394  0.0000E+00  0.0000E+00  0.1000E+01  0.1000E+01
    -23.195  0.0000E+00  0.0000E+00  0.1000E+01  0.1000E+01
    -22.996  0.0000E+00  0.0000E+00  0.1000E+01  0.1000E+01
    -22.797  0.0000E+00  0.0000E+00  0.1000E+01  0.1000E+01
    -22.599  0.2236E-07  0.4662E-08  0.1000E+01  0.1000E+01
    -22.400  0.4704E+00  0.3445E+00  0.1094E+01  0.1068E+01
    -22.201  0.4541E+01  0.4647E+01  0.1996E+01  0.1992E+01
    -22.002  0.2439E+01  0.2106E+01  0.2481E+01  0.2411E+01
    -21.803  0.3847E+01  0.4025E+01  0.3246E+01  0.3211E+01
    -21.604  0.2924E+01  0.3001E+01  0.3828E+01  0.3808E+01
    -21.406  0.4365E+01  0.4430E+01  0.4695E+01  0.4689E+01
    -21.207  0.2596E+01  0.2576E+01  0.5212E+01  0.5201E+01
    -21.008  0.4908E+01  0.4857E+01  0.6187E+01  0.6167E+01
    -20.809  0.4631E+01  0.4727E+01  0.7108E+01  0.7107E+01
    -20.610  0.2004E+01  0.1879E+01  0.7506E+01  0.7480E+01
    -20.412  0.4846E+01  0.4609E+01  0.8470E+01  0.8397E+01
    -20.213  0.3684E+01  0.3762E+01  0.9202E+01  0.9145E+01
    -20.014  0.4419E+01  0.4623E+01  0.1008E+02  0.1006E+02
    -19.815  0.1480E+01  0.1507E+01  0.1038E+02  0.1036E+02
    -19.616  0.5593E+01  0.5588E+01  0.1149E+02  0.1147E+02
    -19.417  0.3801E+01  0.3785E+01  0.1224E+02  0.1223E+02
    -19.219  0.4398E+01  0.4386E+01  0.1312E+02  0.1310E+02
    -19.020  0.4504E+01  0.4368E+01  0.1401E+02  0.1397E+02
    -18.821  0.2447E+01  0.2650E+01  0.1450E+02  0.1449E+02
    -18.622  0.2373E+01  0.2164E+01  0.1497E+02  0.1492E+02
    -18.423  0.7744E+01  0.7779E+01  0.1651E+02  0.1647E+02
    -18.225  0.3697E+01  0.3869E+01  0.1725E+02  0.1724E+02
    -18.026  0.2973E+01  0.2791E+01  0.1784E+02  0.1780E+02
    -17.827  0.5928E+01  0.6006E+01  0.1902E+02  0.1899E+02
    -17.628  0.5872E+00  0.6945E+00  0.1913E+02  0.1913E+02
    -17.429  0.7489E+01  0.7106E+01  0.2062E+02  0.2054E+02
    -17.230  0.5328E+01  0.5655E+01  0.2168E+02  0.2166E+02
    -17.032  0.3997E+01  0.4023E+01  0.2248E+02  0.2246E+02
    -16.833  0.4521E+01  0.4514E+01  0.2337E+02  0.2336E+02
    -16.634  0.2224E+01  0.2230E+01  0.2382E+02  0.2381E+02
    -16.435  0.1715E+01  0.1705E+01  0.2416E+02  0.2414E+02
    -16.236  0.7263E+01  0.7100E+01  0.2560E+02  0.2556E+02
    -16.037  0.2546E+01  0.2749E+01  0.2611E+02  0.2610E+02
    -15.839  0.6628E+00  0.5250E+00  0.2624E+02  0.2621E+02
    -15.640  0.3841E+01  0.3951E+01  0.2700E+02  0.2699E+02
    -15.441  0.3293E+01  0.3270E+01  0.2766E+02  0.2764E+02
    -15.242  0.7557E+01  0.7467E+01  0.2916E+02  0.2913E+02
    -15.043  0.3082E+01  0.3064E+01  0.2977E+02  0.2974E+02
    -14.845  0.5290E+01  0.5341E+01  0.3082E+02  0.3080E+02
    -14.646  0.4797E+01  0.4789E+01  0.3178E+02  0.3175E+02
    -14.447  0.2380E+01  0.2369E+01  0.3225E+02  0.3222E+02
    -14.248  0.5396E+01  0.5520E+01  0.3332E+02  0.3332E+02
    -14.049  0.5155E+01  0.5086E+01  0.3435E+02  0.3433E+02
    -13.850  0.4181E+01  0.4150E+01  0.3518E+02  0.3516E+02
    -13.652  0.3141E+01  0.3175E+01  0.3581E+02  0.3579E+02
    -13.453  0.4475E+00  0.5295E+00  0.3589E+02  0.3589E+02
    -13.254  0.5492E+01  0.5211E+01  0.3699E+02  0.3693E+02
    -13.055  0.6094E+01  0.6207E+01  0.3820E+02  0.3816E+02
    -12.856  0.4858E+01  0.4966E+01  0.3916E+02  0.3915E+02
    -12.657  0.3097E+01  0.3164E+01  0.3978E+02  0.3978E+02
    -12.459  0.4430E+01  0.4422E+01  0.4066E+02  0.4066E+02
    -12.260  0.4335E+01  0.4282E+01  0.4152E+02  0.4151E+02
    -12.061  0.6198E+01  0.6016E+01  0.4275E+02  0.4271E+02
    -11.862  0.3139E+01  0.3353E+01  0.4338E+02  0.4337E+02
    -11.663  0.3449E+01  0.3344E+01  0.4406E+02  0.4404E+02
    -11.465  0.8905E+01  0.8934E+01  0.4583E+02  0.4581E+02
    -11.266  0.4434E+01  0.4439E+01  0.4672E+02  0.4670E+02
    -11.067  0.4016E+01  0.4041E+01  0.4751E+02  0.4750E+02
    -10.868  0.4582E+01  0.4634E+01  0.4843E+02  0.4842E+02
    -10.669  0.4000E+01  0.3832E+01  0.4922E+02  0.4918E+02
    -10.470  0.1107E+02  0.1043E+02  0.5142E+02  0.5126E+02
    -10.272  0.1010E+02  0.1061E+02  0.5343E+02  0.5336E+02
    -10.073  0.5423E+01  0.5370E+01  0.5451E+02  0.5443E+02
     -9.874  0.9913E+01  0.1013E+02  0.5648E+02  0.5645E+02
     -9.675  0.9409E+01  0.9180E+01  0.5835E+02  0.5827E+02
     -9.476  0.8975E+01  0.8717E+01  0.6013E+02  0.6000E+02
     -9.278  0.1186E+02  0.1213E+02  0.6249E+02  0.6242E+02
     -9.079  0.1329E+02  0.1331E+02  0.6514E+02  0.6506E+02
     -8.880  0.1220E+02  0.1185E+02  0.6756E+02  0.6742E+02
     -8.681  0.1024E+02  0.1079E+02  0.6960E+02  0.6956E+02
     -8.482  0.6500E+01  0.6139E+01  0.7089E+02  0.7078E+02
     -8.283  0.9483E+01  0.9775E+01  0.7277E+02  0.7273E+02
     -8.085  0.1054E+02  0.1016E+02  0.7487E+02  0.7475E+02
     -7.886  0.1273E+02  0.1293E+02  0.7740E+02  0.7732E+02
     -7.687  0.4730E+01  0.5105E+01  0.7834E+02  0.7833E+02
     -7.488  0.5002E+01  0.4550E+01  0.7933E+02  0.7924E+02
     -7.289  0.9631E+01  0.9559E+01  0.8125E+02  0.8114E+02
     -7.090  0.9648E+01  0.9636E+01  0.8317E+02  0.8305E+02
     -6.892  0.7938E+01  0.8312E+01  0.8474E+02  0.8471E+02
     -6.693  0.9629E+01  0.9447E+01  0.8666E+02  0.8659E+02
     -6.494  0.4073E+01  0.4359E+01  0.8747E+02  0.8745E+02
     -6.295  0.6882E+01  0.6850E+01  0.8884E+02  0.8881E+02
     -6.096  0.7359E+01  0.6643E+01  0.9030E+02  0.9014E+02
     -5.898  0.9130E+01  0.9696E+01  0.9212E+02  0.9206E+02
     -5.699  0.3948E+01  0.3644E+01  0.9290E+02  0.9279E+02
     -5.500  0.6036E+01  0.6489E+01  0.9410E+02  0.9408E+02
     -5.301  0.1335E+01  0.1352E+01  0.9437E+02  0.9435E+02
     -5.102  0.4098E+01  0.3709E+01  0.9518E+02  0.9508E+02
     -4.903  0.8758E+01  0.8552E+01  0.9692E+02  0.9678E+02
     -4.705  0.6230E+01  0.6503E+01  0.9816E+02  0.9808E+02
     -4.506  0.1234E+01  0.1471E+01  0.9841E+02  0.9837E+02
     -4.307  0.3105E+01  0.3061E+01  0.9902E+02  0.9898E+02
     -4.108  0.1532E+01  0.1734E+01  0.9933E+02  0.9932E+02
     -3.909  0.3273E+01  0.2939E+01  0.9998E+02  0.9991E+02
     -3.710  0.1790E+01  0.2126E+01  0.1003E+03  0.1003E+03
     -3.512  0.2223E+01  0.2240E+01  0.1008E+03  0.1008E+03
     -3.313  0.5027E-02  0.1298E-01  0.1008E+03  0.1008E+03
     -3.114  0.4087E-07  0.3609E-10  0.1008E+03  0.1008E+03
     -2.915  0.6650E+00  0.2030E+00  0.1009E+03  0.1008E+03
     -2.716  0.1985E+01  0.2021E+01  0.1013E+03  0.1012E+03
     -2.518  0.2353E+01  0.1404E+01  0.1018E+03  0.1015E+03
     -2.319  0.2164E+01  0.2988E+01  0.1022E+03  0.1021E+03
     -2.120  0.9809E-01  0.6490E+00  0.1022E+03  0.1022E+03
     -1.921  0.1497E+00  0.3556E-01  0.1023E+03  0.1022E+03
     -1.722  0.4065E+01  0.3935E+01  0.1031E+03  0.1030E+03
     -1.523  0.4038E+01  0.4168E+01  0.1039E+03  0.1038E+03
     -1.325  0.1038E+01  0.8479E+00  0.1041E+03  0.1040E+03
     -1.126  0.7061E+01  0.6925E+01  0.1055E+03  0.1054E+03
     -0.927  0.6412E+01  0.6635E+01  0.1067E+03  0.1067E+03
     -0.728  0.8223E+01  0.7947E+01  0.1084E+03  0.1083E+03
     -0.529  0.5339E+01  0.5136E+01  0.1094E+03  0.1093E+03
     -0.331  0.2236E+01  0.2932E+01  0.1099E+03  0.1099E+03
     -0.132  0.8646E+00  0.5055E+00  0.1101E+03  0.1100E+03
      0.067  0.4699E+01  0.4732E+01  0.1110E+03  0.1109E+03
      0.266  0.6609E+01  0.6388E+01  0.1123E+03  0.1122E+03
      0.465  0.9077E+01  0.9149E+01  0.1141E+03  0.1140E+03
      0.664  0.6096E+01  0.6499E+01  0.1153E+03  0.1153E+03
      0.862  0.5400E+01  0.5081E+01  0.1164E+03  0.1163E+03
      1.061  0.7642E+01  0.7752E+01  0.1179E+03  0.1179E+03
      1.260  0.1103E+02  0.1037E+02  0.1201E+03  0.1199E+03
      1.459  0.1357E+02  0.1291E+02  0.1228E+03  0.1225E+03
      1.658  0.1624E+02  0.1644E+02  0.1260E+03  0.1258E+03
      1.857  0.1924E+02  0.1813E+02  0.1299E+03  0.1294E+03
      2.055  0.8951E+01  0.1048E+02  0.1316E+03  0.1314E+03
      2.254  0.1791E+01  0.2769E+01  0.1320E+03  0.1320E+03
      2.453  0.9677E-04  0.2331E-04  0.1320E+03  0.1320E+03
      2.652  0.0000E+00  0.0000E+00  0.1320E+03  0.1320E+03
      2.851  0.0000E+00  0.0000E+00  0.1320E+03  0.1320E+03
      3.049  0.0000E+00  0.0000E+00  0.1320E+03  0.1320E+03
      3.248  0.0000E+00  0.0000E+00  0.1320E+03  0.1320E+03
      3.447  0.0000E+00  0.0000E+00  0.1320E+03  0.1320E+03
      3.646  0.0000E+00  0.0000E+00  0.1320E+03  0.1320E+03
      3.845  0.0000E+00  0.0000E+00  0.1320E+03  0.1320E+03
      4.044  0.0000E+00  0.0000E+00  0.1320E+03  0.1320E+03
      4.242  0.0000E+00  0.0000E+00  0.1320E+03  0.1320E+03
      4.441  0.0000E+00  0.0000E+00  0.1320E+03  0.1320E+03
      4.640  0.0000E+00  0.0000E+00  0.1320E+03  0.1320E+03
      4.839  0.0000E+00  0.0000E+00  0.1320E+03  0.1320E+03
