       N       E                     dE             d eps       ncg     rms          rms(c)
DAV:   1     0.193508367675E+04    0.19351E+04   -0.67728E+04  3240   0.106E+03
DAV:   2     0.406438547773E+02   -0.18944E+04   -0.17509E+04  4080   0.236E+02
DAV:   3    -0.462890108573E+03   -0.50353E+03   -0.49929E+03  3476   0.128E+02
DAV:   4    -0.489492715979E+03   -0.26603E+02   -0.26303E+02  3408   0.388E+01
DAV:   5    -0.490435468897E+03   -0.94275E+00   -0.93560E+00  3848   0.619E+00    0.330E+01
DAV:   6    -0.465340855870E+03    0.25095E+02   -0.25231E+01  2940   0.126E+01    0.190E+01
DAV:   7    -0.453343097474E+03    0.11998E+02   -0.17263E+01  3012   0.101E+01    0.100E+01
DAV:   8    -0.452742964710E+03    0.60013E+00   -0.44775E+00  3068   0.476E+00    0.390E+00
DAV:   9    -0.453791651925E+03   -0.10487E+01   -0.59872E-01  3448   0.202E+00    0.145E+00
DAV:  10    -0.454147613398E+03   -0.35596E+00   -0.19147E-01  2816   0.106E+00    0.988E-01
DAV:  11    -0.454456146512E+03   -0.30853E+00   -0.50276E-02  3536   0.496E-01    0.839E-01
DAV:  12    -0.455168982875E+03   -0.71284E+00   -0.19047E-01  2880   0.784E-01    0.602E-01
DAV:  13    -0.455212203220E+03   -0.43220E-01   -0.11946E-01  2828   0.631E-01    0.440E-01
DAV:  14    -0.455725774449E+03   -0.51357E+00   -0.59066E-02  2924   0.427E-01    0.301E-01
DAV:  15    -0.456482342424E+03   -0.75657E+00   -0.36237E-02  2920   0.291E-01    0.203E-01
DAV:  16    -0.456880094529E+03   -0.39775E+00   -0.79481E-03  2984   0.173E-01    0.153E-01
DAV:  17    -0.457223164808E+03   -0.34307E+00   -0.66205E-03  2876   0.154E-01    0.101E-01
DAV:  18    -0.457344412350E+03   -0.12125E+00   -0.26537E-03  2948   0.951E-02    0.752E-02
DAV:  19    -0.457384491669E+03   -0.40079E-01   -0.11985E-03  3036   0.675E-02    0.555E-02
DAV:  20    -0.457399602153E+03   -0.15110E-01   -0.72811E-04  3064   0.544E-02    0.385E-02
DAV:  21    -0.457414352496E+03   -0.14750E-01   -0.26132E-04  2944   0.424E-02    0.264E-02
DAV:  22    -0.457444060022E+03   -0.29708E-01   -0.15248E-04  2952   0.370E-02    0.154E-02
DAV:  23    -0.457458665968E+03   -0.14606E-01   -0.64923E-05  2976   0.299E-02    0.943E-03
DAV:  24    -0.457462732395E+03   -0.40664E-02   -0.37130E-05  2380   0.210E-02    0.630E-03
DAV:  25    -0.457464904809E+03   -0.21724E-02   -0.35815E-05  2440   0.180E-02    0.373E-03
DAV:  26    -0.457465792513E+03   -0.88770E-03   -0.12990E-05  2440   0.117E-02    0.245E-03
DAV:  27    -0.457466195536E+03   -0.40302E-03   -0.39408E-06  2404   0.595E-03    0.152E-03
DAV:  28    -0.457466418154E+03   -0.22262E-03   -0.13886E-06  2216   0.337E-03    0.103E-03
DAV:  29    -0.457466536677E+03   -0.11852E-03   -0.72137E-07  2056   0.199E-03    0.675E-04
DAV:  30    -0.457466606997E+03   -0.70321E-04   -0.47139E-07  1956   0.137E-03    0.428E-04
DAV:  31    -0.457466647713E+03   -0.40716E-04   -0.22400E-07  2028   0.965E-04    0.295E-04
DAV:  32    -0.457466668196E+03   -0.20483E-04   -0.89273E-08  2000   0.669E-04    0.189E-04
DAV:  33    -0.457466675910E+03   -0.77140E-05   -0.26648E-08  1948   0.420E-04    0.152E-04
DAV:  34    -0.457466678776E+03   -0.28667E-05   -0.97563E-10  1936   0.254E-04    0.135E-04
DAV:  35    -0.457466680041E+03   -0.12651E-05    0.10385E-08  1912   0.162E-04    0.129E-04
DAV:  36    -0.457466680593E+03   -0.55140E-06    0.14061E-08  1832   0.106E-04
   1 F= -.45746668E+03 E0= -.45746316E+03  d E =-.703417E-02  mag=     0.2832
