 vasp.5.4.1 24Jun15 (build Jul 23 2024 06:15:33) complex                        
  
 executed on           IFC91_ompi date 2026.05.05  14:58:12
 running on   16 total cores
 distrk:  each k-point on   16 cores,    1 groups
 distr:  one band on NCORES_PER_BAND=   4 cores,    4 groups


--------------------------------------------------------------------------------------------------------


 INCAR:
 POTCAR:    PAW_PBE C 08Apr2002                   
 POTCAR:    PAW_PBE Li_sv 10Sep2004               
 POTCAR:    PAW_PBE C 08Apr2002                   
   VRHFIN =C: s2p2                                                              
   LEXCH  = PE                                                                  
   EATOM  =   147.1560 eV,   10.8157 Ry                                         
                                                                                
   TITEL  = PAW_PBE C 08Apr2002                                                 
   LULTRA =        F    use ultrasoft PP ?                                      
   IUNSCR =        1    unscreen: 0-lin 1-nonlin 2-no                           
   RPACOR =    1.200    partial core radius                                     
   POMASS =   12.011; ZVAL   =    4.000    mass and valenz                      
   RCORE  =    1.500    outmost cutoff radius                                   
   RWIGS  =    1.630; RWIGS  =    0.863    wigner-seitz radius (au A)           
   ENMAX  =  400.000; ENMIN  =  300.000 eV                                      
   ICORE  =        2    local potential                                         
   LCOR   =        T    correct aug charges                                     
   LPAW   =        T    paw PP                                                  
   EAUG   =  644.873                                                            
   DEXC   =    0.000                                                            
   RMAX   =    1.529    core radius for proj-oper                               
   RAUG   =    1.300    factor for augmentation sphere                          
   RDEP   =    1.501    radius for radial grids                                 
   RDEPT  =    1.300    core radius for aug-charge                              
                                                                                
   Atomic configuration                                                         
    4 entries                                                                   
     n  l   j            E        occ.                                          
     1  0  0.50      -273.3789   2.0000                                         
     2  0  0.50       -13.7508   2.0000                                         
     2  1  0.50        -5.2854   2.0000                                         
     3  2  1.50        -5.4423   0.0000                                         
   Description                                                                  
     l       E           TYP  RCUT    TYP  RCUT                                 
     0    -13.7508458     23  1.200                                             
     0     -8.2022199     23  1.200                                             
     1     -5.2854383     23  1.500                                             
     1     34.0145650     23  1.500                                             
     2     -5.4423304      7  1.500                                             
  local pseudopotential read in
  partial core-charges read in
  partial kinetic energy density read in
  atomic valenz-charges read in
  non local Contribution for L=           0  read in
    real space projection operators read in
  non local Contribution for L=           0  read in
    real space projection operators read in
  non local Contribution for L=           1  read in
    real space projection operators read in
  non local Contribution for L=           1  read in
    real space projection operators read in
    PAW grid and wavefunctions read in
 
   number of l-projection  operators is LMAX  =           4
   number of lm-projection operators is LMMAX =           8
 
 POTCAR:    PAW_PBE Li_sv 10Sep2004               
   VRHFIN =Li: 1s2s2p                                                           
   LEXCH  = PE                                                                  
   EATOM  =   202.7858 eV,   14.9043 Ry                                         
                                                                                
   TITEL  = PAW_PBE Li_sv 10Sep2004                                             
   LULTRA =        F    use ultrasoft PP ?                                      
   IUNSCR =        0    unscreen: 0-lin 1-nonlin 2-no                           
   RPACOR =    0.000    partial core radius                                     
   POMASS =    7.010; ZVAL   =    3.000    mass and valenz                      
   RCORE  =    1.700    outmost cutoff radius                                   
   RWIGS  =    2.050; RWIGS  =    1.085    wigner-seitz radius (au A)           
   ENMAX  =  499.034; ENMIN  =  374.276 eV                                      
   ICORE  =        2    local potential                                         
   LCOR   =        T    correct aug charges                                     
   LPAW   =        T    paw PP                                                  
   EAUG   =  628.945                                                            
   RMAX   =    1.732    core radius for proj-oper                               
   RAUG   =    1.300    factor for augmentation sphere                          
   RDEP   =    1.728    radius for radial grids                                 
   RDEPT  =    1.329    core radius for aug-charge                              
                                                                                
   Atomic configuration                                                         
    4 entries                                                                   
     n  l   j            E        occ.                                          
     1  0  0.50       -51.8549   2.0000                                         
     2  0  0.50        -2.8742   1.0000                                         
     2  1  0.50        -1.3606   0.0000                                         
     3  2  1.50        -1.3606   0.0000                                         
   Description                                                                  
     l       E           TYP  RCUT    TYP  RCUT                                 
     0    -51.8548813     23  1.400                                             
     0     -2.8742052     23  1.700                                             
     1     -1.3605826     23  1.400                                             
     2     -1.3605826     23  1.400                                             
  local pseudopotential read in
  atomic valenz-charges read in
  non local Contribution for L=           0  read in
    real space projection operators read in
  non local Contribution for L=           0  read in
    real space projection operators read in
  non local Contribution for L=           1  read in
    real space projection operators read in
    PAW grid and wavefunctions read in
 
   number of l-projection  operators is LMAX  =           3
   number of lm-projection operators is LMMAX =           5
 
 Optimization of the real space projectors (new method)

 maximal supplied QI-value         = 25.13
 optimisation between [QCUT,QGAM] = [ 11.56, 23.12] = [ 37.43,149.72] Ry 
 Optimized for a Real-space Cutoff    1.04 Angstroem

   l    n(q)    QCUT    max X(q) W(low)/X(q) W(high)/X(q)  e(spline) 
   0      7    11.561   115.676    0.20E-03    0.60E-03    0.21E-06
   0      7    11.561    87.132    0.20E-03    0.59E-03    0.21E-06
   1      7    11.561     4.429    0.23E-03    0.35E-03    0.15E-06
   1      7    11.561     2.733    0.18E-03    0.25E-03    0.12E-06
 Optimization of the real space projectors (new method)

 maximal supplied QI-value         = 22.11
 optimisation between [QCUT,QGAM] = [ 11.50, 23.22] = [ 37.02,150.92] Ry 
 Optimized for a Real-space Cutoff    1.08 Angstroem

   l    n(q)    QCUT    max X(q) W(low)/X(q) W(high)/X(q)  e(spline) 
   0      7    11.497    10.506    0.36E-04    0.62E-04    0.14E-07
   0      7    11.497     8.367    0.65E-04    0.14E-03    0.28E-07
   1      7    11.497     8.983    0.21E-03    0.43E-03    0.90E-07
  PAW_PBE C 08Apr2002                   :
 energy of atom  1       EATOM= -147.1560
 kinetic energy error for atom=    0.0071 (will be added to EATOM!!)
  PAW_PBE Li_sv 10Sep2004               :
 energy of atom  2       EATOM= -202.7858
 kinetic energy error for atom=    0.0130 (will be added to EATOM!!)
 
 
 POSCAR: C  Li                                   
  positions in direct lattice
  velocities in cartesian coordinates
 exchange correlation table for  LEXCH =        8
   RHO(1)=    0.500       N(1)  =     2000
   RHO(2)=  100.500       N(2)  =     4000
 


--------------------------------------------------------------------------------------------------------


 ion  position               nearest neighbor table
   1  0.002  0.005  0.500-  11 1.41  40 1.42  23 1.42
   2  0.000  0.204  0.497-  40 1.42   3 1.43  42 1.44
   3  0.135  0.269  0.497-  14 1.41  37 1.43   2 1.43
   4  0.993  0.402  0.498-  42 1.42   5 1.46  44 1.49
   5  0.130  0.467  0.498-  16 1.41  14 1.46   4 1.46
   6  0.995  0.601  0.505-   7 1.43  46 1.43  44 1.43
   7  0.129  0.665  0.501-  18 1.43   6 1.43  16 1.43
   8  0.002  0.805  0.505-   9 1.41  11 1.42  46 1.42
   9  0.134  0.869  0.500-   8 1.41  10 1.42  18 1.42
  10  0.201  0.002  0.498-  12 1.42   9 1.42  23 1.42
  11  0.936  0.873  0.503-   1 1.41   8 1.42  47 1.42
  12  0.334  0.067  0.497-  10 1.42  20 1.42  22 1.42
  13  0.338  0.269  0.497-  22 1.42  25 1.42  37 1.44
  14  0.201  0.402  0.498-   3 1.41   5 1.46  15 1.46
  15  0.337  0.467  0.498-  48 1.41  14 1.46  25 1.46
  16  0.198  0.600  0.499-   5 1.41   7 1.43  17 1.44
  17  0.333  0.665  0.498-  28 1.41  48 1.44  16 1.44
  18  0.198  0.799  0.500-  19 1.42   9 1.42   7 1.43
  19  0.331  0.864  0.498-  20 1.41  18 1.42  28 1.43
  20  0.398  0.997  0.497-  19 1.41  21 1.42  12 1.42
  21  0.531  0.061  0.496-  32 1.39  20 1.42  30 1.42
  22  0.402  0.200  0.497-  13 1.42  12 1.42  24 1.43
  23  0.136  0.070  0.498-  37 1.42   1 1.42  10 1.42
  24  0.536  0.264  0.497-  34 1.41  32 1.41  22 1.43
  25  0.409  0.402  0.498-  13 1.42  15 1.46  26 1.49
  26  0.549  0.468  0.500-  35 1.43  25 1.49  34 1.49
  27  0.536  0.665  0.501-  38 1.43  35 1.43  48 1.43
  28  0.399  0.798  0.498-  17 1.41  29 1.43  19 1.43
  29  0.533  0.864  0.498-  30 1.41  38 1.42  28 1.43
  30  0.599  0.997  0.497-  29 1.41  21 1.42  31 1.42
  31  0.732  0.067  0.497-  39 1.42  30 1.42  41 1.42
  32  0.596  0.192  0.496-  21 1.39  33 1.41  24 1.41  50 2.31
  33  0.728  0.264  0.497-  43 1.41  32 1.41  41 1.43  50 1.80
  34  0.616  0.395  0.498-  24 1.41  26 1.49  43 2.00
  35  0.606  0.601  0.505-  27 1.43  36 1.43  26 1.43
  36  0.739  0.673  0.511-  45 1.40  47 1.42  35 1.43
  37  0.203  0.204  0.497-  23 1.42   3 1.43  13 1.44
  38  0.601  0.799  0.500-  29 1.42  49 1.42  27 1.43
  39  0.801  0.002  0.498-  31 1.42  49 1.42  40 1.42
  40  0.935  0.070  0.498-   2 1.42   1 1.42  39 1.42
  41  0.798  0.200  0.497-  42 1.42  31 1.42  33 1.43  50 2.29
  42  0.931  0.269  0.497-  41 1.42   4 1.42   2 1.44
  43  0.779  0.395  0.498-  33 1.41  44 1.49  34 2.00  50 2.24
  44  0.919  0.468  0.500-   6 1.43   4 1.49  43 1.49
  45  0.808  0.616  0.524-  36 1.40  46 1.40
  46  0.935  0.673  0.511-  45 1.40   8 1.42   6 1.43
  47  0.803  0.805  0.505-  49 1.41  11 1.42  36 1.42
  48  0.402  0.600  0.499-  15 1.41  27 1.43  17 1.44
  49  0.735  0.869  0.500-  47 1.41  39 1.42  38 1.42
  50  0.728  0.264  0.557-  33 1.80  43 2.24  41 2.29  32 2.31
 

IMPORTANT INFORMATION: All symmetrisations will be switched off!
NOSYMM: (Re-)initialisation of all symmetry stuff for point group C_1.

 
 
 KPOINTS: Automatic mesh                          

Automatic generation of k-mesh.
Space group operators:
 irot       det(A)        alpha          n_x          n_y          n_z        tau_x        tau_y        tau_z
    1     1.000000     0.000001     1.000000     0.000000     0.000000     0.000000     0.000000     0.000000
 
 Subroutine IBZKPT returns following result:
 ===========================================
 
 Found      5 irreducible k-points:
 
 Following reciprocal coordinates:
            Coordinates               Weight
  0.000000  0.000000  0.000000      1.000000
  0.333333 -0.000000  0.000000      2.000000
  0.000000  0.333333  0.000000      2.000000
  0.333333  0.333333  0.000000      2.000000
 -0.333333  0.333333  0.000000      2.000000
 
 Following cartesian coordinates:
            Coordinates               Weight
  0.000000  0.000000  0.000000      1.000000
  0.027100  0.015646  0.000000      2.000000
  0.000000  0.031293  0.000000      2.000000
  0.027100  0.046939  0.000000      2.000000
 -0.027100  0.015646  0.000000      2.000000
 


--------------------------------------------------------------------------------------------------------




 Dimension of arrays:
   k-points           NKPTS =      5   k-points in BZ     NKDIM =      5   number of bands    NBANDS=    128
   number of dos      NEDOS =    301   number of ions     NIONS =     50
   non local maximal  LDIM  =      4   non local SUM 2l+1 LMDIM =      8
   total plane-waves  NPLWV = ******
   max r-space proj   IRMAX =   2789   max aug-charges    IRDMAX=  51672
   dimension x,y,z NGX =    96 NGY =   96 NGZ =  224
   dimension x,y,z NGXF=   192 NGYF=  192 NGZF=  448
   support grid    NGXF=   384 NGYF=  384 NGZF=  896
   ions per type =              49   1
 NGX,Y,Z   is equivalent  to a cutoff of  12.98, 12.98, 12.41 a.u.
 NGXF,Y,Z  is equivalent  to a cutoff of  25.95, 25.95, 24.83 a.u.


 I would recommend the setting:
   dimension x,y,z NGX =    91 NGY =   91 NGZ =  223
 SYSTEM =  Li defective graphene MACE training lab 
 POSCAR =  C  Li                                   

 Startparameter for this run:
   NWRITE =      2    write-flag & timer
   PREC   = accura    normal or accurate (medium, high low for compatibility)
   ISTART =      0    job   : 0-new  1-cont  2-samecut
   ICHARG =      2    charge: 1-file 2-atom 10-const
   ISPIN  =      2    spin polarized calculation?
   LNONCOLLINEAR =      F non collinear calculations
   LSORBIT =      F    spin-orbit coupling
   INIWAV =      1    electr: 0-lowe 1-rand  2-diag
   LASPH  =      T    aspherical Exc in radial PAW
   METAGGA=      F    non-selfconsistent MetaGGA calc.

 Electronic Relaxation 1
   ENCUT  =  520.0 eV  38.22 Ry    6.18 a.u.  22.87 22.87 55.78*2*pi/ulx,y,z
   ENINI  =  520.0     initial cutoff
   ENAUG  =  644.9 eV  augmentation charge cutoff
   NELM   =    120;   NELMIN=  2; NELMDL= -5     # of ELM steps 
   EDIFF  = 0.1E-05   stopping-criterion for ELM
   LREAL  =      T    real-space projection
   NLSPLINE    = F    spline interpolate recip. space projectors
   LCOMPAT=      F    compatible to vasp.4.4
   GGA_COMPAT  = T    GGA compatible to vasp.4.4-vasp.4.6
   LMAXPAW     = -100 max onsite density
   LMAXMIX     =    2 max onsite mixed and CHGCAR
   VOSKOWN=      0    Vosko Wilk Nusair interpolation
   ROPT   =   -0.00025  -0.00025
 Ionic relaxation
   EDIFFG = 0.1E-04   stopping-criterion for IOM
   NSW    =      0    number of steps for IOM
   NBLOCK =      1;   KBLOCK =      1    inner block; outer block 
   IBRION =     -1    ionic relax: 0-MD 1-quasi-New 2-CG
   NFREE  =      0    steps in history (QN), initial steepest desc. (CG)
   ISIF   =      2    stress and relaxation
   IWAVPR =     10    prediction:  0-non 1-charg 2-wave 3-comb
   ISYM   =      0    0-nonsym 1-usesym 2-fastsym
   LCORR  =      T    Harris-Foulkes like correction to forces

   POTIM  = 0.5000    time-step for ionic-motion
   TEIN   =    0.0    initial temperature
   TEBEG  =    0.0;   TEEND  =   0.0 temperature during run
   SMASS  =  -3.00    Nose mass-parameter (am)
   estimated Nose-frequenzy (Omega)   =  0.10E-29 period in steps =****** mass=  -0.346E-26a.u.
   SCALEE = 1.0000    scale energy and forces
   NPACO  =    256;   APACO  = 16.0  distance and # of slots for P.C.
   PSTRESS=    0.0 pullay stress

  Mass of Ions in am
   POMASS =  12.01  7.01
  Ionic Valenz
   ZVAL   =   4.00  3.00
  Atomic Wigner-Seitz radii
   RWIGS  =  -1.00 -1.00
  virtual crystal weights 
   VCA    =   1.00  1.00
   NELECT =     199.0000    total number of electrons
   NUPDOWN=      -1.0000    fix difference up-down

 DOS related values:
   EMIN   =  10.00;   EMAX   =-10.00  energy-range for DOS
   EFERMI =   0.00
   ISMEAR =     0;   SIGMA  =   0.05  broadening in eV -4-tet -1-fermi 0-gaus

 Electronic relaxation 2 (details)
   IALGO  =     38    algorithm
   LDIAG  =      T    sub-space diagonalisation (order eigenvalues)
   LSUBROT=      F    optimize rotation matrix (better conditioning)
   TURBO    =      0    0=normal 1=particle mesh
   IRESTART =      0    0=no restart 2=restart with 2 vectors
   NREBOOT  =      0    no. of reboots
   NMIN     =      0    reboot dimension
   EREF     =   0.00    reference energy to select bands
   IMIX   =      4    mixing-type and parameters
     AMIX     =   0.40;   BMIX     =  1.00
     AMIX_MAG =   1.60;   BMIX_MAG =  1.00
     AMIN     =   0.10
     WC   =   100.;   INIMIX=   1;  MIXPRE=   1;  MAXMIX= -45

 Intra band minimization:
   WEIMIN = 0.0000     energy-eigenvalue tresh-hold
   EBREAK =  0.20E-08  absolut break condition
   DEPER  =   0.30     relativ break condition  

   TIME   =   0.40     timestep for ELM

  volume/ion in A,a.u.               =      78.61       530.50
  Fermi-wavevector in a.u.,A,eV,Ry     =   0.605627  1.144469  4.990398  0.366784
  Thomas-Fermi vector in A             =   1.659421
 
 Write flags
   LWAVE  =      F    write WAVECAR
   LCHARG =      F    write CHGCAR
   LVTOT  =      F    write LOCPOT, total local potential
   LVHAR  =      F    write LOCPOT, Hartree potential only
   LELF   =      F    write electronic localiz. function (ELF)
   LORBIT =      0    0 simple, 1 ext, 2 COOP (PROOUT)


 Dipole corrections
   LMONO  =      F    monopole corrections only (constant potential shift)
   LDIPOL =      F    correct potential (dipole corrections)
   IDIPOL =      0    1-x, 2-y, 3-z, 4-all directions 
   EPSILON=  1.0000000 bulk dielectric constant

 Exchange correlation treatment:
   GGA     =    --    GGA type
   LEXCH   =     8    internal setting for exchange type
   VOSKOWN=      0    Vosko Wilk Nusair interpolation
   LHFCALC =     F    Hartree Fock is set to
   LHFONE  =     F    Hartree Fock one center treatment
   AEXX    =    0.0000 exact exchange contribution

 Linear response parameters
   LEPSILON=     F    determine dielectric tensor
   LRPA    =     F    only Hartree local field effects (RPA)
   LNABLA  =     F    use nabla operator in PAW spheres
   LVEL    =     F    velocity operator in full k-point grid
   LINTERFAST=   F  fast interpolation
   KINTER  =     0    interpolate to denser k-point grid
   CSHIFT  =0.1000    complex shift for real part using Kramers Kronig
   OMEGAMAX=  -1.0    maximum frequency
   DEG_THRESHOLD= 0.2000000E-02 threshold for treating states as degnerate
   RTIME   =    0.100 relaxation time in fs

 Orbital magnetization related:
   ORBITALMAG=     F  switch on orbital magnetization
   LCHIMAG   =     F  perturbation theory with respect to B field
   DQ        =  0.001000  dq finite difference perturbation B field



--------------------------------------------------------------------------------------------------------


 Static calculation
 charge density and potential will be updated during run
 spin polarized calculation
 Variant of blocked Davidson
 Davidson routine will perform the subspace rotation
 perform sub-space diagonalisation
    after iterative eigenvector-optimisation
 modified Broyden-mixing scheme, WC =      100.0
 initial mixing is a Kerker type mixing with AMIX =  0.4000 and BMIX =      1.0000
 Hartree-type preconditioning will be used
 using additional bands           28
 real space projection scheme for non local part
 use partial core corrections
 calculate Harris-corrections to forces 
   (improved forces if not selfconsistent)
 use gradient corrections 
 use of overlap-Matrix (Vanderbilt PP)
 Gauss-broadening in eV      SIGMA  =   0.05


--------------------------------------------------------------------------------------------------------


  energy-cutoff  :      520.00
  volume of cell :     3930.63
      direct lattice vectors                 reciprocal lattice vectors
    12.300000000  0.000000000  0.000000000     0.081300813  0.046939046  0.000000000
    -6.150000000 10.652112467  0.000000000     0.000000000  0.093878093  0.000000000
     0.000000000  0.000000000 30.000000000     0.000000000  0.000000000  0.033333333

  length of vectors
    12.300000000 12.300000000 30.000000000     0.093878093  0.093878093  0.033333333


 
 k-points in units of 2pi/SCALE and weight: Automatic mesh                          
   0.00000000  0.00000000  0.00000000       0.111
   0.02710027  0.01564635  0.00000000       0.222
   0.00000000  0.03129270  0.00000000       0.222
   0.02710027  0.04693905  0.00000000       0.222
  -0.02710027  0.01564635  0.00000000       0.222
 
 k-points in reciprocal lattice and weights: Automatic mesh                          
   0.00000000  0.00000000  0.00000000       0.111
   0.33333333 -0.00000000  0.00000000       0.222
   0.00000000  0.33333333  0.00000000       0.222
   0.33333333  0.33333333  0.00000000       0.222
  -0.33333333  0.33333333  0.00000000       0.222
 
 position of ions in fractional coordinates (direct lattice) 
   0.00241675  0.00483448  0.49955969
   0.00047808  0.20354369  0.49708490
   0.13463609  0.26927074  0.49721905
   0.99251997  0.40198658  0.49835808
   0.12960135  0.46710097  0.49846242
   0.99540656  0.60140123  0.50494583
   0.12931837  0.66539858  0.50116589
   0.00219701  0.80536586  0.50450399
   0.13445484  0.86909391  0.50034337
   0.20142472  0.00220199  0.49809883
   0.93629167  0.87258305  0.50349194
   0.33442020  0.06674621  0.49699704
   0.33780229  0.26891012  0.49715611
   0.20094230  0.40188479  0.49784824
   0.33749957  0.46710116  0.49846275
   0.19777702  0.59962370  0.49888439
   0.33250809  0.66501671  0.49837366
   0.19808171  0.79919043  0.50020985
   0.33124695  0.86398847  0.49815780
   0.39771561  0.99668493  0.49685870
   0.53064147  0.06128312  0.49599153
   0.40237348  0.20038227  0.49691357
   0.13594450  0.07045562  0.49801649
   0.53625545  0.26422682  0.49673049
   0.40946572  0.40198596  0.49835855
   0.54883905  0.46793449  0.50034638
   0.53607948  0.66539893  0.50116650
   0.39888492  0.79776914  0.49816137
   0.53274075  0.86398815  0.49815849
   0.59896972  0.99668492  0.49685896
   0.73232587  0.06674688  0.49699773
   0.59585928  0.19171921  0.49571791
   0.72797051  0.26422719  0.49673137
   0.61605989  0.39512436  0.49826195
   0.60599398  0.60140207  0.50494646
   0.73898476  0.67348731  0.51141615
   0.20306558  0.20354364  0.49708475
   0.60110866  0.79919002  0.50021035
   0.80077774  0.00220153  0.49809858
   0.93451202  0.07045564  0.49801598
   0.79800901  0.20038199  0.49691389
   0.93110804  0.26891088  0.49715507
   0.77906601  0.39512445  0.49826169
   0.91909509  0.46793455  0.50034557
   0.80783333  0.61566627  0.52409629
   0.93450279  0.67348741  0.51141558
   0.80316869  0.80536493  0.50450437
   0.40184557  0.59962381  0.49888479
   0.73463922  0.86909291  0.50034273
   0.72797051  0.26422719  0.55659087
 
 position of ions in cartesian coordinates  (Angst):
  -0.00000599  0.05149742 14.98679064
  -1.24591331  2.16817024 14.91254696
   0.00000881  2.86830222 14.91657143
   9.73577819  4.28200630 14.95074231
  -1.27857440  4.97561211 14.95387274
   8.54488313  6.40619358 15.14837489
  -2.50158525  7.08790048 15.03497666
  -4.92597682  8.57884775 15.13511964
  -3.69113295  9.25768607 15.01030100
   2.46398179  0.02345587 14.94296500
   6.15000178  9.29485275 15.10475821
   3.70287922  0.71098815 14.90991120
   2.50117092  2.86446084 14.91468344
  -0.00000117  4.28092203 14.93544731
   1.27857259  4.97561414 14.95388260
  -1.25502840  6.38725912 14.96653165
  -0.00000327  7.08383275 14.95120972
  -2.47861609  8.51306635 15.00629543
  -1.23919156  9.20330231 14.94473410
  -1.23771036 10.61679996 14.90576109
   6.14999887  0.65279466 14.87974598
   3.71684287  2.13449443 14.90740715
   1.23881526  0.75050121 14.94049468
   4.97094706  2.81457385 14.90191455
   2.56421476  4.28199965 14.95075649
   3.87292320  4.98449078 15.01039155
   2.50157416  7.08790423 15.03499494
   0.00000428  8.49792657 14.94484097
   1.23918405  9.20329896 14.94475477
   1.23771537 10.61679983 14.90576889
   8.59711493  0.71099525 14.90993189
   6.14999595  2.04221462 14.87153740
   7.32904002  2.81457773 14.90194099
   5.14752182  4.20890917 14.94785856
   3.75510324  6.40620250 15.14839376
   4.94756558  7.17406262 15.34248441
   1.24591327  2.16816971 14.91254263
   2.47861790  8.51306201 15.00631037
   9.83602685  0.02345093 14.94295725
  11.06119569  0.75050141 14.94047939
   8.58316155  2.13449150 14.90741679
   9.79882704  2.86446893 14.91465210
   7.15249651  4.20891008 14.94785078
   8.42707215  4.98449141 15.01036718
   6.15000244  6.55814634 15.72288876
   7.35243678  7.17406368 15.34246747
   4.92598060  8.57883780 15.13513104
   1.25501405  6.38726026 14.96654364
   3.69114109  9.25767538 15.01028188
   7.32904002  2.81457773 16.69772617
 


--------------------------------------------------------------------------------------------------------


 k-point  1 :   0.0000 0.0000 0.0000  plane waves:  105831
 k-point  2 :   0.3333-0.0000 0.0000  plane waves:  105834
 k-point  3 :   0.0000 0.3333 0.0000  plane waves:  105834
 k-point  4 :   0.3333 0.3333 0.0000  plane waves:  105861
 k-point  5 :  -0.3333 0.3333 0.0000  plane waves:  105834

 maximum and minimum number of plane-waves per node :     26501    26424

 maximum number of plane-waves:    105861
 maximum index in each direction: 
   IXMAX=   23   IYMAX=   22   IZMAX=   55
   IXMIN=  -23   IYMIN=  -23   IZMIN=  -55

 NGX is ok and might be reduce to  94
 NGY is ok and might be reduce to  92
 NGZ is ok and might be reduce to 222

 real space projection operators:
  total allocation   :       7549.06 KBytes
  max/ min on nodes  :       1889.34       1884.43


 parallel 3D FFT for wavefunctions:
    minimum data exchange during FFTs selected (reduces bandwidth)
 parallel 3D FFT for charge:
    minimum data exchange during FFTs selected (reduces bandwidth)


 total amount of memory used by VASP on root node   460866. kBytes
========================================================================

   base      :      30000. kBytes
   nonlr-proj:       4657. kBytes
   fftplans  :     165810. kBytes
   grid      :     124231. kBytes
   one-center:         79. kBytes
   wavefun   :     136089. kBytes
 
     INWAV:  cpu time    0.0000: real time    0.0002
 Broyden mixing: mesh for mixing (old mesh)
   NGX = 45   NGY = 45   NGZ =111
  (NGX  =192   NGY  =192   NGZ  =448)
  gives a total of 224775 points

 initial charge density was supplied:
 charge density of overlapping atoms calculated
 number of electron     199.0000000 magnetization       5.9000000
 keeping initial charge density in first step


--------------------------------------------------------------------------------------------------------


 Maximum index for non-local projection operator          647
 Maximum index for augmentation-charges         3149 (set IRDMAX)


--------------------------------------------------------------------------------------------------------


 First call to EWALD:  gamma=   0.112
 Maximum number of real-space cells 4x 4x 2
 Maximum number of reciprocal cells 2x 2x 5

 FEWALD executed in parallel
    FEWALD:  cpu time    0.0019: real time    0.0032


----------------------------------------- Iteration    1(   1)  ---------------------------------------


    POTLOK:  cpu time    1.4511: real time    1.4532
    SETDIJ:  cpu time    1.3548: real time    1.3578
     EDDAV:  cpu time   43.6642: real time   43.7058
       DOS:  cpu time    0.0006: real time    0.0006
    --------------------------------------------
      LOOP:  cpu time   46.4717: real time   46.5206

 eigenvalue-minimisations  :  3144
 total energy-change (2. order) : 0.1919083E+04  (-0.6597191E+04)
 number of electron     199.0000000 magnetization       5.9000000
 augmentation part      199.0000000 magnetization       5.9000000

 Free energy of the ion-electron system (eV)
  ---------------------------------------------------
  alpha Z        PSCENC =        51.33532475
  Ewald energy   TEWEN  =     54531.47583317
  -Hartree energ DENC   =    -59695.42121902
  -exchange      EXHF   =         0.00000000
  -V(xc)+E(xc)   XCENC  =       656.50146092
  PAW double counting   =      5397.03696553    -5440.27338102
  entropy T*S    EENTRO =        -0.03431289
  eigenvalues    EBANDS =      -994.60586516
  atomic energy  EATOM  =      7413.06861924
  Solvation  Ediel_sol  =         0.00000000
  ---------------------------------------------------
  free energy    TOTEN  =      1919.08342553 eV

  energy without entropy =     1919.11773842  energy(sigma->0) =     1919.10058197


--------------------------------------------------------------------------------------------------------




----------------------------------------- Iteration    1(   2)  ---------------------------------------


     EDDAV:  cpu time   52.3495: real time   52.3509
       DOS:  cpu time    0.0005: real time    0.0005
    --------------------------------------------
      LOOP:  cpu time   52.3511: real time   52.3554

 eigenvalue-minimisations  :  3936
 total energy-change (2. order) :-0.1863714E+04  (-0.1729196E+04)
 number of electron     199.0000000 magnetization       5.9000000
 augmentation part      199.0000000 magnetization       5.9000000

 Free energy of the ion-electron system (eV)
  ---------------------------------------------------
  alpha Z        PSCENC =        51.33532475
  Ewald energy   TEWEN  =     54531.47583317
  -Hartree energ DENC   =    -59695.42121902
  -exchange      EXHF   =         0.00000000
  -V(xc)+E(xc)   XCENC  =       656.50146092
  PAW double counting   =      5397.03696553    -5440.27338102
  entropy T*S    EENTRO =        -0.00909332
  eigenvalues    EBANDS =     -2858.34479223
  atomic energy  EATOM  =      7413.06861924
  Solvation  Ediel_sol  =         0.00000000
  ---------------------------------------------------
  free energy    TOTEN  =        55.36971802 eV

  energy without entropy =       55.37881134  energy(sigma->0) =       55.37426468


--------------------------------------------------------------------------------------------------------




----------------------------------------- Iteration    1(   3)  ---------------------------------------


     EDDAV:  cpu time   45.8559: real time   45.8571
       DOS:  cpu time    0.0005: real time    0.0005
    --------------------------------------------
      LOOP:  cpu time   45.8569: real time   45.8609

 eigenvalue-minimisations  :  3336
 total energy-change (2. order) :-0.5028499E+03  (-0.4989871E+03)
 number of electron     199.0000000 magnetization       5.9000000
 augmentation part      199.0000000 magnetization       5.9000000

 Free energy of the ion-electron system (eV)
  ---------------------------------------------------
  alpha Z        PSCENC =        51.33532475
  Ewald energy   TEWEN  =     54531.47583317
  -Hartree energ DENC   =    -59695.42121902
  -exchange      EXHF   =         0.00000000
  -V(xc)+E(xc)   XCENC  =       656.50146092
  PAW double counting   =      5397.03696553    -5440.27338102
  entropy T*S    EENTRO =        -0.00586386
  eigenvalues    EBANDS =     -3361.19796950
  atomic energy  EATOM  =      7413.06861924
  Solvation  Ediel_sol  =         0.00000000
  ---------------------------------------------------
  free energy    TOTEN  =      -447.48022979 eV

  energy without entropy =     -447.47436593  energy(sigma->0) =     -447.47729786


--------------------------------------------------------------------------------------------------------




----------------------------------------- Iteration    1(   4)  ---------------------------------------


     EDDAV:  cpu time   45.7078: real time   45.7096
       DOS:  cpu time    0.0005: real time    0.0005
    --------------------------------------------
      LOOP:  cpu time   45.7088: real time   45.7137

 eigenvalue-minimisations  :  3320
 total energy-change (2. order) :-0.2855900E+02  (-0.2806218E+02)
 number of electron     199.0000000 magnetization       5.9000000
 augmentation part      199.0000000 magnetization       5.9000000

 Free energy of the ion-electron system (eV)
  ---------------------------------------------------
  alpha Z        PSCENC =        51.33532475
  Ewald energy   TEWEN  =     54531.47583317
  -Hartree energ DENC   =    -59695.42121902
  -exchange      EXHF   =         0.00000000
  -V(xc)+E(xc)   XCENC  =       656.50146092
  PAW double counting   =      5397.03696553    -5440.27338102
  entropy T*S    EENTRO =        -0.00780974
  eigenvalues    EBANDS =     -3389.75502329
  atomic energy  EATOM  =      7413.06861924
  Solvation  Ediel_sol  =         0.00000000
  ---------------------------------------------------
  free energy    TOTEN  =      -476.03922946 eV

  energy without entropy =     -476.03141972  energy(sigma->0) =     -476.03532459


--------------------------------------------------------------------------------------------------------




----------------------------------------- Iteration    1(   5)  ---------------------------------------


     EDDAV:  cpu time   51.6406: real time   51.6451
       DOS:  cpu time    0.0005: real time    0.0005
    CHARGE:  cpu time    4.3271: real time    4.3273
    MIXING:  cpu time    0.0415: real time    0.0424
    --------------------------------------------
      LOOP:  cpu time   56.0103: real time   56.0183

 eigenvalue-minimisations  :  3856
 total energy-change (2. order) :-0.1128477E+01  (-0.1113067E+01)
 number of electron     199.0000000 magnetization       5.5557119
 augmentation part        6.2090636 magnetization       4.7846437

 Broyden mixing:
  rms(total) = 0.32602E+01    rms(broyden)= 0.32597E+01
  rms(prec ) = 0.33603E+01
  weight for this iteration     100.00

 Free energy of the ion-electron system (eV)
  ---------------------------------------------------
  alpha Z        PSCENC =        51.33532475
  Ewald energy   TEWEN  =     54531.47583317
  -Hartree energ DENC   =    -59695.42121902
  -exchange      EXHF   =         0.00000000
  -V(xc)+E(xc)   XCENC  =       656.50146092
  PAW double counting   =      5397.03696553    -5440.27338102
  entropy T*S    EENTRO =        -0.00897143
  eigenvalues    EBANDS =     -3390.88233867
  atomic energy  EATOM  =      7413.06861924
  Solvation  Ediel_sol  =         0.00000000
  ---------------------------------------------------
  free energy    TOTEN  =      -477.16770653 eV

  energy without entropy =     -477.15873510  energy(sigma->0) =     -477.16322081


--------------------------------------------------------------------------------------------------------




----------------------------------------- Iteration    1(   6)  ---------------------------------------


    POTLOK:  cpu time    1.5115: real time    1.5128
    SETDIJ:  cpu time    1.3866: real time    1.3867
     EDDAV:  cpu time   39.9230: real time   39.9258
       DOS:  cpu time    0.0005: real time    0.0005
    CHARGE:  cpu time    4.3054: real time    4.3056
    MIXING:  cpu time    0.0555: real time    0.0619
    --------------------------------------------
      LOOP:  cpu time   47.1832: real time   47.1970

 eigenvalue-minimisations  :  2832
 total energy-change (2. order) : 0.2348391E+02  (-0.2758211E+01)
 number of electron     199.0000000 magnetization       5.1308902
 augmentation part        5.9906366 magnetization       4.1230527

 Broyden mixing:
  rms(total) = 0.18847E+01    rms(broyden)= 0.18846E+01
  rms(prec ) = 0.19366E+01
  weight for this iteration     100.00

 eigenvalues of (default mixing * dielectric matrix)
  average eigenvalue GAMMA=   0.9544
  0.9544

 Free energy of the ion-electron system (eV)
  ---------------------------------------------------
  alpha Z        PSCENC =        51.33532475
  Ewald energy   TEWEN  =     54531.47583317
  -Hartree energ DENC   =    -59984.52356713
  -exchange      EXHF   =         0.00000000
  -V(xc)+E(xc)   XCENC  =       668.90694376
  PAW double counting   =      9748.41128639    -9795.41456517
  entropy T*S    EENTRO =        -0.00047255
  eigenvalues    EBANDS =     -3086.94319945
  atomic energy  EATOM  =      7413.06861924
  Solvation  Ediel_sol  =         0.00000000
  ---------------------------------------------------
  free energy    TOTEN  =      -453.68379699 eV

  energy without entropy =     -453.68332444  energy(sigma->0) =     -453.68356072


--------------------------------------------------------------------------------------------------------




----------------------------------------- Iteration    1(   7)  ---------------------------------------


    POTLOK:  cpu time    1.4898: real time    1.4911
    SETDIJ:  cpu time    1.3826: real time    1.3838
     EDDAV:  cpu time   40.1775: real time   40.1824
       DOS:  cpu time    0.0004: real time    0.0004
    CHARGE:  cpu time    4.3079: real time    4.3081
    MIXING:  cpu time    0.0511: real time    0.0511
    --------------------------------------------
      LOOP:  cpu time   47.4099: real time   47.4191

 eigenvalue-minimisations  :  2856
 total energy-change (2. order) : 0.1066866E+02  (-0.1659866E+01)
 number of electron     199.0000000 magnetization       4.7127672
 augmentation part        5.8053920 magnetization       3.7200889

 Broyden mixing:
  rms(total) = 0.10066E+01    rms(broyden)= 0.10065E+01
  rms(prec ) = 0.10243E+01
  weight for this iteration     100.00

 eigenvalues of (default mixing * dielectric matrix)
  average eigenvalue GAMMA=   1.3959
  0.6655  2.1263

 Free energy of the ion-electron system (eV)
  ---------------------------------------------------
  alpha Z        PSCENC =        51.33532475
  Ewald energy   TEWEN  =     54531.47583317
  -Hartree energ DENC   =    -60232.95129879
  -exchange      EXHF   =         0.00000000
  -V(xc)+E(xc)   XCENC  =       681.69441948
  PAW double counting   =     14756.26171575   -14805.39098934
  entropy T*S    EENTRO =        -0.00000997
  eigenvalues    EBANDS =     -2838.50874858
  atomic energy  EATOM  =      7413.06861924
  Solvation  Ediel_sol  =         0.00000000
  ---------------------------------------------------
  free energy    TOTEN  =      -443.01513429 eV

  energy without entropy =     -443.01512432  energy(sigma->0) =     -443.01512931


--------------------------------------------------------------------------------------------------------




----------------------------------------- Iteration    1(   8)  ---------------------------------------


    POTLOK:  cpu time    1.4910: real time    1.4911
    SETDIJ:  cpu time    1.3916: real time    1.3916
     EDDAV:  cpu time   40.9418: real time   40.9440
       DOS:  cpu time    0.0004: real time    0.0004
    CHARGE:  cpu time    4.3154: real time    4.3155
    MIXING:  cpu time    0.0620: real time    0.0620
    --------------------------------------------
      LOOP:  cpu time   48.2027: real time   48.2084

 eigenvalue-minimisations  :  2920
 total energy-change (2. order) : 0.8062840E+00  (-0.5221285E+00)
 number of electron     199.0000000 magnetization       4.3676346
 augmentation part        5.6582123 magnetization       3.3923127

 Broyden mixing:
  rms(total) = 0.40014E+00    rms(broyden)= 0.40006E+00
  rms(prec ) = 0.41272E+00
  weight for this iteration     100.00

 eigenvalues of (default mixing * dielectric matrix)
  average eigenvalue GAMMA=   1.3494
  2.2160  1.1640  0.6681

 Free energy of the ion-electron system (eV)
  ---------------------------------------------------
  alpha Z        PSCENC =        51.33532475
  Ewald energy   TEWEN  =     54531.47583317
  -Hartree energ DENC   =    -60396.69576756
  -exchange      EXHF   =         0.00000000
  -V(xc)+E(xc)   XCENC  =       687.50897285
  PAW double counting   =     18695.94770685   -18745.98961696
  entropy T*S    EENTRO =        -0.00001925
  eigenvalues    EBANDS =     -2678.85990336
  atomic energy  EATOM  =      7413.06861924
  Solvation  Ediel_sol  =         0.00000000
  ---------------------------------------------------
  free energy    TOTEN  =      -442.20885026 eV

  energy without entropy =     -442.20883101  energy(sigma->0) =     -442.20884063


--------------------------------------------------------------------------------------------------------




----------------------------------------- Iteration    1(   9)  ---------------------------------------


    POTLOK:  cpu time    1.4864: real time    1.4876
    SETDIJ:  cpu time    1.3876: real time    1.3877
     EDDAV:  cpu time   46.3605: real time   46.3877
       DOS:  cpu time    0.0004: real time    0.0004
    CHARGE:  cpu time    4.3208: real time    4.3234
    MIXING:  cpu time    0.0445: real time    0.0445
    --------------------------------------------
      LOOP:  cpu time   53.6007: real time   53.6337

 eigenvalue-minimisations  :  3416
 total energy-change (2. order) :-0.5944686E+00  (-0.8715763E-01)
 number of electron     199.0000000 magnetization       4.0385966
 augmentation part        5.6257382 magnetization       3.0682228

 Broyden mixing:
  rms(total) = 0.18732E+00    rms(broyden)= 0.18723E+00
  rms(prec ) = 0.19951E+00
  weight for this iteration     100.00

 eigenvalues of (default mixing * dielectric matrix)
  average eigenvalue GAMMA=   1.3622
  2.3723  1.6630  0.7549  0.6585

 Free energy of the ion-electron system (eV)
  ---------------------------------------------------
  alpha Z        PSCENC =        51.33532475
  Ewald energy   TEWEN  =     54531.47583317
  -Hartree energ DENC   =    -60438.72467329
  -exchange      EXHF   =         0.00000000
  -V(xc)+E(xc)   XCENC  =       687.16661095
  PAW double counting   =     19722.09258020   -19771.71617985
  entropy T*S    EENTRO =        -0.00004975
  eigenvalues    EBANDS =     -2637.50138426
  atomic energy  EATOM  =      7413.06861924
  Solvation  Ediel_sol  =         0.00000000
  ---------------------------------------------------
  free energy    TOTEN  =      -442.80331884 eV

  energy without entropy =     -442.80326908  energy(sigma->0) =     -442.80329396


--------------------------------------------------------------------------------------------------------




----------------------------------------- Iteration    1(  10)  ---------------------------------------


    POTLOK:  cpu time    1.4877: real time    1.4887
    SETDIJ:  cpu time    1.3834: real time    1.3843
     EDDAV:  cpu time   39.9033: real time   39.9060
       DOS:  cpu time    0.0005: real time    0.0005
    CHARGE:  cpu time    4.3053: real time    4.3055
    MIXING:  cpu time    0.0571: real time    0.0594
    --------------------------------------------
      LOOP:  cpu time   47.1379: real time   47.1488

 eigenvalue-minimisations  :  2824
 total energy-change (2. order) :-0.3281684E+00  (-0.2320975E-01)
 number of electron     199.0000000 magnetization       3.8229930
 augmentation part        5.6238121 magnetization       2.8556882

 Broyden mixing:
  rms(total) = 0.10285E+00    rms(broyden)= 0.10283E+00
  rms(prec ) = 0.11640E+00
  weight for this iteration     100.00

 eigenvalues of (default mixing * dielectric matrix)
  average eigenvalue GAMMA=   1.3020
  2.3504  1.8042  0.8534  0.8534  0.6487

 Free energy of the ion-electron system (eV)
  ---------------------------------------------------
  alpha Z        PSCENC =        51.33532475
  Ewald energy   TEWEN  =     54531.47583317
  -Hartree energ DENC   =    -60475.08269444
  -exchange      EXHF   =         0.00000000
  -V(xc)+E(xc)   XCENC  =       687.12324271
  PAW double counting   =     20194.06722822   -20243.40037999
  entropy T*S    EENTRO =        -0.00003498
  eigenvalues    EBANDS =     -2601.71862587
  atomic energy  EATOM  =      7413.06861924
  Solvation  Ediel_sol  =         0.00000000
  ---------------------------------------------------
  free energy    TOTEN  =      -443.13148719 eV

  energy without entropy =     -443.13145221  energy(sigma->0) =     -443.13146970


--------------------------------------------------------------------------------------------------------




----------------------------------------- Iteration    1(  11)  ---------------------------------------


    POTLOK:  cpu time    1.4782: real time    1.4792
    SETDIJ:  cpu time    1.3899: real time    1.3900
     EDDAV:  cpu time   42.3263: real time   42.3339
       DOS:  cpu time    0.0004: real time    0.0004
    CHARGE:  cpu time    4.3325: real time    4.3326
    MIXING:  cpu time    0.0540: real time    0.0540
    --------------------------------------------
      LOOP:  cpu time   49.5819: real time   49.5931

 eigenvalue-minimisations  :  3048
 total energy-change (2. order) :-0.3314434E+00  (-0.6579405E-02)
 number of electron     199.0000000 magnetization       3.5415400
 augmentation part        5.6219989 magnetization       2.5768687

 Broyden mixing:
  rms(total) = 0.78524E-01    rms(broyden)= 0.78521E-01
  rms(prec ) = 0.89998E-01
  weight for this iteration     100.00

 eigenvalues of (default mixing * dielectric matrix)
  average eigenvalue GAMMA=   1.2822
  2.1951  2.1951  0.9810  0.9810  0.6398  0.7011

 Free energy of the ion-electron system (eV)
  ---------------------------------------------------
  alpha Z        PSCENC =        51.33532475
  Ewald energy   TEWEN  =     54531.47583317
  -Hartree energ DENC   =    -60495.84178323
  -exchange      EXHF   =         0.00000000
  -V(xc)+E(xc)   XCENC  =       686.97817206
  PAW double counting   =     20208.16137237   -20257.40367965
  entropy T*S    EENTRO =        -0.00003110
  eigenvalues    EBANDS =     -2581.23675825
  atomic energy  EATOM  =      7413.06861924
  Solvation  Ediel_sol  =         0.00000000
  ---------------------------------------------------
  free energy    TOTEN  =      -443.46293063 eV

  energy without entropy =     -443.46289953  energy(sigma->0) =     -443.46291508


--------------------------------------------------------------------------------------------------------




----------------------------------------- Iteration    1(  12)  ---------------------------------------


    POTLOK:  cpu time    1.4884: real time    1.4897
    SETDIJ:  cpu time    1.3846: real time    1.3856
     EDDAV:  cpu time   39.5334: real time   39.5375
       DOS:  cpu time    0.0004: real time    0.0004
    CHARGE:  cpu time    4.3208: real time    4.3210
    MIXING:  cpu time    0.0643: real time    0.0643
    --------------------------------------------
      LOOP:  cpu time   46.7923: real time   46.8021

 eigenvalue-minimisations  :  2792
 total energy-change (2. order) :-0.3524263E+00  (-0.5804427E-02)
 number of electron     199.0000000 magnetization       3.0763654
 augmentation part        5.6199129 magnetization       2.1147608

 Broyden mixing:
  rms(total) = 0.63654E-01    rms(broyden)= 0.63652E-01
  rms(prec ) = 0.72638E-01
  weight for this iteration     100.00

 eigenvalues of (default mixing * dielectric matrix)
  average eigenvalue GAMMA=   1.3345
  2.3631  2.3631  1.4229  0.9340  0.9340  0.6404  0.6843

 Free energy of the ion-electron system (eV)
  ---------------------------------------------------
  alpha Z        PSCENC =        51.33532475
  Ewald energy   TEWEN  =     54531.47583317
  -Hartree energ DENC   =    -60520.86209715
  -exchange      EXHF   =         0.00000000
  -V(xc)+E(xc)   XCENC  =       686.85229777
  PAW double counting   =     20186.62534291   -20235.78969359
  entropy T*S    EENTRO =        -0.00003031
  eigenvalues    EBANDS =     -2556.52095376
  atomic energy  EATOM  =      7413.06861924
  Solvation  Ediel_sol  =         0.00000000
  ---------------------------------------------------
  free energy    TOTEN  =      -443.81535697 eV

  energy without entropy =     -443.81532665  energy(sigma->0) =     -443.81534181


--------------------------------------------------------------------------------------------------------




----------------------------------------- Iteration    1(  13)  ---------------------------------------


    POTLOK:  cpu time    1.4827: real time    1.4829
    SETDIJ:  cpu time    1.3919: real time    1.3939
     EDDAV:  cpu time   40.1405: real time   40.1661
       DOS:  cpu time    0.0004: real time    0.0004
    CHARGE:  cpu time    4.3275: real time    4.3299
    MIXING:  cpu time    0.0476: real time    0.0476
    --------------------------------------------
      LOOP:  cpu time   47.3912: real time   47.4236

 eigenvalue-minimisations  :  2848
 total energy-change (2. order) :-0.4749865E+00  (-0.8093705E-02)
 number of electron     199.0000000 magnetization       2.5476038
 augmentation part        5.6160515 magnetization       1.5881955

 Broyden mixing:
  rms(total) = 0.47503E-01    rms(broyden)= 0.47501E-01
  rms(prec ) = 0.52358E-01
  weight for this iteration     100.00

 eigenvalues of (default mixing * dielectric matrix)
  average eigenvalue GAMMA=   1.4161
  2.7696  2.7696  1.7093  0.9699  0.9699  0.8233  0.6404  0.6768

 Free energy of the ion-electron system (eV)
  ---------------------------------------------------
  alpha Z        PSCENC =        51.33532475
  Ewald energy   TEWEN  =     54531.47583317
  -Hartree energ DENC   =    -60559.21949687
  -exchange      EXHF   =         0.00000000
  -V(xc)+E(xc)   XCENC  =       686.76662138
  PAW double counting   =     20145.33903278   -20194.43640141
  entropy T*S    EENTRO =        -0.00003043
  eigenvalues    EBANDS =     -2518.61984611
  atomic energy  EATOM  =      7413.06861924
  Solvation  Ediel_sol  =         0.00000000
  ---------------------------------------------------
  free energy    TOTEN  =      -444.29034349 eV

  energy without entropy =     -444.29031306  energy(sigma->0) =     -444.29032827


--------------------------------------------------------------------------------------------------------




----------------------------------------- Iteration    1(  14)  ---------------------------------------


    POTLOK:  cpu time    1.4861: real time    1.4874
    SETDIJ:  cpu time    1.3850: real time    1.3862
     EDDAV:  cpu time   39.8164: real time   39.8180
       DOS:  cpu time    0.0004: real time    0.0004
    CHARGE:  cpu time    4.2875: real time    4.2881
    MIXING:  cpu time    0.0612: real time    0.0612
    --------------------------------------------
      LOOP:  cpu time   47.0371: real time   47.0446

 eigenvalue-minimisations  :  2824
 total energy-change (2. order) :-0.9090105E-01  (-0.8451209E-02)
 number of electron     199.0000000 magnetization       2.1196338
 augmentation part        5.6124138 magnetization       1.1620472

 Broyden mixing:
  rms(total) = 0.33000E-01    rms(broyden)= 0.32998E-01
  rms(prec ) = 0.34891E-01
  weight for this iteration     100.00

 eigenvalues of (default mixing * dielectric matrix)
  average eigenvalue GAMMA=   1.6391
  5.1455  2.3250  1.9864  1.3036  0.9570  0.9570  0.7767  0.6344  0.6665

 Free energy of the ion-electron system (eV)
  ---------------------------------------------------
  alpha Z        PSCENC =        51.33532475
  Ewald energy   TEWEN  =     54531.47583317
  -Hartree energ DENC   =    -60597.15456421
  -exchange      EXHF   =         0.00000000
  -V(xc)+E(xc)   XCENC  =       687.01020124
  PAW double counting   =     20112.02581704   -20161.08394579
  entropy T*S    EENTRO =        -0.00003212
  eigenvalues    EBANDS =     -2481.05849786
  atomic energy  EATOM  =      7413.06861924
  Solvation  Ediel_sol  =         0.00000000
  ---------------------------------------------------
  free energy    TOTEN  =      -444.38124453 eV

  energy without entropy =     -444.38121241  energy(sigma->0) =     -444.38122847


--------------------------------------------------------------------------------------------------------




----------------------------------------- Iteration    1(  15)  ---------------------------------------


    POTLOK:  cpu time    1.5558: real time    1.5559
    SETDIJ:  cpu time    1.3921: real time    1.3922
     EDDAV:  cpu time   40.5177: real time   40.5196
       DOS:  cpu time    0.0004: real time    0.0004
    CHARGE:  cpu time    4.3316: real time    4.3317
    MIXING:  cpu time    0.0578: real time    0.0578
    --------------------------------------------
      LOOP:  cpu time   47.8561: real time   47.8613

 eigenvalue-minimisations  :  2880
 total energy-change (2. order) :-0.5529843E+00  (-0.4062366E-02)
 number of electron     199.0000000 magnetization       1.8313769
 augmentation part        5.6093039 magnetization       0.8762114

 Broyden mixing:
  rms(total) = 0.22653E-01    rms(broyden)= 0.22651E-01
  rms(prec ) = 0.23819E-01
  weight for this iteration     100.00

 eigenvalues of (default mixing * dielectric matrix)
  average eigenvalue GAMMA=   1.7675
  6.8192  2.2515  2.2515  1.4279  0.9525  0.9525  0.9623  0.7633  0.6624  0.6323

 Free energy of the ion-electron system (eV)
  ---------------------------------------------------
  alpha Z        PSCENC =        51.33532475
  Ewald energy   TEWEN  =     54531.47583317
  -Hartree energ DENC   =    -60620.85110467
  -exchange      EXHF   =         0.00000000
  -V(xc)+E(xc)   XCENC  =       686.61817560
  PAW double counting   =     20094.32807316   -20143.38467088
  entropy T*S    EENTRO =        -0.00003701
  eigenvalues    EBANDS =     -2457.52444225
  atomic energy  EATOM  =      7413.06861924
  Solvation  Ediel_sol  =         0.00000000
  ---------------------------------------------------
  free energy    TOTEN  =      -444.93422887 eV

  energy without entropy =     -444.93419186  energy(sigma->0) =     -444.93421037


--------------------------------------------------------------------------------------------------------




----------------------------------------- Iteration    1(  16)  ---------------------------------------


    POTLOK:  cpu time    1.4867: real time    1.4869
    SETDIJ:  cpu time    1.3760: real time    1.3761
     EDDAV:  cpu time   41.2966: real time   41.2982
       DOS:  cpu time    0.0005: real time    0.0005
    CHARGE:  cpu time    4.3149: real time    4.3161
    MIXING:  cpu time    0.0689: real time    0.0689
    --------------------------------------------
      LOOP:  cpu time   48.5442: real time   48.5498

 eigenvalue-minimisations  :  2952
 total energy-change (2. order) :-0.4506835E+00  (-0.1548650E-02)
 number of electron     199.0000000 magnetization       1.6205674
 augmentation part        5.6079243 magnetization       0.6664022

 Broyden mixing:
  rms(total) = 0.15910E-01    rms(broyden)= 0.15909E-01
  rms(prec ) = 0.17024E-01
  weight for this iteration     100.00

 eigenvalues of (default mixing * dielectric matrix)
  average eigenvalue GAMMA=   1.9237
  8.5685  2.4709  2.4709  1.7260  1.1477  0.9647  0.9647  0.8590  0.7042  0.6553
  0.6290

 Free energy of the ion-electron system (eV)
  ---------------------------------------------------
  alpha Z        PSCENC =        51.33532475
  Ewald energy   TEWEN  =     54531.47583317
  -Hartree energ DENC   =    -60629.60477547
  -exchange      EXHF   =         0.00000000
  -V(xc)+E(xc)   XCENC  =       686.17566821
  PAW double counting   =     20084.83091498   -20133.90263520
  entropy T*S    EENTRO =        -0.00003965
  eigenvalues    EBANDS =     -2448.76382239
  atomic energy  EATOM  =      7413.06861924
  Solvation  Ediel_sol  =         0.00000000
  ---------------------------------------------------
  free energy    TOTEN  =      -445.38491236 eV

  energy without entropy =     -445.38487271  energy(sigma->0) =     -445.38489254


--------------------------------------------------------------------------------------------------------




----------------------------------------- Iteration    1(  17)  ---------------------------------------


    POTLOK:  cpu time    1.4816: real time    1.4827
    SETDIJ:  cpu time    1.3816: real time    1.3828
     EDDAV:  cpu time   40.8341: real time   40.8397
       DOS:  cpu time    0.0005: real time    0.0005
    CHARGE:  cpu time    4.3188: real time    4.3193
    MIXING:  cpu time    0.0533: real time    0.0534
    --------------------------------------------
      LOOP:  cpu time   48.0704: real time   48.0814

 eigenvalue-minimisations  :  2912
 total energy-change (2. order) :-0.3441144E+00  (-0.6627477E-03)
 number of electron     199.0000000 magnetization       1.4421790
 augmentation part        5.6077467 magnetization       0.4886557

 Broyden mixing:
  rms(total) = 0.11394E-01    rms(broyden)= 0.11393E-01
  rms(prec ) = 0.12322E-01
  weight for this iteration     100.00

 eigenvalues of (default mixing * dielectric matrix)
  average eigenvalue GAMMA=   1.9944
  9.5553  2.9709  2.4813  1.8732  1.2860  0.9543  0.9543  1.0695  0.8211  0.6902
  0.6516  0.6247

 Free energy of the ion-electron system (eV)
  ---------------------------------------------------
  alpha Z        PSCENC =        51.33532475
  Ewald energy   TEWEN  =     54531.47583317
  -Hartree energ DENC   =    -60631.30078133
  -exchange      EXHF   =         0.00000000
  -V(xc)+E(xc)   XCENC  =       685.78007405
  PAW double counting   =     20086.80764368   -20135.88841686
  entropy T*S    EENTRO =        -0.00004221
  eigenvalues    EBANDS =     -2447.00728126
  atomic energy  EATOM  =      7413.06861924
  Solvation  Ediel_sol  =         0.00000000
  ---------------------------------------------------
  free energy    TOTEN  =      -445.72902676 eV

  energy without entropy =     -445.72898455  energy(sigma->0) =     -445.72900565


--------------------------------------------------------------------------------------------------------




----------------------------------------- Iteration    1(  18)  ---------------------------------------


    POTLOK:  cpu time    1.4827: real time    1.4838
    SETDIJ:  cpu time    1.3828: real time    1.3838
     EDDAV:  cpu time   39.8813: real time   39.9042
       DOS:  cpu time    0.0004: real time    0.0004
    CHARGE:  cpu time    4.3183: real time    4.3218
    MIXING:  cpu time    0.0684: real time    0.0685
    --------------------------------------------
      LOOP:  cpu time   47.1344: real time   47.1669

 eigenvalue-minimisations  :  2824
 total energy-change (2. order) :-0.2291087E+00  (-0.4376339E-03)
 number of electron     199.0000000 magnetization       1.3072430
 augmentation part        5.6080139 magnetization       0.3540428

 Broyden mixing:
  rms(total) = 0.80207E-02    rms(broyden)= 0.80205E-02
  rms(prec ) = 0.86729E-02
  weight for this iteration     100.00

 eigenvalues of (default mixing * dielectric matrix)
  average eigenvalue GAMMA=   2.0787
 10.4538  3.8074  2.3997  1.9810  1.7416  0.9638  0.9638  1.0218  0.9685  0.7716
  0.6796  0.6496  0.6211

 Free energy of the ion-electron system (eV)
  ---------------------------------------------------
  alpha Z        PSCENC =        51.33532475
  Ewald energy   TEWEN  =     54531.47583317
  -Hartree energ DENC   =    -60629.82959561
  -exchange      EXHF   =         0.00000000
  -V(xc)+E(xc)   XCENC  =       685.49400510
  PAW double counting   =     20094.37886624   -20143.46170280
  entropy T*S    EENTRO =        -0.00004378
  eigenvalues    EBANDS =     -2448.41944173
  atomic energy  EATOM  =      7413.06861924
  Solvation  Ediel_sol  =         0.00000000
  ---------------------------------------------------
  free energy    TOTEN  =      -445.95813542 eV

  energy without entropy =     -445.95809163  energy(sigma->0) =     -445.95811352


--------------------------------------------------------------------------------------------------------




----------------------------------------- Iteration    1(  19)  ---------------------------------------


    POTLOK:  cpu time    1.4807: real time    1.4816
    SETDIJ:  cpu time    1.3908: real time    1.3920
     EDDAV:  cpu time   40.5174: real time   40.5425
       DOS:  cpu time    0.0004: real time    0.0004
    CHARGE:  cpu time    4.3353: real time    4.3377
    MIXING:  cpu time    0.0618: real time    0.0618
    --------------------------------------------
      LOOP:  cpu time   47.7870: real time   47.8189

 eigenvalue-minimisations  :  2880
 total energy-change (2. order) :-0.9142659E-01  (-0.1832557E-03)
 number of electron     199.0000000 magnetization       1.2116069
 augmentation part        5.6082831 magnetization       0.2587099

 Broyden mixing:
  rms(total) = 0.57126E-02    rms(broyden)= 0.57125E-02
  rms(prec ) = 0.62291E-02
  weight for this iteration     100.00

 eigenvalues of (default mixing * dielectric matrix)
  average eigenvalue GAMMA=   2.1474
 11.1418  4.6142  2.3131  2.3131  1.9501  1.1441  1.1441  0.9595  0.9595  0.8450
  0.7445  0.6707  0.6459  0.6186

 Free energy of the ion-electron system (eV)
  ---------------------------------------------------
  alpha Z        PSCENC =        51.33532475
  Ewald energy   TEWEN  =     54531.47583317
  -Hartree energ DENC   =    -60627.92505691
  -exchange      EXHF   =         0.00000000
  -V(xc)+E(xc)   XCENC  =       685.37373566
  PAW double counting   =     20097.01930884   -20146.09998456
  entropy T*S    EENTRO =        -0.00004428
  eigenvalues    EBANDS =     -2450.29729792
  atomic energy  EATOM  =      7413.06861924
  Solvation  Ediel_sol  =         0.00000000
  ---------------------------------------------------
  free energy    TOTEN  =      -446.04956201 eV

  energy without entropy =     -446.04951772  energy(sigma->0) =     -446.04953986


--------------------------------------------------------------------------------------------------------




----------------------------------------- Iteration    1(  20)  ---------------------------------------


    POTLOK:  cpu time    1.4795: real time    1.4808
    SETDIJ:  cpu time    1.3849: real time    1.3858
     EDDAV:  cpu time   40.1924: real time   40.2151
       DOS:  cpu time    0.0004: real time    0.0004
    CHARGE:  cpu time    4.2942: real time    4.2943
    MIXING:  cpu time    0.0725: real time    0.0725
    --------------------------------------------
      LOOP:  cpu time   47.4244: real time   47.4532

 eigenvalue-minimisations  :  2856
 total energy-change (2. order) :-0.2586335E-01  (-0.6822022E-04)
 number of electron     199.0000000 magnetization       1.1338591
 augmentation part        5.6084915 magnetization       0.1810775

 Broyden mixing:
  rms(total) = 0.41436E-02    rms(broyden)= 0.41435E-02
  rms(prec ) = 0.45547E-02
  weight for this iteration     100.00

 eigenvalues of (default mixing * dielectric matrix)
  average eigenvalue GAMMA=   2.1851
 11.6138  5.2980  2.5152  2.4543  1.9795  1.4607  0.9642  0.9642  1.0979  0.9491
  0.8374  0.7151  0.6656  0.6438  0.6173

 Free energy of the ion-electron system (eV)
  ---------------------------------------------------
  alpha Z        PSCENC =        51.33532475
  Ewald energy   TEWEN  =     54531.47583317
  -Hartree energ DENC   =    -60626.17784572
  -exchange      EXHF   =         0.00000000
  -V(xc)+E(xc)   XCENC  =       685.33845003
  PAW double counting   =     20096.53781590   -20145.61585613
  entropy T*S    EENTRO =        -0.00004517
  eigenvalues    EBANDS =     -2452.03772143
  atomic energy  EATOM  =      7413.06861924
  Solvation  Ediel_sol  =         0.00000000
  ---------------------------------------------------
  free energy    TOTEN  =      -446.07542536 eV

  energy without entropy =     -446.07538019  energy(sigma->0) =     -446.07540277


--------------------------------------------------------------------------------------------------------




----------------------------------------- Iteration    1(  21)  ---------------------------------------


    POTLOK:  cpu time    1.4847: real time    1.4862
    SETDIJ:  cpu time    1.3975: real time    1.3976
     EDDAV:  cpu time   41.2824: real time   41.3077
       DOS:  cpu time    0.0004: real time    0.0004
    CHARGE:  cpu time    4.2844: real time    4.2873
    MIXING:  cpu time    0.0593: real time    0.0593
    --------------------------------------------
      LOOP:  cpu time   48.5095: real time   48.5416

 eigenvalue-minimisations  :  2960
 total energy-change (2. order) :-0.1171451E-01  (-0.4039711E-04)
 number of electron     199.0000000 magnetization       1.0786296
 augmentation part        5.6086775 magnetization       0.1259498

 Broyden mixing:
  rms(total) = 0.28761E-02    rms(broyden)= 0.28759E-02
  rms(prec ) = 0.31728E-02
  weight for this iteration     100.00

 eigenvalues of (default mixing * dielectric matrix)
  average eigenvalue GAMMA=   2.2448
 12.1194  6.0827  3.0196  2.3750  1.9465  1.9465  1.1334  1.1334  0.9621  0.9621
  0.8147  0.8147  0.6928  0.6165  0.6555  0.6416

 Free energy of the ion-electron system (eV)
  ---------------------------------------------------
  alpha Z        PSCENC =        51.33532475
  Ewald energy   TEWEN  =     54531.47583317
  -Hartree energ DENC   =    -60624.49264892
  -exchange      EXHF   =         0.00000000
  -V(xc)+E(xc)   XCENC  =       685.32221088
  PAW double counting   =     20096.47485439   -20145.55112551
  entropy T*S    EENTRO =        -0.00004588
  eigenvalues    EBANDS =     -2453.72016199
  atomic energy  EATOM  =      7413.06861924
  Solvation  Ediel_sol  =         0.00000000
  ---------------------------------------------------
  free energy    TOTEN  =      -446.08713987 eV

  energy without entropy =     -446.08709399  energy(sigma->0) =     -446.08711693


--------------------------------------------------------------------------------------------------------




----------------------------------------- Iteration    1(  22)  ---------------------------------------


    POTLOK:  cpu time    1.4823: real time    1.4833
    SETDIJ:  cpu time    1.3858: real time    1.3859
     EDDAV:  cpu time   40.4018: real time   40.4254
       DOS:  cpu time    0.0004: real time    0.0004
    CHARGE:  cpu time    4.2969: real time    4.2993
    MIXING:  cpu time    0.0704: real time    0.0704
    --------------------------------------------
      LOOP:  cpu time   47.6382: real time   47.6674

 eigenvalue-minimisations  :  2872
 total energy-change (2. order) :-0.1946420E-01  (-0.1274234E-04)
 number of electron     199.0000000 magnetization       1.0379829
 augmentation part        5.6087705 magnetization       0.0853755

 Broyden mixing:
  rms(total) = 0.19064E-02    rms(broyden)= 0.19063E-02
  rms(prec ) = 0.21204E-02
  weight for this iteration     100.00

 eigenvalues of (default mixing * dielectric matrix)
  average eigenvalue GAMMA=   2.3428
 12.7724  7.1421  3.6638  2.3170  2.3170  1.9828  1.3589  0.9655  0.9655  1.1280
  0.9749  0.9000  0.7516  0.6859  0.6163  0.6479  0.6384

 Free energy of the ion-electron system (eV)
  ---------------------------------------------------
  alpha Z        PSCENC =        51.33532475
  Ewald energy   TEWEN  =     54531.47583317
  -Hartree energ DENC   =    -60623.22551176
  -exchange      EXHF   =         0.00000000
  -V(xc)+E(xc)   XCENC  =       685.29996360
  PAW double counting   =     20096.08243514   -20145.15892404
  entropy T*S    EENTRO =        -0.00004611
  eigenvalues    EBANDS =     -2454.98429805
  atomic energy  EATOM  =      7413.06861924
  Solvation  Ediel_sol  =         0.00000000
  ---------------------------------------------------
  free energy    TOTEN  =      -446.10660406 eV

  energy without entropy =     -446.10655795  energy(sigma->0) =     -446.10658101


--------------------------------------------------------------------------------------------------------




----------------------------------------- Iteration    1(  23)  ---------------------------------------


    POTLOK:  cpu time    1.4944: real time    1.4950
    SETDIJ:  cpu time    1.3898: real time    1.3898
     EDDAV:  cpu time   41.3309: real time   41.3326
       DOS:  cpu time    0.0004: real time    0.0004
    CHARGE:  cpu time    4.3036: real time    4.3195
    MIXING:  cpu time    0.0696: real time    0.0696
    --------------------------------------------
      LOOP:  cpu time   48.5893: real time   48.6098

 eigenvalue-minimisations  :  2912
 total energy-change (2. order) :-0.2219055E-01  (-0.4158695E-05)
 number of electron     199.0000000 magnetization       1.0199683
 augmentation part        5.6087957 magnetization       0.0674078

 Broyden mixing:
  rms(total) = 0.10991E-02    rms(broyden)= 0.10990E-02
  rms(prec ) = 0.12482E-02
  weight for this iteration     100.00

 eigenvalues of (default mixing * dielectric matrix)
  average eigenvalue GAMMA=   2.4089
 13.4706  8.1173  4.1934  2.4168  2.4168  1.9408  1.6059  1.1184  1.1184  0.9659
  0.9659  0.8607  0.8607  0.7327  0.6803  0.6471  0.6164  0.6323

 Free energy of the ion-electron system (eV)
  ---------------------------------------------------
  alpha Z        PSCENC =        51.33532475
  Ewald energy   TEWEN  =     54531.47583317
  -Hartree energ DENC   =    -60622.29889286
  -exchange      EXHF   =         0.00000000
  -V(xc)+E(xc)   XCENC  =       685.27676939
  PAW double counting   =     20095.37749158   -20144.45547783
  entropy T*S    EENTRO =        -0.00004624
  eigenvalues    EBANDS =     -2455.90841581
  atomic energy  EATOM  =      7413.06861924
  Solvation  Ediel_sol  =         0.00000000
  ---------------------------------------------------
  free energy    TOTEN  =      -446.12879462 eV

  energy without entropy =     -446.12874838  energy(sigma->0) =     -446.12877150


--------------------------------------------------------------------------------------------------------




----------------------------------------- Iteration    1(  24)  ---------------------------------------


    POTLOK:  cpu time    1.4928: real time    1.4930
    SETDIJ:  cpu time    1.3834: real time    1.3835
     EDDAV:  cpu time   36.6749: real time   36.6768
       DOS:  cpu time    0.0004: real time    0.0004
    CHARGE:  cpu time    4.3015: real time    4.3016
    MIXING:  cpu time    0.0822: real time    0.0823
    --------------------------------------------
      LOOP:  cpu time   43.9358: real time   43.9408

 eigenvalue-minimisations  :  2528
 total energy-change (2. order) :-0.7325801E-02  (-0.1619829E-05)
 number of electron     199.0000000 magnetization       1.0109280
 augmentation part        5.6087838 magnetization       0.0583778

 Broyden mixing:
  rms(total) = 0.72470E-03    rms(broyden)= 0.72462E-03
  rms(prec ) = 0.83394E-03
  weight for this iteration     100.00

 eigenvalues of (default mixing * dielectric matrix)
  average eigenvalue GAMMA=   2.4247
 13.9244  8.6352  4.4701  2.4788  2.4788  1.8665  1.8665  1.2254  1.2254  0.9658
  0.9658  0.9523  0.9523  0.7739  0.7214  0.6754  0.6461  0.6161  0.6291

 Free energy of the ion-electron system (eV)
  ---------------------------------------------------
  alpha Z        PSCENC =        51.33532475
  Ewald energy   TEWEN  =     54531.47583317
  -Hartree energ DENC   =    -60621.89152608
  -exchange      EXHF   =         0.00000000
  -V(xc)+E(xc)   XCENC  =       685.26856310
  PAW double counting   =     20095.45327006   -20144.53227824
  entropy T*S    EENTRO =        -0.00004632
  eigenvalues    EBANDS =     -2456.31388011
  atomic energy  EATOM  =      7413.06861924
  Solvation  Ediel_sol  =         0.00000000
  ---------------------------------------------------
  free energy    TOTEN  =      -446.13612042 eV

  energy without entropy =     -446.13607410  energy(sigma->0) =     -446.13609726


--------------------------------------------------------------------------------------------------------




----------------------------------------- Iteration    1(  25)  ---------------------------------------


    POTLOK:  cpu time    1.4899: real time    1.4910
    SETDIJ:  cpu time    1.3938: real time    1.3948
     EDDAV:  cpu time   34.1961: real time   34.2176
       DOS:  cpu time    0.0005: real time    0.0005
    CHARGE:  cpu time    4.3112: real time    4.3137
    MIXING:  cpu time    0.0669: real time    0.0670
    --------------------------------------------
      LOOP:  cpu time   41.4589: real time   41.4875

 eigenvalue-minimisations  :  2304
 total energy-change (2. order) :-0.2643701E-02  (-0.1619868E-05)
 number of electron     199.0000000 magnetization       1.0049725
 augmentation part        5.6087860 magnetization       0.0524176

 Broyden mixing:
  rms(total) = 0.47483E-03    rms(broyden)= 0.47472E-03
  rms(prec ) = 0.55049E-03
  weight for this iteration     100.00

 eigenvalues of (default mixing * dielectric matrix)
  average eigenvalue GAMMA=   2.4501
 14.2803  9.0182  4.7558  2.8825  2.3277  2.2625  1.9205  1.4920  1.1499  1.1499
  0.9664  0.9664  0.9078  0.9078  0.7540  0.7052  0.6688  0.6446  0.6167  0.6257

 Free energy of the ion-electron system (eV)
  ---------------------------------------------------
  alpha Z        PSCENC =        51.33532475
  Ewald energy   TEWEN  =     54531.47583317
  -Hartree energ DENC   =    -60621.68156080
  -exchange      EXHF   =         0.00000000
  -V(xc)+E(xc)   XCENC  =       685.26481995
  PAW double counting   =     20095.77471789   -20144.85431828
  entropy T*S    EENTRO =        -0.00004630
  eigenvalues    EBANDS =     -2456.52215374
  atomic energy  EATOM  =      7413.06861924
  Solvation  Ediel_sol  =         0.00000000
  ---------------------------------------------------
  free energy    TOTEN  =      -446.13876412 eV

  energy without entropy =     -446.13871781  energy(sigma->0) =     -446.13874097


--------------------------------------------------------------------------------------------------------




----------------------------------------- Iteration    1(  26)  ---------------------------------------


    POTLOK:  cpu time    1.4995: real time    1.5009
    SETDIJ:  cpu time    1.3832: real time    1.3832
     EDDAV:  cpu time   34.0393: real time   34.0430
       DOS:  cpu time    0.0004: real time    0.0004
    CHARGE:  cpu time    4.3079: real time    4.3099
    MIXING:  cpu time    0.0837: real time    0.0837
    --------------------------------------------
      LOOP:  cpu time   41.3146: real time   41.3240

 eigenvalue-minimisations  :  2288
 total energy-change (2. order) :-0.1466902E-02  (-0.1873114E-05)
 number of electron     199.0000000 magnetization       1.0024352
 augmentation part        5.6087852 magnetization       0.0498740

 Broyden mixing:
  rms(total) = 0.27320E-03    rms(broyden)= 0.27300E-03
  rms(prec ) = 0.31929E-03
  weight for this iteration     100.00

 eigenvalues of (default mixing * dielectric matrix)
  average eigenvalue GAMMA=   2.4659
 14.5378  9.3121  5.1441  3.3995  2.3985  2.3985  1.9276  1.5176  1.2217  1.2217
  0.9657  0.9657  1.0352  0.9106  0.8363  0.7478  0.6964  0.6619  0.6443  0.6177
  0.6227

 Free energy of the ion-electron system (eV)
  ---------------------------------------------------
  alpha Z        PSCENC =        51.33532475
  Ewald energy   TEWEN  =     54531.47583317
  -Hartree energ DENC   =    -60621.56752490
  -exchange      EXHF   =         0.00000000
  -V(xc)+E(xc)   XCENC  =       685.26290906
  PAW double counting   =     20095.98233092   -20145.06213035
  entropy T*S    EENTRO =        -0.00004625
  eigenvalues    EBANDS =     -2456.63554667
  atomic energy  EATOM  =      7413.06861924
  Solvation  Ediel_sol  =         0.00000000
  ---------------------------------------------------
  free energy    TOTEN  =      -446.14023102 eV

  energy without entropy =     -446.14018477  energy(sigma->0) =     -446.14020790


--------------------------------------------------------------------------------------------------------




----------------------------------------- Iteration    1(  27)  ---------------------------------------


    POTLOK:  cpu time    1.4921: real time    1.4924
    SETDIJ:  cpu time    1.3893: real time    1.3895
     EDDAV:  cpu time   34.0837: real time   34.0885
       DOS:  cpu time    0.0004: real time    0.0004
    CHARGE:  cpu time    4.3112: real time    4.3115
    MIXING:  cpu time    0.0785: real time    0.0785
    --------------------------------------------
      LOOP:  cpu time   41.3557: real time   41.3637

 eigenvalue-minimisations  :  2296
 total energy-change (2. order) :-0.6134459E-03  (-0.9359371E-06)
 number of electron     199.0000000 magnetization       1.0013711
 augmentation part        5.6087793 magnetization       0.0488052

 Broyden mixing:
  rms(total) = 0.17237E-03    rms(broyden)= 0.17207E-03
  rms(prec ) = 0.20531E-03
  weight for this iteration     100.00

 eigenvalues of (default mixing * dielectric matrix)
  average eigenvalue GAMMA=   2.4565
 14.6761  9.4875  5.4991  3.7116  2.4559  2.4559  1.9214  1.6253  1.3505  1.1839
  1.1839  0.9664  0.9664  0.9221  0.9221  0.7667  0.7301  0.6849  0.6516  0.6442
  0.6183  0.6183

 Free energy of the ion-electron system (eV)
  ---------------------------------------------------
  alpha Z        PSCENC =        51.33532475
  Ewald energy   TEWEN  =     54531.47583317
  -Hartree energ DENC   =    -60621.55102854
  -exchange      EXHF   =         0.00000000
  -V(xc)+E(xc)   XCENC  =       685.26281049
  PAW double counting   =     20095.98444139   -20145.06404040
  entropy T*S    EENTRO =        -0.00004621
  eigenvalues    EBANDS =     -2456.65275836
  atomic energy  EATOM  =      7413.06861924
  Solvation  Ediel_sol  =         0.00000000
  ---------------------------------------------------
  free energy    TOTEN  =      -446.14084447 eV

  energy without entropy =     -446.14079826  energy(sigma->0) =     -446.14082136


--------------------------------------------------------------------------------------------------------




----------------------------------------- Iteration    1(  28)  ---------------------------------------


    POTLOK:  cpu time    1.4980: real time    1.4981
    SETDIJ:  cpu time    1.3858: real time    1.3859
     EDDAV:  cpu time   33.5698: real time   33.5714
       DOS:  cpu time    0.0005: real time    0.0005
    CHARGE:  cpu time    4.2841: real time    4.2842
    MIXING:  cpu time    0.0903: real time    0.0903
    --------------------------------------------
      LOOP:  cpu time   40.8291: real time   40.8331

 eigenvalue-minimisations  :  2248
 total energy-change (2. order) :-0.2500996E-03  (-0.2663641E-06)
 number of electron     199.0000000 magnetization       1.0006803
 augmentation part        5.6087756 magnetization       0.0481105

 Broyden mixing:
  rms(total) = 0.11788E-03    rms(broyden)= 0.11745E-03
  rms(prec ) = 0.14407E-03
  weight for this iteration     100.00

 eigenvalues of (default mixing * dielectric matrix)
  average eigenvalue GAMMA=   2.4462
 14.7493  9.5868  5.8030  3.9320  2.5111  2.5111  1.9471  1.9471  1.3238  1.3238
  1.1295  1.1295  0.9665  0.9665  0.8896  0.8896  0.7550  0.7138  0.6745  0.6440
  0.6365  0.6164  0.6164

 Free energy of the ion-electron system (eV)
  ---------------------------------------------------
  alpha Z        PSCENC =        51.33532475
  Ewald energy   TEWEN  =     54531.47583317
  -Hartree energ DENC   =    -60621.55895073
  -exchange      EXHF   =         0.00000000
  -V(xc)+E(xc)   XCENC  =       685.26302479
  PAW double counting   =     20095.97381036   -20145.05319643
  entropy T*S    EENTRO =        -0.00004619
  eigenvalues    EBANDS =     -2456.64551352
  atomic energy  EATOM  =      7413.06861924
  Solvation  Ediel_sol  =         0.00000000
  ---------------------------------------------------
  free energy    TOTEN  =      -446.14109457 eV

  energy without entropy =     -446.14104837  energy(sigma->0) =     -446.14107147


--------------------------------------------------------------------------------------------------------




----------------------------------------- Iteration    1(  29)  ---------------------------------------


    POTLOK:  cpu time    1.5026: real time    1.5027
    SETDIJ:  cpu time    1.3952: real time    1.3953
     EDDAV:  cpu time   30.1377: real time   30.1392
       DOS:  cpu time    0.0004: real time    0.0004
    CHARGE:  cpu time    4.3272: real time    4.3274
    MIXING:  cpu time    0.0790: real time    0.0790
    --------------------------------------------
      LOOP:  cpu time   37.4428: real time   37.4484

 eigenvalue-minimisations  :  1928
 total energy-change (2. order) :-0.1509291E-03  (-0.1330539E-06)
 number of electron     199.0000000 magnetization       1.0002550
 augmentation part        5.6087731 magnetization       0.0476823

 Broyden mixing:
  rms(total) = 0.76644E-04    rms(broyden)= 0.75986E-04
  rms(prec ) = 0.95562E-04
  weight for this iteration     100.00

 eigenvalues of (default mixing * dielectric matrix)
  average eigenvalue GAMMA=   2.4423
 14.7959  9.6430  6.1252  4.1518  2.6283  2.6283  2.1170  2.1170  1.3756  1.3756
  1.2018  1.2018  0.9667  0.9667  0.9426  0.9426  0.8058  0.7555  0.7035  0.6689
  0.6443  0.6294  0.6140  0.6140

 Free energy of the ion-electron system (eV)
  ---------------------------------------------------
  alpha Z        PSCENC =        51.33532475
  Ewald energy   TEWEN  =     54531.47583317
  -Hartree energ DENC   =    -60621.57227049
  -exchange      EXHF   =         0.00000000
  -V(xc)+E(xc)   XCENC  =       685.26322958
  PAW double counting   =     20095.95724717   -20145.03647409
  entropy T*S    EENTRO =        -0.00004618
  eigenvalues    EBANDS =     -2456.63270865
  atomic energy  EATOM  =      7413.06861924
  Solvation  Ediel_sol  =         0.00000000
  ---------------------------------------------------
  free energy    TOTEN  =      -446.14124549 eV

  energy without entropy =     -446.14119931  energy(sigma->0) =     -446.14122240


--------------------------------------------------------------------------------------------------------




----------------------------------------- Iteration    1(  30)  ---------------------------------------


    POTLOK:  cpu time    1.5001: real time    1.5002
    SETDIJ:  cpu time    1.3810: real time    1.3811
     EDDAV:  cpu time   31.1806: real time   31.1820
       DOS:  cpu time    0.0004: real time    0.0004
    CHARGE:  cpu time    4.2996: real time    4.2998
    MIXING:  cpu time    0.0960: real time    0.0960
    --------------------------------------------
      LOOP:  cpu time   38.4585: real time   38.4628

 eigenvalue-minimisations  :  2024
 total energy-change (2. order) :-0.9077355E-04  (-0.6586345E-07)
 number of electron     199.0000000 magnetization       1.0000529
 augmentation part        5.6087708 magnetization       0.0474786

 Broyden mixing:
  rms(total) = 0.49883E-04    rms(broyden)= 0.48867E-04
  rms(prec ) = 0.61097E-04
  weight for this iteration     100.00

 eigenvalues of (default mixing * dielectric matrix)
  average eigenvalue GAMMA=   2.4390
 14.8266  9.6852  6.4661  4.4184  3.1020  2.5181  2.2869  2.0465  1.6589  1.2943
  1.2943  0.9669  0.9669  1.1214  1.1214  0.9178  0.9178  0.7764  0.7362  0.6952
  0.6635  0.6437  0.6263  0.6174  0.6061

 Free energy of the ion-electron system (eV)
  ---------------------------------------------------
  alpha Z        PSCENC =        51.33532475
  Ewald energy   TEWEN  =     54531.47583317
  -Hartree energ DENC   =    -60621.58940065
  -exchange      EXHF   =         0.00000000
  -V(xc)+E(xc)   XCENC  =       685.26344022
  PAW double counting   =     20095.92111913   -20145.00028231
  entropy T*S    EENTRO =        -0.00004616
  eigenvalues    EBANDS =     -2456.61594366
  atomic energy  EATOM  =      7413.06861924
  Solvation  Ediel_sol  =         0.00000000
  ---------------------------------------------------
  free energy    TOTEN  =      -446.14133627 eV

  energy without entropy =     -446.14129011  energy(sigma->0) =     -446.14131319


--------------------------------------------------------------------------------------------------------




----------------------------------------- Iteration    1(  31)  ---------------------------------------


    POTLOK:  cpu time    1.5014: real time    1.5015
    SETDIJ:  cpu time    1.3892: real time    1.3893
     EDDAV:  cpu time   30.4904: real time   30.4917
       DOS:  cpu time    0.0004: real time    0.0004
    CHARGE:  cpu time    4.3275: real time    4.3287
    MIXING:  cpu time    0.0944: real time    0.0944
    --------------------------------------------
      LOOP:  cpu time   37.8040: real time   37.8090

 eigenvalue-minimisations  :  1960
 total energy-change (2. order) :-0.4185960E-04  (-0.3298299E-07)
 number of electron     199.0000000 magnetization       0.9999251
 augmentation part        5.6087682 magnetization       0.0473494

 Broyden mixing:
  rms(total) = 0.33273E-04    rms(broyden)= 0.31731E-04
  rms(prec ) = 0.39725E-04
  weight for this iteration     100.00

 eigenvalues of (default mixing * dielectric matrix)
  average eigenvalue GAMMA=   2.4354
 14.8417  9.7230  6.7493  4.6769  3.3645  2.5182  2.2915  2.0470  2.0027  1.3437
  1.3437  1.1899  1.1899  0.9668  0.9668  0.9667  0.9667  0.8392  0.7778  0.7180
  0.6877  0.6600  0.6432  0.6267  0.6170  0.6029

 Free energy of the ion-electron system (eV)
  ---------------------------------------------------
  alpha Z        PSCENC =        51.33532475
  Ewald energy   TEWEN  =     54531.47583317
  -Hartree energ DENC   =    -60621.60061534
  -exchange      EXHF   =         0.00000000
  -V(xc)+E(xc)   XCENC  =       685.26353124
  PAW double counting   =     20095.90111264   -20144.98028900
  entropy T*S    EENTRO =        -0.00004616
  eigenvalues    EBANDS =     -2456.60484868
  atomic energy  EATOM  =      7413.06861924
  Solvation  Ediel_sol  =         0.00000000
  ---------------------------------------------------
  free energy    TOTEN  =      -446.14137813 eV

  energy without entropy =     -446.14133197  energy(sigma->0) =     -446.14135505


--------------------------------------------------------------------------------------------------------




----------------------------------------- Iteration    1(  32)  ---------------------------------------


    POTLOK:  cpu time    1.5043: real time    1.5043
    SETDIJ:  cpu time    1.3885: real time    1.3889
     EDDAV:  cpu time   30.0233: real time   30.0243
       DOS:  cpu time    0.0005: real time    0.0005
    CHARGE:  cpu time    4.3211: real time    4.3213
    MIXING:  cpu time    0.1063: real time    0.1063
    --------------------------------------------
      LOOP:  cpu time   37.3444: real time   37.3488

 eigenvalue-minimisations  :  1920
 total energy-change (2. order) :-0.2796716E-04  (-0.1634855E-07)
 number of electron     199.0000000 magnetization       0.9998653
 augmentation part        5.6087667 magnetization       0.0472888

 Broyden mixing:
  rms(total) = 0.21026E-04    rms(broyden)= 0.18491E-04
  rms(prec ) = 0.22826E-04
  weight for this iteration     100.00
  WARNING: grid for Broyden might be to small

 eigenvalues of (default mixing * dielectric matrix)
  average eigenvalue GAMMA=   2.4469
 14.8556  9.7689  7.1466  5.0634  3.6950  2.6226  2.3454  2.3454  2.0126  1.4653
  1.3000  1.3000  0.9669  0.9669  1.1212  1.1212  0.9410  0.9410  0.8094  0.7513
  0.7108  0.6779  0.6535  0.6424  0.6243  0.6174  0.6014

 Free energy of the ion-electron system (eV)
  ---------------------------------------------------
  alpha Z        PSCENC =        51.33532475
  Ewald energy   TEWEN  =     54531.47583317
  -Hartree energ DENC   =    -60621.60778474
  -exchange      EXHF   =         0.00000000
  -V(xc)+E(xc)   XCENC  =       685.26349992
  PAW double counting   =     20095.89290547   -20144.97212552
  entropy T*S    EENTRO =        -0.00004616
  eigenvalues    EBANDS =     -2456.59763224
  atomic energy  EATOM  =      7413.06861924
  Solvation  Ediel_sol  =         0.00000000
  ---------------------------------------------------
  free energy    TOTEN  =      -446.14140609 eV

  energy without entropy =     -446.14135994  energy(sigma->0) =     -446.14138302


--------------------------------------------------------------------------------------------------------




----------------------------------------- Iteration    1(  33)  ---------------------------------------


    POTLOK:  cpu time    1.5046: real time    1.5050
    SETDIJ:  cpu time    1.3900: real time    1.3902
     EDDAV:  cpu time   29.9659: real time   29.9672
       DOS:  cpu time    0.0004: real time    0.0004
    CHARGE:  cpu time    4.3156: real time    4.3157
    MIXING:  cpu time    0.0950: real time    0.0950
    --------------------------------------------
      LOOP:  cpu time   37.2721: real time   37.2764

 eigenvalue-minimisations  :  1912
 total energy-change (2. order) :-0.1242929E-04  (-0.6921479E-08)
 number of electron     199.0000000 magnetization       0.9998437
 augmentation part        5.6087659 magnetization       0.0472666

 Broyden mixing:
  rms(total) = 0.15217E-04    rms(broyden)= 0.11463E-04
  rms(prec ) = 0.13713E-04
  weight for this iteration     100.00
  WARNING: grid for Broyden might be to small

 eigenvalues of (default mixing * dielectric matrix)
  average eigenvalue GAMMA=   2.4457
 14.8624  9.8169  7.5146  5.3896  3.9125  2.7696  2.3761  2.3761  2.0095  1.7347
  1.3106  1.3106  1.1561  1.1561  0.9667  0.9667  0.9667  0.9667  0.8805  0.8031
  0.7265  0.7078  0.6731  0.6438  0.6438  0.6209  0.6181  0.6001

 Free energy of the ion-electron system (eV)
  ---------------------------------------------------
  alpha Z        PSCENC =        51.33532475
  Ewald energy   TEWEN  =     54531.47583317
  -Hartree energ DENC   =    -60621.61218517
  -exchange      EXHF   =         0.00000000
  -V(xc)+E(xc)   XCENC  =       685.26346882
  PAW double counting   =     20095.89265395   -20144.97189063
  entropy T*S    EENTRO =        -0.00004615
  eigenvalues    EBANDS =     -2456.59319651
  atomic energy  EATOM  =      7413.06861924
  Solvation  Ediel_sol  =         0.00000000
  ---------------------------------------------------
  free energy    TOTEN  =      -446.14141852 eV

  energy without entropy =     -446.14137237  energy(sigma->0) =     -446.14139545


--------------------------------------------------------------------------------------------------------




----------------------------------------- Iteration    1(  34)  ---------------------------------------


    POTLOK:  cpu time    1.4990: real time    1.4994
    SETDIJ:  cpu time    1.3868: real time    1.3868
     EDDAV:  cpu time   30.2018: real time   30.2035
       DOS:  cpu time    0.0005: real time    0.0005
    CHARGE:  cpu time    4.2977: real time    4.2979
    MIXING:  cpu time    0.1114: real time    0.1114
    --------------------------------------------
      LOOP:  cpu time   37.4977: real time   37.5025

 eigenvalue-minimisations  :  1936
 total energy-change (2. order) :-0.4701222E-05  (-0.1467321E-08)
 number of electron     199.0000000 magnetization       0.9998342
 augmentation part        5.6087656 magnetization       0.0472567

 Broyden mixing:
  rms(total) = 0.11664E-04    rms(broyden)= 0.59920E-05
  rms(prec ) = 0.74030E-05
  weight for this iteration     100.00
  WARNING: grid for Broyden might be to small

 eigenvalues of (default mixing * dielectric matrix)
  average eigenvalue GAMMA=   2.4501
 14.8677  9.8760  7.8895  5.6874  4.0858  2.9702  2.4175  2.4175  2.0047  1.9948
  1.3605  1.3605  1.1953  1.1953  0.9667  0.9667  1.0860  0.9501  0.9501  0.8443
  0.7677  0.7254  0.6916  0.6656  0.6433  0.6377  0.6182  0.6182  0.5990

 Free energy of the ion-electron system (eV)
  ---------------------------------------------------
  alpha Z        PSCENC =        51.33532475
  Ewald energy   TEWEN  =     54531.47583317
  -Hartree energ DENC   =    -60621.61500699
  -exchange      EXHF   =         0.00000000
  -V(xc)+E(xc)   XCENC  =       685.26345957
  PAW double counting   =     20095.89408818   -20144.97331920
  entropy T*S    EENTRO =        -0.00004615
  eigenvalues    EBANDS =     -2456.59037580
  atomic energy  EATOM  =      7413.06861924
  Solvation  Ediel_sol  =         0.00000000
  ---------------------------------------------------
  free energy    TOTEN  =      -446.14142323 eV

  energy without entropy =     -446.14137707  energy(sigma->0) =     -446.14140015


--------------------------------------------------------------------------------------------------------




----------------------------------------- Iteration    1(  35)  ---------------------------------------


    POTLOK:  cpu time    1.4997: real time    1.4997
    SETDIJ:  cpu time    1.3918: real time    1.3920
     EDDAV:  cpu time   29.2059: real time   29.2075
       DOS:  cpu time    0.0005: real time    0.0005
    CHARGE:  cpu time    4.2978: real time    4.2979
    MIXING:  cpu time    0.1113: real time    0.1113
    --------------------------------------------
      LOOP:  cpu time   36.5078: real time   36.5122

 eigenvalue-minimisations  :  1848
 total energy-change (2. order) :-0.2072700E-05  ( 0.3807942E-09)
 number of electron     199.0000000 magnetization       0.9998303
 augmentation part        5.6087654 magnetization       0.0472525

 Broyden mixing:
  rms(total) = 0.10587E-04    rms(broyden)= 0.34554E-05
  rms(prec ) = 0.43103E-05
  weight for this iteration     100.00
  WARNING: grid for Broyden might be to small

 eigenvalues of (default mixing * dielectric matrix)
  average eigenvalue GAMMA=   2.4345
 14.8715  9.9127  8.1266  5.8558  4.2051  3.1693  2.4548  2.4548  2.0234  2.0234
  1.4858  1.3068  1.3068  1.1628  1.1628  0.9667  0.9667  0.9975  0.9290  0.9290
  0.8146  0.7437  0.7202  0.6835  0.6587  0.6431  0.6271  0.6175  0.6175  0.5976

 Free energy of the ion-electron system (eV)
  ---------------------------------------------------
  alpha Z        PSCENC =        51.33532475
  Ewald energy   TEWEN  =     54531.47583317
  -Hartree energ DENC   =    -60621.61682979
  -exchange      EXHF   =         0.00000000
  -V(xc)+E(xc)   XCENC  =       685.26345909
  PAW double counting   =     20095.89506775   -20144.97428863
  entropy T*S    EENTRO =        -0.00004615
  eigenvalues    EBANDS =     -2456.58856473
  atomic energy  EATOM  =      7413.06861924
  Solvation  Ediel_sol  =         0.00000000
  ---------------------------------------------------
  free energy    TOTEN  =      -446.14142530 eV

  energy without entropy =     -446.14137915  energy(sigma->0) =     -446.14140222


--------------------------------------------------------------------------------------------------------




----------------------------------------- Iteration    1(  36)  ---------------------------------------


    POTLOK:  cpu time    1.5062: real time    1.5077
    SETDIJ:  cpu time    1.3848: real time    1.3857
     EDDAV:  cpu time   29.8530: real time   29.8680
       DOS:  cpu time    0.0004: real time    0.0004
    --------------------------------------------
      LOOP:  cpu time   32.7451: real time   32.7661

 eigenvalue-minimisations  :  1904
 total energy-change (2. order) :-0.8069856E-06  ( 0.1216744E-08)
 number of electron     199.0000000 magnetization       0.9998303
 augmentation part        5.6087654 magnetization       0.0472525

 Free energy of the ion-electron system (eV)
  ---------------------------------------------------
  alpha Z        PSCENC =        51.33532475
  Ewald energy   TEWEN  =     54531.47583317
  -Hartree energ DENC   =    -60621.61793695
  -exchange      EXHF   =         0.00000000
  -V(xc)+E(xc)   XCENC  =       685.26346207
  PAW double counting   =     20095.89469154   -20144.97390599
  entropy T*S    EENTRO =        -0.00004615
  eigenvalues    EBANDS =     -2456.58746778
  atomic energy  EATOM  =      7413.06861924
  Solvation  Ediel_sol  =         0.00000000
  ---------------------------------------------------
  free energy    TOTEN  =      -446.14142610 eV

  energy without entropy =     -446.14137995  energy(sigma->0) =     -446.14140303


--------------------------------------------------------------------------------------------------------




 average (electrostatic) potential at core
  the test charge radii are     0.6991  0.7079
  (the norm of the test charge is              1.0000)
       1 -58.2963       2 -58.4334       3 -58.3911       4 -58.6899       5 -58.5015
       6 -58.2066       7 -58.3655       8 -58.2350       9 -58.3265      10 -58.2986
      11 -58.2490      12 -58.3823      13 -58.3698      14 -58.4365      15 -58.4489
      16 -58.3207      17 -58.3512      18 -58.2483      19 -58.3228      20 -58.2754
      21 -58.4630      22 -58.3789      23 -58.3515      24 -58.3448      25 -58.5192
      26 -58.6836      27 -58.3265      28 -58.2131      29 -58.3453      30 -58.3706
      31 -58.5712      32 -58.2723      33 -58.5913      34 -58.8765      35 -58.1752
      36 -58.1884      37 -58.3468      38 -58.2719      39 -58.3947      40 -58.4193
      41 -58.7139      42 -58.6218      43 -58.9653      44 -58.8688      45 -57.6791
      46 -58.2062      47 -58.2408      48 -58.3020      49 -58.3398      50 -70.5919
 
 
 
 E-fermi :  -2.7950     XC(G=0):  -1.4697     alpha+bet : -1.2875


 spin component 1

 k-point     1 :       0.0000    0.0000    0.0000
  band No.  band energies     occupation 
      1     -51.5088      1.00000
      2     -22.4559      1.00000
      3     -21.7518      1.00000
      4     -21.5853      1.00000
      5     -21.4841      1.00000
      6     -21.4243      1.00000
      7     -21.3161      1.00000
      8     -21.0213      1.00000
      9     -19.7457      1.00000
     10     -19.7148      1.00000
     11     -19.6460      1.00000
     12     -19.6171      1.00000
     13     -19.4812      1.00000
     14     -19.2604      1.00000
     15     -18.8241      1.00000
     16     -18.7926      1.00000
     17     -18.7254      1.00000
     18     -18.6206      1.00000
     19     -18.5598      1.00000
     20     -17.9259      1.00000
     21     -16.6544      1.00000
     22     -16.6267      1.00000
     23     -16.5666      1.00000
     24     -16.4645      1.00000
     25     -16.4222      1.00000
     26     -16.0338      1.00000
     27     -15.6205      1.00000
     28     -15.6094      1.00000
     29     -15.5586      1.00000
     30     -15.4530      1.00000
     31     -15.2779      1.00000
     32     -14.8356      1.00000
     33     -14.2686      1.00000
     34     -14.2236      1.00000
     35     -14.2076      1.00000
     36     -14.0334      1.00000
     37     -13.9181      1.00000
     38     -13.0343      1.00000
     39     -11.9111      1.00000
     40     -11.8850      1.00000
     41     -11.8566      1.00000
     42     -11.8265      1.00000
     43     -11.7901      1.00000
     44     -11.7505      1.00000
     45     -11.7361      1.00000
     46     -11.7045      1.00000
     47     -11.6617      1.00000
     48     -11.2659      1.00000
     49     -11.2281      1.00000
     50     -10.6397      1.00000
     51     -10.5986      1.00000
     52     -10.3712      1.00000
     53     -10.3432      1.00000
     54     -10.2915      1.00000
     55     -10.0205      1.00000
     56      -9.9904      1.00000
     57      -9.8622      1.00000
     58      -9.7624      1.00000
     59      -9.5441      1.00000
     60      -9.4396      1.00000
     61      -9.3903      1.00000
     62      -9.3401      1.00000
     63      -9.1807      1.00000
     64      -9.1400      1.00000
     65      -9.1113      1.00000
     66      -9.0526      1.00000
     67      -9.0264      1.00000
     68      -8.9957      1.00000
     69      -8.9553      1.00000
     70      -8.9463      1.00000
     71      -8.9137      1.00000
     72      -8.8651      1.00000
     73      -8.1154      1.00000
     74      -8.0959      1.00000
     75      -7.6003      1.00000
     76      -7.5523      1.00000
     77      -7.4916      1.00000
     78      -7.4641      1.00000
     79      -7.4349      1.00000
     80      -7.3652      1.00000
     81      -7.2931      1.00000
     82      -7.2332      1.00000
     83      -7.1813      1.00000
     84      -7.1386      1.00000
     85      -6.9489      1.00000
     86      -6.5079      1.00000
     87      -6.4737      1.00000
     88      -6.3830      1.00000
     89      -6.3518      1.00000
     90      -6.2951      1.00000
     91      -6.1886      1.00000
     92      -6.1694      1.00000
     93      -5.7074      1.00000
     94      -4.5603      1.00000
     95      -4.5362      1.00000
     96      -4.4145      1.00000
     97      -4.3465      1.00000
     98      -4.2858      1.00000
     99      -4.0476      1.00000
    100      -3.2528      1.00000
    101      -1.8475      0.00000
    102      -1.7292      0.00000
    103      -1.6870      0.00000
    104      -1.5972      0.00000
    105      -1.5397      0.00000
    106      -1.0445      0.00000
    107      -0.9130      0.00000
    108      -0.8501      0.00000
    109      -0.0226      0.00000
    110       0.0702      0.00000
    111       0.1816      0.00000
    112       0.2395      0.00000
    113       0.2852      0.00000
    114       0.5098      0.00000
    115       0.7029      0.00000
    116       0.7974      0.00000
    117       0.8831      0.00000
    118       1.0211      0.00000
    119       1.0588      0.00000
    120       1.3526      0.00000
    121       1.4016      0.00000
    122       1.4476      0.00000
    123       1.4984      0.00000
    124       1.5443      0.00000
    125       1.7747      0.00000
    126       1.7987      0.00000
    127       1.8832      0.00000
    128       1.9658      0.00000

 k-point     2 :       0.3333   -0.0000    0.0000
  band No.  band energies     occupation 
      1     -51.5088      1.00000
      2     -22.3671      1.00000
      3     -22.0582      1.00000
      4     -21.7336      1.00000
      5     -21.4785      1.00000
      6     -21.1514      1.00000
      7     -20.9491      1.00000
      8     -20.6347      1.00000
      9     -20.5140      1.00000
     10     -20.2913      1.00000
     11     -19.7994      1.00000
     12     -19.4941      1.00000
     13     -19.3599      1.00000
     14     -19.1937      1.00000
     15     -18.9052      1.00000
     16     -18.7123      1.00000
     17     -18.4482      1.00000
     18     -18.0337      1.00000
     19     -17.8343      1.00000
     20     -17.5879      1.00000
     21     -17.4965      1.00000
     22     -17.3394      1.00000
     23     -17.1953      1.00000
     24     -16.8271      1.00000
     25     -16.3504      1.00000
     26     -16.0322      1.00000
     27     -15.6015      1.00000
     28     -15.3914      1.00000
     29     -15.3032      1.00000
     30     -14.9697      1.00000
     31     -14.9373      1.00000
     32     -14.7929      1.00000
     33     -14.5717      1.00000
     34     -14.4627      1.00000
     35     -13.8516      1.00000
     36     -13.2782      1.00000
     37     -13.1660      1.00000
     38     -13.0596      1.00000
     39     -12.8995      1.00000
     40     -12.7916      1.00000
     41     -12.6053      1.00000
     42     -12.3331      1.00000
     43     -12.2822      1.00000
     44     -11.7667      1.00000
     45     -11.3874      1.00000
     46     -11.3364      1.00000
     47     -11.0946      1.00000
     48     -10.9177      1.00000
     49     -10.7170      1.00000
     50     -10.6924      1.00000
     51     -10.5243      1.00000
     52     -10.4720      1.00000
     53     -10.4237      1.00000
     54     -10.1656      1.00000
     55     -10.1143      1.00000
     56      -9.9224      1.00000
     57      -9.8162      1.00000
     58      -9.7288      1.00000
     59      -9.6640      1.00000
     60      -9.5190      1.00000
     61      -9.4514      1.00000
     62      -9.3935      1.00000
     63      -9.3653      1.00000
     64      -9.2517      1.00000
     65      -9.1553      1.00000
     66      -9.0582      1.00000
     67      -8.8925      1.00000
     68      -8.8253      1.00000
     69      -8.7799      1.00000
     70      -8.5433      1.00000
     71      -8.4678      1.00000
     72      -8.4057      1.00000
     73      -8.3368      1.00000
     74      -8.1551      1.00000
     75      -8.1136      1.00000
     76      -8.0699      1.00000
     77      -7.9092      1.00000
     78      -7.6709      1.00000
     79      -7.4996      1.00000
     80      -7.3613      1.00000
     81      -7.2480      1.00000
     82      -7.1702      1.00000
     83      -7.0460      1.00000
     84      -6.9639      1.00000
     85      -6.8676      1.00000
     86      -6.6212      1.00000
     87      -6.5146      1.00000
     88      -6.3303      1.00000
     89      -6.3024      1.00000
     90      -6.0715      1.00000
     91      -5.7348      1.00000
     92      -5.6234      1.00000
     93      -5.4058      1.00000
     94      -5.2046      1.00000
     95      -5.0464      1.00000
     96      -4.9484      1.00000
     97      -4.5591      1.00000
     98      -4.0376      1.00000
     99      -3.9312      1.00000
    100      -3.2120      1.00000
    101      -1.9763      0.00000
    102      -1.7690      0.00000
    103      -1.3223      0.00000
    104      -1.2059      0.00000
    105      -1.0692      0.00000
    106      -1.0129      0.00000
    107      -0.9048      0.00000
    108      -0.8689      0.00000
    109      -0.7104      0.00000
    110      -0.5431      0.00000
    111      -0.0054      0.00000
    112       0.3128      0.00000
    113       0.3904      0.00000
    114       0.6428      0.00000
    115       0.7277      0.00000
    116       0.8853      0.00000
    117       0.9615      0.00000
    118       0.9764      0.00000
    119       1.1406      0.00000
    120       1.2832      0.00000
    121       1.3315      0.00000
    122       1.3791      0.00000
    123       1.4942      0.00000
    124       1.5414      0.00000
    125       1.5655      0.00000
    126       1.6706      0.00000
    127       1.6972      0.00000
    128       1.7627      0.00000

 k-point     3 :       0.0000    0.3333    0.0000
  band No.  band energies     occupation 
      1     -51.5088      1.00000
      2     -22.3940      1.00000
      3     -21.9404      1.00000
      4     -21.7221      1.00000
      5     -21.6705      1.00000
      6     -21.0491      1.00000
      7     -20.9876      1.00000
      8     -20.6990      1.00000
      9     -20.4014      1.00000
     10     -20.2130      1.00000
     11     -19.7154      1.00000
     12     -19.5523      1.00000
     13     -19.5339      1.00000
     14     -19.1577      1.00000
     15     -19.0973      1.00000
     16     -18.5857      1.00000
     17     -18.4037      1.00000
     18     -18.0176      1.00000
     19     -17.9074      1.00000
     20     -17.4522      1.00000
     21     -17.3923      1.00000
     22     -17.3279      1.00000
     23     -17.2158      1.00000
     24     -16.8259      1.00000
     25     -16.4761      1.00000
     26     -16.1173      1.00000
     27     -15.5966      1.00000
     28     -15.3929      1.00000
     29     -15.3469      1.00000
     30     -14.9517      1.00000
     31     -14.9232      1.00000
     32     -14.6668      1.00000
     33     -14.5943      1.00000
     34     -14.5252      1.00000
     35     -13.8490      1.00000
     36     -13.2634      1.00000
     37     -13.1292      1.00000
     38     -13.0984      1.00000
     39     -12.8902      1.00000
     40     -12.6980      1.00000
     41     -12.6155      1.00000
     42     -12.2758      1.00000
     43     -12.2155      1.00000
     44     -11.7674      1.00000
     45     -11.5547      1.00000
     46     -11.3949      1.00000
     47     -11.1385      1.00000
     48     -11.0314      1.00000
     49     -10.7406      1.00000
     50     -10.6923      1.00000
     51     -10.5281      1.00000
     52     -10.4037      1.00000
     53     -10.3476      1.00000
     54     -10.1618      1.00000
     55     -10.0016      1.00000
     56      -9.9110      1.00000
     57      -9.8425      1.00000
     58      -9.7636      1.00000
     59      -9.7128      1.00000
     60      -9.6383      1.00000
     61      -9.4448      1.00000
     62      -9.3793      1.00000
     63      -9.2709      1.00000
     64      -9.2055      1.00000
     65      -9.1304      1.00000
     66      -8.9959      1.00000
     67      -8.9022      1.00000
     68      -8.8490      1.00000
     69      -8.7858      1.00000
     70      -8.5389      1.00000
     71      -8.5040      1.00000
     72      -8.4715      1.00000
     73      -8.3020      1.00000
     74      -8.2077      1.00000
     75      -8.0605      1.00000
     76      -8.0368      1.00000
     77      -7.8070      1.00000
     78      -7.6783      1.00000
     79      -7.4316      1.00000
     80      -7.3604      1.00000
     81      -7.2486      1.00000
     82      -7.2196      1.00000
     83      -7.1224      1.00000
     84      -7.0759      1.00000
     85      -6.8071      1.00000
     86      -6.7199      1.00000
     87      -6.5265      1.00000
     88      -6.3616      1.00000
     89      -6.1864      1.00000
     90      -6.0406      1.00000
     91      -5.7514      1.00000
     92      -5.6407      1.00000
     93      -5.3381      1.00000
     94      -5.1151      1.00000
     95      -5.0304      1.00000
     96      -4.9393      1.00000
     97      -4.6778      1.00000
     98      -4.0517      1.00000
     99      -4.0332      1.00000
    100      -3.1790      1.00000
    101      -1.8314      0.00000
    102      -1.8043      0.00000
    103      -1.3629      0.00000
    104      -1.1887      0.00000
    105      -1.0415      0.00000
    106      -1.0049      0.00000
    107      -0.9570      0.00000
    108      -0.8724      0.00000
    109      -0.7414      0.00000
    110      -0.4802      0.00000
    111      -0.0769      0.00000
    112       0.3454      0.00000
    113       0.3989      0.00000
    114       0.5537      0.00000
    115       0.7516      0.00000
    116       0.8135      0.00000
    117       0.9762      0.00000
    118       1.0325      0.00000
    119       1.1443      0.00000
    120       1.3100      0.00000
    121       1.3430      0.00000
    122       1.3962      0.00000
    123       1.5030      0.00000
    124       1.5654      0.00000
    125       1.6522      0.00000
    126       1.6791      0.00000
    127       1.7033      0.00000
    128       1.7769      0.00000

 k-point     4 :       0.3333    0.3333    0.0000
  band No.  band energies     occupation 
      1     -51.5088      1.00000
      2     -22.3124      1.00000
      3     -22.0911      1.00000
      4     -21.9167      1.00000
      5     -21.2622      1.00000
      6     -21.1747      1.00000
      7     -20.9479      1.00000
      8     -20.3862      1.00000
      9     -20.3392      1.00000
     10     -20.2370      1.00000
     11     -20.1729      1.00000
     12     -20.0670      1.00000
     13     -19.6728      1.00000
     14     -18.5719      1.00000
     15     -18.5044      1.00000
     16     -18.4217      1.00000
     17     -18.3412      1.00000
     18     -18.2964      1.00000
     19     -18.0145      1.00000
     20     -17.6043      1.00000
     21     -17.5285      1.00000
     22     -17.3499      1.00000
     23     -17.1364      1.00000
     24     -16.9854      1.00000
     25     -16.5183      1.00000
     26     -16.0581      1.00000
     27     -15.8833      1.00000
     28     -15.8172      1.00000
     29     -15.3852      1.00000
     30     -15.0127      1.00000
     31     -14.1022      1.00000
     32     -14.0424      1.00000
     33     -14.0212      1.00000
     34     -13.9684      1.00000
     35     -13.9330      1.00000
     36     -13.8562      1.00000
     37     -13.7953      1.00000
     38     -13.6852      1.00000
     39     -13.2163      1.00000
     40     -12.6050      1.00000
     41     -12.2846      1.00000
     42     -12.2398      1.00000
     43     -12.0088      1.00000
     44     -11.7019      1.00000
     45     -11.6221      1.00000
     46     -11.5808      1.00000
     47     -11.3770      1.00000
     48     -11.3215      1.00000
     49     -10.6196      1.00000
     50     -10.4364      1.00000
     51     -10.3979      1.00000
     52     -10.2940      1.00000
     53     -10.2258      1.00000
     54     -10.1986      1.00000
     55     -10.1190      1.00000
     56      -9.9731      1.00000
     57      -9.9514      1.00000
     58      -9.8931      1.00000
     59      -9.6161      1.00000
     60      -9.5085      1.00000
     61      -9.4584      1.00000
     62      -9.2741      1.00000
     63      -9.1982      1.00000
     64      -9.1721      1.00000
     65      -9.0824      1.00000
     66      -8.9022      1.00000
     67      -8.8371      1.00000
     68      -8.7627      1.00000
     69      -8.6952      1.00000
     70      -8.6760      1.00000
     71      -8.5091      1.00000
     72      -8.3735      1.00000
     73      -8.3274      1.00000
     74      -8.1597      1.00000
     75      -8.1137      1.00000
     76      -7.9824      1.00000
     77      -7.9395      1.00000
     78      -7.9040      1.00000
     79      -7.7888      1.00000
     80      -7.5463      1.00000
     81      -7.4525      1.00000
     82      -7.3972      1.00000
     83      -6.9364      1.00000
     84      -6.8135      1.00000
     85      -6.7324      1.00000
     86      -6.5685      1.00000
     87      -6.2284      1.00000
     88      -6.1393      1.00000
     89      -6.0249      1.00000
     90      -5.9812      1.00000
     91      -5.9098      1.00000
     92      -5.6992      1.00000
     93      -5.3038      1.00000
     94      -5.1956      1.00000
     95      -5.0971      1.00000
     96      -5.0480      1.00000
     97      -4.9715      1.00000
     98      -4.4003      1.00000
     99      -3.6250      1.00000
    100      -2.9137      0.99961
    101      -2.6076      0.00000
    102      -1.4670      0.00000
    103      -1.2727      0.00000
    104      -1.1427      0.00000
    105      -1.0243      0.00000
    106      -0.9636      0.00000
    107      -0.7995      0.00000
    108      -0.7267      0.00000
    109      -0.5531      0.00000
    110      -0.0953      0.00000
    111      -0.0599      0.00000
    112       0.0629      0.00000
    113       0.0814      0.00000
    114       0.1216      0.00000
    115       0.3847      0.00000
    116       0.4947      0.00000
    117       1.0907      0.00000
    118       1.1805      0.00000
    119       1.2289      0.00000
    120       1.2564      0.00000
    121       1.3017      0.00000
    122       1.3345      0.00000
    123       1.4423      0.00000
    124       1.4823      0.00000
    125       1.5167      0.00000
    126       1.5350      0.00000
    127       1.7868      0.00000
    128       1.7937      0.00000

 k-point     5 :      -0.3333    0.3333    0.0000
  band No.  band energies     occupation 
      1     -51.5088      1.00000
      2     -22.3761      1.00000
      3     -22.0325      1.00000
      4     -21.7049      1.00000
      5     -21.5628      1.00000
      6     -21.1283      1.00000
      7     -20.9350      1.00000
      8     -20.6565      1.00000
      9     -20.4913      1.00000
     10     -20.2571      1.00000
     11     -19.7863      1.00000
     12     -19.5227      1.00000
     13     -19.4118      1.00000
     14     -19.1802      1.00000
     15     -18.9354      1.00000
     16     -18.6824      1.00000
     17     -18.4331      1.00000
     18     -18.0413      1.00000
     19     -17.8403      1.00000
     20     -17.5521      1.00000
     21     -17.5039      1.00000
     22     -17.3386      1.00000
     23     -17.2043      1.00000
     24     -16.7679      1.00000
     25     -16.3645      1.00000
     26     -16.0784      1.00000
     27     -15.6066      1.00000
     28     -15.4029      1.00000
     29     -15.3350      1.00000
     30     -14.9998      1.00000
     31     -14.9341      1.00000
     32     -14.7541      1.00000
     33     -14.5482      1.00000
     34     -14.4484      1.00000
     35     -13.8566      1.00000
     36     -13.2782      1.00000
     37     -13.1586      1.00000
     38     -13.0517      1.00000
     39     -12.8894      1.00000
     40     -12.7868      1.00000
     41     -12.6108      1.00000
     42     -12.3209      1.00000
     43     -12.2850      1.00000
     44     -11.7540      1.00000
     45     -11.4422      1.00000
     46     -11.3611      1.00000
     47     -11.0806      1.00000
     48     -10.9329      1.00000
     49     -10.7102      1.00000
     50     -10.6927      1.00000
     51     -10.5159      1.00000
     52     -10.4764      1.00000
     53     -10.3996      1.00000
     54     -10.1609      1.00000
     55     -10.0714      1.00000
     56      -9.9346      1.00000
     57      -9.8173      1.00000
     58      -9.7425      1.00000
     59      -9.6740      1.00000
     60      -9.5684      1.00000
     61      -9.4819      1.00000
     62      -9.3732      1.00000
     63      -9.3198      1.00000
     64      -9.2656      1.00000
     65      -9.1765      1.00000
     66      -9.0234      1.00000
     67      -8.8968      1.00000
     68      -8.8305      1.00000
     69      -8.7631      1.00000
     70      -8.5298      1.00000
     71      -8.4963      1.00000
     72      -8.4469      1.00000
     73      -8.2897      1.00000
     74      -8.1897      1.00000
     75      -8.0807      1.00000
     76      -8.0520      1.00000
     77      -7.9006      1.00000
     78      -7.6386      1.00000
     79      -7.4881      1.00000
     80      -7.3789      1.00000
     81      -7.2336      1.00000
     82      -7.1936      1.00000
     83      -7.0971      1.00000
     84      -6.9695      1.00000
     85      -6.8509      1.00000
     86      -6.6400      1.00000
     87      -6.5166      1.00000
     88      -6.3448      1.00000
     89      -6.2662      1.00000
     90      -6.0641      1.00000
     91      -5.7580      1.00000
     92      -5.6329      1.00000
     93      -5.3893      1.00000
     94      -5.2051      1.00000
     95      -5.0104      1.00000
     96      -4.9838      1.00000
     97      -4.5074      1.00000
     98      -4.0264      1.00000
     99      -3.9256      1.00000
    100      -3.2994      1.00000
    101      -2.0188      0.00000
    102      -1.7040      0.00000
    103      -1.3212      0.00000
    104      -1.0959      0.00000
    105      -1.0565      0.00000
    106      -1.0124      0.00000
    107      -0.9605      0.00000
    108      -0.8774      0.00000
    109      -0.7578      0.00000
    110      -0.5265      0.00000
    111      -0.0228      0.00000
    112       0.3320      0.00000
    113       0.4700      0.00000
    114       0.5750      0.00000
    115       0.7076      0.00000
    116       0.8101      0.00000
    117       0.9438      0.00000
    118       0.9896      0.00000
    119       1.1297      0.00000
    120       1.2522      0.00000
    121       1.3614      0.00000
    122       1.3891      0.00000
    123       1.4994      0.00000
    124       1.5205      0.00000
    125       1.5873      0.00000
    126       1.6647      0.00000
    127       1.7231      0.00000
    128       1.7736      0.00000

 spin component 2

 k-point     1 :       0.0000    0.0000    0.0000
  band No.  band energies     occupation 
      1     -51.5085      1.00000
      2     -22.4457      1.00000
      3     -21.7312      1.00000
      4     -21.5794      1.00000
      5     -21.4780      1.00000
      6     -21.4149      1.00000
      7     -21.3038      1.00000
      8     -20.9664      1.00000
      9     -19.7365      1.00000
     10     -19.7017      1.00000
     11     -19.6169      1.00000
     12     -19.5900      1.00000
     13     -19.4764      1.00000
     14     -19.2449      1.00000
     15     -18.8038      1.00000
     16     -18.7742      1.00000
     17     -18.7132      1.00000
     18     -18.5850      1.00000
     19     -18.5395      1.00000
     20     -17.8599      1.00000
     21     -16.6443      1.00000
     22     -16.6155      1.00000
     23     -16.5466      1.00000
     24     -16.4456      1.00000
     25     -16.3645      1.00000
     26     -16.0085      1.00000
     27     -15.6093      1.00000
     28     -15.5996      1.00000
     29     -15.5469      1.00000
     30     -15.3929      1.00000
     31     -15.2676      1.00000
     32     -14.7964      1.00000
     33     -14.2459      1.00000
     34     -14.2071      1.00000
     35     -14.1946      1.00000
     36     -13.9757      1.00000
     37     -13.9003      1.00000
     38     -12.9547      1.00000
     39     -11.8881      1.00000
     40     -11.8737      1.00000
     41     -11.8462      1.00000
     42     -11.8119      1.00000
     43     -11.7761      1.00000
     44     -11.7328      1.00000
     45     -11.7158      1.00000
     46     -11.6834      1.00000
     47     -11.6349      1.00000
     48     -11.2222      1.00000
     49     -11.2178      1.00000
     50     -10.6122      1.00000
     51     -10.5769      1.00000
     52     -10.3427      1.00000
     53     -10.3310      1.00000
     54     -10.2804      1.00000
     55      -9.9973      1.00000
     56      -9.9781      1.00000
     57      -9.7920      1.00000
     58      -9.7405      1.00000
     59      -9.5370      1.00000
     60      -9.4279      1.00000
     61      -9.3825      1.00000
     62      -9.3196      1.00000
     63      -9.1742      1.00000
     64      -9.1205      1.00000
     65      -9.0997      1.00000
     66      -9.0406      1.00000
     67      -9.0110      1.00000
     68      -8.9776      1.00000
     69      -8.9433      1.00000
     70      -8.9259      1.00000
     71      -8.8868      1.00000
     72      -8.8376      1.00000
     73      -8.0765      1.00000
     74      -8.0655      1.00000
     75      -7.5754      1.00000
     76      -7.5251      1.00000
     77      -7.4803      1.00000
     78      -7.4535      1.00000
     79      -7.3898      1.00000
     80      -7.3119      1.00000
     81      -7.2674      1.00000
     82      -7.1794      1.00000
     83      -7.1552      1.00000
     84      -7.1248      1.00000
     85      -6.9338      1.00000
     86      -6.4937      1.00000
     87      -6.4610      1.00000
     88      -6.3712      1.00000
     89      -6.3345      1.00000
     90      -6.2553      1.00000
     91      -6.1483      1.00000
     92      -6.1051      1.00000
     93      -5.6433      1.00000
     94      -4.5465      1.00000
     95      -4.5060      1.00000
     96      -4.3693      1.00000
     97      -4.3333      1.00000
     98      -4.2660      1.00000
     99      -3.4979      1.00000
    100      -2.1756      0.00000
    101      -1.8080      0.00000
    102      -1.7146      0.00000
    103      -1.5874      0.00000
    104      -1.5517      0.00000
    105      -1.4859      0.00000
    106      -1.0097      0.00000
    107      -0.8417      0.00000
    108      -0.7979      0.00000
    109       0.0300      0.00000
    110       0.0782      0.00000
    111       0.2093      0.00000
    112       0.2683      0.00000
    113       0.3000      0.00000
    114       0.5152      0.00000
    115       0.7172      0.00000
    116       0.8016      0.00000
    117       0.9024      0.00000
    118       1.0346      0.00000
    119       1.0969      0.00000
    120       1.3686      0.00000
    121       1.4019      0.00000
    122       1.4533      0.00000
    123       1.4987      0.00000
    124       1.5611      0.00000
    125       1.7848      0.00000
    126       1.8521      0.00000
    127       1.8878      0.00000
    128       1.9120      0.00000

 k-point     2 :       0.3333   -0.0000    0.0000
  band No.  band energies     occupation 
      1     -51.5085      1.00000
      2     -22.3573      1.00000
      3     -22.0487      1.00000
      4     -21.7174      1.00000
      5     -21.4532      1.00000
      6     -21.1406      1.00000
      7     -20.9399      1.00000
      8     -20.6020      1.00000
      9     -20.5027      1.00000
     10     -20.2711      1.00000
     11     -19.7712      1.00000
     12     -19.4694      1.00000
     13     -19.3500      1.00000
     14     -19.1685      1.00000
     15     -18.8754      1.00000
     16     -18.6988      1.00000
     17     -18.4294      1.00000
     18     -18.0026      1.00000
     19     -17.8190      1.00000
     20     -17.5743      1.00000
     21     -17.4846      1.00000
     22     -17.3172      1.00000
     23     -17.1534      1.00000
     24     -16.7757      1.00000
     25     -16.3189      1.00000
     26     -15.9993      1.00000
     27     -15.5799      1.00000
     28     -15.3760      1.00000
     29     -15.2863      1.00000
     30     -14.9609      1.00000
     31     -14.9254      1.00000
     32     -14.7450      1.00000
     33     -14.5543      1.00000
     34     -14.4232      1.00000
     35     -13.8044      1.00000
     36     -13.2505      1.00000
     37     -13.1516      1.00000
     38     -13.0245      1.00000
     39     -12.8841      1.00000
     40     -12.7687      1.00000
     41     -12.5879      1.00000
     42     -12.2997      1.00000
     43     -12.2534      1.00000
     44     -11.7307      1.00000
     45     -11.3812      1.00000
     46     -11.3047      1.00000
     47     -11.0681      1.00000
     48     -10.8988      1.00000
     49     -10.6970      1.00000
     50     -10.6612      1.00000
     51     -10.5085      1.00000
     52     -10.4536      1.00000
     53     -10.4066      1.00000
     54     -10.1357      1.00000
     55     -10.1056      1.00000
     56      -9.9022      1.00000
     57      -9.7892      1.00000
     58      -9.7150      1.00000
     59      -9.6472      1.00000
     60      -9.5033      1.00000
     61      -9.4381      1.00000
     62      -9.3753      1.00000
     63      -9.3485      1.00000
     64      -9.2372      1.00000
     65      -9.1311      1.00000
     66      -9.0471      1.00000
     67      -8.8722      1.00000
     68      -8.8129      1.00000
     69      -8.7285      1.00000
     70      -8.5126      1.00000
     71      -8.4508      1.00000
     72      -8.3833      1.00000
     73      -8.3271      1.00000
     74      -8.1350      1.00000
     75      -8.0931      1.00000
     76      -8.0581      1.00000
     77      -7.8771      1.00000
     78      -7.6394      1.00000
     79      -7.4809      1.00000
     80      -7.3299      1.00000
     81      -7.2009      1.00000
     82      -7.1459      1.00000
     83      -7.0168      1.00000
     84      -6.8930      1.00000
     85      -6.8472      1.00000
     86      -6.5935      1.00000
     87      -6.4824      1.00000
     88      -6.3107      1.00000
     89      -6.2703      1.00000
     90      -6.0575      1.00000
     91      -5.7076      1.00000
     92      -5.6083      1.00000
     93      -5.3780      1.00000
     94      -5.1896      1.00000
     95      -5.0340      1.00000
     96      -4.9171      1.00000
     97      -4.4164      1.00000
     98      -3.9755      1.00000
     99      -3.4406      1.00000
    100      -2.1656      0.00000
    101      -1.8877      0.00000
    102      -1.7155      0.00000
    103      -1.2633      0.00000
    104      -1.1862      0.00000
    105      -1.0328      0.00000
    106      -0.9481      0.00000
    107      -0.8799      0.00000
    108      -0.8459      0.00000
    109      -0.6651      0.00000
    110      -0.5232      0.00000
    111       0.0620      0.00000
    112       0.3128      0.00000
    113       0.4170      0.00000
    114       0.6648      0.00000
    115       0.7361      0.00000
    116       0.9061      0.00000
    117       0.9704      0.00000
    118       0.9917      0.00000
    119       1.1525      0.00000
    120       1.2911      0.00000
    121       1.3491      0.00000
    122       1.3841      0.00000
    123       1.5110      0.00000
    124       1.5603      0.00000
    125       1.5879      0.00000
    126       1.6796      0.00000
    127       1.7097      0.00000
    128       1.7723      0.00000

 k-point     3 :       0.0000    0.3333    0.0000
  band No.  band energies     occupation 
      1     -51.5085      1.00000
      2     -22.3850      1.00000
      3     -21.9242      1.00000
      4     -21.7100      1.00000
      5     -21.6579      1.00000
      6     -21.0363      1.00000
      7     -20.9624      1.00000
      8     -20.6672      1.00000
      9     -20.3938      1.00000
     10     -20.1890      1.00000
     11     -19.6973      1.00000
     12     -19.5417      1.00000
     13     -19.5229      1.00000
     14     -19.1370      1.00000
     15     -19.0427      1.00000
     16     -18.5794      1.00000
     17     -18.3853      1.00000
     18     -18.0024      1.00000
     19     -17.8502      1.00000
     20     -17.4437      1.00000
     21     -17.3693      1.00000
     22     -17.3024      1.00000
     23     -17.1954      1.00000
     24     -16.8064      1.00000
     25     -16.4626      1.00000
     26     -16.0575      1.00000
     27     -15.5666      1.00000
     28     -15.3796      1.00000
     29     -15.3119      1.00000
     30     -14.9227      1.00000
     31     -14.8945      1.00000
     32     -14.6507      1.00000
     33     -14.5596      1.00000
     34     -14.5144      1.00000
     35     -13.8073      1.00000
     36     -13.2482      1.00000
     37     -13.0999      1.00000
     38     -13.0757      1.00000
     39     -12.8717      1.00000
     40     -12.6843      1.00000
     41     -12.5909      1.00000
     42     -12.2271      1.00000
     43     -12.1951      1.00000
     44     -11.7338      1.00000
     45     -11.5445      1.00000
     46     -11.3502      1.00000
     47     -11.1180      1.00000
     48     -11.0080      1.00000
     49     -10.7164      1.00000
     50     -10.6650      1.00000
     51     -10.5176      1.00000
     52     -10.3831      1.00000
     53     -10.3355      1.00000
     54     -10.1329      1.00000
     55      -9.9875      1.00000
     56      -9.8895      1.00000
     57      -9.8248      1.00000
     58      -9.7468      1.00000
     59      -9.7042      1.00000
     60      -9.6259      1.00000
     61      -9.4251      1.00000
     62      -9.3584      1.00000
     63      -9.2542      1.00000
     64      -9.1886      1.00000
     65      -9.1178      1.00000
     66      -8.9870      1.00000
     67      -8.8885      1.00000
     68      -8.8329      1.00000
     69      -8.7643      1.00000
     70      -8.5072      1.00000
     71      -8.4773      1.00000
     72      -8.4038      1.00000
     73      -8.2827      1.00000
     74      -8.1967      1.00000
     75      -8.0418      1.00000
     76      -8.0134      1.00000
     77      -7.7742      1.00000
     78      -7.6033      1.00000
     79      -7.4130      1.00000
     80      -7.3460      1.00000
     81      -7.2366      1.00000
     82      -7.2100      1.00000
     83      -7.0791      1.00000
     84      -7.0489      1.00000
     85      -6.7943      1.00000
     86      -6.6839      1.00000
     87      -6.4647      1.00000
     88      -6.3413      1.00000
     89      -6.1779      1.00000
     90      -6.0236      1.00000
     91      -5.7392      1.00000
     92      -5.5876      1.00000
     93      -5.3083      1.00000
     94      -5.1028      1.00000
     95      -5.0140      1.00000
     96      -4.9195      1.00000
     97      -4.5759      1.00000
     98      -4.0257      1.00000
     99      -3.4297      1.00000
    100      -2.0641      0.00000
    101      -1.8122      0.00000
    102      -1.7837      0.00000
    103      -1.3005      0.00000
    104      -1.1641      0.00000
    105      -1.0288      0.00000
    106      -0.9883      0.00000
    107      -0.9061      0.00000
    108      -0.8302      0.00000
    109      -0.6719      0.00000
    110      -0.4673      0.00000
    111      -0.0179      0.00000
    112       0.3598      0.00000
    113       0.4074      0.00000
    114       0.5778      0.00000
    115       0.7972      0.00000
    116       0.8196      0.00000
    117       0.9802      0.00000
    118       1.0432      0.00000
    119       1.1570      0.00000
    120       1.3285      0.00000
    121       1.3564      0.00000
    122       1.4043      0.00000
    123       1.5164      0.00000
    124       1.5807      0.00000
    125       1.6671      0.00000
    126       1.6922      0.00000
    127       1.7106      0.00000
    128       1.7843      0.00000

 k-point     4 :       0.3333    0.3333    0.0000
  band No.  band energies     occupation 
      1     -51.5085      1.00000
      2     -22.3045      1.00000
      3     -22.0814      1.00000
      4     -21.8955      1.00000
      5     -21.2434      1.00000
      6     -21.1591      1.00000
      7     -20.9314      1.00000
      8     -20.3724      1.00000
      9     -20.3207      1.00000
     10     -20.2254      1.00000
     11     -20.1533      1.00000
     12     -20.0487      1.00000
     13     -19.6204      1.00000
     14     -18.5647      1.00000
     15     -18.4899      1.00000
     16     -18.4097      1.00000
     17     -18.3264      1.00000
     18     -18.2465      1.00000
     19     -17.9904      1.00000
     20     -17.5955      1.00000
     21     -17.5003      1.00000
     22     -17.3403      1.00000
     23     -17.1180      1.00000
     24     -16.9345      1.00000
     25     -16.4689      1.00000
     26     -16.0367      1.00000
     27     -15.8695      1.00000
     28     -15.7923      1.00000
     29     -15.3393      1.00000
     30     -14.9750      1.00000
     31     -14.0912      1.00000
     32     -14.0306      1.00000
     33     -14.0116      1.00000
     34     -13.9498      1.00000
     35     -13.9195      1.00000
     36     -13.8427      1.00000
     37     -13.7714      1.00000
     38     -13.6076      1.00000
     39     -13.1933      1.00000
     40     -12.5503      1.00000
     41     -12.2735      1.00000
     42     -12.2240      1.00000
     43     -11.9824      1.00000
     44     -11.6832      1.00000
     45     -11.6056      1.00000
     46     -11.5609      1.00000
     47     -11.3414      1.00000
     48     -11.2782      1.00000
     49     -10.5755      1.00000
     50     -10.4264      1.00000
     51     -10.3875      1.00000
     52     -10.2883      1.00000
     53     -10.2183      1.00000
     54     -10.1822      1.00000
     55     -10.1058      1.00000
     56      -9.9515      1.00000
     57      -9.9342      1.00000
     58      -9.8565      1.00000
     59      -9.5806      1.00000
     60      -9.4963      1.00000
     61      -9.4390      1.00000
     62      -9.2618      1.00000
     63      -9.1737      1.00000
     64      -9.1537      1.00000
     65      -9.0697      1.00000
     66      -8.8820      1.00000
     67      -8.8142      1.00000
     68      -8.7453      1.00000
     69      -8.6847      1.00000
     70      -8.6576      1.00000
     71      -8.4870      1.00000
     72      -8.3440      1.00000
     73      -8.2994      1.00000
     74      -8.1492      1.00000
     75      -8.1007      1.00000
     76      -7.9718      1.00000
     77      -7.9172      1.00000
     78      -7.8619      1.00000
     79      -7.7737      1.00000
     80      -7.4879      1.00000
     81      -7.3976      1.00000
     82      -7.3549      1.00000
     83      -6.9149      1.00000
     84      -6.7695      1.00000
     85      -6.6785      1.00000
     86      -6.5561      1.00000
     87      -6.2180      1.00000
     88      -6.1272      1.00000
     89      -6.0041      1.00000
     90      -5.9702      1.00000
     91      -5.8703      1.00000
     92      -5.6800      1.00000
     93      -5.2931      1.00000
     94      -5.1791      1.00000
     95      -5.0791      1.00000
     96      -5.0236      1.00000
     97      -4.9355      1.00000
     98      -4.0589      1.00000
     99      -2.9124      0.99955
    100      -2.6839      0.00084
    101      -2.0607      0.00000
    102      -1.3958      0.00000
    103      -1.2574      0.00000
    104      -1.0916      0.00000
    105      -0.9903      0.00000
    106      -0.9169      0.00000
    107      -0.7456      0.00000
    108      -0.6803      0.00000
    109      -0.5465      0.00000
    110      -0.0739      0.00000
    111      -0.0246      0.00000
    112       0.0875      0.00000
    113       0.1123      0.00000
    114       0.1436      0.00000
    115       0.3859      0.00000
    116       0.5055      0.00000
    117       1.0941      0.00000
    118       1.2003      0.00000
    119       1.2334      0.00000
    120       1.2609      0.00000
    121       1.3100      0.00000
    122       1.3526      0.00000
    123       1.4678      0.00000
    124       1.5009      0.00000
    125       1.5306      0.00000
    126       1.5527      0.00000
    127       1.8007      0.00000
    128       1.8108      0.00000

 k-point     5 :      -0.3333    0.3333    0.0000
  band No.  band energies     occupation 
      1     -51.5085      1.00000
      2     -22.3672      1.00000
      3     -22.0188      1.00000
      4     -21.6943      1.00000
      5     -21.5394      1.00000
      6     -21.1177      1.00000
      7     -20.9191      1.00000
      8     -20.6267      1.00000
      9     -20.4807      1.00000
     10     -20.2313      1.00000
     11     -19.7561      1.00000
     12     -19.5094      1.00000
     13     -19.4033      1.00000
     14     -19.1511      1.00000
     15     -18.9060      1.00000
     16     -18.6683      1.00000
     17     -18.4119      1.00000
     18     -18.0104      1.00000
     19     -17.8218      1.00000
     20     -17.5432      1.00000
     21     -17.4813      1.00000
     22     -17.3180      1.00000
     23     -17.1697      1.00000
     24     -16.7167      1.00000
     25     -16.3357      1.00000
     26     -16.0439      1.00000
     27     -15.5814      1.00000
     28     -15.3892      1.00000
     29     -15.3170      1.00000
     30     -14.9911      1.00000
     31     -14.9212      1.00000
     32     -14.7080      1.00000
     33     -14.5288      1.00000
     34     -14.4128      1.00000
     35     -13.8079      1.00000
     36     -13.2508      1.00000
     37     -13.1431      1.00000
     38     -13.0175      1.00000
     39     -12.8731      1.00000
     40     -12.7660      1.00000
     41     -12.5905      1.00000
     42     -12.2799      1.00000
     43     -12.2637      1.00000
     44     -11.7204      1.00000
     45     -11.4352      1.00000
     46     -11.3288      1.00000
     47     -11.0532      1.00000
     48     -10.9159      1.00000
     49     -10.6867      1.00000
     50     -10.6640      1.00000
     51     -10.5047      1.00000
     52     -10.4553      1.00000
     53     -10.3805      1.00000
     54     -10.1316      1.00000
     55     -10.0601      1.00000
     56      -9.9193      1.00000
     57      -9.7897      1.00000
     58      -9.7274      1.00000
     59      -9.6625      1.00000
     60      -9.5523      1.00000
     61      -9.4681      1.00000
     62      -9.3486      1.00000
     63      -9.3001      1.00000
     64      -9.2513      1.00000
     65      -9.1582      1.00000
     66      -9.0127      1.00000
     67      -8.8756      1.00000
     68      -8.8051      1.00000
     69      -8.7238      1.00000
     70      -8.4994      1.00000
     71      -8.4760      1.00000
     72      -8.4262      1.00000
     73      -8.2800      1.00000
     74      -8.1686      1.00000
     75      -8.0655      1.00000
     76      -8.0316      1.00000
     77      -7.8709      1.00000
     78      -7.6022      1.00000
     79      -7.4677      1.00000
     80      -7.3502      1.00000
     81      -7.2146      1.00000
     82      -7.1541      1.00000
     83      -7.0825      1.00000
     84      -6.8845      1.00000
     85      -6.8292      1.00000
     86      -6.6128      1.00000
     87      -6.4884      1.00000
     88      -6.3017      1.00000
     89      -6.2510      1.00000
     90      -6.0437      1.00000
     91      -5.7292      1.00000
     92      -5.6111      1.00000
     93      -5.3692      1.00000
     94      -5.1874      1.00000
     95      -4.9999      1.00000
     96      -4.9617      1.00000
     97      -4.3335      1.00000
     98      -3.9724      1.00000
     99      -3.5294      1.00000
    100      -2.1613      0.00000
    101      -1.9591      0.00000
    102      -1.6602      0.00000
    103      -1.2234      0.00000
    104      -1.0626      0.00000
    105      -1.0204      0.00000
    106      -0.9860      0.00000
    107      -0.9083      0.00000
    108      -0.8596      0.00000
    109      -0.7276      0.00000
    110      -0.5034      0.00000
    111       0.0408      0.00000
    112       0.3415      0.00000
    113       0.4878      0.00000
    114       0.5936      0.00000
    115       0.7232      0.00000
    116       0.8171      0.00000
    117       0.9575      0.00000
    118       1.0017      0.00000
    119       1.1418      0.00000
    120       1.2698      0.00000
    121       1.3676      0.00000
    122       1.4012      0.00000
    123       1.5157      0.00000
    124       1.5496      0.00000
    125       1.6089      0.00000
    126       1.6744      0.00000
    127       1.7340      0.00000
    128       1.7813      0.00000


--------------------------------------------------------------------------------------------------------


 soft charge-density along one line, spin component           1
         0         1         2         3         4         5         6         7         8         9
 total charge-density along one line
 
 soft charge-density along one line, spin component           2
         0         1         2         3         4         5         6         7         8         9
 total charge-density along one line
 
 pseudopotential strength for first ion, spin component:           1
 10.227  13.601   0.000   0.000  -0.000  -0.000  -0.000   0.000
 13.601  18.086   0.000   0.000  -0.000  -0.001  -0.000   0.000
  0.000   0.000  -4.357   0.002   0.000   8.521  -0.003  -0.000
  0.000   0.000   0.002  -4.336   0.000  -0.003   8.488  -0.000
 -0.000  -0.000   0.000   0.000  -4.357  -0.000  -0.000   8.521
 -0.000  -0.001   8.521  -0.003  -0.000 -18.802   0.004   0.000
 -0.000  -0.000  -0.003   8.488  -0.000   0.004 -18.749   0.000
  0.000   0.000  -0.000  -0.000   8.521   0.000   0.000 -18.802
 pseudopotential strength for first ion, spin component:           2
 10.227  13.600   0.000   0.000  -0.000  -0.001  -0.000   0.000
 13.600  18.085   0.001   0.000  -0.000  -0.001  -0.000   0.000
  0.000   0.001  -4.357   0.002   0.000   8.521  -0.003  -0.000
  0.000   0.000   0.002  -4.336   0.000  -0.003   8.488  -0.000
 -0.000  -0.000   0.000   0.000  -4.357  -0.000  -0.000   8.521
 -0.001  -0.001   8.521  -0.003  -0.000 -18.802   0.004   0.000
 -0.000  -0.000  -0.003   8.488  -0.000   0.004 -18.749   0.000
  0.000   0.000  -0.000  -0.000   8.521   0.000   0.000 -18.801
 total augmentation occupancy for first ion, spin component:           1
  8.144  -3.618  -0.028   0.015  -0.001  -0.004   0.003  -0.000
 -3.618   1.665   0.015  -0.010   0.002   0.002  -0.001   0.000
 -0.028   0.015   1.826  -0.045   0.001   0.167  -0.008  -0.000
  0.015  -0.010  -0.045   1.209   0.000  -0.008   0.072  -0.000
 -0.001   0.002   0.001   0.000   1.816  -0.000  -0.000   0.168
 -0.004   0.002   0.167  -0.008  -0.000   0.017  -0.001  -0.000
  0.003  -0.001  -0.008   0.072  -0.000  -0.001   0.005  -0.000
 -0.000   0.000  -0.000  -0.000   0.168  -0.000  -0.000   0.017
 total augmentation occupancy for first ion, spin component:           2
  0.000  -0.000   0.000   0.000  -0.000   0.000   0.000  -0.000
 -0.000   0.000  -0.001  -0.000   0.000  -0.000  -0.000   0.000
  0.000  -0.001   0.001   0.000   0.000  -0.000  -0.000  -0.000
  0.000  -0.000   0.000   0.000   0.000  -0.000   0.000   0.000
 -0.000   0.000   0.000   0.000  -0.000  -0.000   0.000  -0.000
  0.000  -0.000  -0.000  -0.000  -0.000  -0.000  -0.000  -0.000
  0.000  -0.000  -0.000   0.000   0.000  -0.000   0.000  -0.000
 -0.000   0.000  -0.000   0.000  -0.000  -0.000  -0.000  -0.000


------------------------ aborting loop because EDIFF is reached ----------------------------------------


    CHARGE:  cpu time    4.3297: real time    4.3301
    FORLOC:  cpu time    0.2110: real time    0.2110
    FORNL :  cpu time   16.8985: real time   16.9012
    STRESS:  cpu time   50.7179: real time   50.7198
    FORCOR:  cpu time    1.5804: real time    1.5804
    FORHAR:  cpu time    0.3278: real time    0.3278
    MIXING:  cpu time    0.0847: real time    0.0847
    OFIELD:  cpu time    0.0000: real time    0.0000

  FORCE on cell =-STRESS in cart. coord.  units (eV):
  Direction    XX          YY          ZZ          XY          YZ          ZX
  --------------------------------------------------------------------------------------
  Alpha Z    51.33532    51.33532    51.33532
  Ewald   60996.88080 60953.81989-67419.24881     5.63100  -115.04983    -4.88530
  Hartree 60242.22992 60197.14084-59817.74870     4.15188   -55.83371    -3.85784
  E(xc)    -739.54649  -740.07573  -766.01759    -0.00570    -0.29754     0.00018
  Local  ************************124731.65271    -9.38297   166.27804     8.81709
  n-local  -180.87745  -187.54495  -175.33855     0.13194     0.85414     0.06278
  augment    -0.51215    -0.53902     0.90637    -0.00730     0.00605    -0.00012
  Kinetic  2948.00732  2991.78686  3396.71682     0.02245     4.52872    -0.44662
  Fock        0.00000     0.00000     0.00000     0.00000     0.00000     0.00000
  -------------------------------------------------------------------------------------
  Total     -24.52665    17.06206     2.25757     0.54130     0.48587    -0.30983
  in kB      -9.99739     6.95473     0.92021     0.22064     0.19805    -0.12629
  external pressure =       -0.71 kB  Pullay stress =        0.00 kB


 VOLUME and BASIS-vectors are now :
 -----------------------------------------------------------------------------
  energy-cutoff  :      520.00
  volume of cell :     3930.63
      direct lattice vectors                 reciprocal lattice vectors
    12.300000000  0.000000000  0.000000000     0.081300813  0.046939046  0.000000000
    -6.150000000 10.652112467  0.000000000     0.000000000  0.093878093  0.000000000
     0.000000000  0.000000000 30.000000000     0.000000000  0.000000000  0.033333333

  length of vectors
    12.300000000 12.300000000 30.000000000     0.093878093  0.093878093  0.033333333


 FORCES acting on ions
    electron-ion (+dipol)            ewald-force                    non-local-force                 convergence-correction
 -----------------------------------------------------------------------------------------------
   -.158E+01 -.191E+01 0.891E+01   0.164E+01 0.198E+01 -.903E+01   -.992E-01 0.597E-01 0.900E-01   0.102E-05 0.460E-06 -.809E-05
   -.384E+01 -.913E+01 0.225E+02   0.416E+01 0.916E+01 -.226E+02   -.356E+00 0.172E-01 0.147E+00   0.464E-05 0.760E-05 -.101E-04
   -.283E+01 -.239E+01 0.177E+02   0.299E+01 0.249E+01 -.177E+02   -.126E+00 -.101E+00 -.324E-02   0.194E-05 0.785E-05 -.913E-05
   0.662E+01 -.226E+02 0.195E+02   -.666E+01 0.231E+02 -.198E+02   0.435E-01 -.354E+00 0.332E+00   0.801E-05 0.424E-05 -.111E-04
   0.271E+01 0.853E+01 0.115E+02   -.252E+01 -.840E+01 -.114E+02   -.103E+00 -.160E+00 -.731E-01   0.446E-05 0.206E-05 -.921E-05
   0.126E+02 0.140E+02 -.254E+02   -.128E+02 -.140E+02 0.260E+02   0.196E+00 -.200E+00 -.657E+00   0.142E-05 -.661E-06 -.816E-05
   0.502E+01 0.100E+02 -.479E+00   -.517E+01 -.102E+02 0.420E+00   0.148E+00 0.201E+00 0.716E-01   0.384E-05 -.543E-05 -.830E-05
   0.959E+00 0.996E+01 -.134E+02   -.107E+01 -.983E+01 0.130E+02   -.460E-01 0.386E-02 0.574E+00   0.137E-05 -.682E-06 -.771E-05
   -.914E-01 0.478E+01 0.947E+01   0.218E+00 -.483E+01 -.968E+01   -.127E+00 -.191E-01 0.217E+00   -.361E-05 -.472E-05 -.801E-05
   0.369E+01 -.576E+00 0.177E+02   -.379E+01 0.580E+00 -.178E+02   0.601E-01 -.112E-01 0.103E+00   -.283E-05 0.231E-05 -.855E-05
   -.641E+00 0.524E+01 -.155E+02   0.649E+00 -.541E+01 0.158E+02   -.128E-01 0.262E-01 -.331E+00   0.688E-07 0.315E-06 -.810E-05
   0.411E+01 -.337E+01 0.211E+02   -.413E+01 0.342E+01 -.212E+02   0.203E-01 0.175E-01 0.114E+00   -.271E-05 0.430E-05 -.958E-05
   0.231E+01 -.957E+01 0.196E+02   -.241E+01 0.979E+01 -.197E+02   0.125E+00 -.216E+00 0.870E-01   -.396E-05 0.901E-05 -.916E-05
   -.246E+01 -.126E+02 0.134E+02   0.252E+01 0.127E+02 -.134E+02   -.940E-01 -.895E-01 0.933E-01   0.167E-05 0.471E-05 -.858E-05
   -.686E+01 0.104E+02 0.100E+02   0.698E+01 -.104E+02 -.992E+01   -.101E+00 -.590E-01 -.112E+00   -.687E-06 0.123E-05 -.810E-05
   0.729E+00 -.173E+00 0.131E+02   -.690E+00 0.254E+00 -.132E+02   -.657E-01 -.540E-01 0.158E+00   0.401E-05 -.591E-05 -.859E-05
   -.512E+00 0.116E+02 0.140E+02   0.563E+00 -.117E+02 -.141E+02   -.209E-01 -.491E-02 0.674E-01   0.121E-05 -.858E-05 -.793E-05
   0.317E+01 0.753E+01 0.139E+01   -.315E+01 -.770E+01 -.122E+01   0.103E-01 0.162E+00 -.176E+00   -.972E-07 -.833E-05 -.789E-05
   0.162E+01 0.865E+01 0.137E+02   -.160E+01 -.895E+01 -.138E+02   0.226E-01 0.247E+00 0.103E+00   0.183E-05 -.819E-05 -.881E-05
   0.745E+01 0.358E+01 0.223E+02   -.776E+01 -.391E+01 -.224E+02   0.351E+00 0.356E+00 0.472E-01   -.190E-05 0.294E-06 -.103E-04
   0.631E+01 0.123E+02 0.354E+02   -.652E+01 -.132E+02 -.358E+02   0.202E+00 0.543E+00 0.479E+00   -.913E-06 0.250E-06 -.125E-04
   0.371E+01 -.122E+02 0.205E+02   -.427E+01 0.121E+02 -.205E+02   0.475E+00 0.532E-02 -.307E-01   -.257E-05 0.677E-05 -.102E-04
   -.809E+00 -.138E+01 0.162E+02   0.814E+00 0.144E+01 -.162E+02   -.321E-01 -.717E-01 0.160E-01   -.214E-05 0.318E-05 -.828E-05
   0.187E+02 -.283E+02 0.318E+02   -.193E+02 0.291E+02 -.323E+02   0.609E+00 -.472E+00 0.480E+00   -.688E-05 0.161E-05 -.124E-04
   -.136E+02 -.179E+02 0.139E+02   0.139E+02 0.180E+02 -.139E+02   -.238E+00 -.120E+00 0.351E-01   -.582E-05 0.293E-05 -.878E-05
   -.308E+02 0.386E+01 0.106E+02   0.310E+02 -.324E+01 -.106E+02   -.123E+00 -.656E+00 0.113E+00   -.691E-05 0.329E-05 -.886E-05
   -.586E+01 0.130E+02 -.116E+01   0.612E+01 -.133E+02 0.109E+01   -.161E+00 0.291E+00 0.871E-01   -.329E-05 -.692E-05 -.739E-05
   0.413E+00 0.498E+01 0.130E+02   -.470E+00 -.507E+01 -.130E+02   0.262E-01 0.134E+00 0.422E-03   0.756E-06 -.104E-04 -.854E-05
   -.897E-01 0.111E+02 0.144E+02   0.916E-01 -.115E+02 -.146E+02   0.335E-01 0.363E+00 0.118E+00   -.153E-05 -.971E-05 -.915E-05
   -.330E+01 0.943E+01 0.258E+02   0.334E+01 -.998E+01 -.260E+02   -.110E+00 0.524E+00 0.273E+00   0.475E-06 -.125E-05 -.114E-04
   -.640E+01 0.513E+01 0.283E+02   0.652E+01 -.572E+01 -.288E+02   -.828E-01 0.383E+00 0.503E+00   0.136E-05 0.682E-06 -.121E-04
   0.151E+02 -.438E+01 0.540E+02   -.160E+02 0.406E+01 -.556E+02   0.787E+00 0.356E+00 0.174E+01   -.260E-05 0.362E-05 -.150E-04
   -.483E+01 -.284E+02 0.701E+02   0.486E+01 0.291E+02 -.738E+02   -.100E-01 -.633E+00 0.130E+01   0.233E-05 0.695E-06 -.179E-04
   -.540E+02 -.847E+02 0.289E+02   0.540E+02 0.853E+02 -.297E+02   0.227E+00 -.439E+00 0.102E+01   -.458E-05 0.528E-05 -.111E-04
   -.127E+02 0.189E+02 -.273E+02   0.128E+02 -.191E+02 0.279E+02   -.216E+00 0.698E-01 -.646E+00   -.295E-05 -.314E-05 -.696E-05
   -.278E+01 0.304E+02 -.735E+02   0.332E+01 -.313E+02 0.731E+02   -.486E+00 0.144E+00 0.869E+00   -.295E-05 -.585E-05 -.269E-05
   -.258E+01 -.998E+01 0.202E+02   0.255E+01 0.101E+02 -.203E+02   -.335E-02 -.636E-01 0.104E+00   -.771E-06 0.856E-05 -.886E-05
   -.336E+01 0.104E+02 0.172E+01   0.332E+01 -.107E+02 -.155E+01   -.281E-01 0.271E+00 -.175E+00   0.363E-06 -.104E-04 -.804E-05
   -.661E+01 0.353E+01 0.200E+02   0.687E+01 -.373E+01 -.202E+02   -.225E+00 0.177E+00 0.147E+00   0.336E-05 -.575E-06 -.101E-04
   -.359E+01 0.415E+00 0.177E+02   0.377E+01 -.469E+00 -.177E+02   -.110E+00 -.113E-01 0.521E-01   0.450E-05 0.217E-05 -.933E-05
   -.134E+02 -.457E+01 0.402E+02   0.144E+02 0.408E+01 -.416E+02   -.972E+00 0.359E+00 0.139E+01   0.113E-05 0.466E-05 -.148E-04
   -.121E+02 -.971E+01 0.275E+02   0.129E+02 0.100E+02 -.280E+02   -.482E+00 -.258E+00 0.513E+00   0.685E-05 0.856E-05 -.119E-04
   0.668E+02 -.969E+02 0.448E+02   -.679E+02 0.988E+02 -.465E+02   0.600E+00 -.133E+01 0.210E+01   0.164E-06 0.689E-05 -.140E-04
   0.293E+02 -.582E+01 0.180E+02   -.295E+02 0.688E+01 -.183E+02   0.269E+00 -.929E+00 0.462E+00   0.505E-05 0.503E-05 -.116E-04
   0.234E+01 0.999E+02 -.225E+03   -.238E+01 -.106E+03 0.230E+03   0.517E-01 0.669E+01 -.610E+01   -.132E-05 -.312E-05 -.124E-05
   0.422E+01 0.278E+02 -.730E+02   -.487E+01 -.286E+02 0.724E+02   0.541E+00 0.880E-01 0.889E+00   0.102E-05 -.495E-05 -.307E-05
   -.136E+01 0.116E+02 -.133E+02   0.150E+01 -.115E+02 0.129E+02   0.161E-01 0.533E-01 0.549E+00   -.238E-05 -.182E-05 -.809E-05
   -.282E+01 0.153E+01 0.125E+02   0.278E+01 -.153E+01 -.126E+02   -.577E-02 0.777E-02 0.147E+00   -.137E-05 -.634E-05 -.771E-05
   -.895E+00 0.768E+01 0.102E+02   0.804E+00 -.787E+01 -.104E+02   0.987E-01 0.112E+00 0.226E+00   0.341E-05 -.740E-05 -.880E-05
   0.220E+01 -.449E+01 -.357E+03   -.245E+01 0.525E+01 0.353E+03   0.774E-01 -.554E+00 0.572E+01   0.579E-06 0.824E-06 0.310E-06
 -----------------------------------------------------------------------------------------------
   -.553E+00 -.483E+01 -.132E+02   0.183E-12 0.870E-13 0.171E-12   0.554E+00 0.485E+01 0.132E+02   0.207E-05 -.493E-05 -.456E-03
 
 
 POSITION                                       TOTAL-FORCE (eV/Angst)
 -----------------------------------------------------------------------------------
     -0.00001      0.05150     14.98679        -0.035128      0.132616     -0.029088
     -1.24591      2.16817     14.91255        -0.033036      0.049248      0.004471
      0.00001      2.86830     14.91657         0.034754     -0.005396      0.001319
      9.73578      4.28201     14.95074         0.007198      0.113019     -0.037710
     -1.27857      4.97561     14.95387         0.082470     -0.033406      0.013585
      8.54488      6.40619     15.14837         0.048353     -0.240205     -0.096085
     -2.50159      7.08790     15.03498         0.002338     -0.006552      0.011111
     -4.92598      8.57885     15.13512        -0.162103      0.133844      0.164902
     -3.69113      9.25769     15.01030         0.000072     -0.061236      0.009597
      2.46398      0.02346     14.94297        -0.035533     -0.007808     -0.004485
      6.15000      9.29485     15.10476        -0.004741     -0.144364     -0.047975
      3.70288      0.71099     14.90991        -0.004471      0.063375     -0.017950
      2.50117      2.86446     14.91468         0.029107      0.004046      0.005601
     -0.00000      4.28092     14.93545        -0.030218      0.026038      0.004069
      1.27857      4.97561     14.95388         0.011490     -0.029832      0.001487
     -1.25503      6.38726     14.96653        -0.026512      0.026243      0.014708
     -0.00000      7.08383     14.95121         0.030028     -0.024696      0.001411
     -2.47862      8.51307     15.00630         0.030888     -0.008271     -0.005756
     -1.23919      9.20330     14.94473         0.040658     -0.054279      0.000963
     -1.23771     10.61680     14.90576         0.042311      0.022226     -0.011351
      6.15000      0.65279     14.87975        -0.006279     -0.324113      0.040014
      3.71684      2.13449     14.90741        -0.085409     -0.033490     -0.039221
      1.23882      0.75050     14.94049        -0.026201     -0.002897      0.009875
      4.97095      2.81457     14.90191        -0.053949      0.375720      0.044634
      2.56421      4.28200     14.95076         0.033836      0.014722     -0.028250
      3.87292      4.98449     15.01039         0.098789     -0.042425      0.098865
      2.50157      7.08790     15.03499         0.102486     -0.031063      0.019373
      0.00000      8.49793     14.94484        -0.030032      0.039978      0.002934
      1.23918      9.20330     14.94475         0.035429     -0.094264      0.011117
      1.23772     10.61680     14.90577        -0.069763     -0.030879     -0.013705
      8.59711      0.71100     14.90993         0.036785     -0.202674      0.040446
      6.15000      2.04221     14.87154        -0.086516      0.037449      0.210288
      7.32904      2.81458     14.90194         0.017876      0.104523     -2.457610
      5.14752      4.20891     14.94786         0.189277      0.143931      0.136249
      3.75510      6.40620     15.14839        -0.088251     -0.147488     -0.107829
      4.94757      7.17406     15.34248         0.052405     -0.777241      0.390783
      1.24591      2.16817     14.91254        -0.024964      0.011272      0.005838
      2.47862      8.51306     15.00631        -0.066714      0.031523     -0.005626
      9.83603      0.02345     14.94296         0.031095     -0.017373     -0.000921
     11.06120      0.75050     14.94048         0.076552     -0.065902      0.004745
      8.58316      2.13449     14.90742         0.088766     -0.131458      0.024585
      9.79883      2.86447     14.91465         0.268481      0.059105      0.042637
      7.15250      4.20891     14.94785        -0.510279      0.480153      0.372251
      8.42707      4.98449     15.01037         0.150051      0.133382      0.095223
      6.15000      6.55815     15.72289         0.010625      1.014114     -1.161032
      7.35244      7.17406     15.34247        -0.112159     -0.773992      0.357072
      4.92598      8.57884     15.13513         0.148154      0.146362      0.160739
      1.25501      6.38726     14.96654        -0.042268      0.001199      0.014393
      3.69114      9.25768     15.01028         0.007561     -0.079339      0.003310
      7.32904      2.81458     16.69773        -0.173307      0.206554      1.745997
 -----------------------------------------------------------------------------------
    total drift:                                0.001052      0.027471      0.071918


--------------------------------------------------------------------------------------------------------



  FREE ENERGIE OF THE ION-ELECTRON SYSTEM (eV)
  ---------------------------------------------------
  free  energy   TOTEN  =      -446.14142610 eV

  energy  without entropy=     -446.14137995  energy(sigma->0) =     -446.14140303
 


--------------------------------------------------------------------------------------------------------


    POTLOK:  cpu time    2.9136: real time    2.9137


--------------------------------------------------------------------------------------------------------


     LOOP+:  cpu time 1694.7109: real time 1695.2348
    4ORBIT:  cpu time    0.0000: real time    0.0000

 total amount of memory used by VASP on root node   460866. kBytes
========================================================================

   base      :      30000. kBytes
   nonlr-proj:       4657. kBytes
   fftplans  :     165810. kBytes
   grid      :     124231. kBytes
   one-center:         79. kBytes
   wavefun   :     136089. kBytes
 
  
  
 General timing and accounting informations for this job:
 ========================================================
  
                  Total CPU time used (sec):     1718.752
                            User time (sec):     1644.489
                          System time (sec):       74.263
                         Elapsed time (sec):     1721.093
  
                   Maximum memory used (kb):      865768.
                   Average memory used (kb):           0.
  
                          Minor page faults:       179737
                          Major page faults:          509
                 Voluntary context switches:         2326
