  50  50   0   0
  0.7861259E+02  0.1230000E-08  0.1230000E-08  0.3000000E-08  0.5000000E-15
  1.000000000000000E-004
  CAR 
 Li defective graphene MACE training lab 
      4.67384255    -53.77112573  301     -2.83510699      1.00000000
    -53.771  0.0000E+00  0.0000E+00  0.0000E+00  0.0000E+00
    -53.576  0.0000E+00  0.0000E+00  0.0000E+00  0.0000E+00
    -53.381  0.0000E+00  0.0000E+00  0.0000E+00  0.0000E+00
    -53.187  0.0000E+00  0.0000E+00  0.0000E+00  0.0000E+00
    -52.992  0.0000E+00  0.0000E+00  0.0000E+00  0.0000E+00
    -52.797  0.0000E+00  0.0000E+00  0.0000E+00  0.0000E+00
    -52.602  0.0000E+00  0.0000E+00  0.0000E+00  0.0000E+00
    -52.407  0.0000E+00  0.0000E+00  0.0000E+00  0.0000E+00
    -52.213  0.0000E+00  0.0000E+00  0.0000E+00  0.0000E+00
    -52.018  0.0000E+00  0.0000E+00  0.0000E+00  0.0000E+00
    -51.823  0.0000E+00  0.0000E+00  0.0000E+00  0.0000E+00
    -51.628  0.0000E+00  0.0000E+00  0.0000E+00  0.0000E+00
    -51.433  0.0000E+00  0.0000E+00  0.0000E+00  0.0000E+00
    -51.239  0.1165E-02  0.1026E-02  0.2270E-03  0.1999E-03
    -51.044  0.5016E+01  0.5007E+01  0.9774E+00  0.9756E+00
    -50.849  0.1158E+00  0.1253E+00  0.1000E+01  0.1000E+01
    -50.654  0.0000E+00  0.0000E+00  0.1000E+01  0.1000E+01
    -50.459  0.0000E+00  0.0000E+00  0.1000E+01  0.1000E+01
    -50.264  0.0000E+00  0.0000E+00  0.1000E+01  0.1000E+01
    -50.070  0.0000E+00  0.0000E+00  0.1000E+01  0.1000E+01
    -49.875  0.0000E+00  0.0000E+00  0.1000E+01  0.1000E+01
    -49.680  0.0000E+00  0.0000E+00  0.1000E+01  0.1000E+01
    -49.485  0.0000E+00  0.0000E+00  0.1000E+01  0.1000E+01
    -49.290  0.0000E+00  0.0000E+00  0.1000E+01  0.1000E+01
    -49.096  0.0000E+00  0.0000E+00  0.1000E+01  0.1000E+01
    -48.901  0.0000E+00  0.0000E+00  0.1000E+01  0.1000E+01
    -48.706  0.0000E+00  0.0000E+00  0.1000E+01  0.1000E+01
    -48.511  0.0000E+00  0.0000E+00  0.1000E+01  0.1000E+01
    -48.316  0.0000E+00  0.0000E+00  0.1000E+01  0.1000E+01
    -48.121  0.0000E+00  0.0000E+00  0.1000E+01  0.1000E+01
    -47.927  0.0000E+00  0.0000E+00  0.1000E+01  0.1000E+01
    -47.732  0.0000E+00  0.0000E+00  0.1000E+01  0.1000E+01
    -47.537  0.0000E+00  0.0000E+00  0.1000E+01  0.1000E+01
    -47.342  0.0000E+00  0.0000E+00  0.1000E+01  0.1000E+01
    -47.147  0.0000E+00  0.0000E+00  0.1000E+01  0.1000E+01
    -46.953  0.0000E+00  0.0000E+00  0.1000E+01  0.1000E+01
    -46.758  0.0000E+00  0.0000E+00  0.1000E+01  0.1000E+01
    -46.563  0.0000E+00  0.0000E+00  0.1000E+01  0.1000E+01
    -46.368  0.0000E+00  0.0000E+00  0.1000E+01  0.1000E+01
    -46.173  0.0000E+00  0.0000E+00  0.1000E+01  0.1000E+01
    -45.978  0.0000E+00  0.0000E+00  0.1000E+01  0.1000E+01
    -45.784  0.0000E+00  0.0000E+00  0.1000E+01  0.1000E+01
    -45.589  0.0000E+00  0.0000E+00  0.1000E+01  0.1000E+01
    -45.394  0.0000E+00  0.0000E+00  0.1000E+01  0.1000E+01
    -45.199  0.0000E+00  0.0000E+00  0.1000E+01  0.1000E+01
    -45.004  0.0000E+00  0.0000E+00  0.1000E+01  0.1000E+01
    -44.810  0.0000E+00  0.0000E+00  0.1000E+01  0.1000E+01
    -44.615  0.0000E+00  0.0000E+00  0.1000E+01  0.1000E+01
    -44.420  0.0000E+00  0.0000E+00  0.1000E+01  0.1000E+01
    -44.225  0.0000E+00  0.0000E+00  0.1000E+01  0.1000E+01
    -44.030  0.0000E+00  0.0000E+00  0.1000E+01  0.1000E+01
    -43.835  0.0000E+00  0.0000E+00  0.1000E+01  0.1000E+01
    -43.641  0.0000E+00  0.0000E+00  0.1000E+01  0.1000E+01
    -43.446  0.0000E+00  0.0000E+00  0.1000E+01  0.1000E+01
    -43.251  0.0000E+00  0.0000E+00  0.1000E+01  0.1000E+01
    -43.056  0.0000E+00  0.0000E+00  0.1000E+01  0.1000E+01
    -42.861  0.0000E+00  0.0000E+00  0.1000E+01  0.1000E+01
    -42.667  0.0000E+00  0.0000E+00  0.1000E+01  0.1000E+01
    -42.472  0.0000E+00  0.0000E+00  0.1000E+01  0.1000E+01
    -42.277  0.0000E+00  0.0000E+00  0.1000E+01  0.1000E+01
    -42.082  0.0000E+00  0.0000E+00  0.1000E+01  0.1000E+01
    -41.887  0.0000E+00  0.0000E+00  0.1000E+01  0.1000E+01
    -41.692  0.0000E+00  0.0000E+00  0.1000E+01  0.1000E+01
    -41.498  0.0000E+00  0.0000E+00  0.1000E+01  0.1000E+01
    -41.303  0.0000E+00  0.0000E+00  0.1000E+01  0.1000E+01
    -41.108  0.0000E+00  0.0000E+00  0.1000E+01  0.1000E+01
    -40.913  0.0000E+00  0.0000E+00  0.1000E+01  0.1000E+01
    -40.718  0.0000E+00  0.0000E+00  0.1000E+01  0.1000E+01
    -40.524  0.0000E+00  0.0000E+00  0.1000E+01  0.1000E+01
    -40.329  0.0000E+00  0.0000E+00  0.1000E+01  0.1000E+01
    -40.134  0.0000E+00  0.0000E+00  0.1000E+01  0.1000E+01
    -39.939  0.0000E+00  0.0000E+00  0.1000E+01  0.1000E+01
    -39.744  0.0000E+00  0.0000E+00  0.1000E+01  0.1000E+01
    -39.550  0.0000E+00  0.0000E+00  0.1000E+01  0.1000E+01
    -39.355  0.0000E+00  0.0000E+00  0.1000E+01  0.1000E+01
    -39.160  0.0000E+00  0.0000E+00  0.1000E+01  0.1000E+01
    -38.965  0.0000E+00  0.0000E+00  0.1000E+01  0.1000E+01
    -38.770  0.0000E+00  0.0000E+00  0.1000E+01  0.1000E+01
    -38.575  0.0000E+00  0.0000E+00  0.1000E+01  0.1000E+01
    -38.381  0.0000E+00  0.0000E+00  0.1000E+01  0.1000E+01
    -38.186  0.0000E+00  0.0000E+00  0.1000E+01  0.1000E+01
    -37.991  0.0000E+00  0.0000E+00  0.1000E+01  0.1000E+01
    -37.796  0.0000E+00  0.0000E+00  0.1000E+01  0.1000E+01
    -37.601  0.0000E+00  0.0000E+00  0.1000E+01  0.1000E+01
    -37.407  0.0000E+00  0.0000E+00  0.1000E+01  0.1000E+01
    -37.212  0.0000E+00  0.0000E+00  0.1000E+01  0.1000E+01
    -37.017  0.0000E+00  0.0000E+00  0.1000E+01  0.1000E+01
    -36.822  0.0000E+00  0.0000E+00  0.1000E+01  0.1000E+01
    -36.627  0.0000E+00  0.0000E+00  0.1000E+01  0.1000E+01
    -36.432  0.0000E+00  0.0000E+00  0.1000E+01  0.1000E+01
    -36.238  0.0000E+00  0.0000E+00  0.1000E+01  0.1000E+01
    -36.043  0.0000E+00  0.0000E+00  0.1000E+01  0.1000E+01
    -35.848  0.0000E+00  0.0000E+00  0.1000E+01  0.1000E+01
    -35.653  0.0000E+00  0.0000E+00  0.1000E+01  0.1000E+01
    -35.458  0.0000E+00  0.0000E+00  0.1000E+01  0.1000E+01
    -35.264  0.0000E+00  0.0000E+00  0.1000E+01  0.1000E+01
    -35.069  0.0000E+00  0.0000E+00  0.1000E+01  0.1000E+01
    -34.874  0.0000E+00  0.0000E+00  0.1000E+01  0.1000E+01
    -34.679  0.0000E+00  0.0000E+00  0.1000E+01  0.1000E+01
    -34.484  0.0000E+00  0.0000E+00  0.1000E+01  0.1000E+01
    -34.289  0.0000E+00  0.0000E+00  0.1000E+01  0.1000E+01
    -34.095  0.0000E+00  0.0000E+00  0.1000E+01  0.1000E+01
    -33.900  0.0000E+00  0.0000E+00  0.1000E+01  0.1000E+01
    -33.705  0.0000E+00  0.0000E+00  0.1000E+01  0.1000E+01
    -33.510  0.0000E+00  0.0000E+00  0.1000E+01  0.1000E+01
    -33.315  0.0000E+00  0.0000E+00  0.1000E+01  0.1000E+01
    -33.121  0.0000E+00  0.0000E+00  0.1000E+01  0.1000E+01
    -32.926  0.0000E+00  0.0000E+00  0.1000E+01  0.1000E+01
    -32.731  0.0000E+00  0.0000E+00  0.1000E+01  0.1000E+01
    -32.536  0.0000E+00  0.0000E+00  0.1000E+01  0.1000E+01
    -32.341  0.0000E+00  0.0000E+00  0.1000E+01  0.1000E+01
    -32.146  0.0000E+00  0.0000E+00  0.1000E+01  0.1000E+01
    -31.952  0.0000E+00  0.0000E+00  0.1000E+01  0.1000E+01
    -31.757  0.0000E+00  0.0000E+00  0.1000E+01  0.1000E+01
    -31.562  0.0000E+00  0.0000E+00  0.1000E+01  0.1000E+01
    -31.367  0.0000E+00  0.0000E+00  0.1000E+01  0.1000E+01
    -31.172  0.0000E+00  0.0000E+00  0.1000E+01  0.1000E+01
    -30.978  0.0000E+00  0.0000E+00  0.1000E+01  0.1000E+01
    -30.783  0.0000E+00  0.0000E+00  0.1000E+01  0.1000E+01
    -30.588  0.0000E+00  0.0000E+00  0.1000E+01  0.1000E+01
    -30.393  0.0000E+00  0.0000E+00  0.1000E+01  0.1000E+01
    -30.198  0.0000E+00  0.0000E+00  0.1000E+01  0.1000E+01
    -30.004  0.0000E+00  0.0000E+00  0.1000E+01  0.1000E+01
    -29.809  0.0000E+00  0.0000E+00  0.1000E+01  0.1000E+01
    -29.614  0.0000E+00  0.0000E+00  0.1000E+01  0.1000E+01
    -29.419  0.0000E+00  0.0000E+00  0.1000E+01  0.1000E+01
    -29.224  0.0000E+00  0.0000E+00  0.1000E+01  0.1000E+01
    -29.029  0.0000E+00  0.0000E+00  0.1000E+01  0.1000E+01
    -28.835  0.0000E+00  0.0000E+00  0.1000E+01  0.1000E+01
    -28.640  0.0000E+00  0.0000E+00  0.1000E+01  0.1000E+01
    -28.445  0.0000E+00  0.0000E+00  0.1000E+01  0.1000E+01
    -28.250  0.0000E+00  0.0000E+00  0.1000E+01  0.1000E+01
    -28.055  0.0000E+00  0.0000E+00  0.1000E+01  0.1000E+01
    -27.861  0.0000E+00  0.0000E+00  0.1000E+01  0.1000E+01
    -27.666  0.0000E+00  0.0000E+00  0.1000E+01  0.1000E+01
    -27.471  0.0000E+00  0.0000E+00  0.1000E+01  0.1000E+01
    -27.276  0.0000E+00  0.0000E+00  0.1000E+01  0.1000E+01
    -27.081  0.0000E+00  0.0000E+00  0.1000E+01  0.1000E+01
    -26.886  0.0000E+00  0.0000E+00  0.1000E+01  0.1000E+01
    -26.692  0.0000E+00  0.0000E+00  0.1000E+01  0.1000E+01
    -26.497  0.0000E+00  0.0000E+00  0.1000E+01  0.1000E+01
    -26.302  0.0000E+00  0.0000E+00  0.1000E+01  0.1000E+01
    -26.107  0.0000E+00  0.0000E+00  0.1000E+01  0.1000E+01
    -25.912  0.0000E+00  0.0000E+00  0.1000E+01  0.1000E+01
    -25.718  0.0000E+00  0.0000E+00  0.1000E+01  0.1000E+01
    -25.523  0.0000E+00  0.0000E+00  0.1000E+01  0.1000E+01
    -25.328  0.0000E+00  0.0000E+00  0.1000E+01  0.1000E+01
    -25.133  0.0000E+00  0.0000E+00  0.1000E+01  0.1000E+01
    -24.938  0.0000E+00  0.0000E+00  0.1000E+01  0.1000E+01
    -24.743  0.0000E+00  0.0000E+00  0.1000E+01  0.1000E+01
    -24.549  0.0000E+00  0.0000E+00  0.1000E+01  0.1000E+01
    -24.354  0.0000E+00  0.0000E+00  0.1000E+01  0.1000E+01
    -24.159  0.0000E+00  0.0000E+00  0.1000E+01  0.1000E+01
    -23.964  0.0000E+00  0.0000E+00  0.1000E+01  0.1000E+01
    -23.769  0.0000E+00  0.0000E+00  0.1000E+01  0.1000E+01
    -23.575  0.0000E+00  0.0000E+00  0.1000E+01  0.1000E+01
    -23.380  0.0000E+00  0.0000E+00  0.1000E+01  0.1000E+01
    -23.185  0.0000E+00  0.0000E+00  0.1000E+01  0.1000E+01
    -22.990  0.0000E+00  0.0000E+00  0.1000E+01  0.1000E+01
    -22.795  0.0000E+00  0.0000E+00  0.1000E+01  0.1000E+01
    -22.600  0.8542E-06  0.1525E-06  0.1000E+01  0.1000E+01
    -22.406  0.6523E+00  0.4973E+00  0.1127E+01  0.1097E+01
    -22.211  0.4361E+01  0.4448E+01  0.1977E+01  0.1964E+01
    -22.016  0.2965E+01  0.2676E+01  0.2554E+01  0.2485E+01
    -21.821  0.2882E+01  0.3219E+01  0.3116E+01  0.3112E+01
    -21.626  0.5154E+01  0.4906E+01  0.4120E+01  0.4067E+01
    -21.432  0.3807E+01  0.3963E+01  0.4862E+01  0.4840E+01
    -21.237  0.1640E+01  0.1464E+01  0.5181E+01  0.5125E+01
    -21.042  0.5074E+01  0.4706E+01  0.6170E+01  0.6042E+01
    -20.847  0.4831E+01  0.5485E+01  0.7111E+01  0.7110E+01
    -20.652  0.2732E+01  0.1831E+01  0.7643E+01  0.7467E+01
    -20.457  0.2930E+01  0.3590E+01  0.8214E+01  0.8166E+01
    -20.263  0.6114E+01  0.5436E+01  0.9405E+01  0.9225E+01
    -20.068  0.4085E+01  0.4864E+01  0.1020E+02  0.1017E+02
    -19.873  0.1996E+00  0.2666E+00  0.1024E+02  0.1022E+02
    -19.678  0.5436E+01  0.4586E+01  0.1130E+02  0.1112E+02
    -19.483  0.5993E+01  0.6371E+01  0.1247E+02  0.1236E+02
    -19.289  0.3036E+01  0.3443E+01  0.1306E+02  0.1303E+02
    -19.094  0.4538E+01  0.4014E+01  0.1394E+02  0.1381E+02
    -18.899  0.2449E+01  0.2760E+01  0.1442E+02  0.1435E+02
    -18.704  0.2738E+01  0.2660E+01  0.1495E+02  0.1487E+02
    -18.509  0.5522E+01  0.5510E+01  0.1603E+02  0.1594E+02
    -18.315  0.6881E+01  0.6733E+01  0.1737E+02  0.1725E+02
    -18.120  0.5172E+00  0.9999E+00  0.1747E+02  0.1745E+02
    -17.925  0.5651E+01  0.4771E+01  0.1857E+02  0.1838E+02
    -17.730  0.2776E+01  0.3764E+01  0.1911E+02  0.1911E+02
    -17.535  0.4238E+01  0.3178E+01  0.1994E+02  0.1973E+02
    -17.340  0.8345E+01  0.8481E+01  0.2156E+02  0.2138E+02
    -17.146  0.5263E+01  0.5727E+01  0.2259E+02  0.2250E+02
    -16.951  0.1509E+01  0.1631E+01  0.2288E+02  0.2282E+02
    -16.756  0.3328E+01  0.3032E+01  0.2353E+02  0.2341E+02
    -16.561  0.2102E+01  0.2205E+01  0.2394E+02  0.2384E+02
    -16.366  0.4566E+01  0.4258E+01  0.2483E+02  0.2467E+02
    -16.172  0.1118E+01  0.1724E+01  0.2505E+02  0.2500E+02
    -15.977  0.4886E+01  0.4951E+01  0.2600E+02  0.2597E+02
    -15.782  0.2216E+01  0.2240E+01  0.2643E+02  0.2640E+02
    -15.587  0.3991E+01  0.3149E+01  0.2721E+02  0.2702E+02
    -15.392  0.5298E+01  0.4740E+01  0.2824E+02  0.2794E+02
    -15.197  0.5040E+01  0.6583E+01  0.2922E+02  0.2922E+02
    -15.003  0.2449E+01  0.1597E+01  0.2970E+02  0.2953E+02
    -14.808  0.6852E+01  0.6844E+01  0.3103E+02  0.3087E+02
    -14.613  0.3773E+01  0.3974E+01  0.3177E+02  0.3164E+02
    -14.418  0.5635E+01  0.5803E+01  0.3287E+02  0.3277E+02
    -14.223  0.1390E+01  0.1647E+01  0.3314E+02  0.3309E+02
    -14.029  0.3756E+01  0.3317E+01  0.3387E+02  0.3374E+02
    -13.834  0.7814E+01  0.6682E+01  0.3539E+02  0.3504E+02
    -13.639  0.2520E+01  0.3755E+01  0.3588E+02  0.3577E+02
    -13.444  0.3092E-01  0.6051E+00  0.3589E+02  0.3589E+02
    -13.249  0.3525E+01  0.2615E+01  0.3658E+02  0.3640E+02
    -13.054  0.7480E+01  0.7075E+01  0.3803E+02  0.3778E+02
    -12.860  0.4197E+01  0.4997E+01  0.3885E+02  0.3875E+02
    -12.665  0.4181E+01  0.4160E+01  0.3967E+02  0.3956E+02
    -12.470  0.4000E+01  0.4533E+01  0.4044E+02  0.4044E+02
    -12.275  0.6269E+01  0.4424E+01  0.4167E+02  0.4131E+02
    -12.080  0.2965E+01  0.4727E+01  0.4224E+02  0.4223E+02
    -11.886  0.2065E+01  0.1854E+01  0.4265E+02  0.4259E+02
    -11.691  0.7993E+01  0.7583E+01  0.4420E+02  0.4407E+02
    -11.496  0.4143E+01  0.4739E+01  0.4501E+02  0.4499E+02
    -11.301  0.8023E+01  0.7138E+01  0.4657E+02  0.4638E+02
    -11.106  0.3441E+01  0.3651E+01  0.4724E+02  0.4709E+02
    -10.911  0.4152E+01  0.4614E+01  0.4805E+02  0.4799E+02
    -10.717  0.4293E+01  0.2917E+01  0.4889E+02  0.4856E+02
    -10.522  0.6179E+01  0.7272E+01  0.5009E+02  0.4997E+02
    -10.327  0.1237E+02  0.1237E+02  0.5250E+02  0.5238E+02
    -10.132  0.8227E+01  0.7846E+01  0.5410E+02  0.5391E+02
     -9.937  0.9528E+01  0.9113E+01  0.5596E+02  0.5569E+02
     -9.743  0.9146E+01  0.9761E+01  0.5774E+02  0.5759E+02
     -9.548  0.8943E+01  0.9115E+01  0.5948E+02  0.5937E+02
     -9.353  0.1301E+02  0.1267E+02  0.6202E+02  0.6183E+02
     -9.158  0.1165E+02  0.1134E+02  0.6429E+02  0.6404E+02
     -8.963  0.9925E+01  0.1030E+02  0.6622E+02  0.6605E+02
     -8.769  0.1415E+02  0.1361E+02  0.6898E+02  0.6870E+02
     -8.574  0.4687E+01  0.4933E+01  0.6989E+02  0.6966E+02
     -8.379  0.1096E+02  0.1118E+02  0.7203E+02  0.7184E+02
     -8.184  0.7094E+01  0.7139E+01  0.7341E+02  0.7323E+02
     -7.989  0.1272E+02  0.1269E+02  0.7589E+02  0.7570E+02
     -7.794  0.6067E+01  0.6412E+01  0.7707E+02  0.7695E+02
     -7.600  0.4729E+01  0.4325E+01  0.7799E+02  0.7779E+02
     -7.405  0.9359E+01  0.8400E+01  0.7981E+02  0.7943E+02
     -7.210  0.9641E+01  0.9918E+01  0.8169E+02  0.8136E+02
     -7.015  0.7891E+01  0.8762E+01  0.8323E+02  0.8307E+02
     -6.820  0.7459E+01  0.7325E+01  0.8468E+02  0.8450E+02
     -6.626  0.5037E+01  0.5437E+01  0.8566E+02  0.8556E+02
     -6.431  0.6108E+01  0.6308E+01  0.8685E+02  0.8678E+02
     -6.236  0.6888E+01  0.6493E+01  0.8820E+02  0.8805E+02
     -6.041  0.8754E+01  0.8523E+01  0.8990E+02  0.8971E+02
     -5.846  0.2862E+01  0.3747E+01  0.9046E+02  0.9044E+02
     -5.651  0.7040E+01  0.5935E+01  0.9183E+02  0.9160E+02
     -5.457  0.1632E+01  0.2676E+01  0.9215E+02  0.9212E+02
     -5.262  0.4279E+01  0.4058E+01  0.9298E+02  0.9291E+02
     -5.067  0.7654E+01  0.6991E+01  0.9447E+02  0.9427E+02
     -4.872  0.7265E+01  0.8285E+01  0.9589E+02  0.9588E+02
     -4.677  0.6430E+00  0.2495E-01  0.9601E+02  0.9589E+02
     -4.483  0.4259E+01  0.2340E+01  0.9684E+02  0.9634E+02
     -4.288  0.2396E+01  0.3671E+01  0.9731E+02  0.9706E+02
     -4.093  0.1887E+01  0.1421E+01  0.9768E+02  0.9734E+02
     -3.898  0.5572E+01  0.3398E+01  0.9876E+02  0.9800E+02
     -3.703  0.5778E+00  0.7660E-02  0.9888E+02  0.9800E+02
     -3.508  0.6369E+00  0.3197E+01  0.9900E+02  0.9862E+02
     -3.314  0.1743E+01  0.7925E+00  0.9934E+02  0.9878E+02
     -3.119  0.2249E+01  0.1631E-05  0.9978E+02  0.9878E+02
     -2.924  0.7123E+00  0.9083E+00  0.9992E+02  0.9895E+02
     -2.729  0.4373E+00  0.9009E+00  0.1000E+03  0.9913E+02
     -2.534  0.1131E+01  0.4722E+00  0.1002E+03  0.9922E+02
     -2.340  0.1141E-02  0.2768E+01  0.1002E+03  0.9976E+02
     -2.145  0.2965E-03  0.2365E+01  0.1002E+03  0.1002E+03
     -1.950  0.2237E+01  0.1108E+01  0.1007E+03  0.1004E+03
     -1.755  0.4180E+01  0.3880E+01  0.1015E+03  0.1012E+03
     -1.560  0.3088E+01  0.4118E+01  0.1021E+03  0.1020E+03
     -1.365  0.3273E+01  0.1418E+01  0.1027E+03  0.1023E+03
     -1.171  0.7455E+01  0.7611E+01  0.1042E+03  0.1038E+03
     -0.976  0.9323E+01  0.1026E+02  0.1060E+03  0.1058E+03
     -0.781  0.8278E+01  0.7584E+01  0.1076E+03  0.1072E+03
     -0.586  0.7109E+01  0.8118E+01  0.1090E+03  0.1088E+03
     -0.391  0.2963E+01  0.3795E+01  0.1096E+03  0.1096E+03
     -0.197  0.8362E-01  0.2502E-01  0.1096E+03  0.1096E+03
     -0.002  0.5979E+01  0.4228E+01  0.1107E+03  0.1104E+03
      0.193  0.4682E+01  0.6217E+01  0.1116E+03  0.1116E+03
      0.388  0.5262E+01  0.4762E+01  0.1127E+03  0.1125E+03
      0.583  0.6575E+01  0.6651E+01  0.1140E+03  0.1138E+03
      0.778  0.6593E+01  0.6553E+01  0.1152E+03  0.1151E+03
      0.972  0.7757E+01  0.7671E+01  0.1167E+03  0.1166E+03
      1.167  0.9605E+01  0.9677E+01  0.1186E+03  0.1185E+03
      1.362  0.1102E+02  0.1066E+02  0.1208E+03  0.1205E+03
      1.557  0.1628E+02  0.1554E+02  0.1239E+03  0.1236E+03
      1.752  0.1472E+02  0.1531E+02  0.1268E+03  0.1266E+03
      1.946  0.5543E+01  0.7185E+01  0.1279E+03  0.1280E+03
      2.141  0.5762E+00  0.2103E+00  0.1280E+03  0.1280E+03
      2.336  0.1295E-03  0.0000E+00  0.1280E+03  0.1280E+03
      2.531  0.0000E+00  0.0000E+00  0.1280E+03  0.1280E+03
      2.726  0.0000E+00  0.0000E+00  0.1280E+03  0.1280E+03
      2.920  0.0000E+00  0.0000E+00  0.1280E+03  0.1280E+03
      3.115  0.0000E+00  0.0000E+00  0.1280E+03  0.1280E+03
      3.310  0.0000E+00  0.0000E+00  0.1280E+03  0.1280E+03
      3.505  0.0000E+00  0.0000E+00  0.1280E+03  0.1280E+03
      3.700  0.0000E+00  0.0000E+00  0.1280E+03  0.1280E+03
      3.895  0.0000E+00  0.0000E+00  0.1280E+03  0.1280E+03
      4.089  0.0000E+00  0.0000E+00  0.1280E+03  0.1280E+03
      4.284  0.0000E+00  0.0000E+00  0.1280E+03  0.1280E+03
      4.479  0.0000E+00  0.0000E+00  0.1280E+03  0.1280E+03
      4.674  0.0000E+00  0.0000E+00  0.1280E+03  0.1280E+03
