C  Li Si                                
   1.00000000000000     
    12.3000000000000007    0.0000000000000000    0.0000000000000000
    -6.1500000000000004   10.6521124665485960    0.0000000000000000
     0.0000000000000000    0.0000000000000000   30.0000000000000000
   C    Li   Si
    50     1     4
Direct
  0.0034507398083505  0.9998638304416758  0.4960966963621019
  0.0034846023732129  0.1997033362843013  0.4966417833952406
  0.1368295411878222  0.2664159263671593  0.4966247507759647
  0.0036960260217000  0.3995138454131038  0.4973234835268130
  0.1369470788841269  0.4664255184917110  0.4970858352177245
  0.0038378811552136  0.6000553179080299  0.4971117856005449
  0.1372887979074449  0.6667322521424168  0.4971424656207262
  0.0037389780466057  0.8003799250878458  0.4962385670402440
  0.1369336119638547  0.8666348644094057  0.4963763291510972
  0.4033259012155739  0.3997186007712230  0.4959063494586857
  0.3367905751896245  0.0664316811012213  0.4960149366688071
  0.5366162386664968  0.2662915177365903  0.4957040955473531
  0.2035035162162728  0.9998807845925413  0.4961542231486362
  0.2035313244428565  0.3997294444790072  0.4967226700591567
  0.3368005854030613  0.4664887564739288  0.4962949205974851
  0.2036264747014442  0.5998174512741343  0.4969918239901290
  0.3368652207858531  0.6665008675254143  0.4965684443850265
  0.2036173258980227  0.7999458952917351  0.4966832847453233
  0.3368638323044237  0.8665263488463140  0.4964412292659048
  0.4034645592460819  0.9998163438923200  0.4961474361166225
  0.5367371425678158  0.0663608268346039  0.4961402978625173
  0.4033523554806067  0.1996918403594137  0.4958262964322699
  0.2034684712940660  0.1997601500969282  0.4963081653592525
  0.3367759388457046  0.2664216039348730  0.4960063571968618
  0.5367138144506924  0.6665057321466392  0.4957772604799686
  0.1367677756231842  0.0664413990593573  0.4962032412826360
  0.7367522083343587  0.8665623942304137  0.4957908951795318
  0.4034531891421764  0.7998118893684492  0.4964114619232660
  0.5367703089914926  0.8664347912580439  0.4961392687084683
  0.6034376192769457  0.9997447410305824  0.4962175795881478
  0.7367453393317334  0.0663582650188985  0.4963486635007186
  0.6032996444599235  0.1996076994377916  0.4960717800644545
  0.7364771806113950  0.2658854691008301  0.4965874633636105
  0.6028572065199853  0.3994776357698200  0.4955438694255676
  0.7362987502729723  0.4662245282520345  0.4957169133493267
  0.6032484516599723  0.5997861676028364  0.4955255247025789
  0.5365784944991674  0.4663943245000368  0.4955334330922625
  0.4034428335164364  0.5997904485393164  0.4962048323889761
  0.7364447735607271  0.6667456906522276  0.4955530698740702
  0.8034694832138101  0.9998307335442149  0.4961159119765028
  0.9367530159303925  0.0664338726208555  0.4962633426374765
  0.8033893340692657  0.1995859190042850  0.4967021753383563
  0.9367870343006501  0.2662826641343941  0.4969383043705875
  0.8031571655704255  0.3993013539848675  0.4965781993124168
  0.9369523401496807  0.4662495006675798  0.4972590723416630
  0.8031567258712329  0.6000213839845401  0.4956984609125001
  0.9369837141104256  0.6669622827020660  0.4963520741511971
  0.8033882559548786  0.7999565702476659  0.4956550642683553
  0.9367899190640117  0.8666121092721539  0.4958935349276885
  0.6034519702421406  0.7998284985442083  0.4958619230047674
  0.6987345915379493  0.5260600173934051  0.7523173071395775
  0.5203352544398712  0.4049696550679016  0.6761313925235584
  0.7114125925071662  0.5897324513817992  0.6889839738062449
  0.6867295849662725  0.4615556738300484  0.6273180042896200
  0.8764609342384944  0.6479822892938785  0.6408227808378157
 
  0.00000000E+00  0.00000000E+00  0.00000000E+00
  0.00000000E+00  0.00000000E+00  0.00000000E+00
  0.00000000E+00  0.00000000E+00  0.00000000E+00
  0.00000000E+00  0.00000000E+00  0.00000000E+00
  0.00000000E+00  0.00000000E+00  0.00000000E+00
  0.00000000E+00  0.00000000E+00  0.00000000E+00
  0.00000000E+00  0.00000000E+00  0.00000000E+00
  0.00000000E+00  0.00000000E+00  0.00000000E+00
  0.00000000E+00  0.00000000E+00  0.00000000E+00
  0.00000000E+00  0.00000000E+00  0.00000000E+00
  0.00000000E+00  0.00000000E+00  0.00000000E+00
  0.00000000E+00  0.00000000E+00  0.00000000E+00
  0.00000000E+00  0.00000000E+00  0.00000000E+00
  0.00000000E+00  0.00000000E+00  0.00000000E+00
  0.00000000E+00  0.00000000E+00  0.00000000E+00
  0.00000000E+00  0.00000000E+00  0.00000000E+00
  0.00000000E+00  0.00000000E+00  0.00000000E+00
  0.00000000E+00  0.00000000E+00  0.00000000E+00
  0.00000000E+00  0.00000000E+00  0.00000000E+00
  0.00000000E+00  0.00000000E+00  0.00000000E+00
  0.00000000E+00  0.00000000E+00  0.00000000E+00
  0.00000000E+00  0.00000000E+00  0.00000000E+00
  0.00000000E+00  0.00000000E+00  0.00000000E+00
  0.00000000E+00  0.00000000E+00  0.00000000E+00
  0.00000000E+00  0.00000000E+00  0.00000000E+00
  0.00000000E+00  0.00000000E+00  0.00000000E+00
  0.00000000E+00  0.00000000E+00  0.00000000E+00
  0.00000000E+00  0.00000000E+00  0.00000000E+00
  0.00000000E+00  0.00000000E+00  0.00000000E+00
  0.00000000E+00  0.00000000E+00  0.00000000E+00
  0.00000000E+00  0.00000000E+00  0.00000000E+00
  0.00000000E+00  0.00000000E+00  0.00000000E+00
  0.00000000E+00  0.00000000E+00  0.00000000E+00
  0.00000000E+00  0.00000000E+00  0.00000000E+00
  0.00000000E+00  0.00000000E+00  0.00000000E+00
  0.00000000E+00  0.00000000E+00  0.00000000E+00
  0.00000000E+00  0.00000000E+00  0.00000000E+00
  0.00000000E+00  0.00000000E+00  0.00000000E+00
  0.00000000E+00  0.00000000E+00  0.00000000E+00
  0.00000000E+00  0.00000000E+00  0.00000000E+00
  0.00000000E+00  0.00000000E+00  0.00000000E+00
  0.00000000E+00  0.00000000E+00  0.00000000E+00
  0.00000000E+00  0.00000000E+00  0.00000000E+00
  0.00000000E+00  0.00000000E+00  0.00000000E+00
  0.00000000E+00  0.00000000E+00  0.00000000E+00
  0.00000000E+00  0.00000000E+00  0.00000000E+00
  0.00000000E+00  0.00000000E+00  0.00000000E+00
  0.00000000E+00  0.00000000E+00  0.00000000E+00
  0.00000000E+00  0.00000000E+00  0.00000000E+00
  0.00000000E+00  0.00000000E+00  0.00000000E+00
  0.00000000E+00  0.00000000E+00  0.00000000E+00
  0.00000000E+00  0.00000000E+00  0.00000000E+00
  0.00000000E+00  0.00000000E+00  0.00000000E+00
  0.00000000E+00  0.00000000E+00  0.00000000E+00
  0.00000000E+00  0.00000000E+00  0.00000000E+00
