  55  55   0   0
  0.7146599E+02  0.1230000E-08  0.1230000E-08  0.3000000E-08  0.5000000E-15
  1.000000000000000E-004
  CAR 
 Li defective graphene MACE training lab 
      4.62443236    -53.76761343  301     -2.55972024      1.00000000
    -53.768  0.0000E+00  0.0000E+00  0.0000E+00  0.0000E+00
    -53.573  0.0000E+00  0.0000E+00  0.0000E+00  0.0000E+00
    -53.378  0.0000E+00  0.0000E+00  0.0000E+00  0.0000E+00
    -53.184  0.0000E+00  0.0000E+00  0.0000E+00  0.0000E+00
    -52.989  0.0000E+00  0.0000E+00  0.0000E+00  0.0000E+00
    -52.794  0.0000E+00  0.0000E+00  0.0000E+00  0.0000E+00
    -52.600  0.0000E+00  0.0000E+00  0.0000E+00  0.0000E+00
    -52.405  0.0000E+00  0.0000E+00  0.0000E+00  0.0000E+00
    -52.210  0.0000E+00  0.0000E+00  0.0000E+00  0.0000E+00
    -52.016  0.0000E+00  0.0000E+00  0.0000E+00  0.0000E+00
    -51.821  0.0000E+00  0.0000E+00  0.0000E+00  0.0000E+00
    -51.627  0.0000E+00  0.0000E+00  0.0000E+00  0.0000E+00
    -51.432  0.0000E+00  0.0000E+00  0.0000E+00  0.0000E+00
    -51.237  0.1180E-02  0.5261E-03  0.2297E-03  0.1024E-03
    -51.043  0.5020E+01  0.4949E+01  0.9774E+00  0.9635E+00
    -50.848  0.1164E+00  0.1878E+00  0.1000E+01  0.1000E+01
    -50.653  0.0000E+00  0.0000E+00  0.1000E+01  0.1000E+01
    -50.459  0.0000E+00  0.0000E+00  0.1000E+01  0.1000E+01
    -50.264  0.0000E+00  0.0000E+00  0.1000E+01  0.1000E+01
    -50.069  0.0000E+00  0.0000E+00  0.1000E+01  0.1000E+01
    -49.875  0.0000E+00  0.0000E+00  0.1000E+01  0.1000E+01
    -49.680  0.0000E+00  0.0000E+00  0.1000E+01  0.1000E+01
    -49.486  0.0000E+00  0.0000E+00  0.1000E+01  0.1000E+01
    -49.291  0.0000E+00  0.0000E+00  0.1000E+01  0.1000E+01
    -49.096  0.0000E+00  0.0000E+00  0.1000E+01  0.1000E+01
    -48.902  0.0000E+00  0.0000E+00  0.1000E+01  0.1000E+01
    -48.707  0.0000E+00  0.0000E+00  0.1000E+01  0.1000E+01
    -48.512  0.0000E+00  0.0000E+00  0.1000E+01  0.1000E+01
    -48.318  0.0000E+00  0.0000E+00  0.1000E+01  0.1000E+01
    -48.123  0.0000E+00  0.0000E+00  0.1000E+01  0.1000E+01
    -47.928  0.0000E+00  0.0000E+00  0.1000E+01  0.1000E+01
    -47.734  0.0000E+00  0.0000E+00  0.1000E+01  0.1000E+01
    -47.539  0.0000E+00  0.0000E+00  0.1000E+01  0.1000E+01
    -47.344  0.0000E+00  0.0000E+00  0.1000E+01  0.1000E+01
    -47.150  0.0000E+00  0.0000E+00  0.1000E+01  0.1000E+01
    -46.955  0.0000E+00  0.0000E+00  0.1000E+01  0.1000E+01
    -46.761  0.0000E+00  0.0000E+00  0.1000E+01  0.1000E+01
    -46.566  0.0000E+00  0.0000E+00  0.1000E+01  0.1000E+01
    -46.371  0.0000E+00  0.0000E+00  0.1000E+01  0.1000E+01
    -46.177  0.0000E+00  0.0000E+00  0.1000E+01  0.1000E+01
    -45.982  0.0000E+00  0.0000E+00  0.1000E+01  0.1000E+01
    -45.787  0.0000E+00  0.0000E+00  0.1000E+01  0.1000E+01
    -45.593  0.0000E+00  0.0000E+00  0.1000E+01  0.1000E+01
    -45.398  0.0000E+00  0.0000E+00  0.1000E+01  0.1000E+01
    -45.203  0.0000E+00  0.0000E+00  0.1000E+01  0.1000E+01
    -45.009  0.0000E+00  0.0000E+00  0.1000E+01  0.1000E+01
    -44.814  0.0000E+00  0.0000E+00  0.1000E+01  0.1000E+01
    -44.620  0.0000E+00  0.0000E+00  0.1000E+01  0.1000E+01
    -44.425  0.0000E+00  0.0000E+00  0.1000E+01  0.1000E+01
    -44.230  0.0000E+00  0.0000E+00  0.1000E+01  0.1000E+01
    -44.036  0.0000E+00  0.0000E+00  0.1000E+01  0.1000E+01
    -43.841  0.0000E+00  0.0000E+00  0.1000E+01  0.1000E+01
    -43.646  0.0000E+00  0.0000E+00  0.1000E+01  0.1000E+01
    -43.452  0.0000E+00  0.0000E+00  0.1000E+01  0.1000E+01
    -43.257  0.0000E+00  0.0000E+00  0.1000E+01  0.1000E+01
    -43.062  0.0000E+00  0.0000E+00  0.1000E+01  0.1000E+01
    -42.868  0.0000E+00  0.0000E+00  0.1000E+01  0.1000E+01
    -42.673  0.0000E+00  0.0000E+00  0.1000E+01  0.1000E+01
    -42.478  0.0000E+00  0.0000E+00  0.1000E+01  0.1000E+01
    -42.284  0.0000E+00  0.0000E+00  0.1000E+01  0.1000E+01
    -42.089  0.0000E+00  0.0000E+00  0.1000E+01  0.1000E+01
    -41.895  0.0000E+00  0.0000E+00  0.1000E+01  0.1000E+01
    -41.700  0.0000E+00  0.0000E+00  0.1000E+01  0.1000E+01
    -41.505  0.0000E+00  0.0000E+00  0.1000E+01  0.1000E+01
    -41.311  0.0000E+00  0.0000E+00  0.1000E+01  0.1000E+01
    -41.116  0.0000E+00  0.0000E+00  0.1000E+01  0.1000E+01
    -40.921  0.0000E+00  0.0000E+00  0.1000E+01  0.1000E+01
    -40.727  0.0000E+00  0.0000E+00  0.1000E+01  0.1000E+01
    -40.532  0.0000E+00  0.0000E+00  0.1000E+01  0.1000E+01
    -40.337  0.0000E+00  0.0000E+00  0.1000E+01  0.1000E+01
    -40.143  0.0000E+00  0.0000E+00  0.1000E+01  0.1000E+01
    -39.948  0.0000E+00  0.0000E+00  0.1000E+01  0.1000E+01
    -39.754  0.0000E+00  0.0000E+00  0.1000E+01  0.1000E+01
    -39.559  0.0000E+00  0.0000E+00  0.1000E+01  0.1000E+01
    -39.364  0.0000E+00  0.0000E+00  0.1000E+01  0.1000E+01
    -39.170  0.0000E+00  0.0000E+00  0.1000E+01  0.1000E+01
    -38.975  0.0000E+00  0.0000E+00  0.1000E+01  0.1000E+01
    -38.780  0.0000E+00  0.0000E+00  0.1000E+01  0.1000E+01
    -38.586  0.0000E+00  0.0000E+00  0.1000E+01  0.1000E+01
    -38.391  0.0000E+00  0.0000E+00  0.1000E+01  0.1000E+01
    -38.196  0.0000E+00  0.0000E+00  0.1000E+01  0.1000E+01
    -38.002  0.0000E+00  0.0000E+00  0.1000E+01  0.1000E+01
    -37.807  0.0000E+00  0.0000E+00  0.1000E+01  0.1000E+01
    -37.612  0.0000E+00  0.0000E+00  0.1000E+01  0.1000E+01
    -37.418  0.0000E+00  0.0000E+00  0.1000E+01  0.1000E+01
    -37.223  0.0000E+00  0.0000E+00  0.1000E+01  0.1000E+01
    -37.029  0.0000E+00  0.0000E+00  0.1000E+01  0.1000E+01
    -36.834  0.0000E+00  0.0000E+00  0.1000E+01  0.1000E+01
    -36.639  0.0000E+00  0.0000E+00  0.1000E+01  0.1000E+01
    -36.445  0.0000E+00  0.0000E+00  0.1000E+01  0.1000E+01
    -36.250  0.0000E+00  0.0000E+00  0.1000E+01  0.1000E+01
    -36.055  0.0000E+00  0.0000E+00  0.1000E+01  0.1000E+01
    -35.861  0.0000E+00  0.0000E+00  0.1000E+01  0.1000E+01
    -35.666  0.0000E+00  0.0000E+00  0.1000E+01  0.1000E+01
    -35.471  0.0000E+00  0.0000E+00  0.1000E+01  0.1000E+01
    -35.277  0.0000E+00  0.0000E+00  0.1000E+01  0.1000E+01
    -35.082  0.0000E+00  0.0000E+00  0.1000E+01  0.1000E+01
    -34.888  0.0000E+00  0.0000E+00  0.1000E+01  0.1000E+01
    -34.693  0.0000E+00  0.0000E+00  0.1000E+01  0.1000E+01
    -34.498  0.0000E+00  0.0000E+00  0.1000E+01  0.1000E+01
    -34.304  0.0000E+00  0.0000E+00  0.1000E+01  0.1000E+01
    -34.109  0.0000E+00  0.0000E+00  0.1000E+01  0.1000E+01
    -33.914  0.0000E+00  0.0000E+00  0.1000E+01  0.1000E+01
    -33.720  0.0000E+00  0.0000E+00  0.1000E+01  0.1000E+01
    -33.525  0.0000E+00  0.0000E+00  0.1000E+01  0.1000E+01
    -33.330  0.0000E+00  0.0000E+00  0.1000E+01  0.1000E+01
    -33.136  0.0000E+00  0.0000E+00  0.1000E+01  0.1000E+01
    -32.941  0.0000E+00  0.0000E+00  0.1000E+01  0.1000E+01
    -32.746  0.0000E+00  0.0000E+00  0.1000E+01  0.1000E+01
    -32.552  0.0000E+00  0.0000E+00  0.1000E+01  0.1000E+01
    -32.357  0.0000E+00  0.0000E+00  0.1000E+01  0.1000E+01
    -32.163  0.0000E+00  0.0000E+00  0.1000E+01  0.1000E+01
    -31.968  0.0000E+00  0.0000E+00  0.1000E+01  0.1000E+01
    -31.773  0.0000E+00  0.0000E+00  0.1000E+01  0.1000E+01
    -31.579  0.0000E+00  0.0000E+00  0.1000E+01  0.1000E+01
    -31.384  0.0000E+00  0.0000E+00  0.1000E+01  0.1000E+01
    -31.189  0.0000E+00  0.0000E+00  0.1000E+01  0.1000E+01
    -30.995  0.0000E+00  0.0000E+00  0.1000E+01  0.1000E+01
    -30.800  0.0000E+00  0.0000E+00  0.1000E+01  0.1000E+01
    -30.605  0.0000E+00  0.0000E+00  0.1000E+01  0.1000E+01
    -30.411  0.0000E+00  0.0000E+00  0.1000E+01  0.1000E+01
    -30.216  0.0000E+00  0.0000E+00  0.1000E+01  0.1000E+01
    -30.022  0.0000E+00  0.0000E+00  0.1000E+01  0.1000E+01
    -29.827  0.0000E+00  0.0000E+00  0.1000E+01  0.1000E+01
    -29.632  0.0000E+00  0.0000E+00  0.1000E+01  0.1000E+01
    -29.438  0.0000E+00  0.0000E+00  0.1000E+01  0.1000E+01
    -29.243  0.0000E+00  0.0000E+00  0.1000E+01  0.1000E+01
    -29.048  0.0000E+00  0.0000E+00  0.1000E+01  0.1000E+01
    -28.854  0.0000E+00  0.0000E+00  0.1000E+01  0.1000E+01
    -28.659  0.0000E+00  0.0000E+00  0.1000E+01  0.1000E+01
    -28.464  0.0000E+00  0.0000E+00  0.1000E+01  0.1000E+01
    -28.270  0.0000E+00  0.0000E+00  0.1000E+01  0.1000E+01
    -28.075  0.0000E+00  0.0000E+00  0.1000E+01  0.1000E+01
    -27.880  0.0000E+00  0.0000E+00  0.1000E+01  0.1000E+01
    -27.686  0.0000E+00  0.0000E+00  0.1000E+01  0.1000E+01
    -27.491  0.0000E+00  0.0000E+00  0.1000E+01  0.1000E+01
    -27.297  0.0000E+00  0.0000E+00  0.1000E+01  0.1000E+01
    -27.102  0.0000E+00  0.0000E+00  0.1000E+01  0.1000E+01
    -26.907  0.0000E+00  0.0000E+00  0.1000E+01  0.1000E+01
    -26.713  0.0000E+00  0.0000E+00  0.1000E+01  0.1000E+01
    -26.518  0.0000E+00  0.0000E+00  0.1000E+01  0.1000E+01
    -26.323  0.0000E+00  0.0000E+00  0.1000E+01  0.1000E+01
    -26.129  0.0000E+00  0.0000E+00  0.1000E+01  0.1000E+01
    -25.934  0.0000E+00  0.0000E+00  0.1000E+01  0.1000E+01
    -25.739  0.0000E+00  0.0000E+00  0.1000E+01  0.1000E+01
    -25.545  0.0000E+00  0.0000E+00  0.1000E+01  0.1000E+01
    -25.350  0.0000E+00  0.0000E+00  0.1000E+01  0.1000E+01
    -25.156  0.0000E+00  0.0000E+00  0.1000E+01  0.1000E+01
    -24.961  0.0000E+00  0.0000E+00  0.1000E+01  0.1000E+01
    -24.766  0.0000E+00  0.0000E+00  0.1000E+01  0.1000E+01
    -24.572  0.0000E+00  0.0000E+00  0.1000E+01  0.1000E+01
    -24.377  0.0000E+00  0.0000E+00  0.1000E+01  0.1000E+01
    -24.182  0.0000E+00  0.0000E+00  0.1000E+01  0.1000E+01
    -23.988  0.0000E+00  0.0000E+00  0.1000E+01  0.1000E+01
    -23.793  0.0000E+00  0.0000E+00  0.1000E+01  0.1000E+01
    -23.598  0.0000E+00  0.0000E+00  0.1000E+01  0.1000E+01
    -23.404  0.0000E+00  0.0000E+00  0.1000E+01  0.1000E+01
    -23.209  0.0000E+00  0.0000E+00  0.1000E+01  0.1000E+01
    -23.014  0.0000E+00  0.0000E+00  0.1000E+01  0.1000E+01
    -22.820  0.0000E+00  0.0000E+00  0.1000E+01  0.1000E+01
    -22.625  0.0000E+00  0.0000E+00  0.1000E+01  0.1000E+01
    -22.431  0.6338E-16  0.6338E-16  0.1000E+01  0.1000E+01
    -22.236  0.2007E-02  0.2002E-02  0.1000E+01  0.1000E+01
    -22.041  0.2051E+01  0.2049E+01  0.1400E+01  0.1399E+01
    -21.847  0.2895E+01  0.2895E+01  0.1963E+01  0.1963E+01
    -21.652  0.5802E+01  0.5803E+01  0.3092E+01  0.3092E+01
    -21.457  0.5738E+00  0.5732E+00  0.3204E+01  0.3204E+01
    -21.263  0.6503E+01  0.6503E+01  0.4470E+01  0.4470E+01
    -21.068  0.3293E+01  0.3293E+01  0.5111E+01  0.5111E+01
    -20.873  0.2101E+01  0.2099E+01  0.5519E+01  0.5519E+01
    -20.679  0.8160E+01  0.8161E+01  0.7108E+01  0.7108E+01
    -20.484  0.1102E+01  0.1100E+01  0.7322E+01  0.7322E+01
    -20.290  0.2342E+01  0.2343E+01  0.7778E+01  0.7778E+01
    -20.095  0.6598E+01  0.6598E+01  0.9062E+01  0.9062E+01
    -19.900  0.6575E+01  0.6574E+01  0.1034E+02  0.1034E+02
    -19.706  0.5269E+00  0.5279E+00  0.1044E+02  0.1044E+02
    -19.511  0.2827E+01  0.2826E+01  0.1099E+02  0.1099E+02
    -19.316  0.3343E+01  0.3343E+01  0.1165E+02  0.1165E+02
    -19.122  0.7528E+01  0.7529E+01  0.1311E+02  0.1311E+02
    -18.927  0.4255E+01  0.4253E+01  0.1394E+02  0.1394E+02
    -18.732  0.2597E+01  0.2600E+01  0.1444E+02  0.1444E+02
    -18.538  0.1242E-01  0.1239E-01  0.1445E+02  0.1445E+02
    -18.343  0.6860E+01  0.6857E+01  0.1578E+02  0.1578E+02
    -18.148  0.6721E+01  0.6721E+01  0.1709E+02  0.1709E+02
    -17.954  0.3532E+01  0.3535E+01  0.1778E+02  0.1778E+02
    -17.759  0.3775E+01  0.3773E+01  0.1851E+02  0.1851E+02
    -17.565  0.3075E+01  0.3077E+01  0.1911E+02  0.1911E+02
    -17.370  0.2426E-01  0.2419E-01  0.1912E+02  0.1912E+02
    -17.175  0.1146E+02  0.1145E+02  0.2135E+02  0.2135E+02
    -16.981  0.3799E+01  0.3799E+01  0.2209E+02  0.2208E+02
    -16.786  0.7438E+01  0.7439E+01  0.2353E+02  0.2353E+02
    -16.591  0.1258E+01  0.1260E+01  0.2378E+02  0.2378E+02
    -16.397  0.2607E-03  0.2598E-03  0.2378E+02  0.2378E+02
    -16.202  0.3464E+01  0.3463E+01  0.2445E+02  0.2445E+02
    -16.007  0.6811E+01  0.6812E+01  0.2578E+02  0.2578E+02
    -15.813  0.5530E+00  0.5524E+00  0.2589E+02  0.2589E+02
    -15.618  0.2873E+01  0.2873E+01  0.2644E+02  0.2644E+02
    -15.424  0.2283E+01  0.2282E+01  0.2689E+02  0.2689E+02
    -15.229  0.5330E+01  0.5329E+01  0.2793E+02  0.2793E+02
    -15.034  0.8371E+01  0.8373E+01  0.2956E+02  0.2956E+02
    -14.840  0.9314E-04  0.9350E-04  0.2956E+02  0.2956E+02
    -14.645  0.7335E+01  0.7331E+01  0.3098E+02  0.3098E+02
    -14.450  0.6365E+01  0.6370E+01  0.3222E+02  0.3222E+02
    -14.256  0.2000E+01  0.1998E+01  0.3261E+02  0.3261E+02
    -14.061  0.4851E+01  0.4853E+01  0.3356E+02  0.3356E+02
    -13.866  0.3207E+01  0.3207E+01  0.3418E+02  0.3418E+02
    -13.672  0.6336E+01  0.6336E+01  0.3541E+02  0.3541E+02
    -13.477  0.4152E+01  0.4153E+01  0.3622E+02  0.3622E+02
    -13.282  0.2495E-01  0.5833E-02  0.3623E+02  0.3622E+02
    -13.088  0.6740E+01  0.3410E+01  0.3754E+02  0.3689E+02
    -12.893  0.6417E+01  0.9767E+01  0.3879E+02  0.3879E+02
    -12.699  0.6792E+01  0.6792E+01  0.4011E+02  0.4011E+02
    -12.504  0.6174E+01  0.6173E+01  0.4131E+02  0.4131E+02
    -12.309  0.7021E+00  0.7027E+00  0.4145E+02  0.4145E+02
    -12.115  0.5642E+01  0.5640E+01  0.4255E+02  0.4255E+02
    -11.920  0.8007E+01  0.8009E+01  0.4410E+02  0.4410E+02
    -11.725  0.3664E-01  0.3670E-01  0.4411E+02  0.4411E+02
    -11.531  0.1295E+01  0.1294E+01  0.4436E+02  0.4436E+02
    -11.336  0.8601E+01  0.8600E+01  0.4604E+02  0.4604E+02
    -11.141  0.1065E+02  0.1066E+02  0.4811E+02  0.4811E+02
    -10.947  0.1633E+00  0.1631E+00  0.4814E+02  0.4814E+02
    -10.752  0.6685E+01  0.6686E+01  0.4944E+02  0.4944E+02
    -10.557  0.4492E+00  0.4485E+00  0.4953E+02  0.4953E+02
    -10.363  0.9798E+01  0.9799E+01  0.5144E+02  0.5144E+02
    -10.168  0.7122E+01  0.7066E+01  0.5282E+02  0.5281E+02
     -9.974  0.1733E+02  0.1228E+02  0.5620E+02  0.5520E+02
     -9.779  0.5379E+01  0.6088E+01  0.5725E+02  0.5639E+02
     -9.584  0.8518E+01  0.1292E+02  0.5890E+02  0.5890E+02
     -9.390  0.9910E+01  0.9898E+01  0.6083E+02  0.6083E+02
     -9.195  0.1510E+02  0.1512E+02  0.6377E+02  0.6377E+02
     -9.000  0.8419E+01  0.8419E+01  0.6541E+02  0.6541E+02
     -8.806  0.1671E+02  0.1671E+02  0.6866E+02  0.6866E+02
     -8.611  0.1414E+02  0.1410E+02  0.7142E+02  0.7141E+02
     -8.416  0.1177E+02  0.1175E+02  0.7371E+02  0.7369E+02
     -8.222  0.8868E+01  0.8923E+01  0.7543E+02  0.7543E+02
     -8.027  0.2643E+01  0.2649E+01  0.7595E+02  0.7595E+02
     -7.833  0.1541E+02  0.1541E+02  0.7895E+02  0.7895E+02
     -7.638  0.1535E+02  0.1535E+02  0.8194E+02  0.8193E+02
     -7.443  0.1475E+01  0.1483E+01  0.8222E+02  0.8222E+02
     -7.249  0.6150E+00  0.6107E+00  0.8234E+02  0.8234E+02
     -7.054  0.9885E+01  0.9888E+01  0.8427E+02  0.8427E+02
     -6.859  0.1366E+02  0.1364E+02  0.8692E+02  0.8692E+02
     -6.665  0.6652E+01  0.6675E+01  0.8822E+02  0.8822E+02
     -6.470  0.7368E+01  0.6856E+01  0.8965E+02  0.8955E+02
     -6.275  0.9712E+01  0.5087E+01  0.9154E+02  0.9054E+02
     -6.081  0.3090E+01  0.8063E+01  0.9215E+02  0.9211E+02
     -5.886  0.7679E+01  0.7813E+01  0.9364E+02  0.9363E+02
     -5.691  0.1294E+02  0.1295E+02  0.9616E+02  0.9616E+02
     -5.497  0.3388E+01  0.3405E+01  0.9682E+02  0.9682E+02
     -5.302  0.6637E+01  0.6640E+01  0.9811E+02  0.9811E+02
     -5.108  0.5473E+01  0.1479E+01  0.9918E+02  0.9840E+02
     -4.913  0.3155E+01  0.2410E+01  0.9979E+02  0.9887E+02
     -4.718  0.1372E+02  0.1835E+02  0.1025E+03  0.1024E+03
     -4.524  0.9058E+01  0.6882E+01  0.1042E+03  0.1038E+03
     -4.329  0.7079E+01  0.8244E+01  0.1056E+03  0.1054E+03
     -4.134  0.1026E+01  0.2148E+01  0.1058E+03  0.1058E+03
     -3.940  0.3304E+01  0.3305E+01  0.1064E+03  0.1064E+03
     -3.745  0.2593E-01  0.2502E-01  0.1064E+03  0.1064E+03
     -3.550  0.8317E+01  0.6809E+01  0.1081E+03  0.1078E+03
     -3.356  0.3646E+01  0.4485E+01  0.1088E+03  0.1086E+03
     -3.161  0.1839E-05  0.6696E+00  0.1088E+03  0.1088E+03
     -2.967  0.4513E-11  0.0000E+00  0.1088E+03  0.1088E+03
     -2.772  0.3125E+00  0.2227E-08  0.1088E+03  0.1088E+03
     -2.577  0.5533E+01  0.7072E+00  0.1099E+03  0.1089E+03
     -2.383  0.1575E+01  0.1576E+01  0.1102E+03  0.1092E+03
     -2.188  0.6212E-06  0.6260E-06  0.1102E+03  0.1092E+03
     -1.993  0.4468E-14  0.2811E-01  0.1102E+03  0.1092E+03
     -1.799  0.3618E-01  0.5103E+01  0.1102E+03  0.1102E+03
     -1.604  0.5122E+01  0.5044E+01  0.1112E+03  0.1112E+03
     -1.409  0.6815E+01  0.6934E+01  0.1126E+03  0.1126E+03
     -1.215  0.7438E+01  0.3140E+01  0.1140E+03  0.1132E+03
     -1.020  0.1142E+01  0.5437E+01  0.1142E+03  0.1142E+03
     -0.825  0.9118E+01  0.4735E+01  0.1160E+03  0.1151E+03
     -0.631  0.9285E+01  0.1365E+02  0.1178E+03  0.1178E+03
     -0.436  0.7280E+01  0.7295E+01  0.1192E+03  0.1192E+03
     -0.242  0.7364E+01  0.3478E+01  0.1207E+03  0.1199E+03
     -0.047  0.8041E+01  0.6797E+01  0.1222E+03  0.1212E+03
      0.148  0.4241E+01  0.4120E+01  0.1230E+03  0.1220E+03
      0.342  0.9142E+00  0.5822E+01  0.1232E+03  0.1232E+03
      0.537  0.8112E+01  0.7174E+01  0.1248E+03  0.1246E+03
      0.732  0.8401E+01  0.7917E+01  0.1264E+03  0.1261E+03
      0.926  0.1104E+02  0.1128E+02  0.1286E+03  0.1283E+03
      1.121  0.1011E+02  0.9160E+01  0.1306E+03  0.1301E+03
      1.316  0.7854E+01  0.7586E+01  0.1321E+03  0.1315E+03
      1.510  0.1805E+02  0.1858E+02  0.1356E+03  0.1352E+03
      1.705  0.1528E+02  0.1358E+02  0.1386E+03  0.1378E+03
      1.899  0.6763E+01  0.1015E+02  0.1399E+03  0.1398E+03
      2.094  0.5763E+00  0.1121E+01  0.1400E+03  0.1400E+03
      2.289  0.1057E-06  0.1312E-03  0.1400E+03  0.1400E+03
      2.483  0.0000E+00  0.0000E+00  0.1400E+03  0.1400E+03
      2.678  0.0000E+00  0.0000E+00  0.1400E+03  0.1400E+03
      2.873  0.0000E+00  0.0000E+00  0.1400E+03  0.1400E+03
      3.067  0.0000E+00  0.0000E+00  0.1400E+03  0.1400E+03
      3.262  0.0000E+00  0.0000E+00  0.1400E+03  0.1400E+03
      3.457  0.0000E+00  0.0000E+00  0.1400E+03  0.1400E+03
      3.651  0.0000E+00  0.0000E+00  0.1400E+03  0.1400E+03
      3.846  0.0000E+00  0.0000E+00  0.1400E+03  0.1400E+03
      4.041  0.0000E+00  0.0000E+00  0.1400E+03  0.1400E+03
      4.235  0.0000E+00  0.0000E+00  0.1400E+03  0.1400E+03
      4.430  0.0000E+00  0.0000E+00  0.1400E+03  0.1400E+03
      4.624  0.0000E+00  0.0000E+00  0.1400E+03  0.1400E+03
