 vasp.5.4.1 24Jun15 (build Jul 23 2024 06:15:33) complex                        
  
 executed on           IFC91_ompi date 2026.05.06  02:04:37
 running on   16 total cores
 distrk:  each k-point on   16 cores,    1 groups
 distr:  one band on NCORES_PER_BAND=   4 cores,    4 groups


--------------------------------------------------------------------------------------------------------


 INCAR:
 POTCAR:    PAW_PBE C 08Apr2002                   
 POTCAR:    PAW_PBE Li_sv 10Sep2004               
 POTCAR:    PAW_PBE Si 05Jan2001                  
 POTCAR:    PAW_PBE C 08Apr2002                   
   VRHFIN =C: s2p2                                                              
   LEXCH  = PE                                                                  
   EATOM  =   147.1560 eV,   10.8157 Ry                                         
                                                                                
   TITEL  = PAW_PBE C 08Apr2002                                                 
   LULTRA =        F    use ultrasoft PP ?                                      
   IUNSCR =        1    unscreen: 0-lin 1-nonlin 2-no                           
   RPACOR =    1.200    partial core radius                                     
   POMASS =   12.011; ZVAL   =    4.000    mass and valenz                      
   RCORE  =    1.500    outmost cutoff radius                                   
   RWIGS  =    1.630; RWIGS  =    0.863    wigner-seitz radius (au A)           
   ENMAX  =  400.000; ENMIN  =  300.000 eV                                      
   ICORE  =        2    local potential                                         
   LCOR   =        T    correct aug charges                                     
   LPAW   =        T    paw PP                                                  
   EAUG   =  644.873                                                            
   DEXC   =    0.000                                                            
   RMAX   =    1.529    core radius for proj-oper                               
   RAUG   =    1.300    factor for augmentation sphere                          
   RDEP   =    1.501    radius for radial grids                                 
   RDEPT  =    1.300    core radius for aug-charge                              
                                                                                
   Atomic configuration                                                         
    4 entries                                                                   
     n  l   j            E        occ.                                          
     1  0  0.50      -273.3789   2.0000                                         
     2  0  0.50       -13.7508   2.0000                                         
     2  1  0.50        -5.2854   2.0000                                         
     3  2  1.50        -5.4423   0.0000                                         
   Description                                                                  
     l       E           TYP  RCUT    TYP  RCUT                                 
     0    -13.7508458     23  1.200                                             
     0     -8.2022199     23  1.200                                             
     1     -5.2854383     23  1.500                                             
     1     34.0145650     23  1.500                                             
     2     -5.4423304      7  1.500                                             
  local pseudopotential read in
  partial core-charges read in
  partial kinetic energy density read in
  atomic valenz-charges read in
  non local Contribution for L=           0  read in
    real space projection operators read in
  non local Contribution for L=           0  read in
    real space projection operators read in
  non local Contribution for L=           1  read in
    real space projection operators read in
  non local Contribution for L=           1  read in
    real space projection operators read in
    PAW grid and wavefunctions read in
 
   number of l-projection  operators is LMAX  =           4
   number of lm-projection operators is LMMAX =           8
 
 POTCAR:    PAW_PBE Li_sv 10Sep2004               
   VRHFIN =Li: 1s2s2p                                                           
   LEXCH  = PE                                                                  
   EATOM  =   202.7858 eV,   14.9043 Ry                                         
                                                                                
   TITEL  = PAW_PBE Li_sv 10Sep2004                                             
   LULTRA =        F    use ultrasoft PP ?                                      
   IUNSCR =        0    unscreen: 0-lin 1-nonlin 2-no                           
   RPACOR =    0.000    partial core radius                                     
   POMASS =    7.010; ZVAL   =    3.000    mass and valenz                      
   RCORE  =    1.700    outmost cutoff radius                                   
   RWIGS  =    2.050; RWIGS  =    1.085    wigner-seitz radius (au A)           
   ENMAX  =  499.034; ENMIN  =  374.276 eV                                      
   ICORE  =        2    local potential                                         
   LCOR   =        T    correct aug charges                                     
   LPAW   =        T    paw PP                                                  
   EAUG   =  628.945                                                            
   RMAX   =    1.732    core radius for proj-oper                               
   RAUG   =    1.300    factor for augmentation sphere                          
   RDEP   =    1.728    radius for radial grids                                 
   RDEPT  =    1.329    core radius for aug-charge                              
                                                                                
   Atomic configuration                                                         
    4 entries                                                                   
     n  l   j            E        occ.                                          
     1  0  0.50       -51.8549   2.0000                                         
     2  0  0.50        -2.8742   1.0000                                         
     2  1  0.50        -1.3606   0.0000                                         
     3  2  1.50        -1.3606   0.0000                                         
   Description                                                                  
     l       E           TYP  RCUT    TYP  RCUT                                 
     0    -51.8548813     23  1.400                                             
     0     -2.8742052     23  1.700                                             
     1     -1.3605826     23  1.400                                             
     2     -1.3605826     23  1.400                                             
  local pseudopotential read in
  atomic valenz-charges read in
  non local Contribution for L=           0  read in
    real space projection operators read in
  non local Contribution for L=           0  read in
    real space projection operators read in
  non local Contribution for L=           1  read in
    real space projection operators read in
    PAW grid and wavefunctions read in
 
   number of l-projection  operators is LMAX  =           3
   number of lm-projection operators is LMMAX =           5
 
 POTCAR:    PAW_PBE Si 05Jan2001                  
   VRHFIN =Si: s2p2                                                             
   LEXCH  = PE                                                                  
   EATOM  =   103.0669 eV,    7.5752 Ry                                         
                                                                                
   TITEL  = PAW_PBE Si 05Jan2001                                                
   LULTRA =        F    use ultrasoft PP ?                                      
   IUNSCR =        1    unscreen: 0-lin 1-nonlin 2-no                           
   RPACOR =    1.500    partial core radius                                     
   POMASS =   28.085; ZVAL   =    4.000    mass and valenz                      
   RCORE  =    1.900    outmost cutoff radius                                   
   RWIGS  =    2.480; RWIGS  =    1.312    wigner-seitz radius (au A)           
   ENMAX  =  245.345; ENMIN  =  184.009 eV                                      
   ICORE  =        2    local potential                                         
   LCOR   =        T    correct aug charges                                     
   LPAW   =        T    paw PP                                                  
   EAUG   =  322.069                                                            
   DEXC   =    0.000                                                            
   RMAX   =    1.950    core radius for proj-oper                               
   RAUG   =    1.300    factor for augmentation sphere                          
   RDEP   =    1.993    radius for radial grids                                 
   RDEPT  =    1.837    core radius for aug-charge                              
                                                                                
   Atomic configuration                                                         
    6 entries                                                                   
     n  l   j            E        occ.                                          
     1  0  0.50     -1785.8828   2.0000                                         
     2  0  0.50      -139.4969   2.0000                                         
     2  1  1.50       -95.5546   6.0000                                         
     3  0  0.50       -10.8127   2.0000                                         
     3  1  0.50        -4.0811   2.0000                                         
     3  2  1.50        -4.0817   0.0000                                         
   Description                                                                  
     l       E           TYP  RCUT    TYP  RCUT                                 
     0    -10.8127223     23  1.900                                             
     0     -7.6451159     23  1.900                                             
     1     -4.0811372     23  1.900                                             
     1      2.4879257     23  1.900                                             
     2     -4.0817478      7  1.900                                             
  local pseudopotential read in
  partial core-charges read in
  partial kinetic energy density read in
  atomic valenz-charges read in
  non local Contribution for L=           0  read in
    real space projection operators read in
  non local Contribution for L=           0  read in
    real space projection operators read in
  non local Contribution for L=           1  read in
    real space projection operators read in
  non local Contribution for L=           1  read in
    real space projection operators read in
    PAW grid and wavefunctions read in
 
   number of l-projection  operators is LMAX  =           4
   number of lm-projection operators is LMMAX =           8
 
 Optimization of the real space projectors (new method)

 maximal supplied QI-value         = 25.13
 optimisation between [QCUT,QGAM] = [ 11.56, 23.12] = [ 37.43,149.72] Ry 
 Optimized for a Real-space Cutoff    1.04 Angstroem

   l    n(q)    QCUT    max X(q) W(low)/X(q) W(high)/X(q)  e(spline) 
   0      7    11.561   115.676    0.20E-03    0.60E-03    0.21E-06
   0      7    11.561    87.132    0.20E-03    0.59E-03    0.21E-06
   1      7    11.561     4.429    0.23E-03    0.35E-03    0.15E-06
   1      7    11.561     2.733    0.18E-03    0.25E-03    0.12E-06
 Optimization of the real space projectors (new method)

 maximal supplied QI-value         = 22.11
 optimisation between [QCUT,QGAM] = [ 11.50, 23.22] = [ 37.02,150.92] Ry 
 Optimized for a Real-space Cutoff    1.08 Angstroem

   l    n(q)    QCUT    max X(q) W(low)/X(q) W(high)/X(q)  e(spline) 
   0      7    11.497    10.506    0.36E-04    0.62E-04    0.14E-07
   0      7    11.497     8.367    0.65E-04    0.14E-03    0.28E-07
   1      7    11.497     8.983    0.21E-03    0.43E-03    0.90E-07
 Optimization of the real space projectors (new method)

 maximal supplied QI-value         = 19.84
 optimisation between [QCUT,QGAM] = [ 11.51, 23.22] = [ 37.09,150.92] Ry 
 Optimized for a Real-space Cutoff    1.21 Angstroem

   l    n(q)    QCUT    max X(q) W(low)/X(q) W(high)/X(q)  e(spline) 
   0      8    11.508   159.560    0.71E-04    0.15E-03    0.51E-07
   0      8    11.508   115.863    0.70E-04    0.15E-03    0.51E-07
   1      8    11.508    88.339    0.16E-03    0.38E-04    0.82E-07
   1      8    11.508    48.592    0.15E-03    0.36E-04    0.79E-07
  PAW_PBE C 08Apr2002                   :
 energy of atom  1       EATOM= -147.1560
 kinetic energy error for atom=    0.0071 (will be added to EATOM!!)
  PAW_PBE Li_sv 10Sep2004               :
 energy of atom  2       EATOM= -202.7858
 kinetic energy error for atom=    0.0130 (will be added to EATOM!!)
  PAW_PBE Si 05Jan2001                  :
 energy of atom  3       EATOM= -103.0669
 kinetic energy error for atom=    0.0005 (will be added to EATOM!!)
 
 
 POSCAR: C  Li Si                                
  positions in direct lattice
  velocities in cartesian coordinates
 exchange correlation table for  LEXCH =        8
   RHO(1)=    0.500       N(1)  =     2000
   RHO(2)=  100.500       N(2)  =     4000
 


--------------------------------------------------------------------------------------------------------


 ion  position               nearest neighbor table
   1  0.003  1.000  0.496-  49 1.42  41 1.42  26 1.42
   2  0.003  0.200  0.497-  41 1.42  43 1.42   3 1.42
   3  0.137  0.266  0.497-  23 1.42  14 1.42   2 1.42
   4  0.004  0.400  0.497-  43 1.42   5 1.42  45 1.42
   5  0.137  0.466  0.497-   4 1.42  14 1.42  16 1.42
   6  0.004  0.600  0.497-   7 1.42  47 1.43  45 1.43
   7  0.137  0.667  0.497-  18 1.42  16 1.42   6 1.42
   8  0.004  0.800  0.496-  49 1.42   9 1.42  47 1.42
   9  0.137  0.867  0.496-   8 1.42  13 1.42  18 1.42
  10  0.403  0.400  0.496-  37 1.42  24 1.42  15 1.42
  11  0.337  0.066  0.496-  22 1.42  13 1.42  20 1.42
  12  0.537  0.266  0.496-  34 1.42  22 1.42  32 1.42
  13  0.204  1.000  0.496-   9 1.42  11 1.42  26 1.42
  14  0.204  0.400  0.497-  15 1.42   5 1.42   3 1.42
  15  0.337  0.466  0.496-  14 1.42  10 1.42  38 1.42
  16  0.204  0.600  0.497-  17 1.42   7 1.42   5 1.42
  17  0.337  0.667  0.497-  16 1.42  38 1.42  28 1.42
  18  0.204  0.800  0.497-   7 1.42  19 1.42   9 1.42
  19  0.337  0.867  0.496-  18 1.42  20 1.42  28 1.42
  20  0.403  1.000  0.496-  21 1.42  11 1.42  19 1.42
  21  0.537  0.066  0.496-  32 1.42  20 1.42  30 1.42
  22  0.403  0.200  0.496-  11 1.42  12 1.42  24 1.42
  23  0.203  0.200  0.496-   3 1.42  24 1.42  26 1.42
  24  0.337  0.266  0.496-  10 1.42  22 1.42  23 1.42
  25  0.537  0.667  0.496-  36 1.42  38 1.42  50 1.42
  26  0.137  0.066  0.496-  13 1.42   1 1.42  23 1.42
  27  0.737  0.867  0.496-  48 1.42  40 1.42  50 1.42
  28  0.403  0.800  0.496-  19 1.42  17 1.42  29 1.42
  29  0.537  0.866  0.496-  50 1.42  30 1.42  28 1.42
  30  0.603  1.000  0.496-  31 1.42  29 1.42  21 1.42
  31  0.737  0.066  0.496-  42 1.42  40 1.42  30 1.42
  32  0.603  0.200  0.496-  33 1.42  21 1.42  12 1.42
  33  0.736  0.266  0.497-  32 1.42  42 1.42  44 1.42
  34  0.603  0.399  0.496-  12 1.42  37 1.42  35 1.42
  35  0.736  0.466  0.496-  34 1.42  46 1.43  44 1.43
  36  0.603  0.600  0.496-  39 1.42  25 1.42  37 1.42
  37  0.537  0.466  0.496-  34 1.42  10 1.42  36 1.42
  38  0.403  0.600  0.496-  25 1.42  17 1.42  15 1.42
  39  0.736  0.667  0.496-  36 1.42  48 1.42  46 1.42
  40  0.803  1.000  0.496-  31 1.42  27 1.42  41 1.42
  41  0.937  0.066  0.496-   1 1.42   2 1.42  40 1.42
  42  0.803  0.200  0.497-  33 1.42  31 1.42  43 1.42
  43  0.937  0.266  0.497-   4 1.42   2 1.42  42 1.42
  44  0.803  0.399  0.497-  33 1.42  35 1.43  45 1.43
  45  0.937  0.466  0.497-   4 1.42   6 1.43  44 1.43
  46  0.803  0.600  0.496-  39 1.42  35 1.43  47 1.43
  47  0.937  0.667  0.496-   8 1.42   6 1.43  46 1.43
  48  0.803  0.800  0.496-  39 1.42  27 1.42  49 1.42
  49  0.937  0.867  0.496-   8 1.42   1 1.42  48 1.42
  50  0.603  0.800  0.496-  29 1.42  27 1.42  25 1.42
  51  0.699  0.526  0.752-  53 2.03
  52  0.520  0.405  0.676-  54 2.32  53 2.34
  53  0.711  0.590  0.689-  51 2.03  55 2.30  52 2.34  54 2.35
  54  0.687  0.462  0.627-  52 2.32  55 2.35  53 2.35
  55  0.876  0.648  0.641-  53 2.30  54 2.35
 

IMPORTANT INFORMATION: All symmetrisations will be switched off!
NOSYMM: (Re-)initialisation of all symmetry stuff for point group C_1.

 
 
 KPOINTS: Automatic mesh                          

Automatic generation of k-mesh.
Space group operators:
 irot       det(A)        alpha          n_x          n_y          n_z        tau_x        tau_y        tau_z
    1     1.000000     0.000001     1.000000     0.000000     0.000000     0.000000     0.000000     0.000000
 
 Subroutine IBZKPT returns following result:
 ===========================================
 
 Found      5 irreducible k-points:
 
 Following reciprocal coordinates:
            Coordinates               Weight
  0.000000  0.000000  0.000000      1.000000
  0.333333 -0.000000  0.000000      2.000000
  0.000000  0.333333  0.000000      2.000000
  0.333333  0.333333  0.000000      2.000000
 -0.333333  0.333333  0.000000      2.000000
 
 Following cartesian coordinates:
            Coordinates               Weight
  0.000000  0.000000  0.000000      1.000000
  0.027100  0.015646  0.000000      2.000000
  0.000000  0.031293  0.000000      2.000000
  0.027100  0.046939  0.000000      2.000000
 -0.027100  0.015646  0.000000      2.000000
 


--------------------------------------------------------------------------------------------------------




 Dimension of arrays:
   k-points           NKPTS =      5   k-points in BZ     NKDIM =      5   number of bands    NBANDS=    140
   number of dos      NEDOS =    301   number of ions     NIONS =     55
   non local maximal  LDIM  =      4   non local SUM 2l+1 LMDIM =      8
   total plane-waves  NPLWV = ******
   max r-space proj   IRMAX =   3955   max aug-charges    IRDMAX= 140664
   dimension x,y,z NGX =    96 NGY =   96 NGZ =  224
   dimension x,y,z NGXF=   192 NGYF=  192 NGZF=  448
   support grid    NGXF=   384 NGYF=  384 NGZF=  896
   ions per type =              50   1   4
 NGX,Y,Z   is equivalent  to a cutoff of  12.98, 12.98, 12.41 a.u.
 NGXF,Y,Z  is equivalent  to a cutoff of  25.95, 25.95, 24.83 a.u.


 I would recommend the setting:
   dimension x,y,z NGX =    91 NGY =   91 NGZ =  223
 SYSTEM =  Li defective graphene MACE training lab 
 POSCAR =  C  Li Si                                

 Startparameter for this run:
   NWRITE =      2    write-flag & timer
   PREC   = accura    normal or accurate (medium, high low for compatibility)
   ISTART =      0    job   : 0-new  1-cont  2-samecut
   ICHARG =      2    charge: 1-file 2-atom 10-const
   ISPIN  =      2    spin polarized calculation?
   LNONCOLLINEAR =      F non collinear calculations
   LSORBIT =      F    spin-orbit coupling
   INIWAV =      1    electr: 0-lowe 1-rand  2-diag
   LASPH  =      T    aspherical Exc in radial PAW
   METAGGA=      F    non-selfconsistent MetaGGA calc.

 Electronic Relaxation 1
   ENCUT  =  520.0 eV  38.22 Ry    6.18 a.u.  22.87 22.87 55.78*2*pi/ulx,y,z
   ENINI  =  520.0     initial cutoff
   ENAUG  =  644.9 eV  augmentation charge cutoff
   NELM   =    120;   NELMIN=  2; NELMDL= -5     # of ELM steps 
   EDIFF  = 0.1E-05   stopping-criterion for ELM
   LREAL  =      T    real-space projection
   NLSPLINE    = F    spline interpolate recip. space projectors
   LCOMPAT=      F    compatible to vasp.4.4
   GGA_COMPAT  = T    GGA compatible to vasp.4.4-vasp.4.6
   LMAXPAW     = -100 max onsite density
   LMAXMIX     =    2 max onsite mixed and CHGCAR
   VOSKOWN=      0    Vosko Wilk Nusair interpolation
   ROPT   =   -0.00025  -0.00025  -0.00025
 Ionic relaxation
   EDIFFG = 0.1E-04   stopping-criterion for IOM
   NSW    =      0    number of steps for IOM
   NBLOCK =      1;   KBLOCK =      1    inner block; outer block 
   IBRION =     -1    ionic relax: 0-MD 1-quasi-New 2-CG
   NFREE  =      0    steps in history (QN), initial steepest desc. (CG)
   ISIF   =      2    stress and relaxation
   IWAVPR =     10    prediction:  0-non 1-charg 2-wave 3-comb
   ISYM   =      0    0-nonsym 1-usesym 2-fastsym
   LCORR  =      T    Harris-Foulkes like correction to forces

   POTIM  = 0.5000    time-step for ionic-motion
   TEIN   =    0.0    initial temperature
   TEBEG  =    0.0;   TEEND  =   0.0 temperature during run
   SMASS  =  -3.00    Nose mass-parameter (am)
   estimated Nose-frequenzy (Omega)   =  0.10E-29 period in steps =****** mass=  -0.346E-26a.u.
   SCALEE = 1.0000    scale energy and forces
   NPACO  =    256;   APACO  = 16.0  distance and # of slots for P.C.
   PSTRESS=    0.0 pullay stress

  Mass of Ions in am
   POMASS =  12.01  7.01 28.09
  Ionic Valenz
   ZVAL   =   4.00  3.00  4.00
  Atomic Wigner-Seitz radii
   RWIGS  =  -1.00 -1.00 -1.00
  virtual crystal weights 
   VCA    =   1.00  1.00  1.00
   NELECT =     219.0000    total number of electrons
   NUPDOWN=      -1.0000    fix difference up-down

 DOS related values:
   EMIN   =  10.00;   EMAX   =-10.00  energy-range for DOS
   EFERMI =   0.00
   ISMEAR =     0;   SIGMA  =   0.05  broadening in eV -4-tet -1-fermi 0-gaus

 Electronic relaxation 2 (details)
   IALGO  =     38    algorithm
   LDIAG  =      T    sub-space diagonalisation (order eigenvalues)
   LSUBROT=      F    optimize rotation matrix (better conditioning)
   TURBO    =      0    0=normal 1=particle mesh
   IRESTART =      0    0=no restart 2=restart with 2 vectors
   NREBOOT  =      0    no. of reboots
   NMIN     =      0    reboot dimension
   EREF     =   0.00    reference energy to select bands
   IMIX   =      4    mixing-type and parameters
     AMIX     =   0.40;   BMIX     =  1.00
     AMIX_MAG =   1.60;   BMIX_MAG =  1.00
     AMIN     =   0.10
     WC   =   100.;   INIMIX=   1;  MIXPRE=   1;  MAXMIX= -45

 Intra band minimization:
   WEIMIN = 0.0000     energy-eigenvalue tresh-hold
   EBREAK =  0.18E-08  absolut break condition
   DEPER  =   0.30     relativ break condition  

   TIME   =   0.40     timestep for ELM

  volume/ion in A,a.u.               =      71.47       482.28
  Fermi-wavevector in a.u.,A,eV,Ry     =   0.625272  1.181592  5.319399  0.390965
  Thomas-Fermi vector in A             =   1.686119
 
 Write flags
   LWAVE  =      F    write WAVECAR
   LCHARG =      F    write CHGCAR
   LVTOT  =      F    write LOCPOT, total local potential
   LVHAR  =      F    write LOCPOT, Hartree potential only
   LELF   =      F    write electronic localiz. function (ELF)
   LORBIT =      0    0 simple, 1 ext, 2 COOP (PROOUT)


 Dipole corrections
   LMONO  =      F    monopole corrections only (constant potential shift)
   LDIPOL =      F    correct potential (dipole corrections)
   IDIPOL =      0    1-x, 2-y, 3-z, 4-all directions 
   EPSILON=  1.0000000 bulk dielectric constant

 Exchange correlation treatment:
   GGA     =    --    GGA type
   LEXCH   =     8    internal setting for exchange type
   VOSKOWN=      0    Vosko Wilk Nusair interpolation
   LHFCALC =     F    Hartree Fock is set to
   LHFONE  =     F    Hartree Fock one center treatment
   AEXX    =    0.0000 exact exchange contribution

 Linear response parameters
   LEPSILON=     F    determine dielectric tensor
   LRPA    =     F    only Hartree local field effects (RPA)
   LNABLA  =     F    use nabla operator in PAW spheres
   LVEL    =     F    velocity operator in full k-point grid
   LINTERFAST=   F  fast interpolation
   KINTER  =     0    interpolate to denser k-point grid
   CSHIFT  =0.1000    complex shift for real part using Kramers Kronig
   OMEGAMAX=  -1.0    maximum frequency
   DEG_THRESHOLD= 0.2000000E-02 threshold for treating states as degnerate
   RTIME   =    0.100 relaxation time in fs

 Orbital magnetization related:
   ORBITALMAG=     F  switch on orbital magnetization
   LCHIMAG   =     F  perturbation theory with respect to B field
   DQ        =  0.001000  dq finite difference perturbation B field



--------------------------------------------------------------------------------------------------------


 Static calculation
 charge density and potential will be updated during run
 spin polarized calculation
 Variant of blocked Davidson
 Davidson routine will perform the subspace rotation
 perform sub-space diagonalisation
    after iterative eigenvector-optimisation
 modified Broyden-mixing scheme, WC =      100.0
 initial mixing is a Kerker type mixing with AMIX =  0.4000 and BMIX =      1.0000
 Hartree-type preconditioning will be used
 using additional bands           30
 real space projection scheme for non local part
 use partial core corrections
 calculate Harris-corrections to forces 
   (improved forces if not selfconsistent)
 use gradient corrections 
 use of overlap-Matrix (Vanderbilt PP)
 Gauss-broadening in eV      SIGMA  =   0.05


--------------------------------------------------------------------------------------------------------


  energy-cutoff  :      520.00
  volume of cell :     3930.63
      direct lattice vectors                 reciprocal lattice vectors
    12.300000000  0.000000000  0.000000000     0.081300813  0.046939046  0.000000000
    -6.150000000 10.652112467  0.000000000     0.000000000  0.093878093  0.000000000
     0.000000000  0.000000000 30.000000000     0.000000000  0.000000000  0.033333333

  length of vectors
    12.300000000 12.300000000 30.000000000     0.093878093  0.093878093  0.033333333


 
 k-points in units of 2pi/SCALE and weight: Automatic mesh                          
   0.00000000  0.00000000  0.00000000       0.111
   0.02710027  0.01564635  0.00000000       0.222
   0.00000000  0.03129270  0.00000000       0.222
   0.02710027  0.04693905  0.00000000       0.222
  -0.02710027  0.01564635  0.00000000       0.222
 
 k-points in reciprocal lattice and weights: Automatic mesh                          
   0.00000000  0.00000000  0.00000000       0.111
   0.33333333 -0.00000000  0.00000000       0.222
   0.00000000  0.33333333  0.00000000       0.222
   0.33333333  0.33333333  0.00000000       0.222
  -0.33333333  0.33333333  0.00000000       0.222
 
 position of ions in fractional coordinates (direct lattice) 
   0.00345074  0.99986383  0.49609670
   0.00348460  0.19970334  0.49664178
   0.13682954  0.26641593  0.49662475
   0.00369603  0.39951385  0.49732348
   0.13694708  0.46642552  0.49708584
   0.00383788  0.60005532  0.49711179
   0.13728880  0.66673225  0.49714247
   0.00373898  0.80037993  0.49623857
   0.13693361  0.86663486  0.49637633
   0.40332590  0.39971860  0.49590635
   0.33679058  0.06643168  0.49601494
   0.53661624  0.26629152  0.49570410
   0.20350352  0.99988078  0.49615422
   0.20353132  0.39972944  0.49672267
   0.33680059  0.46648876  0.49629492
   0.20362647  0.59981745  0.49699182
   0.33686522  0.66650087  0.49656844
   0.20361733  0.79994590  0.49668328
   0.33686383  0.86652635  0.49644123
   0.40346456  0.99981634  0.49614744
   0.53673714  0.06636083  0.49614030
   0.40335236  0.19969184  0.49582630
   0.20346847  0.19976015  0.49630817
   0.33677594  0.26642160  0.49600636
   0.53671381  0.66650573  0.49577726
   0.13676778  0.06644140  0.49620324
   0.73675221  0.86656239  0.49579090
   0.40345319  0.79981189  0.49641146
   0.53677031  0.86643479  0.49613927
   0.60343762  0.99974474  0.49621758
   0.73674534  0.06635827  0.49634866
   0.60329964  0.19960770  0.49607178
   0.73647718  0.26588547  0.49658746
   0.60285721  0.39947764  0.49554387
   0.73629875  0.46622453  0.49571691
   0.60324845  0.59978617  0.49552552
   0.53657849  0.46639432  0.49553343
   0.40344283  0.59979045  0.49620483
   0.73644477  0.66674569  0.49555307
   0.80346948  0.99983073  0.49611591
   0.93675302  0.06643387  0.49626334
   0.80338933  0.19958592  0.49670218
   0.93678703  0.26628266  0.49693830
   0.80315717  0.39930135  0.49657820
   0.93695234  0.46624950  0.49725907
   0.80315673  0.60002138  0.49569846
   0.93698371  0.66696228  0.49635207
   0.80338826  0.79995657  0.49565506
   0.93678992  0.86661211  0.49589353
   0.60345197  0.79982850  0.49586192
   0.69873459  0.52606002  0.75231731
   0.52033525  0.40496966  0.67613139
   0.71141259  0.58973245  0.68898397
   0.68672958  0.46155567  0.62731800
   0.87646093  0.64798229  0.64082278
 
 position of ions in cartesian coordinates  (Angst):
  -6.10671846 10.65066197 14.88290089
  -1.18531491  2.12726240 14.89925350
   0.04454541  2.83789241 14.89874252
  -2.41154903  4.25566641 14.91970451
  -1.18406787  4.96841708 14.91257506
  -3.64313427  6.39185673 14.91335357
  -2.41175114  7.10210693 14.91427397
  -4.87634711  8.52573698 14.88715701
  -3.64552099  9.23149204 14.89128987
   2.50263919  4.25784749 14.87719048
   3.73396924  0.70763774 14.88044810
   4.96268690  2.83656720 14.87112287
  -3.64617358 10.65084257 14.88462669
   0.04509921  4.25796300 14.90168010
   1.27374135  4.96909070 14.88884762
  -1.18427169  6.38932295 14.90975472
   0.04446188  7.09964220 14.89705333
  -2.41517415  8.52111364 14.90049854
  -1.18571191  9.23033612 14.89323688
  -1.18625644 10.65015614 14.88442308
   6.19374777  0.70688299 14.88420894
   3.73312915  2.12713994 14.87478889
   1.27413727  2.12786759 14.88924496
   2.50385118  2.83795289 14.88019072
   2.50256967  7.09969402 14.87331781
   1.27362904  0.70774126 14.88609724
   3.73269344  9.23072008 14.87372686
   0.04363111  8.51968620 14.89234386
   1.27370083  9.22936084 14.88417806
   1.27385256 10.64939342 14.88652739
   8.65386434  0.70685570 14.89045991
   6.19299828  2.12624366 14.88215340
   7.42347369  2.83224192 14.89762390
   4.95835618  4.25528070 14.86631608
   6.18919378  4.96627611 14.87150740
   3.73127102  6.38898971 14.86576574
   3.73159039  4.96808480 14.86600299
   1.27363559  6.38903531 14.88614497
   4.95778472  7.10225008 14.86659210
   3.73371563 10.65030942 14.88347736
  11.11349378  0.70766108 14.88790028
   8.65423541  2.12601166 14.90106526
   9.88484214  2.83647289 14.90814913
   7.42312981  4.25340293 14.89734598
   8.65707935  4.96654212 14.91777217
   6.18869622  6.39149526 14.87095383
   7.42308164  7.10455725 14.89056222
   4.96194264  8.52122735 14.86965193
   6.19285153  9.23124965 14.87680605
   2.50351397  8.51986312 14.87585769
   5.35916637  5.60365047 22.56951921
   3.90956025  4.31378231 20.28394178
   5.12352031  6.28189640 20.66951921
   5.60820650  4.91654295 18.81954013
   6.79537841  6.90238022 19.22468343
 


--------------------------------------------------------------------------------------------------------


 k-point  1 :   0.0000 0.0000 0.0000  plane waves:  105831
 k-point  2 :   0.3333-0.0000 0.0000  plane waves:  105834
 k-point  3 :   0.0000 0.3333 0.0000  plane waves:  105834
 k-point  4 :   0.3333 0.3333 0.0000  plane waves:  105861
 k-point  5 :  -0.3333 0.3333 0.0000  plane waves:  105834

 maximum and minimum number of plane-waves per node :     26501    26424

 maximum number of plane-waves:    105861
 maximum index in each direction: 
   IXMAX=   23   IYMAX=   22   IZMAX=   55
   IXMIN=  -23   IYMIN=  -23   IZMIN=  -55

 NGX is ok and might be reduce to  94
 NGY is ok and might be reduce to  92
 NGZ is ok and might be reduce to 222

 real space projection operators:
  total allocation   :       8657.98 KBytes
  max/ min on nodes  :       2165.22       2163.24


 parallel 3D FFT for wavefunctions:
    minimum data exchange during FFTs selected (reduces bandwidth)
 parallel 3D FFT for charge:
    minimum data exchange during FFTs selected (reduces bandwidth)


 total amount of memory used by VASP on root node   483653. kBytes
========================================================================

   base      :      30000. kBytes
   nonlr-proj:       6339. kBytes
   fftplans  :     165810. kBytes
   grid      :     132526. kBytes
   one-center:         86. kBytes
   wavefun   :     148892. kBytes
 
     INWAV:  cpu time    0.0000: real time    0.0002
 Broyden mixing: mesh for mixing (old mesh)
   NGX = 45   NGY = 45   NGZ =111
  (NGX  =192   NGY  =192   NGZ  =448)
  gives a total of 224775 points

 initial charge density was supplied:
 charge density of overlapping atoms calculated
 number of electron     219.0000000 magnetization       6.4000000
 keeping initial charge density in first step


--------------------------------------------------------------------------------------------------------


 Maximum index for non-local projection operator          958
 Maximum index for augmentation-charges         8580 (set IRDMAX)


--------------------------------------------------------------------------------------------------------


 First call to EWALD:  gamma=   0.112
 Maximum number of real-space cells 4x 4x 2
 Maximum number of reciprocal cells 2x 2x 5

 FEWALD executed in parallel
    FEWALD:  cpu time    0.0022: real time    0.0057


----------------------------------------- Iteration    1(   1)  ---------------------------------------


    POTLOK:  cpu time    1.5480: real time    1.5481
    SETDIJ:  cpu time    1.3732: real time    1.3733
     EDDAV:  cpu time   48.0407: real time   48.2222
       DOS:  cpu time    0.0006: real time    0.0006
    --------------------------------------------
      LOOP:  cpu time   50.9637: real time   51.1560

 eigenvalue-minimisations  :  3360
 total energy-change (2. order) : 0.2032096E+04  (-0.7317611E+04)
 number of electron     219.0000000 magnetization       6.4000000
 augmentation part      219.0000000 magnetization       6.4000000

 Free energy of the ion-electron system (eV)
  ---------------------------------------------------
  alpha Z        PSCENC =        59.51446491
  Ewald energy   TEWEN  =     57887.83159814
  -Hartree energ DENC   =    -63511.04436780
  -exchange      EXHF   =         0.00000000
  -V(xc)+E(xc)   XCENC  =       631.58513897
  PAW double counting   =      5858.04939626    -5831.48174947
  entropy T*S    EENTRO =        -0.02557633
  eigenvalues    EBANDS =     -1034.81553450
  atomic energy  EATOM  =      7972.48291802
  Solvation  Ediel_sol  =         0.00000000
  ---------------------------------------------------
  free energy    TOTEN  =      2032.09628820 eV

  energy without entropy =     2032.12186454  energy(sigma->0) =     2032.10907637


--------------------------------------------------------------------------------------------------------




----------------------------------------- Iteration    1(   2)  ---------------------------------------


     EDDAV:  cpu time   57.8745: real time   57.8820
       DOS:  cpu time    0.0005: real time    0.0005
    --------------------------------------------
      LOOP:  cpu time   57.8763: real time   57.9050

 eigenvalue-minimisations  :  4224
 total energy-change (2. order) :-0.2002239E+04  (-0.1863405E+04)
 number of electron     219.0000000 magnetization       6.4000000
 augmentation part      219.0000000 magnetization       6.4000000

 Free energy of the ion-electron system (eV)
  ---------------------------------------------------
  alpha Z        PSCENC =        59.51446491
  Ewald energy   TEWEN  =     57887.83159814
  -Hartree energ DENC   =    -63511.04436780
  -exchange      EXHF   =         0.00000000
  -V(xc)+E(xc)   XCENC  =       631.58513897
  PAW double counting   =      5858.04939626    -5831.48174947
  entropy T*S    EENTRO =        -0.00590659
  eigenvalues    EBANDS =     -3037.07451423
  atomic energy  EATOM  =      7972.48291802
  Solvation  Ediel_sol  =         0.00000000
  ---------------------------------------------------
  free energy    TOTEN  =        29.85697821 eV

  energy without entropy =       29.86288480  energy(sigma->0) =       29.85993151


--------------------------------------------------------------------------------------------------------




----------------------------------------- Iteration    1(   3)  ---------------------------------------


     EDDAV:  cpu time   51.2689: real time   51.2722
       DOS:  cpu time    0.0005: real time    0.0005
    --------------------------------------------
      LOOP:  cpu time   51.2699: real time   51.2756

 eigenvalue-minimisations  :  3640
 total energy-change (2. order) :-0.5133620E+03  (-0.5022294E+03)
 number of electron     219.0000000 magnetization       6.4000000
 augmentation part      219.0000000 magnetization       6.4000000

 Free energy of the ion-electron system (eV)
  ---------------------------------------------------
  alpha Z        PSCENC =        59.51446491
  Ewald energy   TEWEN  =     57887.83159814
  -Hartree energ DENC   =    -63511.04436780
  -exchange      EXHF   =         0.00000000
  -V(xc)+E(xc)   XCENC  =       631.58513897
  PAW double counting   =      5858.04939626    -5831.48174947
  entropy T*S    EENTRO =        -0.00564786
  eigenvalues    EBANDS =     -3550.43679812
  atomic energy  EATOM  =      7972.48291802
  Solvation  Ediel_sol  =         0.00000000
  ---------------------------------------------------
  free energy    TOTEN  =      -483.50504695 eV

  energy without entropy =     -483.49939909  energy(sigma->0) =     -483.50222302


--------------------------------------------------------------------------------------------------------




----------------------------------------- Iteration    1(   4)  ---------------------------------------


     EDDAV:  cpu time   50.2496: real time   50.2526
       DOS:  cpu time    0.0006: real time    0.0006
    --------------------------------------------
      LOOP:  cpu time   50.2507: real time   50.2572

 eigenvalue-minimisations  :  3552
 total energy-change (2. order) :-0.3010943E+02  (-0.2947447E+02)
 number of electron     219.0000000 magnetization       6.4000000
 augmentation part      219.0000000 magnetization       6.4000000

 Free energy of the ion-electron system (eV)
  ---------------------------------------------------
  alpha Z        PSCENC =        59.51446491
  Ewald energy   TEWEN  =     57887.83159814
  -Hartree energ DENC   =    -63511.04436780
  -exchange      EXHF   =         0.00000000
  -V(xc)+E(xc)   XCENC  =       631.58513897
  PAW double counting   =      5858.04939626    -5831.48174947
  entropy T*S    EENTRO =        -0.00784408
  eigenvalues    EBANDS =     -3580.54403574
  atomic energy  EATOM  =      7972.48291802
  Solvation  Ediel_sol  =         0.00000000
  ---------------------------------------------------
  free energy    TOTEN  =      -513.61448079 eV

  energy without entropy =     -513.60663671  energy(sigma->0) =     -513.61055875


--------------------------------------------------------------------------------------------------------




----------------------------------------- Iteration    1(   5)  ---------------------------------------


     EDDAV:  cpu time   56.2358: real time   56.2391
       DOS:  cpu time    0.0005: real time    0.0005
    CHARGE:  cpu time    4.9194: real time    4.9196
    MIXING:  cpu time    0.0250: real time    0.0250
    --------------------------------------------
      LOOP:  cpu time   61.1813: real time   61.1873

 eigenvalue-minimisations  :  4092
 total energy-change (2. order) :-0.1286021E+01  (-0.1272431E+01)
 number of electron     219.0000000 magnetization       5.9773350
 augmentation part        5.5885186 magnetization       5.8308190

 Broyden mixing:
  rms(total) = 0.34340E+01    rms(broyden)= 0.34335E+01
  rms(prec ) = 0.35863E+01
  weight for this iteration     100.00

 Free energy of the ion-electron system (eV)
  ---------------------------------------------------
  alpha Z        PSCENC =        59.51446491
  Ewald energy   TEWEN  =     57887.83159814
  -Hartree energ DENC   =    -63511.04436780
  -exchange      EXHF   =         0.00000000
  -V(xc)+E(xc)   XCENC  =       631.58513897
  PAW double counting   =      5858.04939626    -5831.48174947
  entropy T*S    EENTRO =        -0.00742306
  eigenvalues    EBANDS =     -3581.83047768
  atomic energy  EATOM  =      7972.48291802
  Solvation  Ediel_sol  =         0.00000000
  ---------------------------------------------------
  free energy    TOTEN  =      -514.90050170 eV

  energy without entropy =     -514.89307864  energy(sigma->0) =     -514.89679017


--------------------------------------------------------------------------------------------------------




----------------------------------------- Iteration    1(   6)  ---------------------------------------


    POTLOK:  cpu time    1.5768: real time    1.6258
    SETDIJ:  cpu time    1.4389: real time    1.4393
     EDDAV:  cpu time   44.9385: real time   44.9397
       DOS:  cpu time    0.0005: real time    0.0005
    CHARGE:  cpu time    4.7497: real time    4.7498
    MIXING:  cpu time    0.0488: real time    0.0553
    --------------------------------------------
      LOOP:  cpu time   52.7542: real time   52.8309

 eigenvalue-minimisations  :  3128
 total energy-change (2. order) : 0.2823468E+02  (-0.7962193E+01)
 number of electron     219.0000000 magnetization       5.5094465
 augmentation part        4.9803683 magnetization       4.8883089

 Broyden mixing:
  rms(total) = 0.19914E+01    rms(broyden)= 0.19913E+01
  rms(prec ) = 0.20482E+01
  weight for this iteration     100.00

 eigenvalues of (default mixing * dielectric matrix)
  average eigenvalue GAMMA=   0.9670
  0.9670

 Free energy of the ion-electron system (eV)
  ---------------------------------------------------
  alpha Z        PSCENC =        59.51446491
  Ewald energy   TEWEN  =     57887.83159814
  -Hartree energ DENC   =    -63951.55841460
  -exchange      EXHF   =         0.00000000
  -V(xc)+E(xc)   XCENC  =       645.81095918
  PAW double counting   =     10742.56973987   -10720.10524520
  entropy T*S    EENTRO =        -0.01396755
  eigenvalues    EBANDS =     -3123.19787801
  atomic energy  EATOM  =      7972.48291802
  Solvation  Ediel_sol  =         0.00000000
  ---------------------------------------------------
  free energy    TOTEN  =      -486.66582524 eV

  energy without entropy =     -486.65185769  energy(sigma->0) =     -486.65884147


--------------------------------------------------------------------------------------------------------




----------------------------------------- Iteration    1(   7)  ---------------------------------------


    POTLOK:  cpu time    1.5284: real time    1.5287
    SETDIJ:  cpu time    1.4273: real time    1.4274
     EDDAV:  cpu time   45.0100: real time   45.0132
       DOS:  cpu time    0.0005: real time    0.0005
    CHARGE:  cpu time    4.8208: real time    4.8209
    MIXING:  cpu time    0.0357: real time    0.0357
    --------------------------------------------
      LOOP:  cpu time   52.8233: real time   52.8284

 eigenvalue-minimisations  :  3132
 total energy-change (2. order) : 0.1072383E+02  (-0.1459672E+01)
 number of electron     219.0000000 magnetization       4.9599001
 augmentation part        4.9335446 magnetization       4.3428934

 Broyden mixing:
  rms(total) = 0.10694E+01    rms(broyden)= 0.10694E+01
  rms(prec ) = 0.10922E+01
  weight for this iteration     100.00

 eigenvalues of (default mixing * dielectric matrix)
  average eigenvalue GAMMA=   1.4182
  0.6759  2.1605

 Free energy of the ion-electron system (eV)
  ---------------------------------------------------
  alpha Z        PSCENC =        59.51446491
  Ewald energy   TEWEN  =     57887.83159814
  -Hartree energ DENC   =    -64149.41306192
  -exchange      EXHF   =         0.00000000
  -V(xc)+E(xc)   XCENC  =       657.73947983
  PAW double counting   =     15909.55420620   -15889.23676750
  entropy T*S    EENTRO =        -0.01486671
  eigenvalues    EBANDS =     -2924.39996857
  atomic energy  EATOM  =      7972.48291802
  Solvation  Ediel_sol  =         0.00000000
  ---------------------------------------------------
  free energy    TOTEN  =      -475.94199759 eV

  energy without entropy =     -475.92713089  energy(sigma->0) =     -475.93456424


--------------------------------------------------------------------------------------------------------




----------------------------------------- Iteration    1(   8)  ---------------------------------------


    POTLOK:  cpu time    1.5402: real time    1.5403
    SETDIJ:  cpu time    1.4273: real time    1.4274
     EDDAV:  cpu time   44.8178: real time   44.8199
       DOS:  cpu time    0.0005: real time    0.0005
    CHARGE:  cpu time    4.7354: real time    4.7356
    MIXING:  cpu time    0.0483: real time    0.0485
    --------------------------------------------
      LOOP:  cpu time   52.5705: real time   52.5770

 eigenvalue-minimisations  :  3112
 total energy-change (2. order) : 0.1678090E+01  (-0.6576670E+00)
 number of electron     219.0000000 magnetization       4.6188886
 augmentation part        4.7775339 magnetization       3.3442143

 Broyden mixing:
  rms(total) = 0.39141E+00    rms(broyden)= 0.39132E+00
  rms(prec ) = 0.40141E+00
  weight for this iteration     100.00

 eigenvalues of (default mixing * dielectric matrix)
  average eigenvalue GAMMA=   1.3810
  2.3366  1.1544  0.6521

 Free energy of the ion-electron system (eV)
  ---------------------------------------------------
  alpha Z        PSCENC =        59.51446491
  Ewald energy   TEWEN  =     57887.83159814
  -Hartree energ DENC   =    -64349.33367085
  -exchange      EXHF   =         0.00000000
  -V(xc)+E(xc)   XCENC  =       665.28133909
  PAW double counting   =     20875.77319465   -20856.58014540
  entropy T*S    EENTRO =        -0.00910204
  eigenvalues    EBANDS =     -2729.22450415
  atomic energy  EATOM  =      7972.48291802
  Solvation  Ediel_sol  =         0.00000000
  ---------------------------------------------------
  free energy    TOTEN  =      -474.26390762 eV

  energy without entropy =     -474.25480559  energy(sigma->0) =     -474.25935660


--------------------------------------------------------------------------------------------------------




----------------------------------------- Iteration    1(   9)  ---------------------------------------


    POTLOK:  cpu time    1.5434: real time    1.5440
    SETDIJ:  cpu time    1.4290: real time    1.4292
     EDDAV:  cpu time   51.2092: real time   51.2124
       DOS:  cpu time    0.0006: real time    0.0006
    CHARGE:  cpu time    4.8312: real time    4.8315
    MIXING:  cpu time    0.0256: real time    0.0256
    --------------------------------------------
      LOOP:  cpu time   59.0397: real time   59.0466

 eigenvalue-minimisations  :  3688
 total energy-change (2. order) :-0.1141030E+01  (-0.5607785E-01)
 number of electron     219.0000000 magnetization       4.2857401
 augmentation part        4.7335699 magnetization       3.0049087

 Broyden mixing:
  rms(total) = 0.18496E+00    rms(broyden)= 0.18484E+00
  rms(prec ) = 0.19539E+00
  weight for this iteration     100.00

 eigenvalues of (default mixing * dielectric matrix)
  average eigenvalue GAMMA=   1.3709
  2.3472  1.7541  0.7490  0.6333

 Free energy of the ion-electron system (eV)
  ---------------------------------------------------
  alpha Z        PSCENC =        59.51446491
  Ewald energy   TEWEN  =     57887.83159814
  -Hartree energ DENC   =    -64390.34366218
  -exchange      EXHF   =         0.00000000
  -V(xc)+E(xc)   XCENC  =       664.96768810
  PAW double counting   =     22060.89244008   -22041.27978850
  entropy T*S    EENTRO =        -0.00836348
  eigenvalues    EBANDS =     -2689.46223277
  atomic energy  EATOM  =      7972.48291802
  Solvation  Ediel_sol  =         0.00000000
  ---------------------------------------------------
  free energy    TOTEN  =      -475.40493769 eV

  energy without entropy =     -475.39657420  energy(sigma->0) =     -475.40075595


--------------------------------------------------------------------------------------------------------




----------------------------------------- Iteration    1(  10)  ---------------------------------------


    POTLOK:  cpu time    1.5453: real time    1.5455
    SETDIJ:  cpu time    1.4209: real time    1.4213
     EDDAV:  cpu time   45.3457: real time   45.3485
       DOS:  cpu time    0.0005: real time    0.0005
    CHARGE:  cpu time    4.7443: real time    4.7446
    MIXING:  cpu time    0.0498: real time    0.0498
    --------------------------------------------
      LOOP:  cpu time   53.1073: real time   53.1139

 eigenvalue-minimisations  :  3156
 total energy-change (2. order) :-0.6316679E+00  (-0.1522250E-01)
 number of electron     219.0000000 magnetization       4.0589103
 augmentation part        4.7329674 magnetization       2.8064971

 Broyden mixing:
  rms(total) = 0.92597E-01    rms(broyden)= 0.92568E-01
  rms(prec ) = 0.10329E+00
  weight for this iteration     100.00

 eigenvalues of (default mixing * dielectric matrix)
  average eigenvalue GAMMA=   1.3193
  2.2870  2.0523  0.9370  0.6981  0.6222

 Free energy of the ion-electron system (eV)
  ---------------------------------------------------
  alpha Z        PSCENC =        59.51446491
  Ewald energy   TEWEN  =     57887.83159814
  -Hartree energ DENC   =    -64415.08579901
  -exchange      EXHF   =         0.00000000
  -V(xc)+E(xc)   XCENC  =       664.47255053
  PAW double counting   =     22463.97613207   -22443.95618725
  entropy T*S    EENTRO =        -0.00923294
  eigenvalues    EBANDS =     -2665.26305006
  atomic energy  EATOM  =      7972.48291802
  Solvation  Ediel_sol  =         0.00000000
  ---------------------------------------------------
  free energy    TOTEN  =      -476.03660559 eV

  energy without entropy =     -476.02737264  energy(sigma->0) =     -476.03198912


--------------------------------------------------------------------------------------------------------




----------------------------------------- Iteration    1(  11)  ---------------------------------------


    POTLOK:  cpu time    1.5381: real time    1.5382
    SETDIJ:  cpu time    1.4281: real time    1.4282
     EDDAV:  cpu time   44.5761: real time   44.5799
       DOS:  cpu time    0.0006: real time    0.0006
    CHARGE:  cpu time    4.7821: real time    4.7822
    MIXING:  cpu time    0.0339: real time    0.0339
    --------------------------------------------
      LOOP:  cpu time   52.3595: real time   52.3674

 eigenvalue-minimisations  :  3088
 total energy-change (2. order) :-0.2858306E+00  (-0.4162936E-02)
 number of electron     219.0000000 magnetization       3.7505412
 augmentation part        4.7350027 magnetization       2.5234508

 Broyden mixing:
  rms(total) = 0.71641E-01    rms(broyden)= 0.71638E-01
  rms(prec ) = 0.80787E-01
  weight for this iteration     100.00

 eigenvalues of (default mixing * dielectric matrix)
  average eigenvalue GAMMA=   1.3085
  2.2345  2.2345  1.1858  0.9062  0.6682  0.6219

 Free energy of the ion-electron system (eV)
  ---------------------------------------------------
  alpha Z        PSCENC =        59.51446491
  Ewald energy   TEWEN  =     57887.83159814
  -Hartree energ DENC   =    -64431.99567909
  -exchange      EXHF   =         0.00000000
  -V(xc)+E(xc)   XCENC  =       664.35865414
  PAW double counting   =     22513.44654199   -22493.30151365
  entropy T*S    EENTRO =        -0.00991903
  eigenvalues    EBANDS =     -2648.64950165
  atomic energy  EATOM  =      7972.48291802
  Solvation  Ediel_sol  =         0.00000000
  ---------------------------------------------------
  free energy    TOTEN  =      -476.32243622 eV

  energy without entropy =     -476.31251719  energy(sigma->0) =     -476.31747670


--------------------------------------------------------------------------------------------------------




----------------------------------------- Iteration    1(  12)  ---------------------------------------


    POTLOK:  cpu time    1.5227: real time    1.5228
    SETDIJ:  cpu time    1.4198: real time    1.4204
     EDDAV:  cpu time   44.8946: real time   44.8982
       DOS:  cpu time    0.0006: real time    0.0006
    CHARGE:  cpu time    4.7476: real time    4.7478
    MIXING:  cpu time    0.0636: real time    0.0636
    --------------------------------------------
      LOOP:  cpu time   52.6495: real time   52.6568

 eigenvalue-minimisations  :  3116
 total energy-change (2. order) :-0.3473590E+00  (-0.4218662E-02)
 number of electron     219.0000000 magnetization       3.1678881
 augmentation part        4.7361707 magnetization       1.9697997

 Broyden mixing:
  rms(total) = 0.58769E-01    rms(broyden)= 0.58769E-01
  rms(prec ) = 0.64972E-01
  weight for this iteration     100.00

 eigenvalues of (default mixing * dielectric matrix)
  average eigenvalue GAMMA=   1.3693
  2.4388  2.4388  1.6110  1.0073  0.8087  0.6504  0.6302

 Free energy of the ion-electron system (eV)
  ---------------------------------------------------
  alpha Z        PSCENC =        59.51446491
  Ewald energy   TEWEN  =     57887.83159814
  -Hartree energ DENC   =    -64453.09371633
  -exchange      EXHF   =         0.00000000
  -V(xc)+E(xc)   XCENC  =       664.27021344
  PAW double counting   =     22472.26486444   -22452.04298647
  entropy T*S    EENTRO =        -0.01057091
  eigenvalues    EBANDS =     -2627.88658046
  atomic energy  EATOM  =      7972.48291802
  Solvation  Ediel_sol  =         0.00000000
  ---------------------------------------------------
  free energy    TOTEN  =      -476.66979521 eV

  energy without entropy =     -476.65922431  energy(sigma->0) =     -476.66450976


--------------------------------------------------------------------------------------------------------




----------------------------------------- Iteration    1(  13)  ---------------------------------------


    POTLOK:  cpu time    1.4974: real time    1.4975
    SETDIJ:  cpu time    1.4344: real time    1.4346
     EDDAV:  cpu time   43.6700: real time   43.6727
       DOS:  cpu time    0.0006: real time    0.0006
    CHARGE:  cpu time    4.8397: real time    4.8400
    MIXING:  cpu time    0.0313: real time    0.0313
    --------------------------------------------
      LOOP:  cpu time   51.4740: real time   51.4797

 eigenvalue-minimisations  :  3012
 total energy-change (2. order) :-0.4184823E+00  (-0.1270927E-01)
 number of electron     219.0000000 magnetization       2.6713332
 augmentation part        4.7361379 magnetization       1.5250714

 Broyden mixing:
  rms(total) = 0.43427E-01    rms(broyden)= 0.43427E-01
  rms(prec ) = 0.45662E-01
  weight for this iteration     100.00

 eigenvalues of (default mixing * dielectric matrix)
  average eigenvalue GAMMA=   1.5593
  4.0186  2.3876  1.9510  1.1150  1.0281  0.7120  0.6312  0.6312

 Free energy of the ion-electron system (eV)
  ---------------------------------------------------
  alpha Z        PSCENC =        59.51446491
  Ewald energy   TEWEN  =     57887.83159814
  -Hartree energ DENC   =    -64488.42200632
  -exchange      EXHF   =         0.00000000
  -V(xc)+E(xc)   XCENC  =       664.30219868
  PAW double counting   =     22422.82986814   -22402.50800286
  entropy T*S    EENTRO =        -0.01153717
  eigenvalues    EBANDS =     -2593.10777903
  atomic energy  EATOM  =      7972.48291802
  Solvation  Ediel_sol  =         0.00000000
  ---------------------------------------------------
  free energy    TOTEN  =      -477.08827748 eV

  energy without entropy =     -477.07674031  energy(sigma->0) =     -477.08250889


--------------------------------------------------------------------------------------------------------




----------------------------------------- Iteration    1(  14)  ---------------------------------------


    POTLOK:  cpu time    1.5041: real time    1.5042
    SETDIJ:  cpu time    1.4287: real time    1.4288
     EDDAV:  cpu time   43.3589: real time   43.4341
       DOS:  cpu time    0.0006: real time    0.0006
    CHARGE:  cpu time    4.7097: real time    4.7099
    MIXING:  cpu time    0.0506: real time    0.0506
    --------------------------------------------
      LOOP:  cpu time   51.0532: real time   51.1322

 eigenvalue-minimisations  :  2984
 total energy-change (2. order) :-0.7177007E-01  (-0.8063399E-02)
 number of electron     219.0000000 magnetization       2.2317674
 augmentation part        4.7355643 magnetization       1.1295922

 Broyden mixing:
  rms(total) = 0.32441E-01    rms(broyden)= 0.32440E-01
  rms(prec ) = 0.33496E-01
  weight for this iteration     100.00

 eigenvalues of (default mixing * dielectric matrix)
  average eigenvalue GAMMA=   1.6919
  5.3392  2.2403  2.2403  1.4271  1.0830  0.9398  0.7018  0.6278  0.6274

 Free energy of the ion-electron system (eV)
  ---------------------------------------------------
  alpha Z        PSCENC =        59.51446491
  Ewald energy   TEWEN  =     57887.83159814
  -Hartree energ DENC   =    -64513.04111489
  -exchange      EXHF   =         0.00000000
  -V(xc)+E(xc)   XCENC  =       664.50520750
  PAW double counting   =     22400.57636751   -22380.22062763
  entropy T*S    EENTRO =        -0.01229202
  eigenvalues    EBANDS =     -2568.79656909
  atomic energy  EATOM  =      7972.48291802
  Solvation  Ediel_sol  =         0.00000000
  ---------------------------------------------------
  free energy    TOTEN  =      -477.16004754 eV

  energy without entropy =     -477.14775552  energy(sigma->0) =     -477.15390153


--------------------------------------------------------------------------------------------------------




----------------------------------------- Iteration    1(  15)  ---------------------------------------


    POTLOK:  cpu time    1.5132: real time    1.5135
    SETDIJ:  cpu time    1.4289: real time    1.4292
     EDDAV:  cpu time   42.7801: real time   42.7819
       DOS:  cpu time    0.0006: real time    0.0006
    CHARGE:  cpu time    4.7641: real time    4.7643
    MIXING:  cpu time    0.0472: real time    0.0472
    --------------------------------------------
      LOOP:  cpu time   50.5348: real time   50.5400

 eigenvalue-minimisations  :  2932
 total energy-change (2. order) :-0.4091365E+00  (-0.4758085E-02)
 number of electron     219.0000000 magnetization       1.8811883
 augmentation part        4.7338194 magnetization       0.8116639

 Broyden mixing:
  rms(total) = 0.22738E-01    rms(broyden)= 0.22738E-01
  rms(prec ) = 0.23708E-01
  weight for this iteration     100.00

 eigenvalues of (default mixing * dielectric matrix)
  average eigenvalue GAMMA=   1.9159
  7.5536  2.4515  2.4515  1.7964  1.1279  1.0123  0.8258  0.6838  0.6418  0.6145

 Free energy of the ion-electron system (eV)
  ---------------------------------------------------
  alpha Z        PSCENC =        59.51446491
  Ewald energy   TEWEN  =     57887.83159814
  -Hartree energ DENC   =    -64526.36674891
  -exchange      EXHF   =         0.00000000
  -V(xc)+E(xc)   XCENC  =       664.17403734
  PAW double counting   =     22384.21769932   -22363.88423190
  entropy T*S    EENTRO =        -0.01247579
  eigenvalues    EBANDS =     -2555.52644516
  atomic energy  EATOM  =      7972.48291802
  Solvation  Ediel_sol  =         0.00000000
  ---------------------------------------------------
  free energy    TOTEN  =      -477.56918401 eV

  energy without entropy =     -477.55670823  energy(sigma->0) =     -477.56294612


--------------------------------------------------------------------------------------------------------




----------------------------------------- Iteration    1(  16)  ---------------------------------------


    POTLOK:  cpu time    1.5567: real time    1.5568
    SETDIJ:  cpu time    1.4250: real time    1.4250
     EDDAV:  cpu time   43.4790: real time   43.4815
       DOS:  cpu time    0.0006: real time    0.0006
    CHARGE:  cpu time    4.7378: real time    4.7380
    MIXING:  cpu time    0.0675: real time    0.0675
    --------------------------------------------
      LOOP:  cpu time   51.2672: real time   51.2733

 eigenvalue-minimisations  :  2992
 total energy-change (2. order) :-0.4090287E+00  (-0.2493116E-02)
 number of electron     219.0000000 magnetization       1.6234488
 augmentation part        4.7327377 magnetization       0.5755594

 Broyden mixing:
  rms(total) = 0.15921E-01    rms(broyden)= 0.15920E-01
  rms(prec ) = 0.17194E-01
  weight for this iteration     100.00

 eigenvalues of (default mixing * dielectric matrix)
  average eigenvalue GAMMA=   2.0423
  9.2702  2.5972  2.5972  1.8599  1.4126  1.0351  0.9608  0.8021  0.6744  0.6386
  0.6174

 Free energy of the ion-electron system (eV)
  ---------------------------------------------------
  alpha Z        PSCENC =        59.51446491
  Ewald energy   TEWEN  =     57887.83159814
  -Hartree energ DENC   =    -64532.16525300
  -exchange      EXHF   =         0.00000000
  -V(xc)+E(xc)   XCENC  =       663.74667158
  PAW double counting   =     22378.13246847   -22357.81234836
  entropy T*S    EENTRO =        -0.01250624
  eigenvalues    EBANDS =     -2549.69622623
  atomic energy  EATOM  =      7972.48291802
  Solvation  Ediel_sol  =         0.00000000
  ---------------------------------------------------
  free energy    TOTEN  =      -477.97821271 eV

  energy without entropy =     -477.96570647  energy(sigma->0) =     -477.97195959


--------------------------------------------------------------------------------------------------------




----------------------------------------- Iteration    1(  17)  ---------------------------------------


    POTLOK:  cpu time    1.5002: real time    1.5005
    SETDIJ:  cpu time    1.4279: real time    1.4280
     EDDAV:  cpu time   44.2790: real time   44.2812
       DOS:  cpu time    0.0006: real time    0.0006
    CHARGE:  cpu time    4.8399: real time    4.8401
    MIXING:  cpu time    0.0309: real time    0.0309
    --------------------------------------------
      LOOP:  cpu time   52.0792: real time   52.0844

 eigenvalue-minimisations  :  3064
 total energy-change (2. order) :-0.2484068E+00  (-0.1190573E-02)
 number of electron     219.0000000 magnetization       1.4143263
 augmentation part        4.7324772 magnetization       0.3799804

 Broyden mixing:
  rms(total) = 0.11110E-01    rms(broyden)= 0.11109E-01
  rms(prec ) = 0.12248E-01
  weight for this iteration     100.00

 eigenvalues of (default mixing * dielectric matrix)
  average eigenvalue GAMMA=   2.1547
 10.6788  3.2472  2.4554  1.8866  1.8866  1.1466  0.9456  0.9456  0.7435  0.6677
  0.6194  0.6333

 Free energy of the ion-electron system (eV)
  ---------------------------------------------------
  alpha Z        PSCENC =        59.51446491
  Ewald energy   TEWEN  =     57887.83159814
  -Hartree energ DENC   =    -64531.93110231
  -exchange      EXHF   =         0.00000000
  -V(xc)+E(xc)   XCENC  =       663.43994129
  PAW double counting   =     22384.74513351   -22364.42755967
  entropy T*S    EENTRO =        -0.01252069
  eigenvalues    EBANDS =     -2549.86949266
  atomic energy  EATOM  =      7972.48291802
  Solvation  Ediel_sol  =         0.00000000
  ---------------------------------------------------
  free energy    TOTEN  =      -478.22661946 eV

  energy without entropy =     -478.21409877  energy(sigma->0) =     -478.22035912


--------------------------------------------------------------------------------------------------------




----------------------------------------- Iteration    1(  18)  ---------------------------------------


    POTLOK:  cpu time    1.5012: real time    1.5014
    SETDIJ:  cpu time    1.4246: real time    1.4259
     EDDAV:  cpu time   43.4824: real time   43.4850
       DOS:  cpu time    0.0005: real time    0.0005
    CHARGE:  cpu time    4.7416: real time    4.7418
    MIXING:  cpu time    0.0574: real time    0.0575
    --------------------------------------------
      LOOP:  cpu time   51.2084: real time   51.2166

 eigenvalue-minimisations  :  2992
 total energy-change (2. order) :-0.1533973E+00  (-0.6364949E-03)
 number of electron     219.0000000 magnetization       1.2632981
 augmentation part        4.7320650 magnetization       0.2392607

 Broyden mixing:
  rms(total) = 0.76103E-02    rms(broyden)= 0.76100E-02
  rms(prec ) = 0.85386E-02
  weight for this iteration     100.00

 eigenvalues of (default mixing * dielectric matrix)
  average eigenvalue GAMMA=   2.2359
 11.6419  4.0783  2.3681  2.1966  1.9596  1.3312  1.0641  0.9013  0.9013  0.7142
  0.6601  0.6199  0.6295

 Free energy of the ion-electron system (eV)
  ---------------------------------------------------
  alpha Z        PSCENC =        59.51446491
  Ewald energy   TEWEN  =     57887.83159814
  -Hartree energ DENC   =    -64529.88022461
  -exchange      EXHF   =         0.00000000
  -V(xc)+E(xc)   XCENC  =       663.23369798
  PAW double counting   =     22389.02079309   -22368.70364666
  entropy T*S    EENTRO =        -0.01253234
  eigenvalues    EBANDS =     -2551.86708531
  atomic energy  EATOM  =      7972.48291802
  Solvation  Ediel_sol  =         0.00000000
  ---------------------------------------------------
  free energy    TOTEN  =      -478.38001677 eV

  energy without entropy =     -478.36748443  energy(sigma->0) =     -478.37375060


--------------------------------------------------------------------------------------------------------




----------------------------------------- Iteration    1(  19)  ---------------------------------------


    POTLOK:  cpu time    1.4951: real time    1.4971
    SETDIJ:  cpu time    1.4249: real time    1.4251
     EDDAV:  cpu time   44.1913: real time   44.1935
       DOS:  cpu time    0.0006: real time    0.0006
    CHARGE:  cpu time    4.7862: real time    4.7864
    MIXING:  cpu time    0.0472: real time    0.0472
    --------------------------------------------
      LOOP:  cpu time   51.9459: real time   51.9530

 eigenvalue-minimisations  :  3056
 total energy-change (2. order) :-0.8468477E-01  (-0.3244882E-03)
 number of electron     219.0000000 magnetization       1.1646761
 augmentation part        4.7318498 magnetization       0.1462526

 Broyden mixing:
  rms(total) = 0.50696E-02    rms(broyden)= 0.50695E-02
  rms(prec ) = 0.57522E-02
  weight for this iteration     100.00

 eigenvalues of (default mixing * dielectric matrix)
  average eigenvalue GAMMA=   2.3127
 12.4891  4.9585  2.4460  2.4460  1.9825  1.5261  1.2174  0.9482  0.9482  0.8206
  0.6954  0.6528  0.6199  0.6272

 Free energy of the ion-electron system (eV)
  ---------------------------------------------------
  alpha Z        PSCENC =        59.51446491
  Ewald energy   TEWEN  =     57887.83159814
  -Hartree energ DENC   =    -64527.09253503
  -exchange      EXHF   =         0.00000000
  -V(xc)+E(xc)   XCENC  =       663.12219755
  PAW double counting   =     22389.81138830   -22369.49279268
  entropy T*S    EENTRO =        -0.01253631
  eigenvalues    EBANDS =     -2554.62940444
  atomic energy  EATOM  =      7972.48291802
  Solvation  Ediel_sol  =         0.00000000
  ---------------------------------------------------
  free energy    TOTEN  =      -478.46470154 eV

  energy without entropy =     -478.45216522  energy(sigma->0) =     -478.45843338


--------------------------------------------------------------------------------------------------------




----------------------------------------- Iteration    1(  20)  ---------------------------------------


    POTLOK:  cpu time    1.5027: real time    1.5027
    SETDIJ:  cpu time    1.4250: real time    1.4251
     EDDAV:  cpu time   44.9151: real time   44.9182
       DOS:  cpu time    0.0005: real time    0.0005
    CHARGE:  cpu time    4.7314: real time    4.7317
    MIXING:  cpu time    0.0753: real time    0.0753
    --------------------------------------------
      LOOP:  cpu time   52.6505: real time   52.6562

 eigenvalue-minimisations  :  3124
 total energy-change (2. order) :-0.4179791E-01  (-0.1284627E-03)
 number of electron     219.0000000 magnetization       1.1097784
 augmentation part        4.7318435 magnetization       0.0942050

 Broyden mixing:
  rms(total) = 0.35570E-02    rms(broyden)= 0.35570E-02
  rms(prec ) = 0.39936E-02
  weight for this iteration     100.00

 eigenvalues of (default mixing * dielectric matrix)
  average eigenvalue GAMMA=   2.3362
 13.0869  5.5209  2.6853  2.4454  2.0294  1.7390  1.2889  1.0946  0.9141  0.9141
  0.7508  0.6837  0.6215  0.6215  0.6474

 Free energy of the ion-electron system (eV)
  ---------------------------------------------------
  alpha Z        PSCENC =        59.51446491
  Ewald energy   TEWEN  =     57887.83159814
  -Hartree energ DENC   =    -64524.57947615
  -exchange      EXHF   =         0.00000000
  -V(xc)+E(xc)   XCENC  =       663.07232982
  PAW double counting   =     22388.92370937   -22368.60238363
  entropy T*S    EENTRO =        -0.01253738
  eigenvalues    EBANDS =     -2557.13712255
  atomic energy  EATOM  =      7972.48291802
  Solvation  Ediel_sol  =         0.00000000
  ---------------------------------------------------
  free energy    TOTEN  =      -478.50649945 eV

  energy without entropy =     -478.49396207  energy(sigma->0) =     -478.50023076


--------------------------------------------------------------------------------------------------------




----------------------------------------- Iteration    1(  21)  ---------------------------------------


    POTLOK:  cpu time    1.5576: real time    1.5577
    SETDIJ:  cpu time    1.4284: real time    1.4285
     EDDAV:  cpu time   45.2470: real time   45.2495
       DOS:  cpu time    0.0006: real time    0.0006
    CHARGE:  cpu time    4.8682: real time    4.8684
    MIXING:  cpu time    0.0393: real time    0.0393
    --------------------------------------------
      LOOP:  cpu time   53.1418: real time   53.1479

 eigenvalue-minimisations  :  3152
 total energy-change (2. order) :-0.2094404E-01  (-0.3085431E-04)
 number of electron     219.0000000 magnetization       1.0623317
 augmentation part        4.7319863 magnetization       0.0483095

 Broyden mixing:
  rms(total) = 0.25605E-02    rms(broyden)= 0.25604E-02
  rms(prec ) = 0.28601E-02
  weight for this iteration     100.00

 eigenvalues of (default mixing * dielectric matrix)
  average eigenvalue GAMMA=   2.3859
 13.5789  6.0761  3.2378  2.3191  2.2277  2.0236  1.4315  1.2386  0.9381  0.9381
  0.8787  0.7267  0.6759  0.6421  0.6207  0.6207

 Free energy of the ion-electron system (eV)
  ---------------------------------------------------
  alpha Z        PSCENC =        59.51446491
  Ewald energy   TEWEN  =     57887.83159814
  -Hartree energ DENC   =    -64523.07014281
  -exchange      EXHF   =         0.00000000
  -V(xc)+E(xc)   XCENC  =       663.05114455
  PAW double counting   =     22387.87306740   -22367.55085306
  entropy T*S    EENTRO =        -0.01253770
  eigenvalues    EBANDS =     -2558.64710294
  atomic energy  EATOM  =      7972.48291802
  Solvation  Ediel_sol  =         0.00000000
  ---------------------------------------------------
  free energy    TOTEN  =      -478.52744349 eV

  energy without entropy =     -478.51490580  energy(sigma->0) =     -478.52117464


--------------------------------------------------------------------------------------------------------




----------------------------------------- Iteration    1(  22)  ---------------------------------------


    POTLOK:  cpu time    1.5090: real time    1.5090
    SETDIJ:  cpu time    1.4216: real time    1.4216
     EDDAV:  cpu time   43.7421: real time   43.7445
       DOS:  cpu time    0.0006: real time    0.0006
    CHARGE:  cpu time    4.7387: real time    4.7389
    MIXING:  cpu time    0.0613: real time    0.0613
    --------------------------------------------
      LOOP:  cpu time   51.4738: real time   51.4791

 eigenvalue-minimisations  :  3012
 total energy-change (2. order) :-0.1960170E-01  (-0.2186366E-04)
 number of electron     219.0000000 magnetization       1.0359269
 augmentation part        4.7320975 magnetization       0.0230996

 Broyden mixing:
  rms(total) = 0.16358E-02    rms(broyden)= 0.16357E-02
  rms(prec ) = 0.18119E-02
  weight for this iteration     100.00

 eigenvalues of (default mixing * dielectric matrix)
  average eigenvalue GAMMA=   2.4460
 14.0554  6.9184  3.9208  2.4202  2.4202  2.0182  1.5068  1.3342  1.0507  0.9441
  0.9441  0.7879  0.7123  0.6684  0.6389  0.6178  0.6228

 Free energy of the ion-electron system (eV)
  ---------------------------------------------------
  alpha Z        PSCENC =        59.51446491
  Ewald energy   TEWEN  =     57887.83159814
  -Hartree energ DENC   =    -64521.72949336
  -exchange      EXHF   =         0.00000000
  -V(xc)+E(xc)   XCENC  =       663.03197763
  PAW double counting   =     22387.13285720   -22366.81104621
  entropy T*S    EENTRO =        -0.01253785
  eigenvalues    EBANDS =     -2559.98778368
  atomic energy  EATOM  =      7972.48291802
  Solvation  Ediel_sol  =         0.00000000
  ---------------------------------------------------
  free energy    TOTEN  =      -478.54704519 eV

  energy without entropy =     -478.53450735  energy(sigma->0) =     -478.54077627


--------------------------------------------------------------------------------------------------------




----------------------------------------- Iteration    1(  23)  ---------------------------------------


    POTLOK:  cpu time    1.5153: real time    1.5154
    SETDIJ:  cpu time    1.4337: real time    1.4338
     EDDAV:  cpu time   43.1213: real time   43.1238
       DOS:  cpu time    0.0006: real time    0.0006
    CHARGE:  cpu time    4.7834: real time    4.7837
    MIXING:  cpu time    0.0533: real time    0.0533
    --------------------------------------------
      LOOP:  cpu time   50.9082: real time   50.9137

 eigenvalue-minimisations  :  2956
 total energy-change (2. order) :-0.1259559E-01  (-0.9127705E-05)
 number of electron     219.0000000 magnetization       1.0202872
 augmentation part        4.7321018 magnetization       0.0079550

 Broyden mixing:
  rms(total) = 0.11368E-02    rms(broyden)= 0.11367E-02
  rms(prec ) = 0.12613E-02
  weight for this iteration     100.00

 eigenvalues of (default mixing * dielectric matrix)
  average eigenvalue GAMMA=   2.4648
 14.3957  7.6033  4.2605  2.4926  2.4926  1.9718  1.6603  1.4732  1.2028  0.9609
  0.9609  0.8705  0.7873  0.7010  0.6571  0.6397  0.6183  0.6183

 Free energy of the ion-electron system (eV)
  ---------------------------------------------------
  alpha Z        PSCENC =        59.51446491
  Ewald energy   TEWEN  =     57887.83159814
  -Hartree energ DENC   =    -64520.89073994
  -exchange      EXHF   =         0.00000000
  -V(xc)+E(xc)   XCENC  =       663.01760548
  PAW double counting   =     22387.06694783   -22366.74622774
  entropy T*S    EENTRO =        -0.01253792
  eigenvalues    EBANDS =     -2560.82366957
  atomic energy  EATOM  =      7972.48291802
  Solvation  Ediel_sol  =         0.00000000
  ---------------------------------------------------
  free energy    TOTEN  =      -478.55964078 eV

  energy without entropy =     -478.54710286  energy(sigma->0) =     -478.55337182


--------------------------------------------------------------------------------------------------------




----------------------------------------- Iteration    1(  24)  ---------------------------------------


    POTLOK:  cpu time    1.5100: real time    1.5100
    SETDIJ:  cpu time    1.4209: real time    1.4210
     EDDAV:  cpu time   40.2866: real time   40.2890
       DOS:  cpu time    0.0006: real time    0.0006
    CHARGE:  cpu time    4.7678: real time    4.7681
    MIXING:  cpu time    0.0792: real time    0.0792
    --------------------------------------------
      LOOP:  cpu time   48.0657: real time   48.0724

 eigenvalue-minimisations  :  2704
 total energy-change (2. order) :-0.7576802E-02  (-0.5032070E-05)
 number of electron     219.0000000 magnetization       1.0112411
 augmentation part        4.7321088 magnetization      -0.0010683

 Broyden mixing:
  rms(total) = 0.75987E-03    rms(broyden)= 0.75982E-03
  rms(prec ) = 0.84772E-03
  weight for this iteration     100.00

 eigenvalues of (default mixing * dielectric matrix)
  average eigenvalue GAMMA=   2.4958
 14.6886  8.3234  4.5848  2.7329  2.4438  2.0678  2.0678  1.3836  1.3836  1.0111
  1.0111  0.8822  0.8822  0.7451  0.6910  0.6432  0.6432  0.6172  0.6172

 Free energy of the ion-electron system (eV)
  ---------------------------------------------------
  alpha Z        PSCENC =        59.51446491
  Ewald energy   TEWEN  =     57887.83159814
  -Hartree energ DENC   =    -64520.33202653
  -exchange      EXHF   =         0.00000000
  -V(xc)+E(xc)   XCENC  =       663.00778555
  PAW double counting   =     22387.20730855   -22366.88749958
  entropy T*S    EENTRO =        -0.01253799
  eigenvalues    EBANDS =     -2561.37922865
  atomic energy  EATOM  =      7972.48291802
  Solvation  Ediel_sol  =         0.00000000
  ---------------------------------------------------
  free energy    TOTEN  =      -478.56721758 eV

  energy without entropy =     -478.55467959  energy(sigma->0) =     -478.56094859


--------------------------------------------------------------------------------------------------------




----------------------------------------- Iteration    1(  25)  ---------------------------------------


    POTLOK:  cpu time    1.5204: real time    1.5208
    SETDIJ:  cpu time    1.4306: real time    1.4309
     EDDAV:  cpu time   39.3758: real time   39.3779
       DOS:  cpu time    0.0006: real time    0.0006
    CHARGE:  cpu time    4.8258: real time    4.8262
    MIXING:  cpu time    0.0468: real time    0.0468
    --------------------------------------------
      LOOP:  cpu time   47.2006: real time   47.2057

 eigenvalue-minimisations  :  2624
 total energy-change (2. order) :-0.3436054E-02  (-0.4356245E-05)
 number of electron     219.0000000 magnetization       1.0055501
 augmentation part        4.7321159 magnetization      -0.0069583

 Broyden mixing:
  rms(total) = 0.47034E-03    rms(broyden)= 0.47029E-03
  rms(prec ) = 0.52839E-03
  weight for this iteration     100.00

 eigenvalues of (default mixing * dielectric matrix)
  average eigenvalue GAMMA=   2.5562
 14.9705  9.2071  5.0334  3.3655  2.4042  2.4042  2.0008  1.4967  1.4967  1.1245
  0.9831  0.9831  0.8984  0.8463  0.7221  0.6780  0.6177  0.6177  0.6401  0.6333

 Free energy of the ion-electron system (eV)
  ---------------------------------------------------
  alpha Z        PSCENC =        59.51446491
  Ewald energy   TEWEN  =     57887.83159814
  -Hartree energ DENC   =    -64520.01408364
  -exchange      EXHF   =         0.00000000
  -V(xc)+E(xc)   XCENC  =       663.00292582
  PAW double counting   =     22387.40074003   -22367.08136402
  entropy T*S    EENTRO =        -0.01253807
  eigenvalues    EBANDS =     -2561.69531483
  atomic energy  EATOM  =      7972.48291802
  Solvation  Ediel_sol  =         0.00000000
  ---------------------------------------------------
  free energy    TOTEN  =      -478.57065363 eV

  energy without entropy =     -478.55811557  energy(sigma->0) =     -478.56438460


--------------------------------------------------------------------------------------------------------




----------------------------------------- Iteration    1(  26)  ---------------------------------------


    POTLOK:  cpu time    1.5382: real time    1.5383
    SETDIJ:  cpu time    1.4303: real time    1.4304
     EDDAV:  cpu time   39.1691: real time   39.1710
       DOS:  cpu time    0.0006: real time    0.0006
    CHARGE:  cpu time    4.7374: real time    4.7376
    MIXING:  cpu time    0.0692: real time    0.0716
    --------------------------------------------
      LOOP:  cpu time   46.9455: real time   46.9528

 eigenvalue-minimisations  :  2608
 total energy-change (2. order) :-0.1587116E-02  (-0.3095463E-05)
 number of electron     219.0000000 magnetization       1.0030835
 augmentation part        4.7321269 magnetization      -0.0096130

 Broyden mixing:
  rms(total) = 0.27668E-03    rms(broyden)= 0.27661E-03
  rms(prec ) = 0.31863E-03
  weight for this iteration     100.00

 eigenvalues of (default mixing * dielectric matrix)
  average eigenvalue GAMMA=   2.5604
 15.1464  9.6972  5.4382  3.6680  2.4425  2.4425  1.9689  1.6199  1.5627  1.1938
  1.0458  1.0458  0.9124  0.9124  0.7860  0.7130  0.6715  0.6349  0.6349  0.6160
  0.6160

 Free energy of the ion-electron system (eV)
  ---------------------------------------------------
  alpha Z        PSCENC =        59.51446491
  Ewald energy   TEWEN  =     57887.83159814
  -Hartree energ DENC   =    -64519.87498529
  -exchange      EXHF   =         0.00000000
  -V(xc)+E(xc)   XCENC  =       663.00086145
  PAW double counting   =     22387.53778257   -22367.21851524
  entropy T*S    EENTRO =        -0.01253813
  eigenvalues    EBANDS =     -2561.83382718
  atomic energy  EATOM  =      7972.48291802
  Solvation  Ediel_sol  =         0.00000000
  ---------------------------------------------------
  free energy    TOTEN  =      -478.57224075 eV

  energy without entropy =     -478.55970262  energy(sigma->0) =     -478.56597168


--------------------------------------------------------------------------------------------------------




----------------------------------------- Iteration    1(  27)  ---------------------------------------


    POTLOK:  cpu time    1.5440: real time    1.5441
    SETDIJ:  cpu time    1.3953: real time    1.3957
     EDDAV:  cpu time   38.1657: real time   38.1675
       DOS:  cpu time    0.0006: real time    0.0006
    CHARGE:  cpu time    4.8109: real time    4.8111
    MIXING:  cpu time    0.0636: real time    0.0636
    --------------------------------------------
      LOOP:  cpu time   45.9807: real time   45.9864

 eigenvalue-minimisations  :  2508
 total energy-change (2. order) :-0.5306547E-03  (-0.1474147E-05)
 number of electron     219.0000000 magnetization       1.0018322
 augmentation part        4.7321413 magnetization      -0.0109643

 Broyden mixing:
  rms(total) = 0.18037E-03    rms(broyden)= 0.18030E-03
  rms(prec ) = 0.21258E-03
  weight for this iteration     100.00

 eigenvalues of (default mixing * dielectric matrix)
  average eigenvalue GAMMA=   2.5481
 15.2521  9.9447  5.7605  3.7861  2.4887  2.4887  2.0198  2.0198  1.4168  1.4168
  1.0697  1.0697  0.9324  0.9324  0.8400  0.7596  0.7001  0.6609  0.6443  0.6211
  0.6211  0.6136

 Free energy of the ion-electron system (eV)
  ---------------------------------------------------
  alpha Z        PSCENC =        59.51446491
  Ewald energy   TEWEN  =     57887.83159814
  -Hartree energ DENC   =    -64519.87758364
  -exchange      EXHF   =         0.00000000
  -V(xc)+E(xc)   XCENC  =       663.00091178
  PAW double counting   =     22387.57524862   -22367.25575858
  entropy T*S    EENTRO =        -0.01253817
  eigenvalues    EBANDS =     -2561.83203249
  atomic energy  EATOM  =      7972.48291802
  Solvation  Ediel_sol  =         0.00000000
  ---------------------------------------------------
  free energy    TOTEN  =      -478.57277141 eV

  energy without entropy =     -478.56023324  energy(sigma->0) =     -478.56650232


--------------------------------------------------------------------------------------------------------




----------------------------------------- Iteration    1(  28)  ---------------------------------------


    POTLOK:  cpu time    1.5439: real time    1.5439
    SETDIJ:  cpu time    1.4008: real time    1.4011
     EDDAV:  cpu time   39.0535: real time   39.0555
       DOS:  cpu time    0.0005: real time    0.0005
    CHARGE:  cpu time    4.7944: real time    4.7947
    MIXING:  cpu time    0.0911: real time    0.0911
    --------------------------------------------
      LOOP:  cpu time   46.8848: real time   46.8894

 eigenvalue-minimisations  :  2592
 total energy-change (2. order) :-0.2576233E-03  (-0.9507871E-06)
 number of electron     219.0000000 magnetization       1.0010957
 augmentation part        4.7321487 magnetization      -0.0117928

 Broyden mixing:
  rms(total) = 0.11420E-03    rms(broyden)= 0.11410E-03
  rms(prec ) = 0.13716E-03
  weight for this iteration     100.00

 eigenvalues of (default mixing * dielectric matrix)
  average eigenvalue GAMMA=   2.5449
 15.3242 10.1205  6.1040  3.9475  2.7934  2.4470  2.1607  2.1607  1.5134  1.5134
  1.0777  1.0777  0.9986  0.9569  0.9569  0.8165  0.7330  0.6870  0.6459  0.6459
  0.6195  0.6195  0.6125

 Free energy of the ion-electron system (eV)
  ---------------------------------------------------
  alpha Z        PSCENC =        59.51446491
  Ewald energy   TEWEN  =     57887.83159814
  -Hartree energ DENC   =    -64519.91962969
  -exchange      EXHF   =         0.00000000
  -V(xc)+E(xc)   XCENC  =       663.00139466
  PAW double counting   =     22387.57939875   -22367.25965998
  entropy T*S    EENTRO =        -0.01253819
  eigenvalues    EBANDS =     -2561.79097565
  atomic energy  EATOM  =      7972.48291802
  Solvation  Ediel_sol  =         0.00000000
  ---------------------------------------------------
  free energy    TOTEN  =      -478.57302903 eV

  energy without entropy =     -478.56049084  energy(sigma->0) =     -478.56675993


--------------------------------------------------------------------------------------------------------




----------------------------------------- Iteration    1(  29)  ---------------------------------------


    POTLOK:  cpu time    1.5154: real time    1.5156
    SETDIJ:  cpu time    1.3914: real time    1.3916
     EDDAV:  cpu time   40.6851: real time   40.6873
       DOS:  cpu time    0.0006: real time    0.0006
    CHARGE:  cpu time    4.9148: real time    4.9151
    MIXING:  cpu time    0.0724: real time    0.0724
    --------------------------------------------
      LOOP:  cpu time   48.5803: real time   48.5856

 eigenvalue-minimisations  :  2728
 total energy-change (2. order) :-0.1501878E-03  (-0.5178315E-06)
 number of electron     219.0000000 magnetization       1.0007268
 augmentation part        4.7321510 magnetization      -0.0122302

 Broyden mixing:
  rms(total) = 0.72475E-04    rms(broyden)= 0.72327E-04
  rms(prec ) = 0.89625E-04
  weight for this iteration     100.00

 eigenvalues of (default mixing * dielectric matrix)
  average eigenvalue GAMMA=   2.5332
 15.3773 10.2599  6.4243  4.2101  3.0474  2.4503  2.1842  2.1842  1.6127  1.6127
  1.1351  1.1203  1.1203  0.9475  0.9475  0.8243  0.8243  0.7187  0.6744  0.6366
  0.6314  0.6314  0.6170  0.6042

 Free energy of the ion-electron system (eV)
  ---------------------------------------------------
  alpha Z        PSCENC =        59.51446491
  Ewald energy   TEWEN  =     57887.83159814
  -Hartree energ DENC   =    -64519.95881415
  -exchange      EXHF   =         0.00000000
  -V(xc)+E(xc)   XCENC  =       663.00160919
  PAW double counting   =     22387.58019558   -22367.26031945
  entropy T*S    EENTRO =        -0.01253820
  eigenvalues    EBANDS =     -2561.75229326
  atomic energy  EATOM  =      7972.48291802
  Solvation  Ediel_sol  =         0.00000000
  ---------------------------------------------------
  free energy    TOTEN  =      -478.57317922 eV

  energy without entropy =     -478.56064102  energy(sigma->0) =     -478.56691012


--------------------------------------------------------------------------------------------------------




----------------------------------------- Iteration    1(  30)  ---------------------------------------


    POTLOK:  cpu time    1.3480: real time    1.3481
    SETDIJ:  cpu time    1.3933: real time    1.3933
     EDDAV:  cpu time   36.1274: real time   36.1302
       DOS:  cpu time    0.0006: real time    0.0006
    CHARGE:  cpu time    4.7632: real time    4.7636
    MIXING:  cpu time    0.0829: real time    0.0830
    --------------------------------------------
      LOOP:  cpu time   43.7160: real time   43.7220

 eigenvalue-minimisations  :  2296
 total energy-change (2. order) :-0.6361203E-04  (-0.1854174E-06)
 number of electron     219.0000000 magnetization       1.0005106
 augmentation part        4.7321497 magnetization      -0.0124793

 Broyden mixing:
  rms(total) = 0.48695E-04    rms(broyden)= 0.48488E-04
  rms(prec ) = 0.62062E-04
  weight for this iteration     100.00

 eigenvalues of (default mixing * dielectric matrix)
  average eigenvalue GAMMA=   2.5145
 15.4069 10.3543  6.5934  4.4446  3.1722  2.4956  2.2048  2.2048  1.8062  1.5238
  1.2601  1.2601  1.1764  0.9811  0.9811  0.8756  0.8756  0.7645  0.7076  0.6694
  0.6368  0.6318  0.6194  0.6194  0.5974

 Free energy of the ion-electron system (eV)
  ---------------------------------------------------
  alpha Z        PSCENC =        59.51446491
  Ewald energy   TEWEN  =     57887.83159814
  -Hartree energ DENC   =    -64519.98429080
  -exchange      EXHF   =         0.00000000
  -V(xc)+E(xc)   XCENC  =       663.00161538
  PAW double counting   =     22387.58552848   -22367.26563747
  entropy T*S    EENTRO =        -0.01253820
  eigenvalues    EBANDS =     -2561.72690128
  atomic energy  EATOM  =      7972.48291802
  Solvation  Ediel_sol  =         0.00000000
  ---------------------------------------------------
  free energy    TOTEN  =      -478.57324283 eV

  energy without entropy =     -478.56070463  energy(sigma->0) =     -478.56697373


--------------------------------------------------------------------------------------------------------




----------------------------------------- Iteration    1(  31)  ---------------------------------------


    POTLOK:  cpu time    1.4248: real time    1.4249
    SETDIJ:  cpu time    1.3282: real time    1.3283
     EDDAV:  cpu time   35.0566: real time   35.0585
       DOS:  cpu time    0.0006: real time    0.0006
    CHARGE:  cpu time    4.8757: real time    4.8760
    MIXING:  cpu time    0.0657: real time    0.0657
    --------------------------------------------
      LOOP:  cpu time   42.7522: real time   42.7580

 eigenvalue-minimisations  :  2192
 total energy-change (2. order) :-0.4002321E-04  (-0.6864667E-07)
 number of electron     219.0000000 magnetization       1.0004050
 augmentation part        4.7321476 magnetization      -0.0126110

 Broyden mixing:
  rms(total) = 0.31446E-04    rms(broyden)= 0.31129E-04
  rms(prec ) = 0.40824E-04
  weight for this iteration     100.00

 eigenvalues of (default mixing * dielectric matrix)
  average eigenvalue GAMMA=   2.5065
 15.4196 10.4334  6.7168  4.7391  3.3696  2.6208  2.2611  2.2611  2.0199  1.5059
  1.5059  1.2080  1.2080  0.9996  0.9996  0.9309  0.9309  0.8348  0.7477  0.6964
  0.6631  0.6388  0.6305  0.6181  0.6181  0.5921

 Free energy of the ion-electron system (eV)
  ---------------------------------------------------
  alpha Z        PSCENC =        59.51446491
  Ewald energy   TEWEN  =     57887.83159814
  -Hartree energ DENC   =    -64520.01019556
  -exchange      EXHF   =         0.00000000
  -V(xc)+E(xc)   XCENC  =       663.00164576
  PAW double counting   =     22387.58103690   -22367.26117061
  entropy T*S    EENTRO =        -0.01253819
  eigenvalues    EBANDS =     -2561.70104223
  atomic energy  EATOM  =      7972.48291802
  Solvation  Ediel_sol  =         0.00000000
  ---------------------------------------------------
  free energy    TOTEN  =      -478.57328285 eV

  energy without entropy =     -478.56074466  energy(sigma->0) =     -478.56701376


--------------------------------------------------------------------------------------------------------




----------------------------------------- Iteration    1(  32)  ---------------------------------------


    POTLOK:  cpu time    1.4207: real time    1.4208
    SETDIJ:  cpu time    1.3291: real time    1.3292
     EDDAV:  cpu time   34.3727: real time   34.3766
       DOS:  cpu time    0.0006: real time    0.0006
    CHARGE:  cpu time    4.7216: real time    4.7219
    MIXING:  cpu time    0.0797: real time    0.0797
    --------------------------------------------
      LOOP:  cpu time   41.9250: real time   41.9319

 eigenvalue-minimisations  :  2128
 total energy-change (2. order) :-0.2384541E-04  (-0.2669193E-07)
 number of electron     219.0000000 magnetization       1.0003435
 augmentation part        4.7321455 magnetization      -0.0126900

 Broyden mixing:
  rms(total) = 0.20744E-04    rms(broyden)= 0.20267E-04
  rms(prec ) = 0.26656E-04
  weight for this iteration     100.00

 eigenvalues of (default mixing * dielectric matrix)
  average eigenvalue GAMMA=   2.5007
 15.4237 10.4850  6.8046  5.0634  3.5237  2.8655  2.3562  2.3562  2.0310  1.5611
  1.5611  1.3091  1.3091  1.0823  1.0044  1.0044  0.8993  0.8993  0.7989  0.7359
  0.6907  0.6579  0.6429  0.6268  0.6184  0.6184  0.5903

 Free energy of the ion-electron system (eV)
  ---------------------------------------------------
  alpha Z        PSCENC =        59.51446491
  Ewald energy   TEWEN  =     57887.83159814
  -Hartree energ DENC   =    -64520.03190873
  -exchange      EXHF   =         0.00000000
  -V(xc)+E(xc)   XCENC  =       663.00167144
  PAW double counting   =     22387.56672656   -22367.24688842
  entropy T*S    EENTRO =        -0.01253818
  eigenvalues    EBANDS =     -2561.67935044
  atomic energy  EATOM  =      7972.48291802
  Solvation  Ediel_sol  =         0.00000000
  ---------------------------------------------------
  free energy    TOTEN  =      -478.57330670 eV

  energy without entropy =     -478.56076851  energy(sigma->0) =     -478.56703760


--------------------------------------------------------------------------------------------------------




----------------------------------------- Iteration    1(  33)  ---------------------------------------


    POTLOK:  cpu time    1.3791: real time    1.3791
    SETDIJ:  cpu time    1.2592: real time    1.2595
     EDDAV:  cpu time   34.5240: real time   34.5260
       DOS:  cpu time    0.0006: real time    0.0006
    CHARGE:  cpu time    4.4973: real time    4.4977
    MIXING:  cpu time    0.0725: real time    0.0725
    --------------------------------------------
      LOOP:  cpu time   41.7334: real time   41.7378

 eigenvalue-minimisations  :  2140
 total energy-change (2. order) :-0.1271965E-04  (-0.1044978E-07)
 number of electron     219.0000000 magnetization       1.0002992
 augmentation part        4.7321439 magnetization      -0.0127426

 Broyden mixing:
  rms(total) = 0.12804E-04    rms(broyden)= 0.12018E-04
  rms(prec ) = 0.15956E-04
  weight for this iteration     100.00

 eigenvalues of (default mixing * dielectric matrix)
  average eigenvalue GAMMA=   2.5104
 15.4282 10.5421  7.0059  5.5568  3.8142  3.1394  2.4373  2.4373  1.9246  1.9246
  1.4797  1.4218  1.4218  1.1265  0.9983  0.9983  0.9336  0.9336  0.8348  0.7787
  0.7236  0.6821  0.6559  0.6347  0.6347  0.6163  0.6163  0.5895

 Free energy of the ion-electron system (eV)
  ---------------------------------------------------
  alpha Z        PSCENC =        59.51446491
  Ewald energy   TEWEN  =     57887.83159814
  -Hartree energ DENC   =    -64520.04824669
  -exchange      EXHF   =         0.00000000
  -V(xc)+E(xc)   XCENC  =       663.00167220
  PAW double counting   =     22387.55996098   -22367.24013301
  entropy T*S    EENTRO =        -0.01253818
  eigenvalues    EBANDS =     -2561.66301579
  atomic energy  EATOM  =      7972.48291802
  Solvation  Ediel_sol  =         0.00000000
  ---------------------------------------------------
  free energy    TOTEN  =      -478.57331942 eV

  energy without entropy =     -478.56078124  energy(sigma->0) =     -478.56705033


--------------------------------------------------------------------------------------------------------




----------------------------------------- Iteration    1(  34)  ---------------------------------------


    POTLOK:  cpu time    1.2977: real time    1.2978
    SETDIJ:  cpu time    1.4340: real time    1.4341
     EDDAV:  cpu time   34.2055: real time   34.2081
       DOS:  cpu time    0.0006: real time    0.0006
    CHARGE:  cpu time    4.3793: real time    4.3796
    MIXING:  cpu time    0.0991: real time    0.0991
    --------------------------------------------
      LOOP:  cpu time   41.4168: real time   41.4220

 eigenvalue-minimisations  :  2116
 total energy-change (2. order) :-0.6082082E-05  (-0.4591110E-08)
 number of electron     219.0000000 magnetization       1.0002817
 augmentation part        4.7321431 magnetization      -0.0127651

 Broyden mixing:
  rms(total) = 0.81656E-05    rms(broyden)= 0.68719E-05
  rms(prec ) = 0.92735E-05
  weight for this iteration     100.00
  WARNING: grid for Broyden might be to small

 eigenvalues of (default mixing * dielectric matrix)
  average eigenvalue GAMMA=   2.5022
 15.4302 10.5867  7.2726  5.9306  4.0612  3.1993  2.4622  2.4622  2.0194  2.0194
  1.5149  1.4033  1.4033  1.2172  1.0378  1.0378  0.9614  0.9614  0.8646  0.8474
  0.7530  0.7061  0.6741  0.6436  0.6413  0.6299  0.6168  0.6168  0.5890

 Free energy of the ion-electron system (eV)
  ---------------------------------------------------
  alpha Z        PSCENC =        59.51446491
  Ewald energy   TEWEN  =     57887.83159814
  -Hartree energ DENC   =    -64520.06094924
  -exchange      EXHF   =         0.00000000
  -V(xc)+E(xc)   XCENC  =       663.00169692
  PAW double counting   =     22387.56003493   -22367.24019915
  entropy T*S    EENTRO =        -0.01253817
  eigenvalues    EBANDS =     -2561.65035185
  atomic energy  EATOM  =      7972.48291802
  Solvation  Ediel_sol  =         0.00000000
  ---------------------------------------------------
  free energy    TOTEN  =      -478.57332550 eV

  energy without entropy =     -478.56078733  energy(sigma->0) =     -478.56705641


--------------------------------------------------------------------------------------------------------




----------------------------------------- Iteration    1(  35)  ---------------------------------------


    POTLOK:  cpu time    1.3905: real time    1.3905
    SETDIJ:  cpu time    1.4259: real time    1.4261
     EDDAV:  cpu time   34.2475: real time   34.2500
       DOS:  cpu time    0.0006: real time    0.0006
    CHARGE:  cpu time    4.1030: real time    4.1033
    MIXING:  cpu time    0.0974: real time    0.0974
    --------------------------------------------
      LOOP:  cpu time   41.2654: real time   41.2709

 eigenvalue-minimisations  :  2120
 total energy-change (2. order) :-0.1819448E-05  ( 0.3731221E-09)
 number of electron     219.0000000 magnetization       1.0002679
 augmentation part        4.7321428 magnetization      -0.0127799

 Broyden mixing:
  rms(total) = 0.65329E-05    rms(broyden)= 0.48226E-05
  rms(prec ) = 0.65294E-05
  weight for this iteration     100.00
  WARNING: grid for Broyden might be to small

 eigenvalues of (default mixing * dielectric matrix)
  average eigenvalue GAMMA=   2.4839
 15.4311 10.6075  7.4681  6.1400  4.1975  3.2314  2.4968  2.4968  2.0851  2.0851
  1.4919  1.4919  1.4168  1.4168  1.0481  1.0481  0.9729  0.9729  0.8890  0.8890
  0.8090  0.7418  0.6951  0.6677  0.6397  0.6397  0.6169  0.6169  0.6249  0.5888

 Free energy of the ion-electron system (eV)
  ---------------------------------------------------
  alpha Z        PSCENC =        59.51446491
  Ewald energy   TEWEN  =     57887.83159814
  -Hartree energ DENC   =    -64520.06643844
  -exchange      EXHF   =         0.00000000
  -V(xc)+E(xc)   XCENC  =       663.00171850
  PAW double counting   =     22387.55857840   -22367.23873389
  entropy T*S    EENTRO =        -0.01253817
  eigenvalues    EBANDS =     -2561.64489478
  atomic energy  EATOM  =      7972.48291802
  Solvation  Ediel_sol  =         0.00000000
  ---------------------------------------------------
  free energy    TOTEN  =      -478.57332732 eV

  energy without entropy =     -478.56078915  energy(sigma->0) =     -478.56705823


--------------------------------------------------------------------------------------------------------




----------------------------------------- Iteration    1(  36)  ---------------------------------------


    POTLOK:  cpu time    1.5322: real time    1.5323
    SETDIJ:  cpu time    1.4227: real time    1.4228
     EDDAV:  cpu time   33.2991: real time   33.3016
       DOS:  cpu time    0.0006: real time    0.0006
    CHARGE:  cpu time    4.6649: real time    4.6652
    MIXING:  cpu time    0.1230: real time    0.1231
    --------------------------------------------
      LOOP:  cpu time   41.0432: real time   41.0490

 eigenvalue-minimisations  :  2032
 total energy-change (2. order) :-0.1386847E-05  ( 0.9697318E-09)
 number of electron     219.0000000 magnetization       1.0002607
 augmentation part        4.7321427 magnetization      -0.0127877

 Broyden mixing:
  rms(total) = 0.53506E-05    rms(broyden)= 0.30349E-05
  rms(prec ) = 0.40420E-05
  weight for this iteration     100.00
  WARNING: grid for Broyden might be to small

 eigenvalues of (default mixing * dielectric matrix)
  average eigenvalue GAMMA=   2.4932
 15.4334 10.6293  7.8056  6.3470  4.4003  3.3302  2.7793  2.4909  2.1618  2.1618
  1.7690  1.6415  1.4352  1.4352  1.1165  1.0204  1.0204  0.9975  0.9975  0.8764
  0.8764  0.7759  0.7287  0.6868  0.6605  0.6375  0.6375  0.6172  0.6172  0.6150
  0.5886

 Free energy of the ion-electron system (eV)
  ---------------------------------------------------
  alpha Z        PSCENC =        59.51446491
  Ewald energy   TEWEN  =     57887.83159814
  -Hartree energ DENC   =    -64520.07090177
  -exchange      EXHF   =         0.00000000
  -V(xc)+E(xc)   XCENC  =       663.00173214
  PAW double counting   =     22387.55601931   -22367.23616562
  entropy T*S    EENTRO =        -0.01253817
  eigenvalues    EBANDS =     -2561.64045566
  atomic energy  EATOM  =      7972.48291802
  Solvation  Ediel_sol  =         0.00000000
  ---------------------------------------------------
  free energy    TOTEN  =      -478.57332870 eV

  energy without entropy =     -478.56079053  energy(sigma->0) =     -478.56705962


--------------------------------------------------------------------------------------------------------




----------------------------------------- Iteration    1(  37)  ---------------------------------------


    POTLOK:  cpu time    1.5349: real time    1.5351
    SETDIJ:  cpu time    1.4363: real time    1.4365
     EDDAV:  cpu time   32.7939: real time   32.7980
       DOS:  cpu time    0.0006: real time    0.0006
    --------------------------------------------
      LOOP:  cpu time   35.7662: real time   35.7730

 eigenvalue-minimisations  :  2032
 total energy-change (2. order) :-0.6404425E-06  ( 0.1734845E-08)
 number of electron     219.0000000 magnetization       1.0002607
 augmentation part        4.7321427 magnetization      -0.0127877

 Free energy of the ion-electron system (eV)
  ---------------------------------------------------
  alpha Z        PSCENC =        59.51446491
  Ewald energy   TEWEN  =     57887.83159814
  -Hartree energ DENC   =    -64520.07326076
  -exchange      EXHF   =         0.00000000
  -V(xc)+E(xc)   XCENC  =       663.00173554
  PAW double counting   =     22387.55514805   -22367.23529102
  entropy T*S    EENTRO =        -0.01253817
  eigenvalues    EBANDS =     -2561.63810406
  atomic energy  EATOM  =      7972.48291802
  Solvation  Ediel_sol  =         0.00000000
  ---------------------------------------------------
  free energy    TOTEN  =      -478.57332935 eV

  energy without entropy =     -478.56079118  energy(sigma->0) =     -478.56706026


--------------------------------------------------------------------------------------------------------




 average (electrostatic) potential at core
  the test charge radii are     0.6991  0.7079  0.9892
  (the norm of the test charge is              1.0000)
       1 -57.9904       2 -57.9967       3 -57.9952       4 -57.9952       5 -57.9958
       6 -57.9905       7 -57.9893       8 -57.9831       9 -57.9868      10 -57.9941
      11 -57.9914      12 -57.9951      13 -57.9887      14 -57.9950      15 -57.9942
      16 -57.9946      17 -57.9949      18 -57.9900      19 -57.9935      20 -57.9940
      21 -57.9970      22 -57.9923      23 -57.9930      24 -57.9928      25 -57.9954
      26 -57.9908      27 -57.9948      28 -57.9965      29 -57.9983      30 -57.9988
      31 -57.9987      32 -57.9975      33 -57.9973      34 -57.9961      35 -57.9960
      36 -57.9968      37 -57.9968      38 -57.9959      39 -57.9915      40 -57.9960
      41 -57.9949      42 -57.9993      43 -57.9992      44 -57.9958      45 -57.9954
      46 -57.9914      47 -57.9880      48 -57.9916      49 -57.9883      50 -57.9972
      51 -70.2087      52 -91.5937      53 -91.5980      54 -91.9719      55 -91.6255
 
 
 
 E-fermi :  -2.5597     XC(G=0):  -1.8949     alpha+bet : -1.5570


 spin component 1

 k-point     1 :       0.0000    0.0000    0.0000
  band No.  band energies     occupation 
      1     -51.1134      1.00000
      2     -22.1406      1.00000
      3     -21.2079      1.00000
      4     -21.2057      1.00000
      5     -21.2051      1.00000
      6     -21.1967      1.00000
      7     -21.1957      1.00000
      8     -21.1606      1.00000
      9     -19.3532      1.00000
     10     -19.3525      1.00000
     11     -19.3498      1.00000
     12     -19.3375      1.00000
     13     -19.3364      1.00000
     14     -19.3284      1.00000
     15     -18.4553      1.00000
     16     -18.4421      1.00000
     17     -18.4413      1.00000
     18     -18.4359      1.00000
     19     -18.4349      1.00000
     20     -18.4328      1.00000
     21     -16.2722      1.00000
     22     -16.2664      1.00000
     23     -16.2606      1.00000
     24     -16.2602      1.00000
     25     -16.2436      1.00000
     26     -16.2427      1.00000
     27     -15.2937      1.00000
     28     -15.2931      1.00000
     29     -15.2816      1.00000
     30     -15.2809      1.00000
     31     -15.2801      1.00000
     32     -15.2673      1.00000
     33     -13.9276      1.00000
     34     -13.9262      1.00000
     35     -13.9262      1.00000
     36     -13.9174      1.00000
     37     -13.9170      1.00000
     38     -13.9119      1.00000
     39     -13.1878      1.00000
     40     -11.5368      1.00000
     41     -11.5191      1.00000
     42     -11.5182      1.00000
     43     -11.5179      1.00000
     44     -11.5116      1.00000
     45     -11.5111      1.00000
     46     -11.4423      1.00000
     47     -11.4421      1.00000
     48     -11.4382      1.00000
     49     -11.4378      1.00000
     50     -11.4288      1.00000
     51     -11.4237      1.00000
     52     -10.2299      1.00000
     53     -10.0677      1.00000
     54     -10.0638      1.00000
     55     -10.0634      1.00000
     56     -10.0568      1.00000
     57     -10.0557      1.00000
     58     -10.0510      1.00000
     59     -10.0407      1.00000
     60      -9.1209      1.00000
     61      -9.1147      1.00000
     62      -9.1125      1.00000
     63      -9.1105      1.00000
     64      -9.1032      1.00000
     65      -9.0794      1.00000
     66      -8.7817      1.00000
     67      -8.7805      1.00000
     68      -8.7802      1.00000
     69      -8.7620      1.00000
     70      -8.7617      1.00000
     71      -8.7476      1.00000
     72      -8.7127      1.00000
     73      -8.7123      1.00000
     74      -8.7117      1.00000
     75      -8.7073      1.00000
     76      -8.7057      1.00000
     77      -8.7029      1.00000
     78      -8.5004      1.00000
     79      -7.1153      1.00000
     80      -7.1057      1.00000
     81      -7.0992      1.00000
     82      -7.0977      1.00000
     83      -7.0960      1.00000
     84      -7.0950      1.00000
     85      -6.9753      1.00000
     86      -6.9721      1.00000
     87      -6.9691      1.00000
     88      -6.9623      1.00000
     89      -6.9595      1.00000
     90      -6.9555      1.00000
     91      -6.4277      1.00000
     92      -6.0748      1.00000
     93      -6.0668      1.00000
     94      -6.0643      1.00000
     95      -6.0621      1.00000
     96      -6.0589      1.00000
     97      -6.0558      1.00000
     98      -5.6028      1.00000
     99      -5.6018      1.00000
    100      -5.1344      1.00000
    101      -4.5226      1.00000
    102      -4.3683      1.00000
    103      -4.0786      1.00000
    104      -4.0750      1.00000
    105      -4.0706      1.00000
    106      -4.0696      1.00000
    107      -4.0618      1.00000
    108      -4.0610      1.00000
    109      -3.5300      1.00000
    110      -2.7176      1.00000
    111      -1.7128      0.00000
    112      -1.2993      0.00000
    113      -1.2610      0.00000
    114      -1.2593      0.00000
    115      -1.2567      0.00000
    116      -1.2530      0.00000
    117      -1.2516      0.00000
    118      -1.2112      0.00000
    119      -0.8749      0.00000
    120      -0.2654      0.00000
    121       0.1140      0.00000
    122       0.5918      0.00000
    123       0.6088      0.00000
    124       0.6121      0.00000
    125       0.6158      0.00000
    126       0.6176      0.00000
    127       0.6184      0.00000
    128       0.6349      0.00000
    129       0.6978      0.00000
    130       0.9057      0.00000
    131       0.9513      0.00000
    132       1.2789      0.00000
    133       1.3492      0.00000
    134       1.5136      0.00000
    135       1.6179      0.00000
    136       1.7130      0.00000
    137       1.7463      0.00000
    138       1.8236      0.00000
    139       1.8839      0.00000
    140       1.9144      0.00000

 k-point     2 :       0.3333   -0.0000    0.0000
  band No.  band energies     occupation 
      1     -51.1134      1.00000
      2     -22.0353      1.00000
      3     -21.7194      1.00000
      4     -21.4100      1.00000
      5     -21.3986      1.00000
      6     -20.7845      1.00000
      7     -20.7735      1.00000
      8     -20.4672      1.00000
      9     -20.1648      1.00000
     10     -20.1534      1.00000
     11     -19.5440      1.00000
     12     -19.2433      1.00000
     13     -19.2397      1.00000
     14     -18.9397      1.00000
     15     -18.9361      1.00000
     16     -18.3495      1.00000
     17     -18.3376      1.00000
     18     -17.7658      1.00000
     19     -17.7617      1.00000
     20     -17.2335      1.00000
     21     -17.2007      1.00000
     22     -17.1880      1.00000
     23     -16.9566      1.00000
     24     -16.9524      1.00000
     25     -16.1406      1.00000
     26     -16.1389      1.00000
     27     -15.4385      1.00000
     28     -15.1875      1.00000
     29     -15.1861      1.00000
     30     -14.6612      1.00000
     31     -14.6584      1.00000
     32     -14.6391      1.00000
     33     -14.6348      1.00000
     34     -14.2420      1.00000
     35     -14.2295      1.00000
     36     -13.1878      1.00000
     37     -13.0373      1.00000
     38     -13.0360      1.00000
     39     -12.8108      1.00000
     40     -12.7992      1.00000
     41     -12.5501      1.00000
     42     -12.5480      1.00000
     43     -12.2168      1.00000
     44     -12.0994      1.00000
     45     -12.0982      1.00000
     46     -11.3049      1.00000
     47     -11.3034      1.00000
     48     -10.8781      1.00000
     49     -10.8758      1.00000
     50     -10.5062      1.00000
     51     -10.5013      1.00000
     52     -10.4469      1.00000
     53     -10.2224      1.00000
     54     -10.2188      1.00000
     55     -10.1088      1.00000
     56     -10.0631      1.00000
     57      -9.7250      1.00000
     58      -9.5927      1.00000
     59      -9.5898      1.00000
     60      -9.5529      1.00000
     61      -9.5517      1.00000
     62      -9.3550      1.00000
     63      -9.3507      1.00000
     64      -9.2430      1.00000
     65      -9.2397      1.00000
     66      -8.9763      1.00000
     67      -8.9290      1.00000
     68      -8.9261      1.00000
     69      -8.8818      1.00000
     70      -8.8731      1.00000
     71      -8.6300      1.00000
     72      -8.6199      1.00000
     73      -8.4960      1.00000
     74      -8.3636      1.00000
     75      -8.2542      1.00000
     76      -8.0070      1.00000
     77      -8.0043      1.00000
     78      -7.9003      1.00000
     79      -7.8913      1.00000
     80      -7.7904      1.00000
     81      -7.7670      1.00000
     82      -7.7572      1.00000
     83      -7.2160      1.00000
     84      -7.1574      1.00000
     85      -7.0067      1.00000
     86      -6.9990      1.00000
     87      -6.8634      1.00000
     88      -6.8595      1.00000
     89      -6.5574      1.00000
     90      -6.5529      1.00000
     91      -6.4245      1.00000
     92      -6.3932      1.00000
     93      -6.0273      1.00000
     94      -5.8697      1.00000
     95      -5.8632      1.00000
     96      -5.8263      1.00000
     97      -5.4333      1.00000
     98      -5.4286      1.00000
     99      -5.1346      1.00000
    100      -5.1015      1.00000
    101      -4.7318      1.00000
    102      -4.7296      1.00000
    103      -4.7215      1.00000
    104      -4.7193      1.00000
    105      -4.5183      1.00000
    106      -4.3619      1.00000
    107      -3.6502      1.00000
    108      -3.6494      1.00000
    109      -3.5324      1.00000
    110      -2.7169      1.00000
    111      -1.7122      0.00000
    112      -1.5103      0.00000
    113      -1.5084      0.00000
    114      -1.2601      0.00000
    115      -0.8687      0.00000
    116      -0.7948      0.00000
    117      -0.7925      0.00000
    118      -0.6689      0.00000
    119      -0.5142      0.00000
    120      -0.5116      0.00000
    121      -0.2691      0.00000
    122      -0.1531      0.00000
    123      -0.1502      0.00000
    124       0.1192      0.00000
    125       0.5337      0.00000
    126       0.8419      0.00000
    127       0.8835      0.00000
    128       0.8845      0.00000
    129       0.9912      0.00000
    130       1.0889      0.00000
    131       1.1686      0.00000
    132       1.3059      0.00000
    133       1.3916      0.00000
    134       1.4208      0.00000
    135       1.4233      0.00000
    136       1.4778      0.00000
    137       1.5891      0.00000
    138       1.6388      0.00000
    139       1.6862      0.00000
    140       1.7300      0.00000

 k-point     3 :       0.0000    0.3333    0.0000
  band No.  band energies     occupation 
      1     -51.1134      1.00000
      2     -22.0353      1.00000
      3     -21.7194      1.00000
      4     -21.4104      1.00000
      5     -21.3982      1.00000
      6     -20.7849      1.00000
      7     -20.7730      1.00000
      8     -20.4672      1.00000
      9     -20.1652      1.00000
     10     -20.1530      1.00000
     11     -19.5440      1.00000
     12     -19.2432      1.00000
     13     -19.2399      1.00000
     14     -18.9396      1.00000
     15     -18.9362      1.00000
     16     -18.3499      1.00000
     17     -18.3371      1.00000
     18     -17.7657      1.00000
     19     -17.7619      1.00000
     20     -17.2333      1.00000
     21     -17.2010      1.00000
     22     -17.1874      1.00000
     23     -16.9565      1.00000
     24     -16.9526      1.00000
     25     -16.1405      1.00000
     26     -16.1394      1.00000
     27     -15.4388      1.00000
     28     -15.1874      1.00000
     29     -15.1859      1.00000
     30     -14.6612      1.00000
     31     -14.6583      1.00000
     32     -14.6387      1.00000
     33     -14.6344      1.00000
     34     -14.2426      1.00000
     35     -14.2295      1.00000
     36     -13.1878      1.00000
     37     -13.0371      1.00000
     38     -13.0359      1.00000
     39     -12.8113      1.00000
     40     -12.7992      1.00000
     41     -12.5503      1.00000
     42     -12.5482      1.00000
     43     -12.2170      1.00000
     44     -12.0992      1.00000
     45     -12.0980      1.00000
     46     -11.3046      1.00000
     47     -11.3035      1.00000
     48     -10.8777      1.00000
     49     -10.8757      1.00000
     50     -10.5063      1.00000
     51     -10.5016      1.00000
     52     -10.4470      1.00000
     53     -10.2224      1.00000
     54     -10.2189      1.00000
     55     -10.1085      1.00000
     56     -10.0635      1.00000
     57      -9.7253      1.00000
     58      -9.5924      1.00000
     59      -9.5899      1.00000
     60      -9.5531      1.00000
     61      -9.5522      1.00000
     62      -9.3592      1.00000
     63      -9.3457      1.00000
     64      -9.2429      1.00000
     65      -9.2398      1.00000
     66      -8.9762      1.00000
     67      -8.9290      1.00000
     68      -8.9265      1.00000
     69      -8.8817      1.00000
     70      -8.8729      1.00000
     71      -8.6361      1.00000
     72      -8.6136      1.00000
     73      -8.4972      1.00000
     74      -8.3634      1.00000
     75      -8.2536      1.00000
     76      -8.0061      1.00000
     77      -8.0042      1.00000
     78      -7.9008      1.00000
     79      -7.8906      1.00000
     80      -7.7901      1.00000
     81      -7.7670      1.00000
     82      -7.7572      1.00000
     83      -7.2150      1.00000
     84      -7.1587      1.00000
     85      -7.0073      1.00000
     86      -6.9997      1.00000
     87      -6.8635      1.00000
     88      -6.8595      1.00000
     89      -6.5579      1.00000
     90      -6.5531      1.00000
     91      -6.4238      1.00000
     92      -6.3927      1.00000
     93      -6.0279      1.00000
     94      -5.8715      1.00000
     95      -5.8614      1.00000
     96      -5.8258      1.00000
     97      -5.4322      1.00000
     98      -5.4298      1.00000
     99      -5.1349      1.00000
    100      -5.1010      1.00000
    101      -4.7332      1.00000
    102      -4.7301      1.00000
    103      -4.7238      1.00000
    104      -4.7148      1.00000
    105      -4.5190      1.00000
    106      -4.3610      1.00000
    107      -3.6513      1.00000
    108      -3.6497      1.00000
    109      -3.5314      1.00000
    110      -2.7179      1.00000
    111      -1.7118      0.00000
    112      -1.5107      0.00000
    113      -1.5088      0.00000
    114      -1.2583      0.00000
    115      -0.8681      0.00000
    116      -0.7938      0.00000
    117      -0.7896      0.00000
    118      -0.6732      0.00000
    119      -0.5160      0.00000
    120      -0.5124      0.00000
    121      -0.2631      0.00000
    122      -0.1543      0.00000
    123      -0.1482      0.00000
    124       0.1178      0.00000
    125       0.5596      0.00000
    126       0.7920      0.00000
    127       0.8831      0.00000
    128       0.8843      0.00000
    129       0.9869      0.00000
    130       1.0844      0.00000
    131       1.1740      0.00000
    132       1.3130      0.00000
    133       1.4088      0.00000
    134       1.4229      0.00000
    135       1.4255      0.00000
    136       1.5116      0.00000
    137       1.5867      0.00000
    138       1.5934      0.00000
    139       1.6815      0.00000
    140       1.7692      0.00000

 k-point     4 :       0.3333    0.3333    0.0000
  band No.  band energies     occupation 
      1     -51.1134      1.00000
      2     -21.8347      1.00000
      3     -21.8316      1.00000
      4     -21.8067      1.00000
      5     -20.8877      1.00000
      6     -20.8870      1.00000
      7     -20.8740      1.00000
      8     -19.9667      1.00000
      9     -19.9611      1.00000
     10     -19.9608      1.00000
     11     -19.9481      1.00000
     12     -19.9474      1.00000
     13     -19.9344      1.00000
     14     -18.1609      1.00000
     15     -18.1548      1.00000
     16     -18.1543      1.00000
     17     -18.1391      1.00000
     18     -18.1385      1.00000
     19     -18.1347      1.00000
     20     -17.2850      1.00000
     21     -17.2837      1.00000
     22     -17.2800      1.00000
     23     -16.8059      1.00000
     24     -16.7946      1.00000
     25     -16.7939      1.00000
     26     -15.7804      1.00000
     27     -15.7798      1.00000
     28     -15.7727      1.00000
     29     -15.1816      1.00000
     30     -15.1811      1.00000
     31     -13.7278      1.00000
     32     -13.7206      1.00000
     33     -13.7200      1.00000
     34     -13.7097      1.00000
     35     -13.7087      1.00000
     36     -13.7076      1.00000
     37     -13.5999      1.00000
     38     -13.5794      1.00000
     39     -13.5783      1.00000
     40     -13.1878      1.00000
     41     -13.1712      1.00000
     42     -12.0172      1.00000
     43     -12.0147      1.00000
     44     -11.9890      1.00000
     45     -11.3189      1.00000
     46     -11.3183      1.00000
     47     -11.3174      1.00000
     48     -11.3101      1.00000
     49     -11.3087      1.00000
     50     -11.3076      1.00000
     51     -10.0716      1.00000
     52     -10.0110      1.00000
     53     -10.0100      1.00000
     54     -10.0095      1.00000
     55      -9.9938      1.00000
     56      -9.9933      1.00000
     57      -9.9714      1.00000
     58      -9.8594      1.00000
     59      -9.8560      1.00000
     60      -9.8339      1.00000
     61      -9.3502      1.00000
     62      -9.3499      1.00000
     63      -9.3409      1.00000
     64      -9.1094      1.00000
     65      -9.1054      1.00000
     66      -9.1046      1.00000
     67      -8.7533      1.00000
     68      -8.7399      1.00000
     69      -8.7318      1.00000
     70      -8.4997      1.00000
     71      -8.4337      1.00000
     72      -8.4291      1.00000
     73      -8.4278      1.00000
     74      -8.4197      1.00000
     75      -8.4193      1.00000
     76      -8.4170      1.00000
     77      -7.9705      1.00000
     78      -7.9691      1.00000
     79      -7.9685      1.00000
     80      -7.6769      1.00000
     81      -7.6737      1.00000
     82      -7.6728      1.00000
     83      -7.6631      1.00000
     84      -7.6616      1.00000
     85      -7.6517      1.00000
     86      -6.7577      1.00000
     87      -6.7558      1.00000
     88      -6.7481      1.00000
     89      -6.4276      1.00000
     90      -6.2852      1.00000
     91      -6.2699      1.00000
     92      -6.2667      1.00000
     93      -5.7209      1.00000
     94      -5.7160      1.00000
     95      -5.7151      1.00000
     96      -5.7060      1.00000
     97      -5.7039      1.00000
     98      -5.7019      1.00000
     99      -5.1347      1.00000
    100      -4.8440      1.00000
    101      -4.8374      1.00000
    102      -4.8351      1.00000
    103      -4.7391      1.00000
    104      -4.7380      1.00000
    105      -4.7351      1.00000
    106      -4.5179      1.00000
    107      -4.3603      1.00000
    108      -3.5329      1.00000
    109      -2.7170      1.00000
    110      -2.5598      0.50125
    111      -2.5597      0.49935
    112      -1.7115      0.00000
    113      -1.2616      0.00000
    114      -0.9065      0.00000
    115      -0.9044      0.00000
    116      -0.8969      0.00000
    117      -0.8631      0.00000
    118      -0.3732      0.00000
    119      -0.3661      0.00000
    120      -0.3648      0.00000
    121      -0.2643      0.00000
    122       0.1145      0.00000
    123       0.4459      0.00000
    124       0.4504      0.00000
    125       0.4540      0.00000
    126       0.4550      0.00000
    127       0.4569      0.00000
    128       0.4615      0.00000
    129       0.5555      0.00000
    130       0.8755      0.00000
    131       1.0202      0.00000
    132       1.0941      0.00000
    133       1.1814      0.00000
    134       1.2855      0.00000
    135       1.3426      0.00000
    136       1.3795      0.00000
    137       1.4797      0.00000
    138       1.5700      0.00000
    139       1.6682      0.00000
    140       1.7130      0.00000

 k-point     5 :      -0.3333    0.3333    0.0000
  band No.  band energies     occupation 
      1     -51.1134      1.00000
      2     -22.0353      1.00000
      3     -21.7194      1.00000
      4     -21.4108      1.00000
      5     -21.3979      1.00000
      6     -20.7853      1.00000
      7     -20.7726      1.00000
      8     -20.4673      1.00000
      9     -20.1656      1.00000
     10     -20.1526      1.00000
     11     -19.5441      1.00000
     12     -19.2432      1.00000
     13     -19.2398      1.00000
     14     -18.9396      1.00000
     15     -18.9361      1.00000
     16     -18.3503      1.00000
     17     -18.3368      1.00000
     18     -17.7657      1.00000
     19     -17.7618      1.00000
     20     -17.2334      1.00000
     21     -17.2015      1.00000
     22     -17.1873      1.00000
     23     -16.9565      1.00000
     24     -16.9525      1.00000
     25     -16.1405      1.00000
     26     -16.1391      1.00000
     27     -15.4388      1.00000
     28     -15.1873      1.00000
     29     -15.1858      1.00000
     30     -14.6612      1.00000
     31     -14.6583      1.00000
     32     -14.6389      1.00000
     33     -14.6345      1.00000
     34     -14.2429      1.00000
     35     -14.2292      1.00000
     36     -13.1878      1.00000
     37     -13.0371      1.00000
     38     -13.0359      1.00000
     39     -12.8116      1.00000
     40     -12.7989      1.00000
     41     -12.5503      1.00000
     42     -12.5483      1.00000
     43     -12.2171      1.00000
     44     -12.0992      1.00000
     45     -12.0980      1.00000
     46     -11.3047      1.00000
     47     -11.3030      1.00000
     48     -10.8779      1.00000
     49     -10.8753      1.00000
     50     -10.5062      1.00000
     51     -10.5013      1.00000
     52     -10.4473      1.00000
     53     -10.2225      1.00000
     54     -10.2190      1.00000
     55     -10.1080      1.00000
     56     -10.0637      1.00000
     57      -9.7254      1.00000
     58      -9.5925      1.00000
     59      -9.5896      1.00000
     60      -9.5531      1.00000
     61      -9.5522      1.00000
     62      -9.3590      1.00000
     63      -9.3460      1.00000
     64      -9.2431      1.00000
     65      -9.2399      1.00000
     66      -8.9759      1.00000
     67      -8.9292      1.00000
     68      -8.9265      1.00000
     69      -8.8822      1.00000
     70      -8.8727      1.00000
     71      -8.6356      1.00000
     72      -8.6141      1.00000
     73      -8.4976      1.00000
     74      -8.3631      1.00000
     75      -8.2532      1.00000
     76      -8.0063      1.00000
     77      -8.0039      1.00000
     78      -7.9009      1.00000
     79      -7.8906      1.00000
     80      -7.7899      1.00000
     81      -7.7674      1.00000
     82      -7.7570      1.00000
     83      -7.2155      1.00000
     84      -7.1578      1.00000
     85      -7.0073      1.00000
     86      -6.9996      1.00000
     87      -6.8635      1.00000
     88      -6.8610      1.00000
     89      -6.5594      1.00000
     90      -6.5548      1.00000
     91      -6.4198      1.00000
     92      -6.3926      1.00000
     93      -6.0281      1.00000
     94      -5.8712      1.00000
     95      -5.8623      1.00000
     96      -5.8255      1.00000
     97      -5.4323      1.00000
     98      -5.4293      1.00000
     99      -5.1360      1.00000
    100      -5.1006      1.00000
    101      -4.7333      1.00000
    102      -4.7289      1.00000
    103      -4.7231      1.00000
    104      -4.7167      1.00000
    105      -4.5183      1.00000
    106      -4.3614      1.00000
    107      -3.6519      1.00000
    108      -3.6499      1.00000
    109      -3.5289      1.00000
    110      -2.7166      1.00000
    111      -1.7116      0.00000
    112      -1.5112      0.00000
    113      -1.5091      0.00000
    114      -1.2564      0.00000
    115      -0.8683      0.00000
    116      -0.7947      0.00000
    117      -0.7895      0.00000
    118      -0.6713      0.00000
    119      -0.5156      0.00000
    120      -0.5125      0.00000
    121      -0.2703      0.00000
    122      -0.1516      0.00000
    123      -0.1483      0.00000
    124       0.1074      0.00000
    125       0.6279      0.00000
    126       0.7305      0.00000
    127       0.8824      0.00000
    128       0.8849      0.00000
    129       0.9399      0.00000
    130       1.0647      0.00000
    131       1.1286      0.00000
    132       1.3536      0.00000
    133       1.4207      0.00000
    134       1.4235      0.00000
    135       1.4309      0.00000
    136       1.5293      0.00000
    137       1.5819      0.00000
    138       1.6401      0.00000
    139       1.6790      0.00000
    140       1.7443      0.00000

 spin component 2

 k-point     1 :       0.0000    0.0000    0.0000
  band No.  band energies     occupation 
      1     -51.1060      1.00000
      2     -22.1406      1.00000
      3     -21.2079      1.00000
      4     -21.2056      1.00000
      5     -21.2050      1.00000
      6     -21.1967      1.00000
      7     -21.1957      1.00000
      8     -21.1605      1.00000
      9     -19.3532      1.00000
     10     -19.3524      1.00000
     11     -19.3498      1.00000
     12     -19.3375      1.00000
     13     -19.3363      1.00000
     14     -19.3283      1.00000
     15     -18.4553      1.00000
     16     -18.4421      1.00000
     17     -18.4413      1.00000
     18     -18.4359      1.00000
     19     -18.4349      1.00000
     20     -18.4328      1.00000
     21     -16.2721      1.00000
     22     -16.2663      1.00000
     23     -16.2605      1.00000
     24     -16.2601      1.00000
     25     -16.2435      1.00000
     26     -16.2427      1.00000
     27     -15.2937      1.00000
     28     -15.2931      1.00000
     29     -15.2816      1.00000
     30     -15.2809      1.00000
     31     -15.2801      1.00000
     32     -15.2673      1.00000
     33     -13.9276      1.00000
     34     -13.9262      1.00000
     35     -13.9261      1.00000
     36     -13.9173      1.00000
     37     -13.9170      1.00000
     38     -13.9118      1.00000
     39     -13.0738      1.00000
     40     -11.5367      1.00000
     41     -11.5191      1.00000
     42     -11.5182      1.00000
     43     -11.5179      1.00000
     44     -11.5116      1.00000
     45     -11.5110      1.00000
     46     -11.4423      1.00000
     47     -11.4421      1.00000
     48     -11.4382      1.00000
     49     -11.4378      1.00000
     50     -11.4287      1.00000
     51     -11.4237      1.00000
     52     -10.2288      1.00000
     53     -10.0638      1.00000
     54     -10.0633      1.00000
     55     -10.0568      1.00000
     56     -10.0557      1.00000
     57     -10.0510      1.00000
     58     -10.0407      1.00000
     59      -9.7367      1.00000
     60      -9.1208      1.00000
     61      -9.1147      1.00000
     62      -9.1124      1.00000
     63      -9.1104      1.00000
     64      -9.1030      1.00000
     65      -9.0786      1.00000
     66      -8.7817      1.00000
     67      -8.7805      1.00000
     68      -8.7802      1.00000
     69      -8.7620      1.00000
     70      -8.7616      1.00000
     71      -8.7476      1.00000
     72      -8.7127      1.00000
     73      -8.7123      1.00000
     74      -8.7116      1.00000
     75      -8.7073      1.00000
     76      -8.7057      1.00000
     77      -8.7029      1.00000
     78      -8.4887      1.00000
     79      -7.1153      1.00000
     80      -7.1057      1.00000
     81      -7.0991      1.00000
     82      -7.0977      1.00000
     83      -7.0960      1.00000
     84      -7.0950      1.00000
     85      -6.9748      1.00000
     86      -6.9720      1.00000
     87      -6.9690      1.00000
     88      -6.9618      1.00000
     89      -6.9593      1.00000
     90      -6.9554      1.00000
     91      -6.1610      1.00000
     92      -6.0744      1.00000
     93      -6.0667      1.00000
     94      -6.0635      1.00000
     95      -6.0618      1.00000
     96      -6.0583      1.00000
     97      -6.0487      1.00000
     98      -5.6027      1.00000
     99      -5.6018      1.00000
    100      -4.8616      1.00000
    101      -4.4141      1.00000
    102      -4.3450      1.00000
    103      -4.0785      1.00000
    104      -4.0748      1.00000
    105      -4.0704      1.00000
    106      -4.0694      1.00000
    107      -4.0615      1.00000
    108      -4.0606      1.00000
    109      -3.3939      1.00000
    110      -1.9040      0.00000
    111      -1.6747      0.00000
    112      -1.2702      0.00000
    113      -1.2608      0.00000
    114      -1.2592      0.00000
    115      -1.2562      0.00000
    116      -1.2526      0.00000
    117      -1.2505      0.00000
    118      -1.1207      0.00000
    119      -0.7694      0.00000
    120       0.1022      0.00000
    121       0.3058      0.00000
    122       0.6068      0.00000
    123       0.6093      0.00000
    124       0.6158      0.00000
    125       0.6177      0.00000
    126       0.6185      0.00000
    127       0.6187      0.00000
    128       0.6599      0.00000
    129       0.8364      0.00000
    130       0.9535      0.00000
    131       0.9846      0.00000
    132       1.3542      0.00000
    133       1.4008      0.00000
    134       1.5655      0.00000
    135       1.6737      0.00000
    136       1.7684      0.00000
    137       1.8078      0.00000
    138       1.8799      0.00000
    139       1.9128      0.00000
    140       1.9702      0.00000

 k-point     2 :       0.3333   -0.0000    0.0000
  band No.  band energies     occupation 
      1     -51.1060      1.00000
      2     -22.0353      1.00000
      3     -21.7194      1.00000
      4     -21.4099      1.00000
      5     -21.3986      1.00000
      6     -20.7845      1.00000
      7     -20.7734      1.00000
      8     -20.4672      1.00000
      9     -20.1647      1.00000
     10     -20.1534      1.00000
     11     -19.5440      1.00000
     12     -19.2432      1.00000
     13     -19.2397      1.00000
     14     -18.9397      1.00000
     15     -18.9361      1.00000
     16     -18.3495      1.00000
     17     -18.3376      1.00000
     18     -17.7657      1.00000
     19     -17.7616      1.00000
     20     -17.2335      1.00000
     21     -17.2006      1.00000
     22     -17.1880      1.00000
     23     -16.9566      1.00000
     24     -16.9523      1.00000
     25     -16.1405      1.00000
     26     -16.1389      1.00000
     27     -15.4385      1.00000
     28     -15.1874      1.00000
     29     -15.1860      1.00000
     30     -14.6612      1.00000
     31     -14.6584      1.00000
     32     -14.6391      1.00000
     33     -14.6348      1.00000
     34     -14.2420      1.00000
     35     -14.2295      1.00000
     36     -13.0738      1.00000
     37     -13.0372      1.00000
     38     -13.0360      1.00000
     39     -12.8108      1.00000
     40     -12.7991      1.00000
     41     -12.5501      1.00000
     42     -12.5480      1.00000
     43     -12.2168      1.00000
     44     -12.0994      1.00000
     45     -12.0982      1.00000
     46     -11.3049      1.00000
     47     -11.3034      1.00000
     48     -10.8781      1.00000
     49     -10.8758      1.00000
     50     -10.5062      1.00000
     51     -10.5013      1.00000
     52     -10.4468      1.00000
     53     -10.2224      1.00000
     54     -10.2188      1.00000
     55     -10.1029      1.00000
     56      -9.7493      1.00000
     57      -9.7124      1.00000
     58      -9.5927      1.00000
     59      -9.5897      1.00000
     60      -9.5529      1.00000
     61      -9.5517      1.00000
     62      -9.3547      1.00000
     63      -9.3504      1.00000
     64      -9.2430      1.00000
     65      -9.2396      1.00000
     66      -8.9763      1.00000
     67      -8.9290      1.00000
     68      -8.9261      1.00000
     69      -8.8818      1.00000
     70      -8.8731      1.00000
     71      -8.6287      1.00000
     72      -8.6198      1.00000
     73      -8.4857      1.00000
     74      -8.3636      1.00000
     75      -8.2538      1.00000
     76      -8.0070      1.00000
     77      -8.0042      1.00000
     78      -7.9002      1.00000
     79      -7.8912      1.00000
     80      -7.7904      1.00000
     81      -7.7670      1.00000
     82      -7.7572      1.00000
     83      -7.2158      1.00000
     84      -7.1574      1.00000
     85      -7.0067      1.00000
     86      -6.9990      1.00000
     87      -6.8632      1.00000
     88      -6.8593      1.00000
     89      -6.5564      1.00000
     90      -6.5522      1.00000
     91      -6.3932      1.00000
     92      -6.1510      1.00000
     93      -6.0273      1.00000
     94      -5.8695      1.00000
     95      -5.8623      1.00000
     96      -5.8263      1.00000
     97      -5.4331      1.00000
     98      -5.4283      1.00000
     99      -5.1014      1.00000
    100      -4.8621      1.00000
    101      -4.7317      1.00000
    102      -4.7295      1.00000
    103      -4.7204      1.00000
    104      -4.7188      1.00000
    105      -4.4098      1.00000
    106      -4.3393      1.00000
    107      -3.6499      1.00000
    108      -3.6492      1.00000
    109      -3.3967      1.00000
    110      -1.9031      0.00000
    111      -1.6738      0.00000
    112      -1.5102      0.00000
    113      -1.5082      0.00000
    114      -1.1413      0.00000
    115      -0.7941      0.00000
    116      -0.7924      0.00000
    117      -0.7621      0.00000
    118      -0.6675      0.00000
    119      -0.5139      0.00000
    120      -0.5108      0.00000
    121      -0.1565      0.00000
    122      -0.1526      0.00000
    123       0.1172      0.00000
    124       0.2932      0.00000
    125       0.6455      0.00000
    126       0.8823      0.00000
    127       0.8844      0.00000
    128       0.8914      0.00000
    129       1.0446      0.00000
    130       1.1407      0.00000
    131       1.2202      0.00000
    132       1.3640      0.00000
    133       1.4187      0.00000
    134       1.4221      0.00000
    135       1.4266      0.00000
    136       1.5252      0.00000
    137       1.6236      0.00000
    138       1.6932      0.00000
    139       1.7272      0.00000
    140       1.7852      0.00000

 k-point     3 :       0.0000    0.3333    0.0000
  band No.  band energies     occupation 
      1     -51.1060      1.00000
      2     -22.0353      1.00000
      3     -21.7194      1.00000
      4     -21.4104      1.00000
      5     -21.3982      1.00000
      6     -20.7849      1.00000
      7     -20.7730      1.00000
      8     -20.4672      1.00000
      9     -20.1652      1.00000
     10     -20.1529      1.00000
     11     -19.5440      1.00000
     12     -19.2432      1.00000
     13     -19.2398      1.00000
     14     -18.9396      1.00000
     15     -18.9362      1.00000
     16     -18.3499      1.00000
     17     -18.3371      1.00000
     18     -17.7656      1.00000
     19     -17.7618      1.00000
     20     -17.2333      1.00000
     21     -17.2009      1.00000
     22     -17.1874      1.00000
     23     -16.9565      1.00000
     24     -16.9526      1.00000
     25     -16.1405      1.00000
     26     -16.1394      1.00000
     27     -15.4388      1.00000
     28     -15.1873      1.00000
     29     -15.1859      1.00000
     30     -14.6612      1.00000
     31     -14.6583      1.00000
     32     -14.6387      1.00000
     33     -14.6344      1.00000
     34     -14.2425      1.00000
     35     -14.2295      1.00000
     36     -13.0738      1.00000
     37     -13.0371      1.00000
     38     -13.0358      1.00000
     39     -12.8112      1.00000
     40     -12.7991      1.00000
     41     -12.5503      1.00000
     42     -12.5482      1.00000
     43     -12.2169      1.00000
     44     -12.0991      1.00000
     45     -12.0979      1.00000
     46     -11.3046      1.00000
     47     -11.3035      1.00000
     48     -10.8776      1.00000
     49     -10.8757      1.00000
     50     -10.5062      1.00000
     51     -10.5015      1.00000
     52     -10.4470      1.00000
     53     -10.2223      1.00000
     54     -10.2189      1.00000
     55     -10.1030      1.00000
     56      -9.7478      1.00000
     57      -9.7145      1.00000
     58      -9.5924      1.00000
     59      -9.5898      1.00000
     60      -9.5531      1.00000
     61      -9.5522      1.00000
     62      -9.3591      1.00000
     63      -9.3451      1.00000
     64      -9.2429      1.00000
     65      -9.2398      1.00000
     66      -8.9762      1.00000
     67      -8.9290      1.00000
     68      -8.9265      1.00000
     69      -8.8817      1.00000
     70      -8.8729      1.00000
     71      -8.6350      1.00000
     72      -8.6134      1.00000
     73      -8.4869      1.00000
     74      -8.3634      1.00000
     75      -8.2533      1.00000
     76      -8.0061      1.00000
     77      -8.0041      1.00000
     78      -7.9007      1.00000
     79      -7.8905      1.00000
     80      -7.7901      1.00000
     81      -7.7670      1.00000
     82      -7.7572      1.00000
     83      -7.2148      1.00000
     84      -7.1587      1.00000
     85      -7.0073      1.00000
     86      -6.9997      1.00000
     87      -6.8632      1.00000
     88      -6.8593      1.00000
     89      -6.5563      1.00000
     90      -6.5526      1.00000
     91      -6.3927      1.00000
     92      -6.1506      1.00000
     93      -6.0279      1.00000
     94      -5.8712      1.00000
     95      -5.8607      1.00000
     96      -5.8258      1.00000
     97      -5.4320      1.00000
     98      -5.4296      1.00000
     99      -5.1013      1.00000
    100      -4.8625      1.00000
    101      -4.7325      1.00000
    102      -4.7299      1.00000
    103      -4.7228      1.00000
    104      -4.7144      1.00000
    105      -4.4102      1.00000
    106      -4.3385      1.00000
    107      -3.6506      1.00000
    108      -3.6496      1.00000
    109      -3.3960      1.00000
    110      -1.9046      0.00000
    111      -1.6737      0.00000
    112      -1.5100      0.00000
    113      -1.5085      0.00000
    114      -1.1399      0.00000
    115      -0.7935      0.00000
    116      -0.7890      0.00000
    117      -0.7618      0.00000
    118      -0.6722      0.00000
    119      -0.5156      0.00000
    120      -0.5120      0.00000
    121      -0.1551      0.00000
    122      -0.1515      0.00000
    123       0.1202      0.00000
    124       0.2911      0.00000
    125       0.6810      0.00000
    126       0.8511      0.00000
    127       0.8838      0.00000
    128       0.8850      0.00000
    129       1.0378      0.00000
    130       1.1216      0.00000
    131       1.2431      0.00000
    132       1.3735      0.00000
    133       1.4193      0.00000
    134       1.4251      0.00000
    135       1.4443      0.00000
    136       1.5619      0.00000
    137       1.6225      0.00000
    138       1.6450      0.00000
    139       1.7090      0.00000
    140       1.8218      0.00000

 k-point     4 :       0.3333    0.3333    0.0000
  band No.  band energies     occupation 
      1     -51.1060      1.00000
      2     -21.8347      1.00000
      3     -21.8316      1.00000
      4     -21.8067      1.00000
      5     -20.8877      1.00000
      6     -20.8869      1.00000
      7     -20.8739      1.00000
      8     -19.9667      1.00000
      9     -19.9611      1.00000
     10     -19.9608      1.00000
     11     -19.9481      1.00000
     12     -19.9474      1.00000
     13     -19.9344      1.00000
     14     -18.1609      1.00000
     15     -18.1548      1.00000
     16     -18.1542      1.00000
     17     -18.1390      1.00000
     18     -18.1385      1.00000
     19     -18.1346      1.00000
     20     -17.2850      1.00000
     21     -17.2837      1.00000
     22     -17.2799      1.00000
     23     -16.8058      1.00000
     24     -16.7946      1.00000
     25     -16.7938      1.00000
     26     -15.7804      1.00000
     27     -15.7798      1.00000
     28     -15.7727      1.00000
     29     -15.1816      1.00000
     30     -15.1811      1.00000
     31     -13.7277      1.00000
     32     -13.7205      1.00000
     33     -13.7200      1.00000
     34     -13.7097      1.00000
     35     -13.7087      1.00000
     36     -13.7076      1.00000
     37     -13.5999      1.00000
     38     -13.5794      1.00000
     39     -13.5782      1.00000
     40     -13.1712      1.00000
     41     -13.0738      1.00000
     42     -12.0172      1.00000
     43     -12.0146      1.00000
     44     -11.9890      1.00000
     45     -11.3189      1.00000
     46     -11.3182      1.00000
     47     -11.3173      1.00000
     48     -11.3101      1.00000
     49     -11.3087      1.00000
     50     -11.3075      1.00000
     51     -10.0110      1.00000
     52     -10.0100      1.00000
     53     -10.0095      1.00000
     54      -9.9938      1.00000
     55      -9.9933      1.00000
     56      -9.9714      1.00000
     57      -9.8599      1.00000
     58      -9.8562      1.00000
     59      -9.8438      1.00000
     60      -9.7285      1.00000
     61      -9.3501      1.00000
     62      -9.3499      1.00000
     63      -9.3409      1.00000
     64      -9.1094      1.00000
     65      -9.1054      1.00000
     66      -9.1046      1.00000
     67      -8.7528      1.00000
     68      -8.7398      1.00000
     69      -8.7315      1.00000
     70      -8.4885      1.00000
     71      -8.4337      1.00000
     72      -8.4291      1.00000
     73      -8.4278      1.00000
     74      -8.4197      1.00000
     75      -8.4193      1.00000
     76      -8.4170      1.00000
     77      -7.9705      1.00000
     78      -7.9690      1.00000
     79      -7.9685      1.00000
     80      -7.6769      1.00000
     81      -7.6737      1.00000
     82      -7.6727      1.00000
     83      -7.6628      1.00000
     84      -7.6614      1.00000
     85      -7.6515      1.00000
     86      -6.7576      1.00000
     87      -6.7558      1.00000
     88      -6.7481      1.00000
     89      -6.2852      1.00000
     90      -6.2698      1.00000
     91      -6.2667      1.00000
     92      -6.1522      1.00000
     93      -5.7208      1.00000
     94      -5.7159      1.00000
     95      -5.7150      1.00000
     96      -5.7058      1.00000
     97      -5.7035      1.00000
     98      -5.7012      1.00000
     99      -4.8647      1.00000
    100      -4.8430      1.00000
    101      -4.8363      1.00000
    102      -4.8348      1.00000
    103      -4.7382      1.00000
    104      -4.7376      1.00000
    105      -4.7343      1.00000
    106      -4.4090      1.00000
    107      -4.3381      1.00000
    108      -3.3969      1.00000
    109      -2.5598      0.50135
    110      -2.5595      0.49807
    111      -1.9031      0.00000
    112      -1.6732      0.00000
    113      -1.1443      0.00000
    114      -0.9057      0.00000
    115      -0.9034      0.00000
    116      -0.8937      0.00000
    117      -0.7580      0.00000
    118      -0.3731      0.00000
    119      -0.3657      0.00000
    120      -0.3646      0.00000
    121       0.1234      0.00000
    122       0.2761      0.00000
    123       0.4479      0.00000
    124       0.4507      0.00000
    125       0.4546      0.00000
    126       0.4554      0.00000
    127       0.4572      0.00000
    128       0.4621      0.00000
    129       0.6860      0.00000
    130       0.9263      0.00000
    131       1.0653      0.00000
    132       1.1335      0.00000
    133       1.2194      0.00000
    134       1.3413      0.00000
    135       1.3853      0.00000
    136       1.4087      0.00000
    137       1.5167      0.00000
    138       1.6306      0.00000
    139       1.7101      0.00000
    140       1.7861      0.00000

 k-point     5 :      -0.3333    0.3333    0.0000
  band No.  band energies     occupation 
      1     -51.1060      1.00000
      2     -22.0353      1.00000
      3     -21.7193      1.00000
      4     -21.4107      1.00000
      5     -21.3978      1.00000
      6     -20.7853      1.00000
      7     -20.7726      1.00000
      8     -20.4673      1.00000
      9     -20.1656      1.00000
     10     -20.1525      1.00000
     11     -19.5441      1.00000
     12     -19.2431      1.00000
     13     -19.2398      1.00000
     14     -18.9396      1.00000
     15     -18.9361      1.00000
     16     -18.3503      1.00000
     17     -18.3368      1.00000
     18     -17.7656      1.00000
     19     -17.7617      1.00000
     20     -17.2333      1.00000
     21     -17.2015      1.00000
     22     -17.1872      1.00000
     23     -16.9565      1.00000
     24     -16.9525      1.00000
     25     -16.1404      1.00000
     26     -16.1391      1.00000
     27     -15.4388      1.00000
     28     -15.1873      1.00000
     29     -15.1858      1.00000
     30     -14.6612      1.00000
     31     -14.6582      1.00000
     32     -14.6389      1.00000
     33     -14.6344      1.00000
     34     -14.2429      1.00000
     35     -14.2292      1.00000
     36     -13.0738      1.00000
     37     -13.0371      1.00000
     38     -13.0358      1.00000
     39     -12.8116      1.00000
     40     -12.7989      1.00000
     41     -12.5502      1.00000
     42     -12.5482      1.00000
     43     -12.2171      1.00000
     44     -12.0992      1.00000
     45     -12.0980      1.00000
     46     -11.3047      1.00000
     47     -11.3030      1.00000
     48     -10.8778      1.00000
     49     -10.8753      1.00000
     50     -10.5062      1.00000
     51     -10.5013      1.00000
     52     -10.4473      1.00000
     53     -10.2225      1.00000
     54     -10.2190      1.00000
     55     -10.1028      1.00000
     56      -9.7467      1.00000
     57      -9.7158      1.00000
     58      -9.5925      1.00000
     59      -9.5896      1.00000
     60      -9.5530      1.00000
     61      -9.5522      1.00000
     62      -9.3590      1.00000
     63      -9.3451      1.00000
     64      -9.2431      1.00000
     65      -9.2399      1.00000
     66      -8.9759      1.00000
     67      -8.9291      1.00000
     68      -8.9265      1.00000
     69      -8.8822      1.00000
     70      -8.8727      1.00000
     71      -8.6346      1.00000
     72      -8.6137      1.00000
     73      -8.4873      1.00000
     74      -8.3631      1.00000
     75      -8.2529      1.00000
     76      -8.0063      1.00000
     77      -8.0039      1.00000
     78      -7.9008      1.00000
     79      -7.8904      1.00000
     80      -7.7898      1.00000
     81      -7.7674      1.00000
     82      -7.7569      1.00000
     83      -7.2154      1.00000
     84      -7.1578      1.00000
     85      -7.0073      1.00000
     86      -6.9995      1.00000
     87      -6.8631      1.00000
     88      -6.8605      1.00000
     89      -6.5562      1.00000
     90      -6.5538      1.00000
     91      -6.3925      1.00000
     92      -6.1487      1.00000
     93      -6.0281      1.00000
     94      -5.8709      1.00000
     95      -5.8621      1.00000
     96      -5.8255      1.00000
     97      -5.4322      1.00000
     98      -5.4291      1.00000
     99      -5.1017      1.00000
    100      -4.8629      1.00000
    101      -4.7328      1.00000
    102      -4.7287      1.00000
    103      -4.7221      1.00000
    104      -4.7157      1.00000
    105      -4.4093      1.00000
    106      -4.3393      1.00000
    107      -3.6509      1.00000
    108      -3.6497      1.00000
    109      -3.3937      1.00000
    110      -1.9023      0.00000
    111      -1.6734      0.00000
    112      -1.5106      0.00000
    113      -1.5088      0.00000
    114      -1.1379      0.00000
    115      -0.7941      0.00000
    116      -0.7893      0.00000
    117      -0.7608      0.00000
    118      -0.6710      0.00000
    119      -0.5150      0.00000
    120      -0.5123      0.00000
    121      -0.1566      0.00000
    122      -0.1511      0.00000
    123       0.1168      0.00000
    124       0.2817      0.00000
    125       0.7222      0.00000
    126       0.8228      0.00000
    127       0.8827      0.00000
    128       0.8851      0.00000
    129       0.9891      0.00000
    130       1.1018      0.00000
    131       1.1781      0.00000
    132       1.3941      0.00000
    133       1.4214      0.00000
    134       1.4244      0.00000
    135       1.4581      0.00000
    136       1.5812      0.00000
    137       1.6242      0.00000
    138       1.6871      0.00000
    139       1.7235      0.00000
    140       1.8117      0.00000


--------------------------------------------------------------------------------------------------------


 soft charge-density along one line, spin component           1
         0         1         2         3         4         5         6         7         8         9
 total charge-density along one line
 
 soft charge-density along one line, spin component           2
         0         1         2         3         4         5         6         7         8         9
 total charge-density along one line
 
 pseudopotential strength for first ion, spin component:           1
 10.208  13.575   0.000  -0.000   0.000  -0.000   0.000  -0.000
 13.575  18.051   0.000  -0.000   0.000  -0.000   0.000  -0.000
  0.000   0.000  -4.341  -0.000   0.000   8.490   0.000  -0.000
 -0.000  -0.000  -0.000  -4.320   0.000   0.000   8.456  -0.000
  0.000   0.000   0.000   0.000  -4.341  -0.000  -0.000   8.490
 -0.000  -0.000   8.490   0.000  -0.000 -18.739  -0.000   0.000
  0.000   0.000   0.000   8.456  -0.000  -0.000 -18.686   0.000
 -0.000  -0.000  -0.000  -0.000   8.490   0.000   0.000 -18.739
 pseudopotential strength for first ion, spin component:           2
 10.208  13.575   0.000  -0.000   0.000  -0.000   0.000  -0.000
 13.575  18.051   0.000  -0.000   0.000  -0.000   0.000  -0.000
  0.000   0.000  -4.341  -0.000   0.000   8.490   0.000  -0.000
 -0.000  -0.000  -0.000  -4.320   0.000   0.000   8.456  -0.000
  0.000   0.000   0.000   0.000  -4.341  -0.000  -0.000   8.490
 -0.000  -0.000   8.490   0.000  -0.000 -18.739  -0.000   0.000
  0.000   0.000   0.000   8.456  -0.000  -0.000 -18.686   0.000
 -0.000  -0.000  -0.000  -0.000   8.490   0.000   0.000 -18.739
 total augmentation occupancy for first ion, spin component:           1
  8.127  -3.606  -0.001   0.000  -0.001  -0.000   0.000  -0.000
 -3.606   1.658   0.000   0.000   0.001   0.000   0.000   0.000
 -0.001   0.000   1.826   0.003  -0.000   0.168   0.000  -0.000
  0.000   0.000   0.003   1.194  -0.000   0.000   0.071  -0.000
 -0.001   0.001  -0.000  -0.000   1.825  -0.000  -0.000   0.168
 -0.000   0.000   0.168   0.000  -0.000   0.017   0.000  -0.000
  0.000   0.000   0.000   0.071  -0.000   0.000   0.005  -0.000
 -0.000   0.000  -0.000  -0.000   0.168  -0.000  -0.000   0.017
 total augmentation occupancy for first ion, spin component:           2
  0.000  -0.000  -0.000   0.000   0.000  -0.000  -0.000   0.000
 -0.000   0.000   0.000   0.000  -0.000   0.000   0.000  -0.000
 -0.000   0.000  -0.000  -0.000  -0.000   0.000   0.000   0.000
  0.000   0.000  -0.000  -0.000  -0.000   0.000  -0.000  -0.000
  0.000  -0.000  -0.000  -0.000  -0.000   0.000  -0.000   0.000
 -0.000   0.000   0.000   0.000   0.000   0.000   0.000   0.000
 -0.000   0.000   0.000  -0.000  -0.000   0.000   0.000  -0.000
  0.000  -0.000   0.000  -0.000   0.000   0.000  -0.000   0.000


------------------------ aborting loop because EDIFF is reached ----------------------------------------


    CHARGE:  cpu time    4.8533: real time    4.8550
    FORLOC:  cpu time    0.2013: real time    0.2013
    FORNL :  cpu time   18.2081: real time   18.2089
    STRESS:  cpu time   41.2575: real time   41.2593
    FORCOR:  cpu time    1.0933: real time    1.0933
    FORHAR:  cpu time    0.2433: real time    0.2433
    MIXING:  cpu time    0.0584: real time    0.0584
    OFIELD:  cpu time    0.0000: real time    0.0000

  FORCE on cell =-STRESS in cart. coord.  units (eV):
  Direction    XX          YY          ZZ          XY          YZ          ZX
  --------------------------------------------------------------------------------------
  Alpha Z    59.51446    59.51446    59.51446
  Ewald   64484.81132 64508.92979-71105.93809   147.84710    18.23279   -85.00172
  Hartree 63832.53192 63843.35466-63155.81122    82.64345     9.19006   -42.65411
  E(xc)    -805.90141  -805.82356  -833.58535     0.06655     0.05607    -0.01204
  Local  ************************131499.71814  -236.37655   -28.05056   130.89607
  n-local   -37.07608   -37.34283   -20.63223     7.33890     0.81480    -5.49633
  augment   -28.41171   -28.39038   -26.68300    -1.14099     0.00154     0.76640
  Kinetic  3160.12056  3159.66258  3587.12023     0.03873    -3.16403     1.41363
  Fock        0.00000     0.00000     0.00000     0.00000     0.00000     0.00000
  -------------------------------------------------------------------------------------
  Total      11.72503    11.83394     3.70295     0.41718    -2.91932    -0.08810
  in kB       4.77928     4.82367     1.50937     0.17005    -1.18995    -0.03591
  external pressure =        3.70 kB  Pullay stress =        0.00 kB


 VOLUME and BASIS-vectors are now :
 -----------------------------------------------------------------------------
  energy-cutoff  :      520.00
  volume of cell :     3930.63
      direct lattice vectors                 reciprocal lattice vectors
    12.300000000  0.000000000  0.000000000     0.081300813  0.046939046  0.000000000
    -6.150000000 10.652112467  0.000000000     0.000000000  0.093878093  0.000000000
     0.000000000  0.000000000 30.000000000     0.000000000  0.000000000  0.033333333

  length of vectors
    12.300000000 12.300000000 30.000000000     0.093878093  0.093878093  0.033333333


 FORCES acting on ions
    electron-ion (+dipol)            ewald-force                    non-local-force                 convergence-correction
 -----------------------------------------------------------------------------------------------
   0.499E+00 -.471E+01 0.317E+02   -.494E+00 0.469E+01 -.317E+02   -.140E-01 0.125E-01 -.281E-01   -.342E-06 0.363E-05 0.718E-05
   -.359E+00 0.209E-01 0.256E+02   0.363E+00 -.201E-01 -.255E+02   -.205E-01 -.576E-03 -.108E-01   0.117E-05 -.133E-05 0.800E-05
   0.227E+01 0.872E+00 0.259E+02   -.226E+01 -.880E+00 -.259E+02   -.106E-01 0.132E-02 -.291E-01   -.986E-06 -.127E-05 0.796E-05
   -.460E+01 0.187E+01 0.230E+02   0.453E+01 -.182E+01 -.230E+02   -.829E-01 0.363E-01 -.601E-01   0.548E-05 -.188E-05 0.534E-05
   -.145E+01 0.345E+00 0.241E+02   0.146E+01 -.329E+00 -.241E+02   -.620E-02 -.107E-01 -.689E-03   0.298E-05 -.124E-05 0.606E-05
   -.750E+01 -.402E+00 0.312E+02   0.741E+01 0.363E+00 -.312E+02   -.488E-01 -.508E-01 -.718E-01   0.535E-05 0.265E-05 0.612E-05
   -.531E+01 -.102E+01 0.251E+02   0.523E+01 0.982E+00 -.250E+02   -.820E-01 -.523E-01 -.865E-01   0.510E-05 0.239E-05 0.667E-05
   -.400E+01 -.596E+01 0.374E+02   0.400E+01 0.587E+01 -.373E+02   -.794E-02 -.105E+00 -.786E-01   0.279E-05 0.528E-05 0.733E-05
   -.405E+01 -.303E+01 0.315E+02   0.407E+01 0.304E+01 -.314E+02   -.891E-02 0.945E-02 -.396E-01   0.198E-05 0.340E-05 0.760E-05
   0.785E+01 0.264E+01 0.391E+02   -.786E+01 -.263E+01 -.391E+02   0.799E-02 0.145E-01 -.241E-01   -.564E-05 -.235E-05 0.530E-05
   0.286E+00 0.358E+01 0.325E+02   -.304E+00 -.358E+01 -.324E+02   -.189E-02 0.408E-02 -.263E-01   -.118E-05 -.241E-05 0.649E-05
   0.526E+00 0.856E+01 0.441E+02   -.532E+00 -.860E+01 -.441E+02   -.389E-02 -.120E-02 -.850E-02   -.275E-05 -.574E-05 0.526E-05
   -.627E+00 -.873E+00 0.311E+02   0.633E+00 0.858E+00 -.311E+02   0.774E-02 0.759E-03 -.145E-01   0.620E-06 0.354E-06 0.717E-05
   0.256E+01 0.107E+01 0.263E+02   -.256E+01 -.106E+01 -.263E+02   -.536E-02 0.897E-02 -.172E-01   -.694E-06 -.947E-06 0.674E-05
   0.616E+01 0.262E+00 0.320E+02   -.616E+01 -.276E+00 -.320E+02   -.236E-02 -.159E-01 -.231E-01   -.398E-05 -.121E-05 0.540E-05
   -.187E+01 0.332E-01 0.249E+02   0.187E+01 -.489E-01 -.249E+02   0.750E-02 0.790E-02 0.141E-02   0.277E-05 0.186E-05 0.637E-05
   0.150E+01 -.144E+01 0.270E+02   -.150E+01 0.143E+01 -.270E+02   -.945E-02 -.812E-02 -.184E-01   -.541E-06 0.190E-05 0.675E-05
   -.368E+01 -.186E+01 0.277E+02   0.366E+01 0.188E+01 -.277E+02   0.230E-01 0.385E-02 -.118E-01   0.344E-05 0.203E-05 0.766E-05
   -.177E+01 0.719E-01 0.271E+02   0.175E+01 -.641E-01 -.271E+02   0.146E-02 -.563E-02 -.243E-01   0.249E-05 -.164E-07 0.828E-05
   -.792E+00 0.309E+01 0.303E+02   0.790E+00 -.310E+01 -.303E+02   0.212E-01 -.982E-02 -.432E-02   0.102E-05 -.320E-05 0.723E-05
   -.126E+01 0.503E+01 0.310E+02   0.125E+01 -.503E+01 -.310E+02   -.792E-02 0.503E-02 -.180E-01   0.118E-05 -.590E-05 0.638E-05
   0.306E+01 0.628E+01 0.378E+02   -.305E+01 -.628E+01 -.378E+02   0.101E-01 0.768E-02 -.155E-01   -.277E-05 -.445E-05 0.583E-05
   0.330E+01 0.144E+01 0.292E+02   -.329E+01 -.145E+01 -.292E+02   -.131E-01 0.578E-02 -.252E-01   -.240E-05 -.114E-05 0.744E-05
   0.530E+01 0.414E+01 0.353E+02   -.531E+01 -.415E+01 -.353E+02   -.145E-01 -.279E-02 -.323E-01   -.402E-05 -.241E-05 0.618E-05
   0.717E+01 -.414E+01 0.385E+02   -.717E+01 0.413E+01 -.385E+02   0.115E-03 -.955E-02 -.163E-02   -.608E-05 0.342E-05 0.351E-05
   0.108E+01 -.134E+01 0.298E+02   -.108E+01 0.134E+01 -.298E+02   0.531E-02 0.882E-02 -.332E-01   -.121E-05 0.126E-05 0.751E-05
   0.363E+01 -.586E+01 0.358E+02   -.361E+01 0.586E+01 -.358E+02   -.928E-03 -.224E-02 -.521E-02   -.298E-05 0.532E-05 0.405E-05
   0.707E+00 -.912E+00 0.269E+02   -.707E+00 0.914E+00 -.269E+02   0.218E-01 0.108E-01 -.210E-01   0.873E-07 0.160E-05 0.808E-05
   0.212E+01 -.132E+01 0.293E+02   -.213E+01 0.132E+01 -.293E+02   -.889E-03 0.928E-02 -.423E-02   -.165E-05 0.122E-05 0.708E-05
   -.134E+00 0.156E+01 0.286E+02   0.129E+00 -.157E+01 -.286E+02   0.371E-02 0.265E-02 -.237E-01   -.148E-06 -.316E-05 0.683E-05
   -.738E+00 0.108E+01 0.280E+02   0.743E+00 -.109E+01 -.280E+02   -.362E-03 0.410E-02 -.340E-02   0.152E-05 -.245E-05 0.599E-05
   -.197E+01 0.754E+01 0.370E+02   0.194E+01 -.755E+01 -.370E+02   0.217E-01 -.164E-01 0.115E-01   0.297E-06 -.675E-05 0.487E-05
   -.542E+01 0.625E+01 0.328E+02   0.542E+01 -.616E+01 -.327E+02   0.580E-02 0.104E+00 -.607E-01   0.344E-05 -.586E-05 0.434E-05
   0.186E+01 0.533E+01 0.525E+02   -.178E+01 -.529E+01 -.525E+02   0.902E-01 0.558E-01 -.365E-01   -.293E-05 -.361E-05 0.531E-05
   -.484E+01 0.252E+01 0.549E+02   0.494E+01 -.246E+01 -.549E+02   0.660E-01 0.395E-01 0.301E-01   0.864E-06 -.152E-05 0.536E-05
   0.732E+01 -.326E+01 0.476E+02   -.733E+01 0.324E+01 -.475E+02   -.503E-02 0.147E-01 -.116E-01   -.569E-05 0.220E-05 0.380E-05
   0.730E+01 0.998E+00 0.492E+02   -.733E+01 -.984E+00 -.492E+02   0.531E-02 -.503E-02 0.241E-02   -.585E-05 -.166E-05 0.488E-05
   0.572E+01 -.163E+01 0.322E+02   -.572E+01 0.163E+01 -.322E+02   0.115E-02 0.143E-01 -.183E-01   -.377E-05 0.200E-05 0.494E-05
   0.298E+01 -.637E+01 0.497E+02   -.289E+01 0.634E+01 -.497E+02   0.971E-01 -.653E-01 -.538E-01   -.240E-05 0.471E-05 0.453E-05
   0.982E+00 -.303E+01 0.302E+02   -.980E+00 0.302E+01 -.302E+02   -.170E-01 -.723E-02 -.191E-01   -.118E-05 0.154E-05 0.581E-05
   0.716E+00 -.268E+01 0.288E+02   -.697E+00 0.269E+01 -.288E+02   0.407E-02 0.140E-01 -.113E-01   -.268E-06 0.204E-05 0.726E-05
   -.410E+01 0.313E+01 0.272E+02   0.413E+01 -.313E+01 -.272E+02   -.773E-02 -.414E-02 -.709E-02   0.372E-05 -.531E-05 0.516E-05
   -.276E+01 0.221E+01 0.249E+02   0.276E+01 -.223E+01 -.249E+02   0.531E-02 0.884E-02 0.955E-02   0.437E-05 -.324E-05 0.616E-05
   -.770E+01 0.404E+01 0.397E+02   0.771E+01 -.392E+01 -.396E+02   0.752E-02 0.629E-01 -.386E-01   0.374E-05 -.272E-05 0.477E-05
   -.751E+01 0.186E+01 0.290E+02   0.742E+01 -.180E+01 -.290E+02   -.552E-01 0.243E-01 -.878E-01   0.600E-05 -.109E-05 0.493E-05
   -.384E+01 -.299E+01 0.542E+02   0.394E+01 0.296E+01 -.541E+02   0.608E-01 -.490E-01 -.741E-02   0.133E-05 0.303E-05 0.583E-05
   -.647E+01 -.323E+01 0.427E+02   0.646E+01 0.313E+01 -.427E+02   0.568E-02 -.972E-01 -.580E-01   0.382E-05 0.459E-05 0.679E-05
   0.212E+01 -.819E+01 0.422E+02   -.210E+01 0.822E+01 -.422E+02   -.299E-01 0.192E-02 -.221E-01   -.187E-05 0.685E-05 0.434E-05
   0.143E+00 -.709E+01 0.385E+02   -.163E+00 0.709E+01 -.385E+02   0.415E-02 0.130E-01 -.127E-01   0.136E-06 0.583E-05 0.629E-05
   0.463E+01 -.424E+01 0.342E+02   -.463E+01 0.424E+01 -.342E+02   -.165E-01 0.746E-02 -.195E-01   -.443E-05 0.380E-05 0.436E-05
   -.104E+02 0.843E+01 -.286E+03   0.897E+01 -.748E+01 0.282E+03   0.161E+01 -.209E+01 0.638E+01   0.217E-05 0.778E-06 -.165E-05
   0.664E+02 0.583E+02 -.362E+03   -.678E+02 -.594E+02 0.363E+03   0.128E+01 0.883E+00 -.323E+00   -.204E-05 -.129E-05 -.546E-05
   0.254E+02 -.617E+02 -.368E+03   -.230E+02 0.594E+02 0.369E+03   -.279E+01 0.314E+01 -.368E+01   0.235E-05 -.485E-05 -.492E-05
   -.188E+02 0.494E+02 -.323E+03   0.184E+02 -.483E+02 0.324E+03   0.362E+00 -.800E+00 -.766E+00   -.200E-05 0.665E-06 0.171E-05
   -.607E+02 -.544E+02 -.356E+03   0.624E+02 0.560E+02 0.355E+03   -.129E+01 -.142E+01 0.830E-01   0.830E-06 0.228E-05 -.294E-05
 -----------------------------------------------------------------------------------------------
   0.826E+00 0.290E+00 -.454E+00   -.256E-12 -.426E-13 -.114E-12   -.819E+00 -.293E+00 0.520E+00   0.123E-05 -.235E-05 0.290E-03
 
 
 POSITION                                       TOTAL-FORCE (eV/Angst)
 -----------------------------------------------------------------------------------
     -6.10672     10.65066     14.88290        -0.009917     -0.006621      0.000332
     -1.18531      2.12726     14.89925        -0.016465      0.000260      0.005935
      0.04455      2.83789     14.89874        -0.002973     -0.006153     -0.007828
     -2.41155      4.25567     14.91970        -0.154611      0.090401     -0.024432
     -1.18407      4.96842     14.91258         0.007804      0.005090      0.014531
     -3.64313      6.39186     14.91335        -0.140310     -0.089866     -0.029375
     -2.41175      7.10211     14.91427        -0.159045     -0.093047     -0.034795
     -4.87635      8.52574     14.88716        -0.004980     -0.191965     -0.015539
     -3.64552      9.23149     14.89129         0.009360      0.011791      0.012511
      2.50264      4.25785     14.87719         0.001914      0.023489     -0.000911
      3.73397      0.70764     14.88045        -0.019694      0.005411      0.011844
      4.96269      2.83657     14.87112        -0.010002     -0.034319      0.023450
     -3.64617     10.65084     14.88463         0.013368     -0.013850      0.005199
      0.04510      4.25796     14.90168        -0.007870      0.018551      0.002831
      1.27374      4.96909     14.88885         0.003956     -0.029559      0.000525
     -1.18427      6.38932     14.90975         0.003708     -0.007797      0.020353
      0.04446      7.09964     14.89705        -0.007911     -0.016022     -0.001260
     -2.41517      8.52111     14.90050        -0.000848      0.018650      0.006689
     -1.18571      9.23034     14.89324        -0.014284      0.002167      0.000729
     -1.18626     10.65016     14.88442         0.018977     -0.020119     -0.002657
      6.19375      0.70688     14.88421        -0.018612      0.004427      0.002114
      3.73313      2.12714     14.87479         0.017430      0.005338      0.002380
      1.27414      2.12787     14.88924        -0.005361     -0.004067     -0.005668
      2.50385      2.83795     14.88019        -0.021092     -0.012092     -0.002037
      2.50257      7.09969     14.87332         0.000330     -0.017662      0.008603
      1.27363      0.70774     14.88610         0.004212      0.014699     -0.003909
      3.73269      9.23072     14.87373         0.017628     -0.000841      0.002948
      0.04363      8.51969     14.89234         0.021863      0.012700     -0.005556
      1.27370      9.22936     14.88418        -0.006893      0.005691      0.001669
      1.27385     10.64939     14.88653        -0.002168     -0.009081     -0.010999
      8.65386      0.70686     14.89046         0.004731      0.002145     -0.000706
      6.19300      2.12624     14.88215        -0.013536     -0.019911      0.009996
      7.42347      2.83224     14.89762         0.005726      0.191564     -0.033142
      4.95836      4.25528     14.86632         0.170722      0.097324     -0.014883
      6.18919      4.96628     14.87151         0.159864      0.101567      0.050328
      3.73127      6.38899     14.86577        -0.021463     -0.000394      0.002678
      3.73159      4.96808     14.86600        -0.025945      0.009567      0.008319
      1.27364      6.38904     14.88614        -0.000741      0.024044      0.000348
      4.95778      7.10225     14.86659         0.182507     -0.099517     -0.027614
      3.73372     10.65031     14.88348        -0.015178     -0.017940      0.002554
     11.11349      0.70766     14.88790         0.023003      0.016429     -0.002522
      8.65424      2.12601     14.90107         0.021795      0.000138      0.011348
      9.88484      2.83647     14.90815         0.003038     -0.007150      0.009470
      7.42313      4.25340     14.89735         0.008494      0.183811     -0.008572
      8.65708      4.96654     14.91777        -0.142439      0.084290     -0.051690
      6.18870      6.39150     14.87095         0.167224     -0.082599      0.034383
      7.42308      7.10456     14.89056        -0.008168     -0.190572     -0.000820
      4.96194      8.52123     14.86965        -0.001705      0.027495      0.015591
      6.19285      9.23125     14.87681        -0.016125      0.010338      0.010252
      2.50351      8.51986     14.87586        -0.016800      0.003150      0.001727
      5.35917      5.60365     22.56952         0.173858     -1.139800      2.354378
      3.90956      4.31378     20.28394        -0.092024     -0.214293      0.398346
      5.12352      6.28190     20.66952        -0.403009      0.864909     -2.899033
      5.60821      4.91654     18.81954        -0.080917      0.336128      0.336898
      6.79538      6.90238     19.22468         0.399574      0.153674     -0.185312
 -----------------------------------------------------------------------------------
    total drift:                                0.006749     -0.002613      0.066320


--------------------------------------------------------------------------------------------------------



  FREE ENERGIE OF THE ION-ELECTRON SYSTEM (eV)
  ---------------------------------------------------
  free  energy   TOTEN  =      -478.57332935 eV

  energy  without entropy=     -478.56079118  energy(sigma->0) =     -478.56706026
 


--------------------------------------------------------------------------------------------------------


    POTLOK:  cpu time    2.0054: real time    2.0054


--------------------------------------------------------------------------------------------------------


     LOOP+:  cpu time 1897.1763: real time 1897.7703
    4ORBIT:  cpu time    0.0000: real time    0.0000

 total amount of memory used by VASP on root node   483653. kBytes
========================================================================

   base      :      30000. kBytes
   nonlr-proj:       6339. kBytes
   fftplans  :     165810. kBytes
   grid      :     132526. kBytes
   one-center:         86. kBytes
   wavefun   :     148892. kBytes
 
  
  
 General timing and accounting informations for this job:
 ========================================================
  
                  Total CPU time used (sec):     1922.452
                            User time (sec):     1836.245
                          System time (sec):       86.207
                         Elapsed time (sec):     1923.586
  
                   Maximum memory used (kb):      906660.
                   Average memory used (kb):           0.
  
                          Minor page faults:       106468
                          Major page faults:          531
                 Voluntary context switches:         2157
