  55  55   0   0
  0.7146599E+02  0.1230000E-08  0.1230000E-08  0.3000000E-08  0.5000000E-15
  1.000000000000000E-004
  CAR 
 Li defective graphene MACE training lab 
      4.38439717    -52.68925613  301     -2.98040288      1.00000000
    -52.689  0.0000E+00  0.0000E+00  0.0000E+00  0.0000E+00
    -52.499  0.0000E+00  0.0000E+00  0.0000E+00  0.0000E+00
    -52.309  0.0000E+00  0.0000E+00  0.0000E+00  0.0000E+00
    -52.119  0.0000E+00  0.0000E+00  0.0000E+00  0.0000E+00
    -51.928  0.0000E+00  0.0000E+00  0.0000E+00  0.0000E+00
    -51.738  0.0000E+00  0.0000E+00  0.0000E+00  0.0000E+00
    -51.548  0.0000E+00  0.0000E+00  0.0000E+00  0.0000E+00
    -51.358  0.0000E+00  0.0000E+00  0.0000E+00  0.0000E+00
    -51.167  0.0000E+00  0.0000E+00  0.0000E+00  0.0000E+00
    -50.977  0.0000E+00  0.0000E+00  0.0000E+00  0.0000E+00
    -50.787  0.0000E+00  0.0000E+00  0.0000E+00  0.0000E+00
    -50.597  0.0000E+00  0.0000E+00  0.0000E+00  0.0000E+00
    -50.406  0.0000E+00  0.0000E+00  0.0000E+00  0.0000E+00
    -50.216  0.1620E-02  0.1493E-02  0.3082E-03  0.2841E-03
    -50.026  0.5122E+01  0.5115E+01  0.9748E+00  0.9735E+00
    -49.836  0.1324E+00  0.1394E+00  0.1000E+01  0.1000E+01
    -49.645  0.0000E+00  0.0000E+00  0.1000E+01  0.1000E+01
    -49.455  0.0000E+00  0.0000E+00  0.1000E+01  0.1000E+01
    -49.265  0.0000E+00  0.0000E+00  0.1000E+01  0.1000E+01
    -49.075  0.0000E+00  0.0000E+00  0.1000E+01  0.1000E+01
    -48.884  0.0000E+00  0.0000E+00  0.1000E+01  0.1000E+01
    -48.694  0.0000E+00  0.0000E+00  0.1000E+01  0.1000E+01
    -48.504  0.0000E+00  0.0000E+00  0.1000E+01  0.1000E+01
    -48.314  0.0000E+00  0.0000E+00  0.1000E+01  0.1000E+01
    -48.123  0.0000E+00  0.0000E+00  0.1000E+01  0.1000E+01
    -47.933  0.0000E+00  0.0000E+00  0.1000E+01  0.1000E+01
    -47.743  0.0000E+00  0.0000E+00  0.1000E+01  0.1000E+01
    -47.553  0.0000E+00  0.0000E+00  0.1000E+01  0.1000E+01
    -47.362  0.0000E+00  0.0000E+00  0.1000E+01  0.1000E+01
    -47.172  0.0000E+00  0.0000E+00  0.1000E+01  0.1000E+01
    -46.982  0.0000E+00  0.0000E+00  0.1000E+01  0.1000E+01
    -46.792  0.0000E+00  0.0000E+00  0.1000E+01  0.1000E+01
    -46.601  0.0000E+00  0.0000E+00  0.1000E+01  0.1000E+01
    -46.411  0.0000E+00  0.0000E+00  0.1000E+01  0.1000E+01
    -46.221  0.0000E+00  0.0000E+00  0.1000E+01  0.1000E+01
    -46.031  0.0000E+00  0.0000E+00  0.1000E+01  0.1000E+01
    -45.840  0.0000E+00  0.0000E+00  0.1000E+01  0.1000E+01
    -45.650  0.0000E+00  0.0000E+00  0.1000E+01  0.1000E+01
    -45.460  0.0000E+00  0.0000E+00  0.1000E+01  0.1000E+01
    -45.270  0.0000E+00  0.0000E+00  0.1000E+01  0.1000E+01
    -45.079  0.0000E+00  0.0000E+00  0.1000E+01  0.1000E+01
    -44.889  0.0000E+00  0.0000E+00  0.1000E+01  0.1000E+01
    -44.699  0.0000E+00  0.0000E+00  0.1000E+01  0.1000E+01
    -44.509  0.0000E+00  0.0000E+00  0.1000E+01  0.1000E+01
    -44.318  0.0000E+00  0.0000E+00  0.1000E+01  0.1000E+01
    -44.128  0.0000E+00  0.0000E+00  0.1000E+01  0.1000E+01
    -43.938  0.0000E+00  0.0000E+00  0.1000E+01  0.1000E+01
    -43.748  0.0000E+00  0.0000E+00  0.1000E+01  0.1000E+01
    -43.557  0.0000E+00  0.0000E+00  0.1000E+01  0.1000E+01
    -43.367  0.0000E+00  0.0000E+00  0.1000E+01  0.1000E+01
    -43.177  0.0000E+00  0.0000E+00  0.1000E+01  0.1000E+01
    -42.987  0.0000E+00  0.0000E+00  0.1000E+01  0.1000E+01
    -42.796  0.0000E+00  0.0000E+00  0.1000E+01  0.1000E+01
    -42.606  0.0000E+00  0.0000E+00  0.1000E+01  0.1000E+01
    -42.416  0.0000E+00  0.0000E+00  0.1000E+01  0.1000E+01
    -42.226  0.0000E+00  0.0000E+00  0.1000E+01  0.1000E+01
    -42.036  0.0000E+00  0.0000E+00  0.1000E+01  0.1000E+01
    -41.845  0.0000E+00  0.0000E+00  0.1000E+01  0.1000E+01
    -41.655  0.0000E+00  0.0000E+00  0.1000E+01  0.1000E+01
    -41.465  0.0000E+00  0.0000E+00  0.1000E+01  0.1000E+01
    -41.275  0.0000E+00  0.0000E+00  0.1000E+01  0.1000E+01
    -41.084  0.0000E+00  0.0000E+00  0.1000E+01  0.1000E+01
    -40.894  0.0000E+00  0.0000E+00  0.1000E+01  0.1000E+01
    -40.704  0.0000E+00  0.0000E+00  0.1000E+01  0.1000E+01
    -40.514  0.0000E+00  0.0000E+00  0.1000E+01  0.1000E+01
    -40.323  0.0000E+00  0.0000E+00  0.1000E+01  0.1000E+01
    -40.133  0.0000E+00  0.0000E+00  0.1000E+01  0.1000E+01
    -39.943  0.0000E+00  0.0000E+00  0.1000E+01  0.1000E+01
    -39.753  0.0000E+00  0.0000E+00  0.1000E+01  0.1000E+01
    -39.562  0.0000E+00  0.0000E+00  0.1000E+01  0.1000E+01
    -39.372  0.0000E+00  0.0000E+00  0.1000E+01  0.1000E+01
    -39.182  0.0000E+00  0.0000E+00  0.1000E+01  0.1000E+01
    -38.992  0.0000E+00  0.0000E+00  0.1000E+01  0.1000E+01
    -38.801  0.0000E+00  0.0000E+00  0.1000E+01  0.1000E+01
    -38.611  0.0000E+00  0.0000E+00  0.1000E+01  0.1000E+01
    -38.421  0.0000E+00  0.0000E+00  0.1000E+01  0.1000E+01
    -38.231  0.0000E+00  0.0000E+00  0.1000E+01  0.1000E+01
    -38.040  0.0000E+00  0.0000E+00  0.1000E+01  0.1000E+01
    -37.850  0.0000E+00  0.0000E+00  0.1000E+01  0.1000E+01
    -37.660  0.0000E+00  0.0000E+00  0.1000E+01  0.1000E+01
    -37.470  0.0000E+00  0.0000E+00  0.1000E+01  0.1000E+01
    -37.279  0.0000E+00  0.0000E+00  0.1000E+01  0.1000E+01
    -37.089  0.0000E+00  0.0000E+00  0.1000E+01  0.1000E+01
    -36.899  0.0000E+00  0.0000E+00  0.1000E+01  0.1000E+01
    -36.709  0.0000E+00  0.0000E+00  0.1000E+01  0.1000E+01
    -36.518  0.0000E+00  0.0000E+00  0.1000E+01  0.1000E+01
    -36.328  0.0000E+00  0.0000E+00  0.1000E+01  0.1000E+01
    -36.138  0.0000E+00  0.0000E+00  0.1000E+01  0.1000E+01
    -35.948  0.0000E+00  0.0000E+00  0.1000E+01  0.1000E+01
    -35.757  0.0000E+00  0.0000E+00  0.1000E+01  0.1000E+01
    -35.567  0.0000E+00  0.0000E+00  0.1000E+01  0.1000E+01
    -35.377  0.0000E+00  0.0000E+00  0.1000E+01  0.1000E+01
    -35.187  0.0000E+00  0.0000E+00  0.1000E+01  0.1000E+01
    -34.996  0.0000E+00  0.0000E+00  0.1000E+01  0.1000E+01
    -34.806  0.0000E+00  0.0000E+00  0.1000E+01  0.1000E+01
    -34.616  0.0000E+00  0.0000E+00  0.1000E+01  0.1000E+01
    -34.426  0.0000E+00  0.0000E+00  0.1000E+01  0.1000E+01
    -34.235  0.0000E+00  0.0000E+00  0.1000E+01  0.1000E+01
    -34.045  0.0000E+00  0.0000E+00  0.1000E+01  0.1000E+01
    -33.855  0.0000E+00  0.0000E+00  0.1000E+01  0.1000E+01
    -33.665  0.0000E+00  0.0000E+00  0.1000E+01  0.1000E+01
    -33.474  0.0000E+00  0.0000E+00  0.1000E+01  0.1000E+01
    -33.284  0.0000E+00  0.0000E+00  0.1000E+01  0.1000E+01
    -33.094  0.0000E+00  0.0000E+00  0.1000E+01  0.1000E+01
    -32.904  0.0000E+00  0.0000E+00  0.1000E+01  0.1000E+01
    -32.713  0.0000E+00  0.0000E+00  0.1000E+01  0.1000E+01
    -32.523  0.0000E+00  0.0000E+00  0.1000E+01  0.1000E+01
    -32.333  0.0000E+00  0.0000E+00  0.1000E+01  0.1000E+01
    -32.143  0.0000E+00  0.0000E+00  0.1000E+01  0.1000E+01
    -31.952  0.0000E+00  0.0000E+00  0.1000E+01  0.1000E+01
    -31.762  0.0000E+00  0.0000E+00  0.1000E+01  0.1000E+01
    -31.572  0.0000E+00  0.0000E+00  0.1000E+01  0.1000E+01
    -31.382  0.0000E+00  0.0000E+00  0.1000E+01  0.1000E+01
    -31.192  0.0000E+00  0.0000E+00  0.1000E+01  0.1000E+01
    -31.001  0.0000E+00  0.0000E+00  0.1000E+01  0.1000E+01
    -30.811  0.0000E+00  0.0000E+00  0.1000E+01  0.1000E+01
    -30.621  0.0000E+00  0.0000E+00  0.1000E+01  0.1000E+01
    -30.431  0.0000E+00  0.0000E+00  0.1000E+01  0.1000E+01
    -30.240  0.0000E+00  0.0000E+00  0.1000E+01  0.1000E+01
    -30.050  0.0000E+00  0.0000E+00  0.1000E+01  0.1000E+01
    -29.860  0.0000E+00  0.0000E+00  0.1000E+01  0.1000E+01
    -29.670  0.0000E+00  0.0000E+00  0.1000E+01  0.1000E+01
    -29.479  0.0000E+00  0.0000E+00  0.1000E+01  0.1000E+01
    -29.289  0.0000E+00  0.0000E+00  0.1000E+01  0.1000E+01
    -29.099  0.0000E+00  0.0000E+00  0.1000E+01  0.1000E+01
    -28.909  0.0000E+00  0.0000E+00  0.1000E+01  0.1000E+01
    -28.718  0.0000E+00  0.0000E+00  0.1000E+01  0.1000E+01
    -28.528  0.0000E+00  0.0000E+00  0.1000E+01  0.1000E+01
    -28.338  0.0000E+00  0.0000E+00  0.1000E+01  0.1000E+01
    -28.148  0.0000E+00  0.0000E+00  0.1000E+01  0.1000E+01
    -27.957  0.0000E+00  0.0000E+00  0.1000E+01  0.1000E+01
    -27.767  0.0000E+00  0.0000E+00  0.1000E+01  0.1000E+01
    -27.577  0.0000E+00  0.0000E+00  0.1000E+01  0.1000E+01
    -27.387  0.0000E+00  0.0000E+00  0.1000E+01  0.1000E+01
    -27.196  0.0000E+00  0.0000E+00  0.1000E+01  0.1000E+01
    -27.006  0.0000E+00  0.0000E+00  0.1000E+01  0.1000E+01
    -26.816  0.0000E+00  0.0000E+00  0.1000E+01  0.1000E+01
    -26.626  0.0000E+00  0.0000E+00  0.1000E+01  0.1000E+01
    -26.435  0.0000E+00  0.0000E+00  0.1000E+01  0.1000E+01
    -26.245  0.0000E+00  0.0000E+00  0.1000E+01  0.1000E+01
    -26.055  0.0000E+00  0.0000E+00  0.1000E+01  0.1000E+01
    -25.865  0.0000E+00  0.0000E+00  0.1000E+01  0.1000E+01
    -25.674  0.0000E+00  0.0000E+00  0.1000E+01  0.1000E+01
    -25.484  0.0000E+00  0.0000E+00  0.1000E+01  0.1000E+01
    -25.294  0.0000E+00  0.0000E+00  0.1000E+01  0.1000E+01
    -25.104  0.0000E+00  0.0000E+00  0.1000E+01  0.1000E+01
    -24.913  0.0000E+00  0.0000E+00  0.1000E+01  0.1000E+01
    -24.723  0.0000E+00  0.0000E+00  0.1000E+01  0.1000E+01
    -24.533  0.0000E+00  0.0000E+00  0.1000E+01  0.1000E+01
    -24.343  0.0000E+00  0.0000E+00  0.1000E+01  0.1000E+01
    -24.152  0.0000E+00  0.0000E+00  0.1000E+01  0.1000E+01
    -23.962  0.0000E+00  0.0000E+00  0.1000E+01  0.1000E+01
    -23.772  0.0000E+00  0.0000E+00  0.1000E+01  0.1000E+01
    -23.582  0.0000E+00  0.0000E+00  0.1000E+01  0.1000E+01
    -23.391  0.0000E+00  0.0000E+00  0.1000E+01  0.1000E+01
    -23.201  0.0000E+00  0.0000E+00  0.1000E+01  0.1000E+01
    -23.011  0.6323E-04  0.6281E-04  0.1000E+01  0.1000E+01
    -22.821  0.1183E+01  0.1182E+01  0.1225E+01  0.1225E+01
    -22.630  0.4022E+01  0.4024E+01  0.1990E+01  0.1990E+01
    -22.440  0.3701E+01  0.3699E+01  0.2694E+01  0.2694E+01
    -22.250  0.2191E+01  0.2193E+01  0.3111E+01  0.3111E+01
    -22.060  0.6696E+01  0.6694E+01  0.4385E+01  0.4385E+01
    -21.869  0.2231E+01  0.2233E+01  0.4810E+01  0.4809E+01
    -21.679  0.1667E+01  0.1667E+01  0.5127E+01  0.5127E+01
    -21.489  0.7076E+01  0.7074E+01  0.6473E+01  0.6472E+01
    -21.299  0.3355E+01  0.3357E+01  0.7111E+01  0.7111E+01
    -21.109  0.3190E+01  0.3190E+01  0.7718E+01  0.7718E+01
    -20.918  0.1394E+01  0.1393E+01  0.7983E+01  0.7983E+01
    -20.728  0.7288E+01  0.7288E+01  0.9370E+01  0.9369E+01
    -20.538  0.5499E+01  0.5501E+01  0.1042E+02  0.1042E+02
    -20.348  0.1547E+00  0.1549E+00  0.1045E+02  0.1045E+02
    -20.157  0.3573E+01  0.3573E+01  0.1113E+02  0.1113E+02
    -19.967  0.6187E+01  0.6184E+01  0.1230E+02  0.1230E+02
    -19.777  0.4251E+01  0.4255E+01  0.1311E+02  0.1311E+02
    -19.587  0.6339E+01  0.6338E+01  0.1432E+02  0.1432E+02
    -19.396  0.6694E+00  0.6704E+00  0.1444E+02  0.1444E+02
    -19.206  0.2461E+00  0.2457E+00  0.1449E+02  0.1449E+02
    -19.016  0.8986E+01  0.8984E+01  0.1620E+02  0.1620E+02
    -18.826  0.5378E+01  0.5379E+01  0.1722E+02  0.1722E+02
    -18.635  0.2911E+01  0.2912E+01  0.1778E+02  0.1778E+02
    -18.445  0.4948E+01  0.4946E+01  0.1872E+02  0.1872E+02
    -18.255  0.2061E+01  0.2063E+01  0.1911E+02  0.1911E+02
    -18.065  0.2200E+00  0.2193E+00  0.1915E+02  0.1915E+02
    -17.874  0.1163E+02  0.1163E+02  0.2137E+02  0.2136E+02
    -17.684  0.3215E+01  0.3216E+01  0.2198E+02  0.2198E+02
    -17.494  0.7685E+01  0.7685E+01  0.2344E+02  0.2344E+02
    -17.304  0.1780E+01  0.1781E+01  0.2378E+02  0.2378E+02
    -17.113  0.7932E-02  0.7899E-02  0.2378E+02  0.2378E+02
    -16.923  0.2648E+01  0.2647E+01  0.2428E+02  0.2428E+02
    -16.733  0.7851E+01  0.7852E+01  0.2578E+02  0.2578E+02
    -16.543  0.2023E+00  0.2020E+00  0.2582E+02  0.2582E+02
    -16.352  0.3307E+01  0.3307E+01  0.2644E+02  0.2644E+02
    -16.162  0.1078E+01  0.1077E+01  0.2665E+02  0.2665E+02
    -15.972  0.4745E+01  0.4745E+01  0.2755E+02  0.2755E+02
    -15.782  0.1052E+02  0.1052E+02  0.2955E+02  0.2955E+02
    -15.591  0.8873E-02  0.8903E-02  0.2956E+02  0.2956E+02
    -15.401  0.2113E+01  0.2110E+01  0.2996E+02  0.2996E+02
    -15.211  0.1190E+02  0.1190E+02  0.3222E+02  0.3222E+02
    -15.021  0.1201E+00  0.1198E+00  0.3224E+02  0.3224E+02
    -14.830  0.6871E+01  0.6871E+01  0.3355E+02  0.3355E+02
    -14.640  0.1171E+01  0.1170E+01  0.3377E+02  0.3377E+02
    -14.450  0.4319E+01  0.4318E+01  0.3460E+02  0.3460E+02
    -14.260  0.7492E+01  0.7493E+01  0.3602E+02  0.3602E+02
    -14.069  0.1058E+01  0.1059E+01  0.3622E+02  0.3622E+02
    -13.879  0.4666E+00  0.4663E+00  0.3631E+02  0.3631E+02
    -13.689  0.7194E+01  0.7193E+01  0.3768E+02  0.3768E+02
    -13.499  0.8407E+01  0.5356E+01  0.3928E+02  0.3870E+02
    -13.308  0.4797E+01  0.7848E+01  0.4019E+02  0.4019E+02
    -13.118  0.6585E+01  0.6586E+01  0.4144E+02  0.4144E+02
    -12.928  0.1454E+01  0.1452E+01  0.4172E+02  0.4172E+02
    -12.738  0.9929E+01  0.9930E+01  0.4361E+02  0.4361E+02
    -12.547  0.2635E+01  0.2635E+01  0.4411E+02  0.4411E+02
    -12.357  0.8968E-02  0.8937E-02  0.4411E+02  0.4411E+02
    -12.167  0.4155E+01  0.4154E+01  0.4490E+02  0.4490E+02
    -11.977  0.1429E+02  0.1429E+02  0.4762E+02  0.4762E+02
    -11.786  0.2572E+01  0.2575E+01  0.4811E+02  0.4811E+02
    -11.596  0.2064E+01  0.2063E+01  0.4850E+02  0.4850E+02
    -11.406  0.4944E+01  0.4946E+01  0.4944E+02  0.4944E+02
    -11.216  0.2835E+01  0.2833E+01  0.4998E+02  0.4998E+02
    -11.025  0.7817E+01  0.7818E+01  0.5147E+02  0.5147E+02
    -10.835  0.1097E+02  0.1095E+02  0.5356E+02  0.5355E+02
    -10.645  0.9983E+01  0.9998E+01  0.5546E+02  0.5546E+02
    -10.455  0.1062E+02  0.5953E+01  0.5748E+02  0.5659E+02
    -10.265  0.1052E+02  0.1436E+02  0.5948E+02  0.5932E+02
    -10.074  0.9434E+01  0.1022E+02  0.6127E+02  0.6127E+02
     -9.884  0.1423E+02  0.1427E+02  0.6398E+02  0.6398E+02
     -9.694  0.7945E+01  0.7947E+01  0.6549E+02  0.6549E+02
     -9.504  0.1732E+02  0.1731E+02  0.6879E+02  0.6879E+02
     -9.313  0.1422E+02  0.1422E+02  0.7149E+02  0.7149E+02
     -9.123  0.5549E+01  0.5551E+01  0.7255E+02  0.7255E+02
     -8.933  0.9631E+01  0.9630E+01  0.7438E+02  0.7438E+02
     -8.743  0.2794E+01  0.2779E+01  0.7491E+02  0.7491E+02
     -8.552  0.2032E+02  0.2028E+02  0.7878E+02  0.7877E+02
     -8.362  0.1465E+02  0.1470E+02  0.8156E+02  0.8156E+02
     -8.172  0.3460E+01  0.3462E+01  0.8222E+02  0.8222E+02
     -7.982  0.2515E+00  0.2495E+00  0.8227E+02  0.8227E+02
     -7.791  0.9288E+01  0.9283E+01  0.8404E+02  0.8404E+02
     -7.601  0.1530E+02  0.1529E+02  0.8695E+02  0.8694E+02
     -7.411  0.5801E+01  0.5818E+01  0.8805E+02  0.8805E+02
     -7.221  0.6995E+01  0.6983E+01  0.8938E+02  0.8938E+02
     -7.030  0.4406E+01  0.4416E+01  0.9022E+02  0.9022E+02
     -6.840  0.9119E+01  0.4439E+01  0.9196E+02  0.9106E+02
     -6.650  0.8959E+01  0.1313E+02  0.9366E+02  0.9356E+02
     -6.460  0.1054E+02  0.1105E+02  0.9567E+02  0.9567E+02
     -6.269  0.5466E+01  0.5468E+01  0.9671E+02  0.9671E+02
     -6.079  0.7149E+01  0.7147E+01  0.9807E+02  0.9807E+02
     -5.889  0.4844E+00  0.4843E+00  0.9816E+02  0.9816E+02
     -5.699  0.3517E+01  0.3515E+01  0.9883E+02  0.9883E+02
     -5.508  0.6468E+01  0.6442E+01  0.1001E+03  0.1001E+03
     -5.318  0.1370E+02  0.1367E+02  0.1027E+03  0.1027E+03
     -5.128  0.5853E+01  0.7213E+00  0.1038E+03  0.1028E+03
     -4.938  0.2642E+01  0.5446E+01  0.1043E+03  0.1038E+03
     -4.747  0.4938E+01  0.7313E+01  0.1052E+03  0.1052E+03
     -4.557  0.1190E+01  0.1194E+01  0.1054E+03  0.1054E+03
     -4.367  0.8598E+01  0.8604E+01  0.1071E+03  0.1071E+03
     -4.177  0.3665E+01  0.3659E+01  0.1078E+03  0.1078E+03
     -3.986  0.4392E+01  0.4479E+00  0.1086E+03  0.1079E+03
     -3.796  0.8646E+00  0.4808E+01  0.1088E+03  0.1088E+03
     -3.606  0.0000E+00  0.1622E-03  0.1088E+03  0.1088E+03
     -3.416  0.4839E-03  0.4610E-03  0.1088E+03  0.1088E+03
     -3.225  0.2258E+01  0.2256E+01  0.1092E+03  0.1092E+03
     -3.035  0.4947E+00  0.7920E-01  0.1093E+03  0.1092E+03
     -2.845  0.4839E+01  0.0000E+00  0.1102E+03  0.1092E+03
     -2.655  0.1886E-03  0.2809E-06  0.1102E+03  0.1092E+03
     -2.464  0.9661E-07  0.2756E+01  0.1102E+03  0.1097E+03
     -2.274  0.2000E+01  0.4434E+01  0.1106E+03  0.1106E+03
     -2.084  0.5631E+01  0.5674E+01  0.1117E+03  0.1117E+03
     -1.894  0.2485E+01  0.2507E+01  0.1121E+03  0.1121E+03
     -1.703  0.3172E+01  0.2860E+01  0.1128E+03  0.1127E+03
     -1.513  0.1392E+02  0.1251E+02  0.1154E+03  0.1151E+03
     -1.323  0.7820E+01  0.9515E+01  0.1169E+03  0.1169E+03
     -1.133  0.7559E+01  0.7575E+01  0.1183E+03  0.1183E+03
     -0.942  0.3220E+01  0.3216E+01  0.1189E+03  0.1189E+03
     -0.752  0.6755E+01  0.6773E+01  0.1202E+03  0.1202E+03
     -0.562  0.5937E+00  0.3132E-02  0.1203E+03  0.1202E+03
     -0.372  0.6382E+01  0.1867E+01  0.1215E+03  0.1206E+03
     -0.181  0.4533E+01  0.7496E+01  0.1224E+03  0.1220E+03
      0.009  0.4794E+01  0.6716E+01  0.1233E+03  0.1233E+03
      0.199  0.9820E+01  0.9897E+01  0.1252E+03  0.1252E+03
      0.389  0.5438E+01  0.4476E+01  0.1262E+03  0.1260E+03
      0.579  0.4233E+01  0.4496E+01  0.1270E+03  0.1269E+03
      0.770  0.1311E+02  0.1333E+02  0.1295E+03  0.1294E+03
      0.960  0.7085E+01  0.6125E+01  0.1309E+03  0.1306E+03
      1.150  0.7233E+01  0.7128E+01  0.1322E+03  0.1319E+03
      1.340  0.1083E+02  0.1142E+02  0.1343E+03  0.1341E+03
      1.531  0.1605E+02  0.1527E+02  0.1374E+03  0.1370E+03
      1.721  0.1128E+02  0.1286E+02  0.1395E+03  0.1395E+03
      1.911  0.2588E+01  0.2881E+01  0.1400E+03  0.1400E+03
      2.101  0.1313E-03  0.3919E-03  0.1400E+03  0.1400E+03
      2.292  0.0000E+00  0.0000E+00  0.1400E+03  0.1400E+03
      2.482  0.0000E+00  0.0000E+00  0.1400E+03  0.1400E+03
      2.672  0.0000E+00  0.0000E+00  0.1400E+03  0.1400E+03
      2.862  0.0000E+00  0.0000E+00  0.1400E+03  0.1400E+03
      3.053  0.0000E+00  0.0000E+00  0.1400E+03  0.1400E+03
      3.243  0.0000E+00  0.0000E+00  0.1400E+03  0.1400E+03
      3.433  0.0000E+00  0.0000E+00  0.1400E+03  0.1400E+03
      3.623  0.0000E+00  0.0000E+00  0.1400E+03  0.1400E+03
      3.814  0.0000E+00  0.0000E+00  0.1400E+03  0.1400E+03
      4.004  0.0000E+00  0.0000E+00  0.1400E+03  0.1400E+03
      4.194  0.0000E+00  0.0000E+00  0.1400E+03  0.1400E+03
      4.384  0.0000E+00  0.0000E+00  0.1400E+03  0.1400E+03
