<?xml version="1.0" encoding="ISO-8859-1"?>
<modeling>
 <generator>
  <i name="program" type="string">vasp </i>
  <i name="version" type="string">5.4.1  </i>
  <i name="subversion" type="string">24Jun15 (build Jul 23 2024 06:15:33) complex                          parallel </i>
  <i name="platform" type="string">IFC91_ompi </i>
  <i name="date" type="string">2026 05 06 </i>
  <i name="time" type="string">01:59:31 </i>
 </generator>
 <incar>
  <i type="string" name="SYSTEM"> Li defective graphene MACE training lab</i>
  <i type="int" name="ISTART">     0</i>
  <i type="string" name="PREC">accurate</i>
  <i type="string" name="ALGO"> Normal</i>
  <i type="logical" name="ADDGRID"> T  </i>
  <i type="int" name="ISPIN">     2</i>
  <i type="int" name="ICHARG">     2</i>
  <i type="int" name="NELM">   120</i>
  <i type="int" name="IBRION">    -1</i>
  <i name="EDIFF">      0.00000100</i>
  <i type="int" name="NSW">     0</i>
  <i type="int" name="ISIF">     2</i>
  <i type="int" name="ISYM">     0</i>
  <i name="ENCUT">    520.00000000</i>
  <v name="MAGMOM">      0.10000000      0.10000000      0.10000000      0.10000000      0.10000000      0.10000000      0.10000000      0.10000000      0.10000000      0.10000000      0.10000000      0.10000000      0.10000000      0.10000000      0.10000000      0.10000000      0.10000000      0.10000000      0.10000000      0.10000000
      0.10000000      0.10000000      0.10000000      0.10000000      0.10000000      0.10000000      0.10000000      0.10000000      0.10000000      0.10000000      0.10000000      0.10000000      0.10000000      0.10000000      0.10000000      0.10000000      0.10000000      0.10000000      0.10000000      0.10000000
      0.10000000      0.10000000      0.10000000      0.10000000      0.10000000      0.10000000      0.10000000      0.10000000      0.10000000      0.10000000      1.00000000      0.10000000      0.10000000      0.10000000      0.10000000</v>
  <i type="string" name="LREAL"> Auto</i>
  <i type="int" name="ISMEAR">     0</i>
  <i name="SIGMA">      0.05000000</i>
  <i type="logical" name="LWAVE"> F  </i>
  <i type="logical" name="LCHARG"> F  </i>
  <i type="logical" name="LASPH"> T  </i>
  <v type="int" name="KPOINT_BSE">    -1     0     0     0</v>
  <i type="int" name="NELM">   120</i>
  <i type="logical" name="LASPH"> T  </i>
 </incar>
 <kpoints>
  <generation param="Gamma">
   <v type="int" name="divisions">       3        3        1 </v>
   <v name="usershift">      0.00000000       0.00000000       0.00000000 </v>
   <v name="genvec1">      0.33333333       0.00000000       0.00000000 </v>
   <v name="genvec2">      0.00000000       0.33333333       0.00000000 </v>
   <v name="genvec3">      0.00000000       0.00000000       1.00000000 </v>
   <v name="shift">      0.00000000       0.00000000       0.00000000 </v>
  </generation>
  <varray name="kpointlist" >
   <v>       0.00000000       0.00000000       0.00000000 </v>
   <v>       0.33333333      -0.00000000       0.00000000 </v>
   <v>       0.00000000       0.33333333       0.00000000 </v>
   <v>       0.33333333       0.33333333       0.00000000 </v>
   <v>      -0.33333333       0.33333333       0.00000000 </v>
  </varray>
  <varray name="weights" >
   <v>       0.11111111 </v>
   <v>       0.22222222 </v>
   <v>       0.22222222 </v>
   <v>       0.22222222 </v>
   <v>       0.22222222 </v>
  </varray>
 </kpoints>
 <parameters>
  <separator name="general" >
   <i type="string" name="SYSTEM">Li defective graphene MACE training lab</i>
   <i type="logical" name="LCOMPAT"> F  </i>
  </separator>
  <separator name="electronic" >
   <i type="string" name="PREC">accura</i>
   <i name="ENMAX">    520.00000000</i>
   <i name="ENAUG">    644.87300000</i>
   <i name="EDIFF">      0.00000100</i>
   <i type="int" name="IALGO">    38</i>
   <i type="int" name="IWAVPR">    10</i>
   <i type="int" name="NBANDS">   140</i>
   <i name="NELECT">    219.00000000</i>
   <i type="int" name="TURBO">     0</i>
   <i type="int" name="IRESTART">     0</i>
   <i type="int" name="NREBOOT">     0</i>
   <i type="int" name="NMIN">     0</i>
   <i name="EREF">      0.00000000</i>
   <separator name="electronic smearing" >
    <i type="int" name="ISMEAR">     0</i>
    <i name="SIGMA">      0.05000000</i>
    <i name="KSPACING">      0.50000000</i>
    <i type="logical" name="KGAMMA"> T  </i>
   </separator>
   <separator name="electronic projectors" >
    <i type="logical" name="LREAL"> T  </i>
    <v name="ROPT">     -0.00025000     -0.00025000     -0.00025000</v>
    <i type="int" name="LMAXPAW">  -100</i>
    <i type="int" name="LMAXMIX">     2</i>
    <i type="logical" name="NLSPLINE"> F  </i>
   </separator>
   <separator name="electronic startup" >
    <i type="int" name="ISTART">     0</i>
    <i type="int" name="ICHARG">     2</i>
    <i type="int" name="INIWAV">     1</i>
   </separator>
   <separator name="electronic spin" >
    <i type="int" name="ISPIN">     2</i>
    <i type="logical" name="LNONCOLLINEAR"> F  </i>
    <v name="MAGMOM">      0.10000000      0.10000000      0.10000000      0.10000000      0.10000000      0.10000000      0.10000000      0.10000000      0.10000000      0.10000000      0.10000000      0.10000000      0.10000000      0.10000000      0.10000000      0.10000000      0.10000000      0.10000000      0.10000000      0.10000000
      0.10000000      0.10000000      0.10000000      0.10000000      0.10000000      0.10000000      0.10000000      0.10000000      0.10000000      0.10000000      0.10000000      0.10000000      0.10000000      0.10000000      0.10000000      0.10000000      0.10000000      0.10000000      0.10000000      0.10000000
      0.10000000      0.10000000      0.10000000      0.10000000      0.10000000      0.10000000      0.10000000      0.10000000      0.10000000      0.10000000      1.00000000      0.10000000      0.10000000      0.10000000      0.10000000</v>
    <i name="NUPDOWN">     -1.00000000</i>
    <i type="logical" name="LSORBIT"> F  </i>
    <v name="SAXIS">      0.00000000      0.00000000      1.00000000</v>
    <i type="logical" name="LSPIRAL"> F  </i>
    <v name="QSPIRAL">      0.00000000      0.00000000      0.00000000</v>
    <i type="logical" name="LZEROZ"> F  </i>
   </separator>
   <separator name="electronic exchange-correlation" >
    <i type="logical" name="LASPH"> T  </i>
    <i type="logical" name="LMETAGGA"> F  </i>
   </separator>
   <separator name="electronic convergence" >
    <i type="int" name="NELM">   120</i>
    <i type="int" name="NELMDL">    -5</i>
    <i type="int" name="NELMIN">     2</i>
    <i name="ENINI">    520.00000000</i>
    <separator name="electronic convergence detail" >
     <i type="logical" name="LDIAG"> T  </i>
     <i type="logical" name="LSUBROT"> F  </i>
     <i name="WEIMIN">      0.00000000</i>
     <i name="EBREAK">      0.00000000</i>
     <i name="DEPER">      0.30000000</i>
     <i type="int" name="NRMM">     4</i>
     <i name="TIME">      0.40000000</i>
    </separator>
   </separator>
   <separator name="electronic mixer" >
    <i name="AMIX">      0.40000000</i>
    <i name="BMIX">      1.00000000</i>
    <i name="AMIN">      0.10000000</i>
    <i name="AMIX_MAG">      1.60000000</i>
    <i name="BMIX_MAG">      1.00000000</i>
    <separator name="electronic mixer details" >
     <i type="int" name="IMIX">     4</i>
     <i type="logical" name="MIXFIRST"> F  </i>
     <i type="int" name="MAXMIX">   -45</i>
     <i name="WC">    100.00000000</i>
     <i type="int" name="INIMIX">     1</i>
     <i type="int" name="MIXPRE">     1</i>
     <i type="int" name="MREMOVE">     5</i>
    </separator>
   </separator>
   <separator name="electronic dipolcorrection" >
    <i type="logical" name="LDIPOL"> F  </i>
    <i type="logical" name="LMONO"> F  </i>
    <i type="int" name="IDIPOL">     0</i>
    <i name="EPSILON">      1.00000000</i>
    <v name="DIPOL">   -100.00000000   -100.00000000   -100.00000000</v>
    <i name="EFIELD">      0.00000000</i>
   </separator>
  </separator>
  <separator name="grids" >
   <i type="int" name="NGX">    96</i>
   <i type="int" name="NGY">    96</i>
   <i type="int" name="NGZ">   224</i>
   <i type="int" name="NGXF">   192</i>
   <i type="int" name="NGYF">   192</i>
   <i type="int" name="NGZF">   448</i>
   <i type="logical" name="ADDGRID"> T  </i>
  </separator>
  <separator name="ionic" >
   <i type="int" name="NSW">     0</i>
   <i type="int" name="IBRION">    -1</i>
   <i type="int" name="ISIF">     2</i>
   <i name="PSTRESS">      0.00000000</i>
   <i name="EDIFFG">      0.00001000</i>
   <i type="int" name="NFREE">     0</i>
   <i name="POTIM">      0.50000000</i>
   <i name="SMASS">     -3.00000000</i>
   <i name="SCALEE">      1.00000000</i>
  </separator>
  <separator name="ionic md" >
   <i name="TEBEG">      0.00010000</i>
   <i name="TEEND">      0.00010000</i>
   <i type="int" name="NBLOCK">     1</i>
   <i type="int" name="KBLOCK">     1</i>
   <i type="int" name="NPACO">   256</i>
   <i name="APACO">     16.00000000</i>
  </separator>
  <separator name="symmetry" >
   <i type="int" name="ISYM">     0</i>
   <i name="SYMPREC">      0.00001000</i>
  </separator>
  <separator name="dos" >
   <i type="logical" name="LORBIT"> F  </i>
   <v name="RWIGS">     -1.00000000     -1.00000000     -1.00000000</v>
   <i type="int" name="NEDOS">   301</i>
   <i name="EMIN">     10.00000000</i>
   <i name="EMAX">    -10.00000000</i>
   <i name="EFERMI">      0.00000000</i>
  </separator>
  <separator name="writing" >
   <i type="int" name="NWRITE">     2</i>
   <i type="logical" name="LWAVE"> F  </i>
   <i type="logical" name="LCHARG"> F  </i>
   <i type="logical" name="LPARD"> F  </i>
   <i type="logical" name="LVTOT"> F  </i>
   <i type="logical" name="LVHAR"> F  </i>
   <i type="logical" name="LELF"> F  </i>
   <i type="logical" name="LOPTICS"> F  </i>
   <v name="STM">      0.00000000      0.00000000      0.00000000      0.00000000      0.00000000      0.00000000      0.00000000</v>
  </separator>
  <separator name="performance" >
   <i type="int" name="NPAR">     4</i>
   <i type="int" name="NSIM">     4</i>
   <i type="int" name="NBLK">    -1</i>
   <i type="logical" name="LPLANE"> T  </i>
   <i type="logical" name="LSCALAPACK"> T  </i>
   <i type="logical" name="LSCAAWARE"> F  </i>
   <i type="logical" name="LSCALU"> F  </i>
   <i type="logical" name="LASYNC"> F  </i>
   <i type="logical" name="LORBITALREAL"> F  </i>
  </separator>
  <separator name="miscellaneous" >
   <i type="int" name="IDIOT">     3</i>
   <i type="logical" name="LMUSIC"> F  </i>
   <v name="POMASS">     12.01100000      7.01000000     28.08500000</v>
   <v name="DARWINR">      0.00000000      0.00000000      0.00000000</v>
   <v name="DARWINV">      1.00000000      1.00000000      1.00000000</v>
   <i type="logical" name="LCORR"> T  </i>
  </separator>
  <i type="logical" name="GGA_COMPAT"> T  </i>
  <i type="logical" name="LBERRY"> F  </i>
  <i type="int" name="ICORELEVEL">     0</i>
  <i type="logical" name="LDAU"> F  </i>
  <i type="int" name="I_CONSTRAINED_M">     0</i>
  <separator name="electronic exchange-correlation" >
   <i type="string" name="GGA">--</i>
   <i type="int" name="VOSKOWN">     0</i>
   <i type="logical" name="LHFCALC"> F  </i>
   <i type="string" name="PRECFOCK"></i>
   <i type="logical" name="LSYMGRAD"> F  </i>
   <i type="logical" name="LHFONE"> F  </i>
   <i type="logical" name="LRHFCALC"> F  </i>
   <i type="logical" name="LTHOMAS"> F  </i>
   <i type="logical" name="LMODELHF"> F  </i>
   <i name="ENCUT4O">     -1.00000000</i>
   <i type="int" name="EXXOEP">     0</i>
   <i type="int" name="FOURORBIT">     0</i>
   <i name="AEXX">      0.00000000</i>
   <i name="HFALPHA">      0.00000000</i>
   <i name="MCALPHA">      0.00000000</i>
   <i name="ALDAX">      1.00000000</i>
   <i name="AGGAX">      1.00000000</i>
   <i name="ALDAC">      1.00000000</i>
   <i name="AGGAC">      1.00000000</i>
   <i type="int" name="NKREDX">     1</i>
   <i type="int" name="NKREDY">     1</i>
   <i type="int" name="NKREDZ">     1</i>
   <i type="logical" name="SHIFTRED"> F  </i>
   <i type="logical" name="ODDONLY"> F  </i>
   <i type="logical" name="EVENONLY"> F  </i>
   <i type="int" name="LMAXFOCK">     0</i>
   <i type="int" name="NMAXFOCKAE">     0</i>
   <i type="logical" name="LFOCKAEDFT"> F  </i>
   <i name="HFSCREEN">      0.00000000</i>
   <i name="HFSCREENC">      0.00000000</i>
   <i type="int" name="NBANDSGWLOW">     0</i>
  </separator>
  <separator name="vdW DFT" >
   <i type="logical" name="LUSE_VDW"> F  </i>
   <i name="Zab_VDW">     -0.84910000</i>
   <i name="PARAM1">      0.12340000</i>
   <i name="PARAM2">      1.00000000</i>
   <i name="PARAM3">      0.00000000</i>
  </separator>
  <separator name="model GW" >
   <i type="int" name="MODEL_GW">     0</i>
   <i name="MODEL_EPS0">     42.87959455</i>
   <i name="MODEL_ALPHA">      1.00000000</i>
  </separator>
  <separator name="linear response parameters" >
   <i type="logical" name="LEPSILON"> F  </i>
   <i type="logical" name="LRPA"> F  </i>
   <i type="logical" name="LNABLA"> F  </i>
   <i type="logical" name="LVEL"> F  </i>
   <i type="int" name="KINTER">     0</i>
   <i name="CSHIFT">      0.10000000</i>
   <i name="OMEGAMAX">     -1.00000000</i>
   <i name="DEG_THRESHOLD">      0.00200000</i>
  </separator>
  <separator name="orbital magnetization" >
   <i type="logical" name="NUCIND"> F  </i>
   <v name="MAGPOS">      0.00000000      0.00000000      0.00000000</v>
   <i type="logical" name="LNICSALL"> T  </i>
   <i type="logical" name="ORBITALMAG"> F  </i>
   <i type="logical" name="LMAGBLOCH"> F  </i>
   <i type="logical" name="LCHIMAG"> F  </i>
   <i type="logical" name="LGAUGE"> T  </i>
   <i type="int" name="MAGATOM">     0</i>
   <v name="MAGDIPOL">      0.00000000      0.00000000      0.00000000</v>
   <v name="AVECCONST">      0.00000000      0.00000000      0.00000000</v>
  </separator>
  <separator name="response functions" >
   <i type="logical" name="LADDER"> F  </i>
   <i type="logical" name="LFXC"> F  </i>
   <i type="logical" name="LHARTREE"> T  </i>
   <i type="int" name="IBSE">     0</i>
   <v type="int" name="KPOINT">    -1     0     0     0</v>
   <i type="logical" name="LTCTE"> F  </i>
   <i type="logical" name="LTETE"> F  </i>
   <i type="logical" name="LTRIPLET"> F  </i>
   <i type="logical" name="LFXCEPS"> F  </i>
   <i type="logical" name="LFXHEG"> F  </i>
   <i type="int" name="NATURALO">     0</i>
   <i type="logical" name="L2ORDER"> F  </i>
   <i type="logical" name="LUSEW"> F  </i>
   <i name="ENCUTGW">     -2.00000000</i>
   <i name="ENCUTGWSOFT">     -2.00000000</i>
   <i name="ENCUTLF">     -1.00000000</i>
   <i type="int" name="LMAXMP2">    -1</i>
   <i name="SCISSOR">      0.00000000</i>
   <i type="int" name="NOMEGA">     0</i>
   <i type="int" name="NOMEGAR">     0</i>
   <i type="int" name="NBANDSGW">    -1</i>
   <i type="int" name="NBANDSO">    -1</i>
   <i type="int" name="NBANDSV">    -1</i>
   <i type="int" name="NELM">   120</i>
   <i type="int" name="NELMHF">     1</i>
   <i type="int" name="DIM">     3</i>
   <i type="int" name="ANTIRES">     0</i>
   <i name="OMEGAMAX">    -30.00000000</i>
   <i name="OMEGAMIN">    -30.00000000</i>
   <i name="OMEGATL">   -200.00000000</i>
   <i type="int" name="OMEGAGRID">     0</i>
   <i name="CSHIFT">     -0.10000000</i>
   <i type="logical" name="SELFENERGY"> F  </i>
   <i type="logical" name="LSPECTRAL"> F  </i>
   <i type="logical" name="LSPECTRALGW"> F  </i>
   <i type="logical" name="LSINGLES"> F  </i>
   <i type="logical" name="LFERMIGW"> F  </i>
   <i type="logical" name="ODDONLYGW"> F  </i>
   <i type="logical" name="EVENONLYGW"> F  </i>
   <i type="int" name="NKREDLFX">     1</i>
   <i type="int" name="NKREDLFY">     1</i>
   <i type="int" name="NKREDLFZ">     1</i>
   <i type="int" name="MAXMEM">  1800</i>
   <i type="int" name="TELESCOPE">     0</i>
   <i type="int" name="TAUPAR">     1</i>
   <i type="int" name="OMEGAPAR">    -1</i>
   <i name="LAMBDA">      1.00000000</i>
  </separator>
  <separator name="External order field" >
   <i name="OFIELD_KAPPA">      0.00000000</i>
   <v name="OFIELD_K">      0.00000000      0.00000000      0.00000000</v>
   <i name="OFIELD_Q6_NEAR">      0.00000000</i>
   <i name="OFIELD_Q6_FAR">      0.00000000</i>
   <i name="OFIELD_A">      0.00000000</i>
  </separator>
 </parameters>
 <atominfo>
  <atoms>      55 </atoms>
  <types>       3 </types>
  <array name="atoms" >
   <dimension dim="1">ion</dimension>
   <field type="string">element</field>
   <field type="int">atomtype</field>
   <set>
    <rc><c>C </c><c>   1</c></rc>
    <rc><c>C </c><c>   1</c></rc>
    <rc><c>C </c><c>   1</c></rc>
    <rc><c>C </c><c>   1</c></rc>
    <rc><c>C </c><c>   1</c></rc>
    <rc><c>C </c><c>   1</c></rc>
    <rc><c>C </c><c>   1</c></rc>
    <rc><c>C </c><c>   1</c></rc>
    <rc><c>C </c><c>   1</c></rc>
    <rc><c>C </c><c>   1</c></rc>
    <rc><c>C </c><c>   1</c></rc>
    <rc><c>C </c><c>   1</c></rc>
    <rc><c>C </c><c>   1</c></rc>
    <rc><c>C </c><c>   1</c></rc>
    <rc><c>C </c><c>   1</c></rc>
    <rc><c>C </c><c>   1</c></rc>
    <rc><c>C </c><c>   1</c></rc>
    <rc><c>C </c><c>   1</c></rc>
    <rc><c>C </c><c>   1</c></rc>
    <rc><c>C </c><c>   1</c></rc>
    <rc><c>C </c><c>   1</c></rc>
    <rc><c>C </c><c>   1</c></rc>
    <rc><c>C </c><c>   1</c></rc>
    <rc><c>C </c><c>   1</c></rc>
    <rc><c>C </c><c>   1</c></rc>
    <rc><c>C </c><c>   1</c></rc>
    <rc><c>C </c><c>   1</c></rc>
    <rc><c>C </c><c>   1</c></rc>
    <rc><c>C </c><c>   1</c></rc>
    <rc><c>C </c><c>   1</c></rc>
    <rc><c>C </c><c>   1</c></rc>
    <rc><c>C </c><c>   1</c></rc>
    <rc><c>C </c><c>   1</c></rc>
    <rc><c>C </c><c>   1</c></rc>
    <rc><c>C </c><c>   1</c></rc>
    <rc><c>C </c><c>   1</c></rc>
    <rc><c>C </c><c>   1</c></rc>
    <rc><c>C </c><c>   1</c></rc>
    <rc><c>C </c><c>   1</c></rc>
    <rc><c>C </c><c>   1</c></rc>
    <rc><c>C </c><c>   1</c></rc>
    <rc><c>C </c><c>   1</c></rc>
    <rc><c>C </c><c>   1</c></rc>
    <rc><c>C </c><c>   1</c></rc>
    <rc><c>C </c><c>   1</c></rc>
    <rc><c>C </c><c>   1</c></rc>
    <rc><c>C </c><c>   1</c></rc>
    <rc><c>C </c><c>   1</c></rc>
    <rc><c>C </c><c>   1</c></rc>
    <rc><c>C </c><c>   1</c></rc>
    <rc><c>Li</c><c>   2</c></rc>
    <rc><c>Si</c><c>   3</c></rc>
    <rc><c>Si</c><c>   3</c></rc>
    <rc><c>Si</c><c>   3</c></rc>
    <rc><c>Si</c><c>   3</c></rc>
   </set>
  </array>
  <array name="atomtypes" >
   <dimension dim="1">type</dimension>
   <field type="int">atomspertype</field>
   <field type="string">element</field>
   <field>mass</field>
   <field>valence</field>
   <field type="string">pseudopotential</field>
   <set>
    <rc><c>  50</c><c>C </c><c>     12.01100000</c><c>      4.00000000</c><c>  PAW_PBE C 08Apr2002                   </c></rc>
    <rc><c>   1</c><c>Li</c><c>      7.01000000</c><c>      3.00000000</c><c>  PAW_PBE Li_sv 10Sep2004               </c></rc>
    <rc><c>   4</c><c>Si</c><c>     28.08500000</c><c>      4.00000000</c><c>  PAW_PBE Si 05Jan2001                  </c></rc>
   </set>
  </array>
 </atominfo>
 <structure name="initialpos" >
  <crystal>
   <varray name="basis" >
    <v>      12.30000000       0.00000000       0.00000000 </v>
    <v>      -6.15000000      10.65211247       0.00000000 </v>
    <v>       0.00000000       0.00000000      30.00000000 </v>
   </varray>
   <i name="volume">   3930.62950016 </i>
   <varray name="rec_basis" >
    <v>       0.08130081       0.04693905       0.00000000 </v>
    <v>       0.00000000       0.09387809       0.00000000 </v>
    <v>       0.00000000       0.00000000       0.03333333 </v>
   </varray>
  </crystal>
  <varray name="positions" >
   <v>       0.00345074       0.99986383       0.49609670 </v>
   <v>       0.00348460       0.19970334       0.49664178 </v>
   <v>       0.13682954       0.26641593       0.49662475 </v>
   <v>       0.00369603       0.39951385       0.49732348 </v>
   <v>       0.13694708       0.46642552       0.49708584 </v>
   <v>       0.00383788       0.60005532       0.49711179 </v>
   <v>       0.13728880       0.66673225       0.49714247 </v>
   <v>       0.00373898       0.80037993       0.49623857 </v>
   <v>       0.13693361       0.86663486       0.49637633 </v>
   <v>       0.40332590       0.39971860       0.49590635 </v>
   <v>       0.33679058       0.06643168       0.49601494 </v>
   <v>       0.53661624       0.26629152       0.49570410 </v>
   <v>       0.20350352       0.99988078       0.49615422 </v>
   <v>       0.20353132       0.39972944       0.49672267 </v>
   <v>       0.33680059       0.46648876       0.49629492 </v>
   <v>       0.20362647       0.59981745       0.49699182 </v>
   <v>       0.33686522       0.66650087       0.49656844 </v>
   <v>       0.20361733       0.79994590       0.49668328 </v>
   <v>       0.33686383       0.86652635       0.49644123 </v>
   <v>       0.40346456       0.99981634       0.49614744 </v>
   <v>       0.53673714       0.06636083       0.49614030 </v>
   <v>       0.40335236       0.19969184       0.49582630 </v>
   <v>       0.20346847       0.19976015       0.49630817 </v>
   <v>       0.33677594       0.26642160       0.49600636 </v>
   <v>       0.53671381       0.66650573       0.49577726 </v>
   <v>       0.13676778       0.06644140       0.49620324 </v>
   <v>       0.73675221       0.86656239       0.49579090 </v>
   <v>       0.40345319       0.79981189       0.49641146 </v>
   <v>       0.53677031       0.86643479       0.49613927 </v>
   <v>       0.60343762       0.99974474       0.49621758 </v>
   <v>       0.73674534       0.06635827       0.49634866 </v>
   <v>       0.60329964       0.19960770       0.49607178 </v>
   <v>       0.73647718       0.26588547       0.49658746 </v>
   <v>       0.60285721       0.39947764       0.49554387 </v>
   <v>       0.73629875       0.46622453       0.49571691 </v>
   <v>       0.60324845       0.59978617       0.49552552 </v>
   <v>       0.53657849       0.46639432       0.49553343 </v>
   <v>       0.40344283       0.59979045       0.49620483 </v>
   <v>       0.73644477       0.66674569       0.49555307 </v>
   <v>       0.80346948       0.99983073       0.49611591 </v>
   <v>       0.93675302       0.06643387       0.49626334 </v>
   <v>       0.80338933       0.19958592       0.49670218 </v>
   <v>       0.93678703       0.26628266       0.49693830 </v>
   <v>       0.80315717       0.39930135       0.49657820 </v>
   <v>       0.93695234       0.46624950       0.49725907 </v>
   <v>       0.80315673       0.60002138       0.49569846 </v>
   <v>       0.93698371       0.66696228       0.49635207 </v>
   <v>       0.80338826       0.79995657       0.49565506 </v>
   <v>       0.93678992       0.86661211       0.49589353 </v>
   <v>       0.60345197       0.79982850       0.49586192 </v>
   <v>       0.82898378       0.53361090       0.55293658 </v>
   <v>       0.52033525       0.40496966       0.67613139 </v>
   <v>       0.71141259       0.58973245       0.68898397 </v>
   <v>       0.68672958       0.46155567       0.62731800 </v>
   <v>       0.87646093       0.64798229       0.64082278 </v>
  </varray>
 </structure>
 <calculation>
  <scstep>
   <time name="dav">   47.74   47.74</time>
   <time name="total">   50.63   50.63</time>
   <energy>
    <i name="alphaZ">     59.51446491 </i>
    <i name="ewald">  59552.42959518 </i>
    <i name="hartreedc"> -65157.55899307 </i>
    <i name="XCdc">    632.74864055 </i>
    <i name="pawpsdc">   5858.04939626 </i>
    <i name="pawaedc">  -5831.48174947 </i>
    <i name="eentropy">     -0.03097177 </i>
    <i name="bandstr">  -1031.16950074 </i>
    <i name="atom">   7972.48291802 </i>
    <i name="e_fr_energy">   2054.98379987 </i>
    <i name="e_wo_entrp">   2055.01477165 </i>
    <i name="e_0_energy">   2054.99928576 </i>
   </energy>
  </scstep>
  <scstep>
   <time name="dav">   57.42   57.42</time>
   <time name="total">   57.42   57.43</time>
   <energy>
    <i name="e_fr_energy">     29.92005909 </i>
    <i name="e_wo_entrp">     29.93262899 </i>
    <i name="e_0_energy">     29.92634404 </i>
   </energy>
  </scstep>
  <scstep>
   <time name="dav">   50.77   50.77</time>
   <time name="total">   50.77   50.78</time>
   <energy>
    <i name="e_fr_energy">   -483.12015590 </i>
    <i name="e_wo_entrp">   -483.10974674 </i>
    <i name="e_0_energy">   -483.11495132 </i>
   </energy>
  </scstep>
  <scstep>
   <time name="dav">   49.63   49.64</time>
   <time name="total">   49.63   49.64</time>
   <energy>
    <i name="e_fr_energy">   -513.24453602 </i>
    <i name="e_wo_entrp">   -513.23218375 </i>
    <i name="e_0_energy">   -513.23835989 </i>
   </energy>
  </scstep>
  <scstep>
   <time name="dav">   60.00   60.04</time>
   <time name="total">   64.54   64.59</time>
   <energy>
    <i name="e_fr_energy">   -514.46924933 </i>
    <i name="e_wo_entrp">   -514.45584239 </i>
    <i name="e_0_energy">   -514.46254586 </i>
   </energy>
  </scstep>
  <scstep>
   <time name="dav">   46.45   46.48</time>
   <time name="total">   53.52   53.56</time>
   <energy>
    <i name="e_fr_energy">   -487.59130188 </i>
    <i name="e_wo_entrp">   -487.57696396 </i>
    <i name="e_0_energy">   -487.58413292 </i>
   </energy>
  </scstep>
  <scstep>
   <time name="dav">   44.70   44.70</time>
   <time name="total">   51.68   51.69</time>
   <energy>
    <i name="e_fr_energy">   -477.31533932 </i>
    <i name="e_wo_entrp">   -477.30137024 </i>
    <i name="e_0_energy">   -477.30835478 </i>
   </energy>
  </scstep>
  <scstep>
   <time name="dav">   44.61   44.62</time>
   <time name="total">   51.68   51.68</time>
   <energy>
    <i name="e_fr_energy">   -475.60047300 </i>
    <i name="e_wo_entrp">   -475.58651039 </i>
    <i name="e_0_energy">   -475.59349169 </i>
   </energy>
  </scstep>
  <scstep>
   <time name="dav">   50.27   50.28</time>
   <time name="total">   57.24   57.25</time>
   <energy>
    <i name="e_fr_energy">   -475.59559261 </i>
    <i name="e_wo_entrp">   -475.58162966 </i>
    <i name="e_0_energy">   -475.58861113 </i>
   </energy>
  </scstep>
  <scstep>
   <time name="dav">   46.13   46.16</time>
   <time name="total">   53.18   53.22</time>
   <energy>
    <i name="e_fr_energy">   -476.14647901 </i>
    <i name="e_wo_entrp">   -476.13251554 </i>
    <i name="e_0_energy">   -476.13949727 </i>
   </energy>
  </scstep>
  <scstep>
   <time name="dav">   45.68   45.71</time>
   <time name="total">   52.86   52.89</time>
   <energy>
    <i name="e_fr_energy">   -476.72492311 </i>
    <i name="e_wo_entrp">   -476.71095962 </i>
    <i name="e_0_energy">   -476.71794137 </i>
   </energy>
  </scstep>
  <scstep>
   <time name="dav">   44.92   44.92</time>
   <time name="total">   52.13   52.13</time>
   <energy>
    <i name="e_fr_energy">   -477.38405400 </i>
    <i name="e_wo_entrp">   -477.37009048 </i>
    <i name="e_0_energy">   -477.37707224 </i>
   </energy>
  </scstep>
  <scstep>
   <time name="dav">   43.14   43.14</time>
   <time name="total">   50.35   50.35</time>
   <energy>
    <i name="e_fr_energy">   -477.99428575 </i>
    <i name="e_wo_entrp">   -477.98032196 </i>
    <i name="e_0_energy">   -477.98730385 </i>
   </energy>
  </scstep>
  <scstep>
   <time name="dav">   43.20   43.20</time>
   <time name="total">   50.41   50.42</time>
   <energy>
    <i name="e_fr_energy">   -478.17077873 </i>
    <i name="e_wo_entrp">   -478.15681437 </i>
    <i name="e_0_energy">   -478.16379655 </i>
   </energy>
  </scstep>
  <scstep>
   <time name="dav">   43.48   43.51</time>
   <time name="total">   50.70   50.73</time>
   <energy>
    <i name="e_fr_energy">   -478.83001711 </i>
    <i name="e_wo_entrp">   -478.81605228 </i>
    <i name="e_0_energy">   -478.82303469 </i>
   </energy>
  </scstep>
  <scstep>
   <time name="dav">   44.50   44.50</time>
   <time name="total">   51.76   51.76</time>
   <energy>
    <i name="e_fr_energy">   -479.22701239 </i>
    <i name="e_wo_entrp">   -479.21304754 </i>
    <i name="e_0_energy">   -479.22002996 </i>
   </energy>
  </scstep>
  <scstep>
   <time name="dav">   44.32   44.32</time>
   <time name="total">   51.70   51.70</time>
   <energy>
    <i name="e_fr_energy">   -479.48404743 </i>
    <i name="e_wo_entrp">   -479.47008268 </i>
    <i name="e_0_energy">   -479.47706506 </i>
   </energy>
  </scstep>
  <scstep>
   <time name="dav">   44.66   44.66</time>
   <time name="total">   52.10   52.10</time>
   <energy>
    <i name="e_fr_energy">   -479.60756167 </i>
    <i name="e_wo_entrp">   -479.59359703 </i>
    <i name="e_0_energy">   -479.60057935 </i>
   </energy>
  </scstep>
  <scstep>
   <time name="dav">   44.97   44.97</time>
   <time name="total">   52.64   52.64</time>
   <energy>
    <i name="e_fr_energy">   -479.65274484 </i>
    <i name="e_wo_entrp">   -479.63878031 </i>
    <i name="e_0_energy">   -479.64576258 </i>
   </energy>
  </scstep>
  <scstep>
   <time name="dav">   43.87   43.90</time>
   <time name="total">   51.54   51.58</time>
   <energy>
    <i name="e_fr_energy">   -479.67816281 </i>
    <i name="e_wo_entrp">   -479.66419848 </i>
    <i name="e_0_energy">   -479.67118064 </i>
   </energy>
  </scstep>
  <scstep>
   <time name="dav">   45.94   45.97</time>
   <time name="total">   53.65   53.68</time>
   <energy>
    <i name="e_fr_energy">   -479.68713245 </i>
    <i name="e_wo_entrp">   -479.67316828 </i>
    <i name="e_0_energy">   -479.68015036 </i>
   </energy>
  </scstep>
  <scstep>
   <time name="dav">   44.25   44.25</time>
   <time name="total">   51.91   51.91</time>
   <energy>
    <i name="e_fr_energy">   -479.69956280 </i>
    <i name="e_wo_entrp">   -479.68559877 </i>
    <i name="e_0_energy">   -479.69258078 </i>
   </energy>
  </scstep>
  <scstep>
   <time name="dav">   44.16   44.16</time>
   <time name="total">   51.84   51.85</time>
   <energy>
    <i name="e_fr_energy">   -479.71409311 </i>
    <i name="e_wo_entrp">   -479.70012913 </i>
    <i name="e_0_energy">   -479.70711112 </i>
   </energy>
  </scstep>
  <scstep>
   <time name="dav">   39.75   39.75</time>
   <time name="total">   47.46   47.46</time>
   <energy>
    <i name="e_fr_energy">   -479.72114307 </i>
    <i name="e_wo_entrp">   -479.70717911 </i>
    <i name="e_0_energy">   -479.71416109 </i>
   </energy>
  </scstep>
  <scstep>
   <time name="dav">   38.17   38.17</time>
   <time name="total">   45.90   45.91</time>
   <energy>
    <i name="e_fr_energy">   -479.72381668 </i>
    <i name="e_wo_entrp">   -479.70985270 </i>
    <i name="e_0_energy">   -479.71683469 </i>
   </energy>
  </scstep>
  <scstep>
   <time name="dav">   37.65   37.66</time>
   <time name="total">   45.36   45.37</time>
   <energy>
    <i name="e_fr_energy">   -479.72498107 </i>
    <i name="e_wo_entrp">   -479.71101706 </i>
    <i name="e_0_energy">   -479.71799907 </i>
   </energy>
  </scstep>
  <scstep>
   <time name="dav">   38.32   38.34</time>
   <time name="total">   46.01   46.04</time>
   <energy>
    <i name="e_fr_energy">   -479.72555020 </i>
    <i name="e_wo_entrp">   -479.71158617 </i>
    <i name="e_0_energy">   -479.71856818 </i>
   </energy>
  </scstep>
  <scstep>
   <time name="dav">   38.22   38.23</time>
   <time name="total">   45.91   45.93</time>
   <energy>
    <i name="e_fr_energy">   -479.72575573 </i>
    <i name="e_wo_entrp">   -479.71179169 </i>
    <i name="e_0_energy">   -479.71877371 </i>
   </energy>
  </scstep>
  <scstep>
   <time name="dav">   38.11   38.11</time>
   <time name="total">   45.83   45.84</time>
   <energy>
    <i name="e_fr_energy">   -479.72584795 </i>
    <i name="e_wo_entrp">   -479.71188390 </i>
    <i name="e_0_energy">   -479.71886593 </i>
   </energy>
  </scstep>
  <scstep>
   <time name="dav">   34.66   34.66</time>
   <time name="total">   42.37   42.37</time>
   <energy>
    <i name="e_fr_energy">   -479.72590679 </i>
    <i name="e_wo_entrp">   -479.71194273 </i>
    <i name="e_0_energy">   -479.71892476 </i>
   </energy>
  </scstep>
  <scstep>
   <time name="dav">   34.39   34.39</time>
   <time name="total">   42.11   42.12</time>
   <energy>
    <i name="e_fr_energy">   -479.72593149 </i>
    <i name="e_wo_entrp">   -479.71196743 </i>
    <i name="e_0_energy">   -479.71894946 </i>
   </energy>
  </scstep>
  <scstep>
   <time name="dav">   33.45   33.47</time>
   <time name="total">   41.19   41.22</time>
   <energy>
    <i name="e_fr_energy">   -479.72594660 </i>
    <i name="e_wo_entrp">   -479.71198254 </i>
    <i name="e_0_energy">   -479.71896457 </i>
   </energy>
  </scstep>
  <scstep>
   <time name="dav">   32.16   32.16</time>
   <time name="total">   39.92   39.93</time>
   <energy>
    <i name="e_fr_energy">   -479.72595630 </i>
    <i name="e_wo_entrp">   -479.71199225 </i>
    <i name="e_0_energy">   -479.71897428 </i>
   </energy>
  </scstep>
  <scstep>
   <time name="dav">   32.15   32.16</time>
   <time name="total">   39.90   39.91</time>
   <energy>
    <i name="e_fr_energy">   -479.72595910 </i>
    <i name="e_wo_entrp">   -479.71199505 </i>
    <i name="e_0_energy">   -479.71897708 </i>
   </energy>
  </scstep>
  <scstep>
   <time name="dav">   32.38   32.38</time>
   <time name="total">   40.13   40.14</time>
   <energy>
    <i name="e_fr_energy">   -479.72596085 </i>
    <i name="e_wo_entrp">   -479.71199680 </i>
    <i name="e_0_energy">   -479.71897882 </i>
   </energy>
  </scstep>
  <scstep>
   <time name="dav">   31.80   31.80</time>
   <time name="total">   34.71   34.71</time>
   <energy>
    <i name="alphaZ">     59.51446491 </i>
    <i name="ewald">  59552.42959518 </i>
    <i name="hartreedc"> -66040.62509057 </i>
    <i name="XCdc">    663.50209949 </i>
    <i name="pawpsdc">  22373.31989650 </i>
    <i name="pawaedc"> -22353.16304301 </i>
    <i name="eentropy">     -0.01396405 </i>
    <i name="bandstr">  -2707.17283783 </i>
    <i name="atom">   7972.48291802 </i>
    <i name="e_fr_energy">   -479.72596137 </i>
    <i name="e_wo_entrp">   -479.71199732 </i>
    <i name="e_0_energy">   -479.71897934 </i>
   </energy>
  </scstep>
  <structure>
   <crystal>
    <varray name="basis" >
     <v>      12.30000000       0.00000000       0.00000000 </v>
     <v>      -6.15000000      10.65211247       0.00000000 </v>
     <v>       0.00000000       0.00000000      30.00000000 </v>
    </varray>
    <i name="volume">   3930.62950016 </i>
    <varray name="rec_basis" >
     <v>       0.08130081       0.04693905       0.00000000 </v>
     <v>       0.00000000       0.09387809       0.00000000 </v>
     <v>       0.00000000       0.00000000       0.03333333 </v>
    </varray>
   </crystal>
   <varray name="positions" >
    <v>       0.00345074       0.99986383       0.49609670 </v>
    <v>       0.00348460       0.19970334       0.49664178 </v>
    <v>       0.13682954       0.26641593       0.49662475 </v>
    <v>       0.00369603       0.39951385       0.49732348 </v>
    <v>       0.13694708       0.46642552       0.49708584 </v>
    <v>       0.00383788       0.60005532       0.49711179 </v>
    <v>       0.13728880       0.66673225       0.49714247 </v>
    <v>       0.00373898       0.80037993       0.49623857 </v>
    <v>       0.13693361       0.86663486       0.49637633 </v>
    <v>       0.40332590       0.39971860       0.49590635 </v>
    <v>       0.33679058       0.06643168       0.49601494 </v>
    <v>       0.53661624       0.26629152       0.49570410 </v>
    <v>       0.20350352       0.99988078       0.49615422 </v>
    <v>       0.20353132       0.39972944       0.49672267 </v>
    <v>       0.33680059       0.46648876       0.49629492 </v>
    <v>       0.20362647       0.59981745       0.49699182 </v>
    <v>       0.33686522       0.66650087       0.49656844 </v>
    <v>       0.20361733       0.79994590       0.49668328 </v>
    <v>       0.33686383       0.86652635       0.49644123 </v>
    <v>       0.40346456       0.99981634       0.49614744 </v>
    <v>       0.53673714       0.06636083       0.49614030 </v>
    <v>       0.40335236       0.19969184       0.49582630 </v>
    <v>       0.20346847       0.19976015       0.49630817 </v>
    <v>       0.33677594       0.26642160       0.49600636 </v>
    <v>       0.53671381       0.66650573       0.49577726 </v>
    <v>       0.13676778       0.06644140       0.49620324 </v>
    <v>       0.73675221       0.86656239       0.49579090 </v>
    <v>       0.40345319       0.79981189       0.49641146 </v>
    <v>       0.53677031       0.86643479       0.49613927 </v>
    <v>       0.60343762       0.99974474       0.49621758 </v>
    <v>       0.73674534       0.06635827       0.49634866 </v>
    <v>       0.60329964       0.19960770       0.49607178 </v>
    <v>       0.73647718       0.26588547       0.49658746 </v>
    <v>       0.60285721       0.39947764       0.49554387 </v>
    <v>       0.73629875       0.46622453       0.49571691 </v>
    <v>       0.60324845       0.59978617       0.49552552 </v>
    <v>       0.53657849       0.46639432       0.49553343 </v>
    <v>       0.40344283       0.59979045       0.49620483 </v>
    <v>       0.73644477       0.66674569       0.49555307 </v>
    <v>       0.80346948       0.99983073       0.49611591 </v>
    <v>       0.93675302       0.06643387       0.49626334 </v>
    <v>       0.80338933       0.19958592       0.49670218 </v>
    <v>       0.93678703       0.26628266       0.49693830 </v>
    <v>       0.80315717       0.39930135       0.49657820 </v>
    <v>       0.93695234       0.46624950       0.49725907 </v>
    <v>       0.80315673       0.60002138       0.49569846 </v>
    <v>       0.93698371       0.66696228       0.49635207 </v>
    <v>       0.80338826       0.79995657       0.49565506 </v>
    <v>       0.93678992       0.86661211       0.49589353 </v>
    <v>       0.60345197       0.79982850       0.49586192 </v>
    <v>       0.82898378       0.53361090       0.55293658 </v>
    <v>       0.52033525       0.40496966       0.67613139 </v>
    <v>       0.71141259       0.58973245       0.68898397 </v>
    <v>       0.68672958       0.46155567       0.62731800 </v>
    <v>       0.87646093       0.64798229       0.64082278 </v>
   </varray>
  </structure>
  <varray name="forces" >
   <v>       0.00398341       0.00255776       0.00159202 </v>
   <v>      -0.00795872       0.00453170       0.00496258 </v>
   <v>      -0.00983595      -0.00038262      -0.00717506 </v>
   <v>      -0.04559840       0.01927359       0.01088677 </v>
   <v>      -0.00598487       0.01863483       0.00841722 </v>
   <v>       0.03120262      -0.02135442      -0.01681986 </v>
   <v>      -0.05373954      -0.02149219      -0.00114829 </v>
   <v>      -0.01651875       0.00382035       0.01997693 </v>
   <v>       0.00167978      -0.00823910       0.00409983 </v>
   <v>       0.01389794       0.00242293       0.00060331 </v>
   <v>       0.00408805      -0.00825839       0.01193289 </v>
   <v>      -0.00956700      -0.01836166       0.01224006 </v>
   <v>      -0.00419855       0.00058108       0.00206419 </v>
   <v>      -0.00428781       0.00596470       0.00074408 </v>
   <v>       0.00157819       0.00189291       0.00063004 </v>
   <v>      -0.00899060      -0.02098754       0.01406251 </v>
   <v>      -0.00449046      -0.00242662      -0.00350920 </v>
   <v>      -0.00921138       0.00699290       0.00037597 </v>
   <v>      -0.00497459      -0.00080414      -0.00023904 </v>
   <v>      -0.00671734      -0.00506820      -0.00233755 </v>
   <v>      -0.00428099      -0.00044027       0.00278496 </v>
   <v>      -0.00055366       0.02443549       0.00057338 </v>
   <v>      -0.00446215      -0.00140076      -0.00518196 </v>
   <v>      -0.00684278      -0.00833334      -0.00055538 </v>
   <v>       0.01029931       0.00458869       0.00874947 </v>
   <v>       0.00940963      -0.00008167      -0.00312175 </v>
   <v>      -0.00603459      -0.01604720       0.00096725 </v>
   <v>       0.01504604       0.00600360      -0.00477771 </v>
   <v>      -0.00618406       0.00511206       0.00214501 </v>
   <v>       0.00318055       0.00554749      -0.01015141 </v>
   <v>      -0.01439365      -0.01204303      -0.00350035 </v>
   <v>       0.00100073      -0.00943689      -0.00071554 </v>
   <v>      -0.01252313      -0.00582051       0.00980165 </v>
   <v>      -0.05048095      -0.02617849       0.00663286 </v>
   <v>      -0.23692343      -0.25499214      -0.66788895 </v>
   <v>      -0.03182530       0.00414241      -0.01020298 </v>
   <v>      -0.02483307      -0.00551334      -0.01017186 </v>
   <v>      -0.00356150      -0.00775724       0.00024727 </v>
   <v>      -0.04322682       0.02197011       0.00953225 </v>
   <v>       0.00840605      -0.00259287       0.00226130 </v>
   <v>      -0.00440530       0.00144074      -0.00246329 </v>
   <v>       0.01337891       0.02042012       0.00190697 </v>
   <v>      -0.00662593       0.00209308       0.00194597 </v>
   <v>       0.06760915      -0.03661706      -0.07934662 </v>
   <v>       0.02478373       0.01878084      -0.03354219 </v>
   <v>      -0.22985494       0.25484201      -0.67662255 </v>
   <v>       0.06753072       0.04004113      -0.07599116 </v>
   <v>      -0.00282543       0.02304280       0.00807734 </v>
   <v>       0.00007974       0.00377058      -0.00186038 </v>
   <v>      -0.00447070      -0.00060236       0.00247391 </v>
   <v>       0.59195669       0.00207746       1.59282747 </v>
   <v>      -0.01737304      -0.01311709       0.00765399 </v>
   <v>      -0.00531185      -0.06420243       0.01231319 </v>
   <v>      -0.02882159       0.02365691       0.00055261 </v>
   <v>       0.06877756       0.04391332      -0.14671221 </v>
  </varray>
  <varray name="stress" >
   <v>       5.22364394       0.05349904       0.44371457 </v>
   <v>       0.05349902       5.24406862      -0.05954486 </v>
   <v>       0.44371418      -0.05954488       0.78828636 </v>
  </varray>
  <energy>
   <i name="e_fr_energy">   -479.72596137 </i>
   <i name="e_wo_entrp">   -479.71897934 </i>
   <i name="e_0_energy">     -0.01396405 </i>
  </energy>
  <time name="totalsc"> 1849.51 1850.05</time>
  <eigenvalues>
   <array>
    <dimension dim="1">band</dimension>
    <dimension dim="2">kpoint</dimension>
    <dimension dim="3">spin</dimension>
    <field>eigene</field>
    <field>occ</field>
    <set>
     <set comment="spin 1">
      <set comment="kpoint 1">
       <r>  -50.0950    1.0000 </r>
       <r>  -22.8802    1.0000 </r>
       <r>  -22.0840    1.0000 </r>
       <r>  -21.9294    1.0000 </r>
       <r>  -21.9244    1.0000 </r>
       <r>  -21.8373    1.0000 </r>
       <r>  -21.8342    1.0000 </r>
       <r>  -21.8116    1.0000 </r>
       <r>  -20.1213    1.0000 </r>
       <r>  -20.0776    1.0000 </r>
       <r>  -20.0719    1.0000 </r>
       <r>  -20.0279    1.0000 </r>
       <r>  -20.0270    1.0000 </r>
       <r>  -20.0063    1.0000 </r>
       <r>  -19.1773    1.0000 </r>
       <r>  -19.1673    1.0000 </r>
       <r>  -19.1448    1.0000 </r>
       <r>  -19.1379    1.0000 </r>
       <r>  -19.1102    1.0000 </r>
       <r>  -19.1090    1.0000 </r>
       <r>  -17.0294    1.0000 </r>
       <r>  -17.0216    1.0000 </r>
       <r>  -16.9654    1.0000 </r>
       <r>  -16.9624    1.0000 </r>
       <r>  -16.9107    1.0000 </r>
       <r>  -16.8971    1.0000 </r>
       <r>  -16.0362    1.0000 </r>
       <r>  -15.9997    1.0000 </r>
       <r>  -15.9959    1.0000 </r>
       <r>  -15.9682    1.0000 </r>
       <r>  -15.9678    1.0000 </r>
       <r>  -15.9597    1.0000 </r>
       <r>  -14.6377    1.0000 </r>
       <r>  -14.6326    1.0000 </r>
       <r>  -14.6322    1.0000 </r>
       <r>  -14.6162    1.0000 </r>
       <r>  -14.6143    1.0000 </r>
       <r>  -14.6084    1.0000 </r>
       <r>  -13.5109    1.0000 </r>
       <r>  -12.2733    1.0000 </r>
       <r>  -12.2668    1.0000 </r>
       <r>  -12.2370    1.0000 </r>
       <r>  -12.2323    1.0000 </r>
       <r>  -12.2100    1.0000 </r>
       <r>  -12.2013    1.0000 </r>
       <r>  -12.1859    1.0000 </r>
       <r>  -12.1800    1.0000 </r>
       <r>  -12.1065    1.0000 </r>
       <r>  -12.1062    1.0000 </r>
       <r>  -12.0902    1.0000 </r>
       <r>  -12.0894    1.0000 </r>
       <r>  -10.9946    1.0000 </r>
       <r>  -10.7742    1.0000 </r>
       <r>  -10.7656    1.0000 </r>
       <r>  -10.7598    1.0000 </r>
       <r>  -10.7523    1.0000 </r>
       <r>  -10.7511    1.0000 </r>
       <r>  -10.7485    1.0000 </r>
       <r>  -10.5095    1.0000 </r>
       <r>  -10.0632    1.0000 </r>
       <r>   -9.8677    1.0000 </r>
       <r>   -9.8635    1.0000 </r>
       <r>   -9.7387    1.0000 </r>
       <r>   -9.7345    1.0000 </r>
       <r>   -9.7116    1.0000 </r>
       <r>   -9.5201    1.0000 </r>
       <r>   -9.5145    1.0000 </r>
       <r>   -9.5048    1.0000 </r>
       <r>   -9.4567    1.0000 </r>
       <r>   -9.4541    1.0000 </r>
       <r>   -9.4163    1.0000 </r>
       <r>   -9.4145    1.0000 </r>
       <r>   -9.4095    1.0000 </r>
       <r>   -9.4083    1.0000 </r>
       <r>   -9.3889    1.0000 </r>
       <r>   -9.3866    1.0000 </r>
       <r>   -9.3568    1.0000 </r>
       <r>   -8.6349    1.0000 </r>
       <r>   -7.8331    1.0000 </r>
       <r>   -7.8261    1.0000 </r>
       <r>   -7.8173    1.0000 </r>
       <r>   -7.8105    1.0000 </r>
       <r>   -7.8025    1.0000 </r>
       <r>   -7.7630    1.0000 </r>
       <r>   -7.7591    1.0000 </r>
       <r>   -7.7440    1.0000 </r>
       <r>   -7.7303    1.0000 </r>
       <r>   -7.6524    1.0000 </r>
       <r>   -7.6477    1.0000 </r>
       <r>   -7.6171    1.0000 </r>
       <r>   -6.9131    1.0000 </r>
       <r>   -6.8625    1.0000 </r>
       <r>   -6.8366    1.0000 </r>
       <r>   -6.7775    1.0000 </r>
       <r>   -6.7477    1.0000 </r>
       <r>   -6.7134    1.0000 </r>
       <r>   -6.7106    1.0000 </r>
       <r>   -6.2926    1.0000 </r>
       <r>   -6.2911    1.0000 </r>
       <r>   -5.2361    1.0000 </r>
       <r>   -4.9375    1.0000 </r>
       <r>   -4.8979    1.0000 </r>
       <r>   -4.8904    1.0000 </r>
       <r>   -4.7901    1.0000 </r>
       <r>   -4.7798    1.0000 </r>
       <r>   -4.7160    1.0000 </r>
       <r>   -4.6958    1.0000 </r>
       <r>   -4.4242    1.0000 </r>
       <r>   -4.0195    1.0000 </r>
       <r>   -2.9862    0.5650 </r>
       <r>   -2.0917    0.0000 </r>
       <r>   -2.0818    0.0000 </r>
       <r>   -1.9849    0.0000 </r>
       <r>   -1.9842    0.0000 </r>
       <r>   -1.9430    0.0000 </r>
       <r>   -1.8861    0.0000 </r>
       <r>   -1.6291    0.0000 </r>
       <r>   -1.5372    0.0000 </r>
       <r>   -0.5251    0.0000 </r>
       <r>   -0.2060    0.0000 </r>
       <r>   -0.1829    0.0000 </r>
       <r>   -0.1245    0.0000 </r>
       <r>   -0.0634    0.0000 </r>
       <r>   -0.0554    0.0000 </r>
       <r>   -0.0477    0.0000 </r>
       <r>   -0.0054    0.0000 </r>
       <r>    0.3639    0.0000 </r>
       <r>    0.6161    0.0000 </r>
       <r>    0.8973    0.0000 </r>
       <r>    0.9263    0.0000 </r>
       <r>    1.1928    0.0000 </r>
       <r>    1.2355    0.0000 </r>
       <r>    1.2841    0.0000 </r>
       <r>    1.3603    0.0000 </r>
       <r>    1.4165    0.0000 </r>
       <r>    1.4876    0.0000 </r>
       <r>    1.4986    0.0000 </r>
       <r>    1.5872    0.0000 </r>
       <r>    1.6083    0.0000 </r>
       <r>    1.6523    0.0000 </r>
      </set>
      <set comment="kpoint 2">
       <r>  -50.0950    1.0000 </r>
       <r>  -22.7884    1.0000 </r>
       <r>  -22.4382    1.0000 </r>
       <r>  -22.1196    1.0000 </r>
       <r>  -22.0947    1.0000 </r>
       <r>  -21.5211    1.0000 </r>
       <r>  -21.4619    1.0000 </r>
       <r>  -21.1563    1.0000 </r>
       <r>  -20.8978    1.0000 </r>
       <r>  -20.8442    1.0000 </r>
       <r>  -20.2428    1.0000 </r>
       <r>  -19.9630    1.0000 </r>
       <r>  -19.9568    1.0000 </r>
       <r>  -19.6355    1.0000 </r>
       <r>  -19.6295    1.0000 </r>
       <r>  -19.0827    1.0000 </r>
       <r>  -19.0305    1.0000 </r>
       <r>  -18.4668    1.0000 </r>
       <r>  -18.4619    1.0000 </r>
       <r>  -17.9741    1.0000 </r>
       <r>  -17.8975    1.0000 </r>
       <r>  -17.8873    1.0000 </r>
       <r>  -17.6501    1.0000 </r>
       <r>  -17.6449    1.0000 </r>
       <r>  -16.8537    1.0000 </r>
       <r>  -16.8399    1.0000 </r>
       <r>  -16.1438    1.0000 </r>
       <r>  -15.8950    1.0000 </r>
       <r>  -15.8915    1.0000 </r>
       <r>  -15.3848    1.0000 </r>
       <r>  -15.3784    1.0000 </r>
       <r>  -15.3381    1.0000 </r>
       <r>  -15.3143    1.0000 </r>
       <r>  -14.9531    1.0000 </r>
       <r>  -14.9190    1.0000 </r>
       <r>  -13.7422    1.0000 </r>
       <r>  -13.7388    1.0000 </r>
       <r>  -13.5285    1.0000 </r>
       <r>  -13.5105    1.0000 </r>
       <r>  -13.4982    1.0000 </r>
       <r>  -13.2589    1.0000 </r>
       <r>  -13.2460    1.0000 </r>
       <r>  -12.9199    1.0000 </r>
       <r>  -12.7997    1.0000 </r>
       <r>  -12.7962    1.0000 </r>
       <r>  -12.0350    1.0000 </r>
       <r>  -11.9984    1.0000 </r>
       <r>  -11.5860    1.0000 </r>
       <r>  -11.5670    1.0000 </r>
       <r>  -11.2129    1.0000 </r>
       <r>  -11.1975    1.0000 </r>
       <r>  -11.1482    1.0000 </r>
       <r>  -10.9375    1.0000 </r>
       <r>  -10.9231    1.0000 </r>
       <r>  -10.8855    1.0000 </r>
       <r>  -10.5131    1.0000 </r>
       <r>  -10.4582    1.0000 </r>
       <r>  -10.3106    1.0000 </r>
       <r>  -10.2864    1.0000 </r>
       <r>  -10.2570    1.0000 </r>
       <r>  -10.2493    1.0000 </r>
       <r>  -10.0824    1.0000 </r>
       <r>  -10.0522    1.0000 </r>
       <r>   -9.9407    1.0000 </r>
       <r>   -9.9292    1.0000 </r>
       <r>   -9.6768    1.0000 </r>
       <r>   -9.6513    1.0000 </r>
       <r>   -9.6415    1.0000 </r>
       <r>   -9.5509    1.0000 </r>
       <r>   -9.5464    1.0000 </r>
       <r>   -9.3930    1.0000 </r>
       <r>   -9.3075    1.0000 </r>
       <r>   -9.0535    1.0000 </r>
       <r>   -8.9557    1.0000 </r>
       <r>   -8.7272    1.0000 </r>
       <r>   -8.7059    1.0000 </r>
       <r>   -8.6919    1.0000 </r>
       <r>   -8.6040    1.0000 </r>
       <r>   -8.5914    1.0000 </r>
       <r>   -8.4993    1.0000 </r>
       <r>   -8.4578    1.0000 </r>
       <r>   -8.4255    1.0000 </r>
       <r>   -7.9291    1.0000 </r>
       <r>   -7.8791    1.0000 </r>
       <r>   -7.6942    1.0000 </r>
       <r>   -7.6802    1.0000 </r>
       <r>   -7.6408    1.0000 </r>
       <r>   -7.5870    1.0000 </r>
       <r>   -7.2625    1.0000 </r>
       <r>   -7.2575    1.0000 </r>
       <r>   -7.0871    1.0000 </r>
       <r>   -6.8919    1.0000 </r>
       <r>   -6.7155    1.0000 </r>
       <r>   -6.6595    1.0000 </r>
       <r>   -6.5642    1.0000 </r>
       <r>   -6.5145    1.0000 </r>
       <r>   -6.1565    1.0000 </r>
       <r>   -6.1374    1.0000 </r>
       <r>   -5.8332    1.0000 </r>
       <r>   -5.5266    1.0000 </r>
       <r>   -5.4954    1.0000 </r>
       <r>   -5.3713    1.0000 </r>
       <r>   -5.3636    1.0000 </r>
       <r>   -5.2347    1.0000 </r>
       <r>   -4.9353    1.0000 </r>
       <r>   -4.4433    1.0000 </r>
       <r>   -4.3805    1.0000 </r>
       <r>   -4.3502    1.0000 </r>
       <r>   -4.0219    1.0000 </r>
       <r>   -2.9851    0.5524 </r>
       <r>   -2.2612    0.0000 </r>
       <r>   -2.2415    0.0000 </r>
       <r>   -1.6788    0.0000 </r>
       <r>   -1.6247    0.0000 </r>
       <r>   -1.5250    0.0000 </r>
       <r>   -1.5135    0.0000 </r>
       <r>   -1.4018    0.0000 </r>
       <r>   -1.2086    0.0000 </r>
       <r>   -1.1989    0.0000 </r>
       <r>   -0.8880    0.0000 </r>
       <r>   -0.8651    0.0000 </r>
       <r>   -0.5149    0.0000 </r>
       <r>    0.0772    0.0000 </r>
       <r>    0.1426    0.0000 </r>
       <r>    0.1925    0.0000 </r>
       <r>    0.3684    0.0000 </r>
       <r>    0.5854    0.0000 </r>
       <r>    0.6767    0.0000 </r>
       <r>    0.7021    0.0000 </r>
       <r>    0.7270    0.0000 </r>
       <r>    0.9063    0.0000 </r>
       <r>    1.0310    0.0000 </r>
       <r>    1.1515    0.0000 </r>
       <r>    1.2420    0.0000 </r>
       <r>    1.3654    0.0000 </r>
       <r>    1.3771    0.0000 </r>
       <r>    1.4200    0.0000 </r>
       <r>    1.5100    0.0000 </r>
       <r>    1.5220    0.0000 </r>
       <r>    1.6528    0.0000 </r>
      </set>
      <set comment="kpoint 3">
       <r>  -50.0950    1.0000 </r>
       <r>  -22.7882    1.0000 </r>
       <r>  -22.4394    1.0000 </r>
       <r>  -22.1192    1.0000 </r>
       <r>  -22.0934    1.0000 </r>
       <r>  -21.5226    1.0000 </r>
       <r>  -21.4614    1.0000 </r>
       <r>  -21.1560    1.0000 </r>
       <r>  -20.8991    1.0000 </r>
       <r>  -20.8435    1.0000 </r>
       <r>  -20.2427    1.0000 </r>
       <r>  -19.9645    1.0000 </r>
       <r>  -19.9538    1.0000 </r>
       <r>  -19.6358    1.0000 </r>
       <r>  -19.6300    1.0000 </r>
       <r>  -19.0838    1.0000 </r>
       <r>  -19.0299    1.0000 </r>
       <r>  -18.4679    1.0000 </r>
       <r>  -18.4607    1.0000 </r>
       <r>  -17.9736    1.0000 </r>
       <r>  -17.9001    1.0000 </r>
       <r>  -17.8858    1.0000 </r>
       <r>  -17.6515    1.0000 </r>
       <r>  -17.6430    1.0000 </r>
       <r>  -16.8549    1.0000 </r>
       <r>  -16.8391    1.0000 </r>
       <r>  -16.1451    1.0000 </r>
       <r>  -15.8947    1.0000 </r>
       <r>  -15.8905    1.0000 </r>
       <r>  -15.3835    1.0000 </r>
       <r>  -15.3737    1.0000 </r>
       <r>  -15.3401    1.0000 </r>
       <r>  -15.3154    1.0000 </r>
       <r>  -14.9564    1.0000 </r>
       <r>  -14.9178    1.0000 </r>
       <r>  -13.7421    1.0000 </r>
       <r>  -13.7376    1.0000 </r>
       <r>  -13.5334    1.0000 </r>
       <r>  -13.5107    1.0000 </r>
       <r>  -13.4962    1.0000 </r>
       <r>  -13.2591    1.0000 </r>
       <r>  -13.2472    1.0000 </r>
       <r>  -12.9208    1.0000 </r>
       <r>  -12.7992    1.0000 </r>
       <r>  -12.7945    1.0000 </r>
       <r>  -12.0326    1.0000 </r>
       <r>  -11.9966    1.0000 </r>
       <r>  -11.5857    1.0000 </r>
       <r>  -11.5659    1.0000 </r>
       <r>  -11.2143    1.0000 </r>
       <r>  -11.1981    1.0000 </r>
       <r>  -11.1495    1.0000 </r>
       <r>  -10.9371    1.0000 </r>
       <r>  -10.9245    1.0000 </r>
       <r>  -10.8853    1.0000 </r>
       <r>  -10.5145    1.0000 </r>
       <r>  -10.4583    1.0000 </r>
       <r>  -10.3109    1.0000 </r>
       <r>  -10.2885    1.0000 </r>
       <r>  -10.2571    1.0000 </r>
       <r>  -10.2481    1.0000 </r>
       <r>  -10.0821    1.0000 </r>
       <r>  -10.0508    1.0000 </r>
       <r>   -9.9410    1.0000 </r>
       <r>   -9.9303    1.0000 </r>
       <r>   -9.6748    1.0000 </r>
       <r>   -9.6517    1.0000 </r>
       <r>   -9.6420    1.0000 </r>
       <r>   -9.5503    1.0000 </r>
       <r>   -9.5461    1.0000 </r>
       <r>   -9.3932    1.0000 </r>
       <r>   -9.3077    1.0000 </r>
       <r>   -9.0527    1.0000 </r>
       <r>   -8.9557    1.0000 </r>
       <r>   -8.7258    1.0000 </r>
       <r>   -8.7013    1.0000 </r>
       <r>   -8.6853    1.0000 </r>
       <r>   -8.6321    1.0000 </r>
       <r>   -8.5748    1.0000 </r>
       <r>   -8.4987    1.0000 </r>
       <r>   -8.4587    1.0000 </r>
       <r>   -8.4254    1.0000 </r>
       <r>   -7.9304    1.0000 </r>
       <r>   -7.8820    1.0000 </r>
       <r>   -7.6949    1.0000 </r>
       <r>   -7.6806    1.0000 </r>
       <r>   -7.6369    1.0000 </r>
       <r>   -7.5841    1.0000 </r>
       <r>   -7.2624    1.0000 </r>
       <r>   -7.2567    1.0000 </r>
       <r>   -7.0859    1.0000 </r>
       <r>   -6.8925    1.0000 </r>
       <r>   -6.7164    1.0000 </r>
       <r>   -6.6661    1.0000 </r>
       <r>   -6.5625    1.0000 </r>
       <r>   -6.5135    1.0000 </r>
       <r>   -6.1557    1.0000 </r>
       <r>   -6.1339    1.0000 </r>
       <r>   -5.8417    1.0000 </r>
       <r>   -5.5329    1.0000 </r>
       <r>   -5.4859    1.0000 </r>
       <r>   -5.3732    1.0000 </r>
       <r>   -5.3613    1.0000 </r>
       <r>   -5.2346    1.0000 </r>
       <r>   -4.9353    1.0000 </r>
       <r>   -4.4332    1.0000 </r>
       <r>   -4.3894    1.0000 </r>
       <r>   -4.3484    1.0000 </r>
       <r>   -4.0210    1.0000 </r>
       <r>   -2.9866    0.5693 </r>
       <r>   -2.2786    0.0000 </r>
       <r>   -2.2291    0.0000 </r>
       <r>   -1.6920    0.0000 </r>
       <r>   -1.6090    0.0000 </r>
       <r>   -1.5197    0.0000 </r>
       <r>   -1.4872    0.0000 </r>
       <r>   -1.4329    0.0000 </r>
       <r>   -1.2114    0.0000 </r>
       <r>   -1.1935    0.0000 </r>
       <r>   -0.8931    0.0000 </r>
       <r>   -0.8629    0.0000 </r>
       <r>   -0.5079    0.0000 </r>
       <r>    0.0634    0.0000 </r>
       <r>    0.1422    0.0000 </r>
       <r>    0.1977    0.0000 </r>
       <r>    0.3565    0.0000 </r>
       <r>    0.6093    0.0000 </r>
       <r>    0.6796    0.0000 </r>
       <r>    0.6987    0.0000 </r>
       <r>    0.7305    0.0000 </r>
       <r>    0.9309    0.0000 </r>
       <r>    0.9997    0.0000 </r>
       <r>    1.1416    0.0000 </r>
       <r>    1.2397    0.0000 </r>
       <r>    1.3673    0.0000 </r>
       <r>    1.3790    0.0000 </r>
       <r>    1.3969    0.0000 </r>
       <r>    1.5065    0.0000 </r>
       <r>    1.5699    0.0000 </r>
       <r>    1.6838    0.0000 </r>
      </set>
      <set comment="kpoint 4">
       <r>  -50.0950    1.0000 </r>
       <r>  -22.6910    1.0000 </r>
       <r>  -22.4758    1.0000 </r>
       <r>  -22.4714    1.0000 </r>
       <r>  -21.6260    1.0000 </r>
       <r>  -21.5778    1.0000 </r>
       <r>  -21.5762    1.0000 </r>
       <r>  -20.7464    1.0000 </r>
       <r>  -20.7039    1.0000 </r>
       <r>  -20.7006    1.0000 </r>
       <r>  -20.6013    1.0000 </r>
       <r>  -20.5987    1.0000 </r>
       <r>  -20.5961    1.0000 </r>
       <r>  -18.9349    1.0000 </r>
       <r>  -18.9256    1.0000 </r>
       <r>  -18.8864    1.0000 </r>
       <r>  -18.8045    1.0000 </r>
       <r>  -18.7879    1.0000 </r>
       <r>  -18.7865    1.0000 </r>
       <r>  -18.0175    1.0000 </r>
       <r>  -18.0147    1.0000 </r>
       <r>  -17.9560    1.0000 </r>
       <r>  -17.4995    1.0000 </r>
       <r>  -17.4971    1.0000 </r>
       <r>  -17.4827    1.0000 </r>
       <r>  -16.4981    1.0000 </r>
       <r>  -16.4783    1.0000 </r>
       <r>  -16.4762    1.0000 </r>
       <r>  -15.8889    1.0000 </r>
       <r>  -15.8872    1.0000 </r>
       <r>  -14.4595    1.0000 </r>
       <r>  -14.4559    1.0000 </r>
       <r>  -14.4260    1.0000 </r>
       <r>  -14.4157    1.0000 </r>
       <r>  -14.3903    1.0000 </r>
       <r>  -14.3891    1.0000 </r>
       <r>  -14.3088    1.0000 </r>
       <r>  -14.3072    1.0000 </r>
       <r>  -14.2375    1.0000 </r>
       <r>  -13.8701    1.0000 </r>
       <r>  -13.5109    1.0000 </r>
       <r>  -12.7950    1.0000 </r>
       <r>  -12.6752    1.0000 </r>
       <r>  -12.6721    1.0000 </r>
       <r>  -12.0488    1.0000 </r>
       <r>  -12.0451    1.0000 </r>
       <r>  -12.0274    1.0000 </r>
       <r>  -11.9948    1.0000 </r>
       <r>  -11.9928    1.0000 </r>
       <r>  -11.9814    1.0000 </r>
       <r>  -10.8009    1.0000 </r>
       <r>  -10.7688    1.0000 </r>
       <r>  -10.7534    1.0000 </r>
       <r>  -10.7497    1.0000 </r>
       <r>  -10.6543    1.0000 </r>
       <r>  -10.6521    1.0000 </r>
       <r>  -10.6338    1.0000 </r>
       <r>  -10.5151    1.0000 </r>
       <r>  -10.4983    1.0000 </r>
       <r>  -10.4864    1.0000 </r>
       <r>  -10.0439    1.0000 </r>
       <r>  -10.0418    1.0000 </r>
       <r>  -10.0385    1.0000 </r>
       <r>   -9.8177    1.0000 </r>
       <r>   -9.8153    1.0000 </r>
       <r>   -9.7891    1.0000 </r>
       <r>   -9.5064    1.0000 </r>
       <r>   -9.4505    1.0000 </r>
       <r>   -9.4475    1.0000 </r>
       <r>   -9.1512    1.0000 </r>
       <r>   -9.1387    1.0000 </r>
       <r>   -9.1380    1.0000 </r>
       <r>   -9.1065    1.0000 </r>
       <r>   -9.1043    1.0000 </r>
       <r>   -9.0865    1.0000 </r>
       <r>   -8.6700    1.0000 </r>
       <r>   -8.6682    1.0000 </r>
       <r>   -8.6580    1.0000 </r>
       <r>   -8.6444    1.0000 </r>
       <r>   -8.4883    1.0000 </r>
       <r>   -8.4691    1.0000 </r>
       <r>   -8.4442    1.0000 </r>
       <r>   -8.3097    1.0000 </r>
       <r>   -8.3064    1.0000 </r>
       <r>   -8.3010    1.0000 </r>
       <r>   -7.4855    1.0000 </r>
       <r>   -7.4818    1.0000 </r>
       <r>   -7.3895    1.0000 </r>
       <r>   -6.9825    1.0000 </r>
       <r>   -6.9789    1.0000 </r>
       <r>   -6.9218    1.0000 </r>
       <r>   -6.8954    1.0000 </r>
       <r>   -6.5952    1.0000 </r>
       <r>   -6.5874    1.0000 </r>
       <r>   -6.4268    1.0000 </r>
       <r>   -6.3765    1.0000 </r>
       <r>   -6.3355    1.0000 </r>
       <r>   -6.3345    1.0000 </r>
       <r>   -5.6589    1.0000 </r>
       <r>   -5.6514    1.0000 </r>
       <r>   -5.5181    1.0000 </r>
       <r>   -5.4111    1.0000 </r>
       <r>   -5.4061    1.0000 </r>
       <r>   -5.3860    1.0000 </r>
       <r>   -5.2334    1.0000 </r>
       <r>   -4.9353    1.0000 </r>
       <r>   -4.4278    1.0000 </r>
       <r>   -4.0225    1.0000 </r>
       <r>   -3.2930    1.0000 </r>
       <r>   -3.2880    1.0000 </r>
       <r>   -2.9845    0.5456 </r>
       <r>   -1.7438    0.0000 </r>
       <r>   -1.7116    0.0000 </r>
       <r>   -1.6353    0.0000 </r>
       <r>   -1.5761    0.0000 </r>
       <r>   -1.5153    0.0000 </r>
       <r>   -1.1182    0.0000 </r>
       <r>   -1.1117    0.0000 </r>
       <r>   -1.0104    0.0000 </r>
       <r>   -0.5280    0.0000 </r>
       <r>   -0.4023    0.0000 </r>
       <r>   -0.3866    0.0000 </r>
       <r>   -0.2433    0.0000 </r>
       <r>   -0.2261    0.0000 </r>
       <r>   -0.1747    0.0000 </r>
       <r>   -0.1732    0.0000 </r>
       <r>    0.1597    0.0000 </r>
       <r>    0.4079    0.0000 </r>
       <r>    0.4725    0.0000 </r>
       <r>    0.6635    0.0000 </r>
       <r>    0.9130    0.0000 </r>
       <r>    1.0073    0.0000 </r>
       <r>    1.1094    0.0000 </r>
       <r>    1.2797    0.0000 </r>
       <r>    1.4027    0.0000 </r>
       <r>    1.5739    0.0000 </r>
       <r>    1.6092    0.0000 </r>
       <r>    1.6924    0.0000 </r>
       <r>    1.7580    0.0000 </r>
       <r>    1.7802    0.0000 </r>
      </set>
      <set comment="kpoint 5">
       <r>  -50.0950    1.0000 </r>
       <r>  -22.7880    1.0000 </r>
       <r>  -22.4405    1.0000 </r>
       <r>  -22.1176    1.0000 </r>
       <r>  -22.0934    1.0000 </r>
       <r>  -21.5234    1.0000 </r>
       <r>  -21.4616    1.0000 </r>
       <r>  -21.1556    1.0000 </r>
       <r>  -20.8994    1.0000 </r>
       <r>  -20.8438    1.0000 </r>
       <r>  -20.2425    1.0000 </r>
       <r>  -19.9612    1.0000 </r>
       <r>  -19.9555    1.0000 </r>
       <r>  -19.6362    1.0000 </r>
       <r>  -19.6305    1.0000 </r>
       <r>  -19.0841    1.0000 </r>
       <r>  -19.0302    1.0000 </r>
       <r>  -18.4664    1.0000 </r>
       <r>  -18.4620    1.0000 </r>
       <r>  -17.9763    1.0000 </r>
       <r>  -17.8967    1.0000 </r>
       <r>  -17.8873    1.0000 </r>
       <r>  -17.6494    1.0000 </r>
       <r>  -17.6444    1.0000 </r>
       <r>  -16.8533    1.0000 </r>
       <r>  -16.8396    1.0000 </r>
       <r>  -16.1441    1.0000 </r>
       <r>  -15.8950    1.0000 </r>
       <r>  -15.8915    1.0000 </r>
       <r>  -15.3835    1.0000 </r>
       <r>  -15.3771    1.0000 </r>
       <r>  -15.3394    1.0000 </r>
       <r>  -15.3157    1.0000 </r>
       <r>  -14.9537    1.0000 </r>
       <r>  -14.9184    1.0000 </r>
       <r>  -13.7418    1.0000 </r>
       <r>  -13.7387    1.0000 </r>
       <r>  -13.5296    1.0000 </r>
       <r>  -13.5107    1.0000 </r>
       <r>  -13.4980    1.0000 </r>
       <r>  -13.2589    1.0000 </r>
       <r>  -13.2462    1.0000 </r>
       <r>  -12.9202    1.0000 </r>
       <r>  -12.7992    1.0000 </r>
       <r>  -12.7962    1.0000 </r>
       <r>  -12.0345    1.0000 </r>
       <r>  -11.9965    1.0000 </r>
       <r>  -11.5870    1.0000 </r>
       <r>  -11.5666    1.0000 </r>
       <r>  -11.2132    1.0000 </r>
       <r>  -11.1976    1.0000 </r>
       <r>  -11.1485    1.0000 </r>
       <r>  -10.9378    1.0000 </r>
       <r>  -10.9235    1.0000 </r>
       <r>  -10.8849    1.0000 </r>
       <r>  -10.5127    1.0000 </r>
       <r>  -10.4621    1.0000 </r>
       <r>  -10.3105    1.0000 </r>
       <r>  -10.2865    1.0000 </r>
       <r>  -10.2565    1.0000 </r>
       <r>  -10.2484    1.0000 </r>
       <r>  -10.0789    1.0000 </r>
       <r>  -10.0512    1.0000 </r>
       <r>   -9.9422    1.0000 </r>
       <r>   -9.9304    1.0000 </r>
       <r>   -9.6756    1.0000 </r>
       <r>   -9.6527    1.0000 </r>
       <r>   -9.6426    1.0000 </r>
       <r>   -9.5492    1.0000 </r>
       <r>   -9.5453    1.0000 </r>
       <r>   -9.3946    1.0000 </r>
       <r>   -9.3089    1.0000 </r>
       <r>   -9.0531    1.0000 </r>
       <r>   -8.9541    1.0000 </r>
       <r>   -8.7271    1.0000 </r>
       <r>   -8.7004    1.0000 </r>
       <r>   -8.6843    1.0000 </r>
       <r>   -8.6341    1.0000 </r>
       <r>   -8.5751    1.0000 </r>
       <r>   -8.4996    1.0000 </r>
       <r>   -8.4589    1.0000 </r>
       <r>   -8.4249    1.0000 </r>
       <r>   -7.9282    1.0000 </r>
       <r>   -7.8808    1.0000 </r>
       <r>   -7.6938    1.0000 </r>
       <r>   -7.6801    1.0000 </r>
       <r>   -7.6392    1.0000 </r>
       <r>   -7.5853    1.0000 </r>
       <r>   -7.2659    1.0000 </r>
       <r>   -7.2586    1.0000 </r>
       <r>   -7.0860    1.0000 </r>
       <r>   -6.8850    1.0000 </r>
       <r>   -6.7160    1.0000 </r>
       <r>   -6.6680    1.0000 </r>
       <r>   -6.5626    1.0000 </r>
       <r>   -6.5143    1.0000 </r>
       <r>   -6.1556    1.0000 </r>
       <r>   -6.1374    1.0000 </r>
       <r>   -5.8344    1.0000 </r>
       <r>   -5.5275    1.0000 </r>
       <r>   -5.4963    1.0000 </r>
       <r>   -5.3698    1.0000 </r>
       <r>   -5.3614    1.0000 </r>
       <r>   -5.2335    1.0000 </r>
       <r>   -4.9354    1.0000 </r>
       <r>   -4.4447    1.0000 </r>
       <r>   -4.3835    1.0000 </r>
       <r>   -4.3487    1.0000 </r>
       <r>   -4.0190    1.0000 </r>
       <r>   -2.9849    0.5501 </r>
       <r>   -2.2610    0.0000 </r>
       <r>   -2.2408    0.0000 </r>
       <r>   -1.6779    0.0000 </r>
       <r>   -1.6205    0.0000 </r>
       <r>   -1.5364    0.0000 </r>
       <r>   -1.4878    0.0000 </r>
       <r>   -1.4255    0.0000 </r>
       <r>   -1.2080    0.0000 </r>
       <r>   -1.1946    0.0000 </r>
       <r>   -0.8870    0.0000 </r>
       <r>   -0.8644    0.0000 </r>
       <r>   -0.5185    0.0000 </r>
       <r>    0.0554    0.0000 </r>
       <r>    0.1390    0.0000 </r>
       <r>    0.1936    0.0000 </r>
       <r>    0.3617    0.0000 </r>
       <r>    0.5869    0.0000 </r>
       <r>    0.6831    0.0000 </r>
       <r>    0.7042    0.0000 </r>
       <r>    0.7982    0.0000 </r>
       <r>    0.8722    0.0000 </r>
       <r>    0.9951    0.0000 </r>
       <r>    1.1968    0.0000 </r>
       <r>    1.2643    0.0000 </r>
       <r>    1.3238    0.0000 </r>
       <r>    1.3747    0.0000 </r>
       <r>    1.3809    0.0000 </r>
       <r>    1.4930    0.0000 </r>
       <r>    1.5256    0.0000 </r>
       <r>    1.6418    0.0000 </r>
      </set>
     </set>
     <set comment="spin 2">
      <set comment="kpoint 1">
       <r>  -50.0942    1.0000 </r>
       <r>  -22.8801    1.0000 </r>
       <r>  -22.0840    1.0000 </r>
       <r>  -21.9293    1.0000 </r>
       <r>  -21.9244    1.0000 </r>
       <r>  -21.8373    1.0000 </r>
       <r>  -21.8342    1.0000 </r>
       <r>  -21.8116    1.0000 </r>
       <r>  -20.1212    1.0000 </r>
       <r>  -20.0775    1.0000 </r>
       <r>  -20.0719    1.0000 </r>
       <r>  -20.0279    1.0000 </r>
       <r>  -20.0270    1.0000 </r>
       <r>  -20.0063    1.0000 </r>
       <r>  -19.1773    1.0000 </r>
       <r>  -19.1673    1.0000 </r>
       <r>  -19.1448    1.0000 </r>
       <r>  -19.1378    1.0000 </r>
       <r>  -19.1102    1.0000 </r>
       <r>  -19.1090    1.0000 </r>
       <r>  -17.0294    1.0000 </r>
       <r>  -17.0216    1.0000 </r>
       <r>  -16.9653    1.0000 </r>
       <r>  -16.9624    1.0000 </r>
       <r>  -16.9106    1.0000 </r>
       <r>  -16.8971    1.0000 </r>
       <r>  -16.0361    1.0000 </r>
       <r>  -15.9997    1.0000 </r>
       <r>  -15.9959    1.0000 </r>
       <r>  -15.9682    1.0000 </r>
       <r>  -15.9678    1.0000 </r>
       <r>  -15.9597    1.0000 </r>
       <r>  -14.6377    1.0000 </r>
       <r>  -14.6326    1.0000 </r>
       <r>  -14.6322    1.0000 </r>
       <r>  -14.6161    1.0000 </r>
       <r>  -14.6143    1.0000 </r>
       <r>  -14.6084    1.0000 </r>
       <r>  -13.4419    1.0000 </r>
       <r>  -12.2732    1.0000 </r>
       <r>  -12.2667    1.0000 </r>
       <r>  -12.2369    1.0000 </r>
       <r>  -12.2323    1.0000 </r>
       <r>  -12.2099    1.0000 </r>
       <r>  -12.2013    1.0000 </r>
       <r>  -12.1859    1.0000 </r>
       <r>  -12.1800    1.0000 </r>
       <r>  -12.1065    1.0000 </r>
       <r>  -12.1062    1.0000 </r>
       <r>  -12.0902    1.0000 </r>
       <r>  -12.0894    1.0000 </r>
       <r>  -10.9942    1.0000 </r>
       <r>  -10.7742    1.0000 </r>
       <r>  -10.7655    1.0000 </r>
       <r>  -10.7598    1.0000 </r>
       <r>  -10.7522    1.0000 </r>
       <r>  -10.7511    1.0000 </r>
       <r>  -10.7485    1.0000 </r>
       <r>  -10.3039    1.0000 </r>
       <r>  -10.0619    1.0000 </r>
       <r>   -9.8673    1.0000 </r>
       <r>   -9.8632    1.0000 </r>
       <r>   -9.7387    1.0000 </r>
       <r>   -9.7345    1.0000 </r>
       <r>   -9.7116    1.0000 </r>
       <r>   -9.5200    1.0000 </r>
       <r>   -9.5145    1.0000 </r>
       <r>   -9.5048    1.0000 </r>
       <r>   -9.4567    1.0000 </r>
       <r>   -9.4541    1.0000 </r>
       <r>   -9.4163    1.0000 </r>
       <r>   -9.4145    1.0000 </r>
       <r>   -9.4095    1.0000 </r>
       <r>   -9.4083    1.0000 </r>
       <r>   -9.3888    1.0000 </r>
       <r>   -9.3866    1.0000 </r>
       <r>   -9.3568    1.0000 </r>
       <r>   -8.6310    1.0000 </r>
       <r>   -7.8331    1.0000 </r>
       <r>   -7.8261    1.0000 </r>
       <r>   -7.8173    1.0000 </r>
       <r>   -7.8103    1.0000 </r>
       <r>   -7.8020    1.0000 </r>
       <r>   -7.7629    1.0000 </r>
       <r>   -7.7588    1.0000 </r>
       <r>   -7.7439    1.0000 </r>
       <r>   -7.7302    1.0000 </r>
       <r>   -7.6523    1.0000 </r>
       <r>   -7.6476    1.0000 </r>
       <r>   -7.6171    1.0000 </r>
       <r>   -6.8716    1.0000 </r>
       <r>   -6.8623    1.0000 </r>
       <r>   -6.7775    1.0000 </r>
       <r>   -6.7495    1.0000 </r>
       <r>   -6.7263    1.0000 </r>
       <r>   -6.7130    1.0000 </r>
       <r>   -6.6905    1.0000 </r>
       <r>   -6.2926    1.0000 </r>
       <r>   -6.2911    1.0000 </r>
       <r>   -5.0503    1.0000 </r>
       <r>   -4.8980    1.0000 </r>
       <r>   -4.8956    1.0000 </r>
       <r>   -4.8628    1.0000 </r>
       <r>   -4.7899    1.0000 </r>
       <r>   -4.7796    1.0000 </r>
       <r>   -4.7159    1.0000 </r>
       <r>   -4.6957    1.0000 </r>
       <r>   -4.4255    1.0000 </r>
       <r>   -3.9363    1.0000 </r>
       <r>   -2.4678    0.0000 </r>
       <r>   -2.0888    0.0000 </r>
       <r>   -2.0809    0.0000 </r>
       <r>   -1.9847    0.0000 </r>
       <r>   -1.9841    0.0000 </r>
       <r>   -1.9421    0.0000 </r>
       <r>   -1.8859    0.0000 </r>
       <r>   -1.6258    0.0000 </r>
       <r>   -1.4768    0.0000 </r>
       <r>   -0.2508    0.0000 </r>
       <r>   -0.2054    0.0000 </r>
       <r>   -0.1389    0.0000 </r>
       <r>   -0.1228    0.0000 </r>
       <r>   -0.0633    0.0000 </r>
       <r>   -0.0544    0.0000 </r>
       <r>   -0.0477    0.0000 </r>
       <r>    0.0130    0.0000 </r>
       <r>    0.3895    0.0000 </r>
       <r>    0.6393    0.0000 </r>
       <r>    0.9293    0.0000 </r>
       <r>    0.9901    0.0000 </r>
       <r>    1.2125    0.0000 </r>
       <r>    1.2614    0.0000 </r>
       <r>    1.2975    0.0000 </r>
       <r>    1.3719    0.0000 </r>
       <r>    1.4311    0.0000 </r>
       <r>    1.4995    0.0000 </r>
       <r>    1.5936    0.0000 </r>
       <r>    1.6394    0.0000 </r>
       <r>    1.6721    0.0000 </r>
       <r>    1.6904    0.0000 </r>
      </set>
      <set comment="kpoint 2">
       <r>  -50.0942    1.0000 </r>
       <r>  -22.7883    1.0000 </r>
       <r>  -22.4382    1.0000 </r>
       <r>  -22.1196    1.0000 </r>
       <r>  -22.0947    1.0000 </r>
       <r>  -21.5211    1.0000 </r>
       <r>  -21.4618    1.0000 </r>
       <r>  -21.1563    1.0000 </r>
       <r>  -20.8977    1.0000 </r>
       <r>  -20.8441    1.0000 </r>
       <r>  -20.2428    1.0000 </r>
       <r>  -19.9629    1.0000 </r>
       <r>  -19.9568    1.0000 </r>
       <r>  -19.6355    1.0000 </r>
       <r>  -19.6295    1.0000 </r>
       <r>  -19.0827    1.0000 </r>
       <r>  -19.0305    1.0000 </r>
       <r>  -18.4667    1.0000 </r>
       <r>  -18.4619    1.0000 </r>
       <r>  -17.9740    1.0000 </r>
       <r>  -17.8975    1.0000 </r>
       <r>  -17.8872    1.0000 </r>
       <r>  -17.6501    1.0000 </r>
       <r>  -17.6449    1.0000 </r>
       <r>  -16.8537    1.0000 </r>
       <r>  -16.8399    1.0000 </r>
       <r>  -16.1438    1.0000 </r>
       <r>  -15.8949    1.0000 </r>
       <r>  -15.8914    1.0000 </r>
       <r>  -15.3847    1.0000 </r>
       <r>  -15.3783    1.0000 </r>
       <r>  -15.3381    1.0000 </r>
       <r>  -15.3142    1.0000 </r>
       <r>  -14.9531    1.0000 </r>
       <r>  -14.9189    1.0000 </r>
       <r>  -13.7422    1.0000 </r>
       <r>  -13.7388    1.0000 </r>
       <r>  -13.5281    1.0000 </r>
       <r>  -13.4982    1.0000 </r>
       <r>  -13.4419    1.0000 </r>
       <r>  -13.2589    1.0000 </r>
       <r>  -13.2460    1.0000 </r>
       <r>  -12.9199    1.0000 </r>
       <r>  -12.7996    1.0000 </r>
       <r>  -12.7962    1.0000 </r>
       <r>  -12.0349    1.0000 </r>
       <r>  -11.9984    1.0000 </r>
       <r>  -11.5860    1.0000 </r>
       <r>  -11.5670    1.0000 </r>
       <r>  -11.2129    1.0000 </r>
       <r>  -11.1975    1.0000 </r>
       <r>  -11.1482    1.0000 </r>
       <r>  -10.9375    1.0000 </r>
       <r>  -10.9231    1.0000 </r>
       <r>  -10.8848    1.0000 </r>
       <r>  -10.4647    1.0000 </r>
       <r>  -10.3107    1.0000 </r>
       <r>  -10.3012    1.0000 </r>
       <r>  -10.2855    1.0000 </r>
       <r>  -10.2570    1.0000 </r>
       <r>  -10.2492    1.0000 </r>
       <r>  -10.0821    1.0000 </r>
       <r>  -10.0518    1.0000 </r>
       <r>   -9.9407    1.0000 </r>
       <r>   -9.9291    1.0000 </r>
       <r>   -9.6768    1.0000 </r>
       <r>   -9.6512    1.0000 </r>
       <r>   -9.6415    1.0000 </r>
       <r>   -9.5509    1.0000 </r>
       <r>   -9.5464    1.0000 </r>
       <r>   -9.3928    1.0000 </r>
       <r>   -9.3074    1.0000 </r>
       <r>   -9.0534    1.0000 </r>
       <r>   -8.9556    1.0000 </r>
       <r>   -8.7272    1.0000 </r>
       <r>   -8.7054    1.0000 </r>
       <r>   -8.6914    1.0000 </r>
       <r>   -8.6010    1.0000 </r>
       <r>   -8.5911    1.0000 </r>
       <r>   -8.4993    1.0000 </r>
       <r>   -8.4578    1.0000 </r>
       <r>   -8.4255    1.0000 </r>
       <r>   -7.9290    1.0000 </r>
       <r>   -7.8791    1.0000 </r>
       <r>   -7.6941    1.0000 </r>
       <r>   -7.6802    1.0000 </r>
       <r>   -7.6403    1.0000 </r>
       <r>   -7.5868    1.0000 </r>
       <r>   -7.2622    1.0000 </r>
       <r>   -7.2573    1.0000 </r>
       <r>   -7.0871    1.0000 </r>
       <r>   -6.7361    1.0000 </r>
       <r>   -6.7149    1.0000 </r>
       <r>   -6.6463    1.0000 </r>
       <r>   -6.5636    1.0000 </r>
       <r>   -6.5145    1.0000 </r>
       <r>   -6.1563    1.0000 </r>
       <r>   -6.1373    1.0000 </r>
       <r>   -5.8330    1.0000 </r>
       <r>   -5.5263    1.0000 </r>
       <r>   -5.4950    1.0000 </r>
       <r>   -5.3712    1.0000 </r>
       <r>   -5.3635    1.0000 </r>
       <r>   -5.0489    1.0000 </r>
       <r>   -4.8668    1.0000 </r>
       <r>   -4.4443    1.0000 </r>
       <r>   -4.3805    1.0000 </r>
       <r>   -4.3502    1.0000 </r>
       <r>   -3.9389    1.0000 </r>
       <r>   -2.4660    0.0000 </r>
       <r>   -2.2605    0.0000 </r>
       <r>   -2.2407    0.0000 </r>
       <r>   -1.6742    0.0000 </r>
       <r>   -1.6009    0.0000 </r>
       <r>   -1.5228    0.0000 </r>
       <r>   -1.4936    0.0000 </r>
       <r>   -1.3855    0.0000 </r>
       <r>   -1.2081    0.0000 </r>
       <r>   -1.1987    0.0000 </r>
       <r>   -0.8874    0.0000 </r>
       <r>   -0.8645    0.0000 </r>
       <r>   -0.1924    0.0000 </r>
       <r>    0.0854    0.0000 </r>
       <r>    0.1458    0.0000 </r>
       <r>    0.1940    0.0000 </r>
       <r>    0.3870    0.0000 </r>
       <r>    0.6115    0.0000 </r>
       <r>    0.6823    0.0000 </r>
       <r>    0.7032    0.0000 </r>
       <r>    0.7487    0.0000 </r>
       <r>    0.9412    0.0000 </r>
       <r>    1.0589    0.0000 </r>
       <r>    1.1841    0.0000 </r>
       <r>    1.2765    0.0000 </r>
       <r>    1.3673    0.0000 </r>
       <r>    1.3780    0.0000 </r>
       <r>    1.4341    0.0000 </r>
       <r>    1.5253    0.0000 </r>
       <r>    1.5535    0.0000 </r>
       <r>    1.6544    0.0000 </r>
      </set>
      <set comment="kpoint 3">
       <r>  -50.0942    1.0000 </r>
       <r>  -22.7881    1.0000 </r>
       <r>  -22.4393    1.0000 </r>
       <r>  -22.1191    1.0000 </r>
       <r>  -22.0934    1.0000 </r>
       <r>  -21.5225    1.0000 </r>
       <r>  -21.4614    1.0000 </r>
       <r>  -21.1560    1.0000 </r>
       <r>  -20.8990    1.0000 </r>
       <r>  -20.8435    1.0000 </r>
       <r>  -20.2426    1.0000 </r>
       <r>  -19.9644    1.0000 </r>
       <r>  -19.9537    1.0000 </r>
       <r>  -19.6358    1.0000 </r>
       <r>  -19.6300    1.0000 </r>
       <r>  -19.0837    1.0000 </r>
       <r>  -19.0298    1.0000 </r>
       <r>  -18.4678    1.0000 </r>
       <r>  -18.4606    1.0000 </r>
       <r>  -17.9735    1.0000 </r>
       <r>  -17.9001    1.0000 </r>
       <r>  -17.8858    1.0000 </r>
       <r>  -17.6515    1.0000 </r>
       <r>  -17.6429    1.0000 </r>
       <r>  -16.8548    1.0000 </r>
       <r>  -16.8390    1.0000 </r>
       <r>  -16.1451    1.0000 </r>
       <r>  -15.8946    1.0000 </r>
       <r>  -15.8904    1.0000 </r>
       <r>  -15.3835    1.0000 </r>
       <r>  -15.3736    1.0000 </r>
       <r>  -15.3401    1.0000 </r>
       <r>  -15.3153    1.0000 </r>
       <r>  -14.9564    1.0000 </r>
       <r>  -14.9177    1.0000 </r>
       <r>  -13.7421    1.0000 </r>
       <r>  -13.7376    1.0000 </r>
       <r>  -13.5332    1.0000 </r>
       <r>  -13.4962    1.0000 </r>
       <r>  -13.4419    1.0000 </r>
       <r>  -13.2590    1.0000 </r>
       <r>  -13.2472    1.0000 </r>
       <r>  -12.9207    1.0000 </r>
       <r>  -12.7992    1.0000 </r>
       <r>  -12.7945    1.0000 </r>
       <r>  -12.0326    1.0000 </r>
       <r>  -11.9966    1.0000 </r>
       <r>  -11.5857    1.0000 </r>
       <r>  -11.5659    1.0000 </r>
       <r>  -11.2143    1.0000 </r>
       <r>  -11.1980    1.0000 </r>
       <r>  -11.1495    1.0000 </r>
       <r>  -10.9371    1.0000 </r>
       <r>  -10.9245    1.0000 </r>
       <r>  -10.8846    1.0000 </r>
       <r>  -10.4665    1.0000 </r>
       <r>  -10.3120    1.0000 </r>
       <r>  -10.2990    1.0000 </r>
       <r>  -10.2883    1.0000 </r>
       <r>  -10.2570    1.0000 </r>
       <r>  -10.2481    1.0000 </r>
       <r>  -10.0815    1.0000 </r>
       <r>  -10.0507    1.0000 </r>
       <r>   -9.9410    1.0000 </r>
       <r>   -9.9303    1.0000 </r>
       <r>   -9.6747    1.0000 </r>
       <r>   -9.6517    1.0000 </r>
       <r>   -9.6420    1.0000 </r>
       <r>   -9.5503    1.0000 </r>
       <r>   -9.5461    1.0000 </r>
       <r>   -9.3930    1.0000 </r>
       <r>   -9.3077    1.0000 </r>
       <r>   -9.0527    1.0000 </r>
       <r>   -8.9556    1.0000 </r>
       <r>   -8.7257    1.0000 </r>
       <r>   -8.7011    1.0000 </r>
       <r>   -8.6848    1.0000 </r>
       <r>   -8.6298    1.0000 </r>
       <r>   -8.5737    1.0000 </r>
       <r>   -8.4986    1.0000 </r>
       <r>   -8.4587    1.0000 </r>
       <r>   -8.4254    1.0000 </r>
       <r>   -7.9302    1.0000 </r>
       <r>   -7.8819    1.0000 </r>
       <r>   -7.6949    1.0000 </r>
       <r>   -7.6806    1.0000 </r>
       <r>   -7.6367    1.0000 </r>
       <r>   -7.5839    1.0000 </r>
       <r>   -7.2622    1.0000 </r>
       <r>   -7.2564    1.0000 </r>
       <r>   -7.0859    1.0000 </r>
       <r>   -6.7382    1.0000 </r>
       <r>   -6.7161    1.0000 </r>
       <r>   -6.6508    1.0000 </r>
       <r>   -6.5620    1.0000 </r>
       <r>   -6.5135    1.0000 </r>
       <r>   -6.1556    1.0000 </r>
       <r>   -6.1337    1.0000 </r>
       <r>   -5.8414    1.0000 </r>
       <r>   -5.5325    1.0000 </r>
       <r>   -5.4855    1.0000 </r>
       <r>   -5.3731    1.0000 </r>
       <r>   -5.3612    1.0000 </r>
       <r>   -5.0490    1.0000 </r>
       <r>   -4.8667    1.0000 </r>
       <r>   -4.4342    1.0000 </r>
       <r>   -4.3892    1.0000 </r>
       <r>   -4.3484    1.0000 </r>
       <r>   -3.9380    1.0000 </r>
       <r>   -2.4692    0.0000 </r>
       <r>   -2.2757    0.0000 </r>
       <r>   -2.2289    0.0000 </r>
       <r>   -1.6867    0.0000 </r>
       <r>   -1.5894    0.0000 </r>
       <r>   -1.5135    0.0000 </r>
       <r>   -1.4554    0.0000 </r>
       <r>   -1.4297    0.0000 </r>
       <r>   -1.2112    0.0000 </r>
       <r>   -1.1932    0.0000 </r>
       <r>   -0.8921    0.0000 </r>
       <r>   -0.8620    0.0000 </r>
       <r>   -0.1831    0.0000 </r>
       <r>    0.0733    0.0000 </r>
       <r>    0.1443    0.0000 </r>
       <r>    0.1985    0.0000 </r>
       <r>    0.3771    0.0000 </r>
       <r>    0.6366    0.0000 </r>
       <r>    0.6825    0.0000 </r>
       <r>    0.6997    0.0000 </r>
       <r>    0.7558    0.0000 </r>
       <r>    0.9529    0.0000 </r>
       <r>    1.0477    0.0000 </r>
       <r>    1.1662    0.0000 </r>
       <r>    1.2837    0.0000 </r>
       <r>    1.3703    0.0000 </r>
       <r>    1.3795    0.0000 </r>
       <r>    1.4113    0.0000 </r>
       <r>    1.5200    0.0000 </r>
       <r>    1.5898    0.0000 </r>
       <r>    1.6522    0.0000 </r>
      </set>
      <set comment="kpoint 4">
       <r>  -50.0942    1.0000 </r>
       <r>  -22.6909    1.0000 </r>
       <r>  -22.4757    1.0000 </r>
       <r>  -22.4714    1.0000 </r>
       <r>  -21.6259    1.0000 </r>
       <r>  -21.5777    1.0000 </r>
       <r>  -21.5761    1.0000 </r>
       <r>  -20.7464    1.0000 </r>
       <r>  -20.7038    1.0000 </r>
       <r>  -20.7006    1.0000 </r>
       <r>  -20.6013    1.0000 </r>
       <r>  -20.5987    1.0000 </r>
       <r>  -20.5961    1.0000 </r>
       <r>  -18.9348    1.0000 </r>
       <r>  -18.9256    1.0000 </r>
       <r>  -18.8864    1.0000 </r>
       <r>  -18.8044    1.0000 </r>
       <r>  -18.7878    1.0000 </r>
       <r>  -18.7865    1.0000 </r>
       <r>  -18.0175    1.0000 </r>
       <r>  -18.0146    1.0000 </r>
       <r>  -17.9560    1.0000 </r>
       <r>  -17.4995    1.0000 </r>
       <r>  -17.4970    1.0000 </r>
       <r>  -17.4826    1.0000 </r>
       <r>  -16.4980    1.0000 </r>
       <r>  -16.4782    1.0000 </r>
       <r>  -16.4761    1.0000 </r>
       <r>  -15.8888    1.0000 </r>
       <r>  -15.8871    1.0000 </r>
       <r>  -14.4595    1.0000 </r>
       <r>  -14.4559    1.0000 </r>
       <r>  -14.4260    1.0000 </r>
       <r>  -14.4156    1.0000 </r>
       <r>  -14.3902    1.0000 </r>
       <r>  -14.3891    1.0000 </r>
       <r>  -14.3088    1.0000 </r>
       <r>  -14.3072    1.0000 </r>
       <r>  -14.2375    1.0000 </r>
       <r>  -13.8701    1.0000 </r>
       <r>  -13.4419    1.0000 </r>
       <r>  -12.7950    1.0000 </r>
       <r>  -12.6752    1.0000 </r>
       <r>  -12.6721    1.0000 </r>
       <r>  -12.0487    1.0000 </r>
       <r>  -12.0451    1.0000 </r>
       <r>  -12.0274    1.0000 </r>
       <r>  -11.9948    1.0000 </r>
       <r>  -11.9927    1.0000 </r>
       <r>  -11.9814    1.0000 </r>
       <r>  -10.8005    1.0000 </r>
       <r>  -10.7680    1.0000 </r>
       <r>  -10.7533    1.0000 </r>
       <r>  -10.7494    1.0000 </r>
       <r>  -10.6543    1.0000 </r>
       <r>  -10.6521    1.0000 </r>
       <r>  -10.6338    1.0000 </r>
       <r>  -10.4998    1.0000 </r>
       <r>  -10.4948    1.0000 </r>
       <r>  -10.2992    1.0000 </r>
       <r>  -10.0439    1.0000 </r>
       <r>  -10.0417    1.0000 </r>
       <r>  -10.0384    1.0000 </r>
       <r>   -9.8177    1.0000 </r>
       <r>   -9.8153    1.0000 </r>
       <r>   -9.7891    1.0000 </r>
       <r>   -9.5063    1.0000 </r>
       <r>   -9.4503    1.0000 </r>
       <r>   -9.4475    1.0000 </r>
       <r>   -9.1512    1.0000 </r>
       <r>   -9.1386    1.0000 </r>
       <r>   -9.1379    1.0000 </r>
       <r>   -9.1065    1.0000 </r>
       <r>   -9.1043    1.0000 </r>
       <r>   -9.0865    1.0000 </r>
       <r>   -8.6700    1.0000 </r>
       <r>   -8.6681    1.0000 </r>
       <r>   -8.6567    1.0000 </r>
       <r>   -8.6425    1.0000 </r>
       <r>   -8.4880    1.0000 </r>
       <r>   -8.4685    1.0000 </r>
       <r>   -8.4438    1.0000 </r>
       <r>   -8.3096    1.0000 </r>
       <r>   -8.3063    1.0000 </r>
       <r>   -8.3010    1.0000 </r>
       <r>   -7.4854    1.0000 </r>
       <r>   -7.4818    1.0000 </r>
       <r>   -7.3894    1.0000 </r>
       <r>   -6.9825    1.0000 </r>
       <r>   -6.9788    1.0000 </r>
       <r>   -6.9218    1.0000 </r>
       <r>   -6.7345    1.0000 </r>
       <r>   -6.5945    1.0000 </r>
       <r>   -6.5781    1.0000 </r>
       <r>   -6.4265    1.0000 </r>
       <r>   -6.3764    1.0000 </r>
       <r>   -6.3354    1.0000 </r>
       <r>   -6.3345    1.0000 </r>
       <r>   -5.6584    1.0000 </r>
       <r>   -5.6512    1.0000 </r>
       <r>   -5.5180    1.0000 </r>
       <r>   -5.4109    1.0000 </r>
       <r>   -5.4059    1.0000 </r>
       <r>   -5.3853    1.0000 </r>
       <r>   -5.0482    1.0000 </r>
       <r>   -4.8667    1.0000 </r>
       <r>   -4.4291    1.0000 </r>
       <r>   -3.9395    1.0000 </r>
       <r>   -3.2924    1.0000 </r>
       <r>   -3.2879    1.0000 </r>
       <r>   -2.4651    0.0000 </r>
       <r>   -1.7400    0.0000 </r>
       <r>   -1.7035    0.0000 </r>
       <r>   -1.6344    0.0000 </r>
       <r>   -1.5720    0.0000 </r>
       <r>   -1.4656    0.0000 </r>
       <r>   -1.1180    0.0000 </r>
       <r>   -1.1110    0.0000 </r>
       <r>   -1.0103    0.0000 </r>
       <r>   -0.4051    0.0000 </r>
       <r>   -0.3979    0.0000 </r>
       <r>   -0.2439    0.0000 </r>
       <r>   -0.2347    0.0000 </r>
       <r>   -0.1914    0.0000 </r>
       <r>   -0.1741    0.0000 </r>
       <r>   -0.1615    0.0000 </r>
       <r>    0.1696    0.0000 </r>
       <r>    0.4276    0.0000 </r>
       <r>    0.4944    0.0000 </r>
       <r>    0.6913    0.0000 </r>
       <r>    0.9326    0.0000 </r>
       <r>    1.0351    0.0000 </r>
       <r>    1.1852    0.0000 </r>
       <r>    1.3140    0.0000 </r>
       <r>    1.4284    0.0000 </r>
       <r>    1.5975    0.0000 </r>
       <r>    1.6365    0.0000 </r>
       <r>    1.7087    0.0000 </r>
       <r>    1.7685    0.0000 </r>
       <r>    1.7901    0.0000 </r>
      </set>
      <set comment="kpoint 5">
       <r>  -50.0942    1.0000 </r>
       <r>  -22.7879    1.0000 </r>
       <r>  -22.4405    1.0000 </r>
       <r>  -22.1176    1.0000 </r>
       <r>  -22.0933    1.0000 </r>
       <r>  -21.5233    1.0000 </r>
       <r>  -21.4616    1.0000 </r>
       <r>  -21.1556    1.0000 </r>
       <r>  -20.8993    1.0000 </r>
       <r>  -20.8437    1.0000 </r>
       <r>  -20.2425    1.0000 </r>
       <r>  -19.9611    1.0000 </r>
       <r>  -19.9555    1.0000 </r>
       <r>  -19.6362    1.0000 </r>
       <r>  -19.6305    1.0000 </r>
       <r>  -19.0841    1.0000 </r>
       <r>  -19.0301    1.0000 </r>
       <r>  -18.4664    1.0000 </r>
       <r>  -18.4619    1.0000 </r>
       <r>  -17.9762    1.0000 </r>
       <r>  -17.8967    1.0000 </r>
       <r>  -17.8873    1.0000 </r>
       <r>  -17.6493    1.0000 </r>
       <r>  -17.6444    1.0000 </r>
       <r>  -16.8533    1.0000 </r>
       <r>  -16.8396    1.0000 </r>
       <r>  -16.1441    1.0000 </r>
       <r>  -15.8950    1.0000 </r>
       <r>  -15.8914    1.0000 </r>
       <r>  -15.3835    1.0000 </r>
       <r>  -15.3771    1.0000 </r>
       <r>  -15.3394    1.0000 </r>
       <r>  -15.3157    1.0000 </r>
       <r>  -14.9537    1.0000 </r>
       <r>  -14.9184    1.0000 </r>
       <r>  -13.7418    1.0000 </r>
       <r>  -13.7387    1.0000 </r>
       <r>  -13.5293    1.0000 </r>
       <r>  -13.4980    1.0000 </r>
       <r>  -13.4419    1.0000 </r>
       <r>  -13.2589    1.0000 </r>
       <r>  -13.2461    1.0000 </r>
       <r>  -12.9202    1.0000 </r>
       <r>  -12.7992    1.0000 </r>
       <r>  -12.7962    1.0000 </r>
       <r>  -12.0345    1.0000 </r>
       <r>  -11.9965    1.0000 </r>
       <r>  -11.5870    1.0000 </r>
       <r>  -11.5666    1.0000 </r>
       <r>  -11.2132    1.0000 </r>
       <r>  -11.1975    1.0000 </r>
       <r>  -11.1485    1.0000 </r>
       <r>  -10.9377    1.0000 </r>
       <r>  -10.9235    1.0000 </r>
       <r>  -10.8842    1.0000 </r>
       <r>  -10.4673    1.0000 </r>
       <r>  -10.3119    1.0000 </r>
       <r>  -10.3005    1.0000 </r>
       <r>  -10.2861    1.0000 </r>
       <r>  -10.2564    1.0000 </r>
       <r>  -10.2484    1.0000 </r>
       <r>  -10.0786    1.0000 </r>
       <r>  -10.0505    1.0000 </r>
       <r>   -9.9421    1.0000 </r>
       <r>   -9.9303    1.0000 </r>
       <r>   -9.6756    1.0000 </r>
       <r>   -9.6527    1.0000 </r>
       <r>   -9.6426    1.0000 </r>
       <r>   -9.5492    1.0000 </r>
       <r>   -9.5453    1.0000 </r>
       <r>   -9.3943    1.0000 </r>
       <r>   -9.3089    1.0000 </r>
       <r>   -9.0530    1.0000 </r>
       <r>   -8.9540    1.0000 </r>
       <r>   -8.7271    1.0000 </r>
       <r>   -8.7002    1.0000 </r>
       <r>   -8.6834    1.0000 </r>
       <r>   -8.6323    1.0000 </r>
       <r>   -8.5738    1.0000 </r>
       <r>   -8.4996    1.0000 </r>
       <r>   -8.4588    1.0000 </r>
       <r>   -8.4249    1.0000 </r>
       <r>   -7.9281    1.0000 </r>
       <r>   -7.8808    1.0000 </r>
       <r>   -7.6937    1.0000 </r>
       <r>   -7.6800    1.0000 </r>
       <r>   -7.6385    1.0000 </r>
       <r>   -7.5851    1.0000 </r>
       <r>   -7.2652    1.0000 </r>
       <r>   -7.2585    1.0000 </r>
       <r>   -7.0860    1.0000 </r>
       <r>   -6.7176    1.0000 </r>
       <r>   -6.7159    1.0000 </r>
       <r>   -6.6677    1.0000 </r>
       <r>   -6.5607    1.0000 </r>
       <r>   -6.5142    1.0000 </r>
       <r>   -6.1553    1.0000 </r>
       <r>   -6.1373    1.0000 </r>
       <r>   -5.8343    1.0000 </r>
       <r>   -5.5267    1.0000 </r>
       <r>   -5.4961    1.0000 </r>
       <r>   -5.3696    1.0000 </r>
       <r>   -5.3614    1.0000 </r>
       <r>   -5.0482    1.0000 </r>
       <r>   -4.8668    1.0000 </r>
       <r>   -4.4455    1.0000 </r>
       <r>   -4.3834    1.0000 </r>
       <r>   -4.3488    1.0000 </r>
       <r>   -3.9360    1.0000 </r>
       <r>   -2.4655    0.0000 </r>
       <r>   -2.2607    0.0000 </r>
       <r>   -2.2399    0.0000 </r>
       <r>   -1.6736    0.0000 </r>
       <r>   -1.5985    0.0000 </r>
       <r>   -1.5340    0.0000 </r>
       <r>   -1.4517    0.0000 </r>
       <r>   -1.4242    0.0000 </r>
       <r>   -1.2079    0.0000 </r>
       <r>   -1.1938    0.0000 </r>
       <r>   -0.8847    0.0000 </r>
       <r>   -0.8641    0.0000 </r>
       <r>   -0.2024    0.0000 </r>
       <r>    0.0682    0.0000 </r>
       <r>    0.1409    0.0000 </r>
       <r>    0.1939    0.0000 </r>
       <r>    0.3874    0.0000 </r>
       <r>    0.6143    0.0000 </r>
       <r>    0.6840    0.0000 </r>
       <r>    0.7053    0.0000 </r>
       <r>    0.8202    0.0000 </r>
       <r>    0.8900    0.0000 </r>
       <r>    1.0447    0.0000 </r>
       <r>    1.2311    0.0000 </r>
       <r>    1.2863    0.0000 </r>
       <r>    1.3546    0.0000 </r>
       <r>    1.3792    0.0000 </r>
       <r>    1.3888    0.0000 </r>
       <r>    1.5056    0.0000 </r>
       <r>    1.5465    0.0000 </r>
       <r>    1.6354    0.0000 </r>
      </set>
     </set>
    </set>
   </array>
  </eigenvalues>
  <separator name="orbital magnetization" >
   <v name="MAGDIPOLOUT">      0.00000000      0.00000000      0.00000000</v>
  </separator>
  <dos>
   <i name="efermi">     -2.98040288 </i>
   <total>
    <array>
     <dimension dim="1">gridpoints</dimension>
     <dimension dim="2">spin</dimension>
     <field>energy</field>
     <field>total</field>
     <field>integrated</field>
     <set>
      <set comment="spin 1">
       <r>   -52.6893     0.0000     0.0000 </r>
       <r>   -52.4990     0.0000     0.0000 </r>
       <r>   -52.3088     0.0000     0.0000 </r>
       <r>   -52.1185     0.0000     0.0000 </r>
       <r>   -51.9283     0.0000     0.0000 </r>
       <r>   -51.7380     0.0000     0.0000 </r>
       <r>   -51.5478     0.0000     0.0000 </r>
       <r>   -51.3575     0.0000     0.0000 </r>
       <r>   -51.1673     0.0000     0.0000 </r>
       <r>   -50.9770     0.0000     0.0000 </r>
       <r>   -50.7868     0.0000     0.0000 </r>
       <r>   -50.5966     0.0000     0.0000 </r>
       <r>   -50.4063     0.0000     0.0000 </r>
       <r>   -50.2161     0.0016     0.0003 </r>
       <r>   -50.0258     5.1223     0.9748 </r>
       <r>   -49.8356     0.1324     1.0000 </r>
       <r>   -49.6453     0.0000     1.0000 </r>
       <r>   -49.4551     0.0000     1.0000 </r>
       <r>   -49.2648     0.0000     1.0000 </r>
       <r>   -49.0746     0.0000     1.0000 </r>
       <r>   -48.8843     0.0000     1.0000 </r>
       <r>   -48.6941     0.0000     1.0000 </r>
       <r>   -48.5039     0.0000     1.0000 </r>
       <r>   -48.3136     0.0000     1.0000 </r>
       <r>   -48.1234     0.0000     1.0000 </r>
       <r>   -47.9331     0.0000     1.0000 </r>
       <r>   -47.7429     0.0000     1.0000 </r>
       <r>   -47.5526     0.0000     1.0000 </r>
       <r>   -47.3624     0.0000     1.0000 </r>
       <r>   -47.1721     0.0000     1.0000 </r>
       <r>   -46.9819     0.0000     1.0000 </r>
       <r>   -46.7916     0.0000     1.0000 </r>
       <r>   -46.6014     0.0000     1.0000 </r>
       <r>   -46.4112     0.0000     1.0000 </r>
       <r>   -46.2209     0.0000     1.0000 </r>
       <r>   -46.0307     0.0000     1.0000 </r>
       <r>   -45.8404     0.0000     1.0000 </r>
       <r>   -45.6502     0.0000     1.0000 </r>
       <r>   -45.4599     0.0000     1.0000 </r>
       <r>   -45.2697     0.0000     1.0000 </r>
       <r>   -45.0794     0.0000     1.0000 </r>
       <r>   -44.8892     0.0000     1.0000 </r>
       <r>   -44.6989     0.0000     1.0000 </r>
       <r>   -44.5087     0.0000     1.0000 </r>
       <r>   -44.3185     0.0000     1.0000 </r>
       <r>   -44.1282     0.0000     1.0000 </r>
       <r>   -43.9380     0.0000     1.0000 </r>
       <r>   -43.7477     0.0000     1.0000 </r>
       <r>   -43.5575     0.0000     1.0000 </r>
       <r>   -43.3672     0.0000     1.0000 </r>
       <r>   -43.1770     0.0000     1.0000 </r>
       <r>   -42.9867     0.0000     1.0000 </r>
       <r>   -42.7965     0.0000     1.0000 </r>
       <r>   -42.6062     0.0000     1.0000 </r>
       <r>   -42.4160     0.0000     1.0000 </r>
       <r>   -42.2258     0.0000     1.0000 </r>
       <r>   -42.0355     0.0000     1.0000 </r>
       <r>   -41.8453     0.0000     1.0000 </r>
       <r>   -41.6550     0.0000     1.0000 </r>
       <r>   -41.4648     0.0000     1.0000 </r>
       <r>   -41.2745     0.0000     1.0000 </r>
       <r>   -41.0843     0.0000     1.0000 </r>
       <r>   -40.8940     0.0000     1.0000 </r>
       <r>   -40.7038     0.0000     1.0000 </r>
       <r>   -40.5135     0.0000     1.0000 </r>
       <r>   -40.3233     0.0000     1.0000 </r>
       <r>   -40.1331     0.0000     1.0000 </r>
       <r>   -39.9428     0.0000     1.0000 </r>
       <r>   -39.7526     0.0000     1.0000 </r>
       <r>   -39.5623     0.0000     1.0000 </r>
       <r>   -39.3721     0.0000     1.0000 </r>
       <r>   -39.1818     0.0000     1.0000 </r>
       <r>   -38.9916     0.0000     1.0000 </r>
       <r>   -38.8013     0.0000     1.0000 </r>
       <r>   -38.6111     0.0000     1.0000 </r>
       <r>   -38.4208     0.0000     1.0000 </r>
       <r>   -38.2306     0.0000     1.0000 </r>
       <r>   -38.0404     0.0000     1.0000 </r>
       <r>   -37.8501     0.0000     1.0000 </r>
       <r>   -37.6599     0.0000     1.0000 </r>
       <r>   -37.4696     0.0000     1.0000 </r>
       <r>   -37.2794     0.0000     1.0000 </r>
       <r>   -37.0891     0.0000     1.0000 </r>
       <r>   -36.8989     0.0000     1.0000 </r>
       <r>   -36.7086     0.0000     1.0000 </r>
       <r>   -36.5184     0.0000     1.0000 </r>
       <r>   -36.3281     0.0000     1.0000 </r>
       <r>   -36.1379     0.0000     1.0000 </r>
       <r>   -35.9477     0.0000     1.0000 </r>
       <r>   -35.7574     0.0000     1.0000 </r>
       <r>   -35.5672     0.0000     1.0000 </r>
       <r>   -35.3769     0.0000     1.0000 </r>
       <r>   -35.1867     0.0000     1.0000 </r>
       <r>   -34.9964     0.0000     1.0000 </r>
       <r>   -34.8062     0.0000     1.0000 </r>
       <r>   -34.6159     0.0000     1.0000 </r>
       <r>   -34.4257     0.0000     1.0000 </r>
       <r>   -34.2354     0.0000     1.0000 </r>
       <r>   -34.0452     0.0000     1.0000 </r>
       <r>   -33.8550     0.0000     1.0000 </r>
       <r>   -33.6647     0.0000     1.0000 </r>
       <r>   -33.4745     0.0000     1.0000 </r>
       <r>   -33.2842     0.0000     1.0000 </r>
       <r>   -33.0940     0.0000     1.0000 </r>
       <r>   -32.9037     0.0000     1.0000 </r>
       <r>   -32.7135     0.0000     1.0000 </r>
       <r>   -32.5232     0.0000     1.0000 </r>
       <r>   -32.3330     0.0000     1.0000 </r>
       <r>   -32.1427     0.0000     1.0000 </r>
       <r>   -31.9525     0.0000     1.0000 </r>
       <r>   -31.7622     0.0000     1.0000 </r>
       <r>   -31.5720     0.0000     1.0000 </r>
       <r>   -31.3818     0.0000     1.0000 </r>
       <r>   -31.1915     0.0000     1.0000 </r>
       <r>   -31.0013     0.0000     1.0000 </r>
       <r>   -30.8110     0.0000     1.0000 </r>
       <r>   -30.6208     0.0000     1.0000 </r>
       <r>   -30.4305     0.0000     1.0000 </r>
       <r>   -30.2403     0.0000     1.0000 </r>
       <r>   -30.0500     0.0000     1.0000 </r>
       <r>   -29.8598     0.0000     1.0000 </r>
       <r>   -29.6695     0.0000     1.0000 </r>
       <r>   -29.4793     0.0000     1.0000 </r>
       <r>   -29.2891     0.0000     1.0000 </r>
       <r>   -29.0988     0.0000     1.0000 </r>
       <r>   -28.9086     0.0000     1.0000 </r>
       <r>   -28.7183     0.0000     1.0000 </r>
       <r>   -28.5281     0.0000     1.0000 </r>
       <r>   -28.3378     0.0000     1.0000 </r>
       <r>   -28.1476     0.0000     1.0000 </r>
       <r>   -27.9573     0.0000     1.0000 </r>
       <r>   -27.7671     0.0000     1.0000 </r>
       <r>   -27.5768     0.0000     1.0000 </r>
       <r>   -27.3866     0.0000     1.0000 </r>
       <r>   -27.1964     0.0000     1.0000 </r>
       <r>   -27.0061     0.0000     1.0000 </r>
       <r>   -26.8159     0.0000     1.0000 </r>
       <r>   -26.6256     0.0000     1.0000 </r>
       <r>   -26.4354     0.0000     1.0000 </r>
       <r>   -26.2451     0.0000     1.0000 </r>
       <r>   -26.0549     0.0000     1.0000 </r>
       <r>   -25.8646     0.0000     1.0000 </r>
       <r>   -25.6744     0.0000     1.0000 </r>
       <r>   -25.4841     0.0000     1.0000 </r>
       <r>   -25.2939     0.0000     1.0000 </r>
       <r>   -25.1037     0.0000     1.0000 </r>
       <r>   -24.9134     0.0000     1.0000 </r>
       <r>   -24.7232     0.0000     1.0000 </r>
       <r>   -24.5329     0.0000     1.0000 </r>
       <r>   -24.3427     0.0000     1.0000 </r>
       <r>   -24.1524     0.0000     1.0000 </r>
       <r>   -23.9622     0.0000     1.0000 </r>
       <r>   -23.7719     0.0000     1.0000 </r>
       <r>   -23.5817     0.0000     1.0000 </r>
       <r>   -23.3914     0.0000     1.0000 </r>
       <r>   -23.2012     0.0000     1.0000 </r>
       <r>   -23.0110     0.0001     1.0000 </r>
       <r>   -22.8207     1.1834     1.2252 </r>
       <r>   -22.6305     4.0222     1.9904 </r>
       <r>   -22.4402     3.7008     2.6944 </r>
       <r>   -22.2500     2.1906     3.1112 </r>
       <r>   -22.0597     6.6958     4.3850 </r>
       <r>   -21.8695     2.2314     4.8095 </r>
       <r>   -21.6792     1.6666     5.1266 </r>
       <r>   -21.4890     7.0764     6.4729 </r>
       <r>   -21.2987     3.3550     7.1111 </r>
       <r>   -21.1085     3.1902     7.7181 </r>
       <r>   -20.9183     1.3941     7.9833 </r>
       <r>   -20.7280     7.2879     9.3698 </r>
       <r>   -20.5378     5.4994    10.4160 </r>
       <r>   -20.3475     0.1547    10.4455 </r>
       <r>   -20.1573     3.5733    11.1253 </r>
       <r>   -19.9670     6.1874    12.3024 </r>
       <r>   -19.7768     4.2511    13.1111 </r>
       <r>   -19.5865     6.3390    14.3171 </r>
       <r>   -19.3963     0.6694    14.4444 </r>
       <r>   -19.2060     0.2461    14.4913 </r>
       <r>   -19.0158     8.9856    16.2007 </r>
       <r>   -18.8256     5.3781    17.2239 </r>
       <r>   -18.6353     2.9114    17.7778 </r>
       <r>   -18.4451     4.9479    18.7191 </r>
       <r>   -18.2548     2.0606    19.1111 </r>
       <r>   -18.0646     0.2200    19.1530 </r>
       <r>   -17.8743    11.6296    21.3654 </r>
       <r>   -17.6841     3.2153    21.9771 </r>
       <r>   -17.4938     7.6847    23.4391 </r>
       <r>   -17.3036     1.7801    23.7778 </r>
       <r>   -17.1133     0.0079    23.7793 </r>
       <r>   -16.9231     2.6478    24.2830 </r>
       <r>   -16.7329     7.8515    25.7767 </r>
       <r>   -16.5426     0.2023    25.8152 </r>
       <r>   -16.3524     3.3070    26.4443 </r>
       <r>   -16.1621     1.0784    26.6495 </r>
       <r>   -15.9719     4.7454    27.5523 </r>
       <r>   -15.7816    10.5209    29.5539 </r>
       <r>   -15.5914     0.0089    29.5556 </r>
       <r>   -15.4011     2.1130    29.9575 </r>
       <r>   -15.2109    11.8978    32.2211 </r>
       <r>   -15.0206     0.1201    32.2439 </r>
       <r>   -14.8304     6.8712    33.5511 </r>
       <r>   -14.6402     1.1711    33.7739 </r>
       <r>   -14.4499     4.3192    34.5956 </r>
       <r>   -14.2597     7.4919    36.0209 </r>
       <r>   -14.0694     1.0582    36.2222 </r>
       <r>   -13.8792     0.4666    36.3110 </r>
       <r>   -13.6889     7.1936    37.6795 </r>
       <r>   -13.4987     8.4074    39.2790 </r>
       <r>   -13.3084     4.7968    40.1916 </r>
       <r>   -13.1182     6.5849    41.4443 </r>
       <r>   -12.9279     1.4535    41.7208 </r>
       <r>   -12.7377     9.9291    43.6098 </r>
       <r>   -12.5475     2.6346    44.1110 </r>
       <r>   -12.3572     0.0090    44.1127 </r>
       <r>   -12.1670     4.1546    44.9031 </r>
       <r>   -11.9767    14.2901    47.6218 </r>
       <r>   -11.7865     2.5722    48.1111 </r>
       <r>   -11.5962     2.0644    48.5039 </r>
       <r>   -11.4060     4.9440    49.4444 </r>
       <r>   -11.2157     2.8354    49.9839 </r>
       <r>   -11.0255     7.8175    51.4711 </r>
       <r>   -10.8352    10.9658    53.5573 </r>
       <r>   -10.6450     9.9831    55.4565 </r>
       <r>   -10.4548    10.6201    57.4770 </r>
       <r>   -10.2645    10.5189    59.4781 </r>
       <r>   -10.0743     9.4336    61.2728 </r>
       <r>    -9.8840    14.2331    63.9806 </r>
       <r>    -9.6938     7.9447    65.4921 </r>
       <r>    -9.5035    17.3151    68.7862 </r>
       <r>    -9.3133    14.2204    71.4916 </r>
       <r>    -9.1230     5.5488    72.5472 </r>
       <r>    -8.9328     9.6312    74.3795 </r>
       <r>    -8.7425     2.7944    74.9111 </r>
       <r>    -8.5523    20.3204    78.7770 </r>
       <r>    -8.3621    14.6488    81.5638 </r>
       <r>    -8.1718     3.4604    82.2222 </r>
       <r>    -7.9816     0.2515    82.2700 </r>
       <r>    -7.7913     9.2877    84.0369 </r>
       <r>    -7.6011    15.3029    86.9483 </r>
       <r>    -7.4108     5.8007    88.0518 </r>
       <r>    -7.2206     6.9945    89.3825 </r>
       <r>    -7.0303     4.4056    90.2206 </r>
       <r>    -6.8401     9.1193    91.9556 </r>
       <r>    -6.6498     8.9587    93.6599 </r>
       <r>    -6.4596    10.5437    95.6658 </r>
       <r>    -6.2694     5.4660    96.7057 </r>
       <r>    -6.0791     7.1487    98.0657 </r>
       <r>    -5.8889     0.4844    98.1579 </r>
       <r>    -5.6986     3.5169    98.8269 </r>
       <r>    -5.5084     6.4677   100.0574 </r>
       <r>    -5.3181    13.6957   102.6629 </r>
       <r>    -5.1279     5.8532   103.7765 </r>
       <r>    -4.9376     2.6419   104.2791 </r>
       <r>    -4.7474     4.9378   105.2185 </r>
       <r>    -4.5571     1.1898   105.4448 </r>
       <r>    -4.3669     8.5980   107.0806 </r>
       <r>    -4.1767     3.6649   107.7778 </r>
       <r>    -3.9864     4.3917   108.6133 </r>
       <r>    -3.7962     0.8646   108.7778 </r>
       <r>    -3.6059     0.0000   108.7778 </r>
       <r>    -3.4157     0.0005   108.7779 </r>
       <r>    -3.2254     2.2583   109.2075 </r>
       <r>    -3.0352     0.4947   109.3016 </r>
       <r>    -2.8449     4.8388   110.2222 </r>
       <r>    -2.6547     0.0002   110.2222 </r>
       <r>    -2.4644     0.0000   110.2222 </r>
       <r>    -2.2742     2.0004   110.6028 </r>
       <r>    -2.0840     5.6312   111.6741 </r>
       <r>    -1.8937     2.4855   112.1469 </r>
       <r>    -1.7035     3.1724   112.7505 </r>
       <r>    -1.5132    13.9172   115.3982 </r>
       <r>    -1.3230     7.8204   116.8860 </r>
       <r>    -1.1327     7.5586   118.3239 </r>
       <r>    -0.9425     3.2197   118.9365 </r>
       <r>    -0.7522     6.7554   120.2217 </r>
       <r>    -0.5620     0.5937   120.3346 </r>
       <r>    -0.3717     6.3817   121.5487 </r>
       <r>    -0.1815     4.5328   122.4110 </r>
       <r>     0.0088     4.7940   123.3231 </r>
       <r>     0.1990     9.8204   125.1914 </r>
       <r>     0.3892     5.4378   126.2259 </r>
       <r>     0.5795     4.2332   127.0313 </r>
       <r>     0.7697    13.1114   129.5256 </r>
       <r>     0.9600     7.0851   130.8735 </r>
       <r>     1.1502     7.2325   132.2495 </r>
       <r>     1.3405    10.8285   134.3096 </r>
       <r>     1.5307    16.0470   137.3624 </r>
       <r>     1.7210    11.2763   139.5077 </r>
       <r>     1.9112     2.5875   140.0000 </r>
       <r>     2.1015     0.0001   140.0000 </r>
       <r>     2.2917     0.0000   140.0000 </r>
       <r>     2.4819     0.0000   140.0000 </r>
       <r>     2.6722     0.0000   140.0000 </r>
       <r>     2.8624     0.0000   140.0000 </r>
       <r>     3.0527     0.0000   140.0000 </r>
       <r>     3.2429     0.0000   140.0000 </r>
       <r>     3.4332     0.0000   140.0000 </r>
       <r>     3.6234     0.0000   140.0000 </r>
       <r>     3.8137     0.0000   140.0000 </r>
       <r>     4.0039     0.0000   140.0000 </r>
       <r>     4.1942     0.0000   140.0000 </r>
       <r>     4.3844     0.0000   140.0000 </r>
      </set>
      <set comment="spin 2">
       <r>   -52.6893     0.0000     0.0000 </r>
       <r>   -52.4990     0.0000     0.0000 </r>
       <r>   -52.3088     0.0000     0.0000 </r>
       <r>   -52.1185     0.0000     0.0000 </r>
       <r>   -51.9283     0.0000     0.0000 </r>
       <r>   -51.7380     0.0000     0.0000 </r>
       <r>   -51.5478     0.0000     0.0000 </r>
       <r>   -51.3575     0.0000     0.0000 </r>
       <r>   -51.1673     0.0000     0.0000 </r>
       <r>   -50.9770     0.0000     0.0000 </r>
       <r>   -50.7868     0.0000     0.0000 </r>
       <r>   -50.5966     0.0000     0.0000 </r>
       <r>   -50.4063     0.0000     0.0000 </r>
       <r>   -50.2161     0.0015     0.0003 </r>
       <r>   -50.0258     5.1155     0.9735 </r>
       <r>   -49.8356     0.1394     1.0000 </r>
       <r>   -49.6453     0.0000     1.0000 </r>
       <r>   -49.4551     0.0000     1.0000 </r>
       <r>   -49.2648     0.0000     1.0000 </r>
       <r>   -49.0746     0.0000     1.0000 </r>
       <r>   -48.8843     0.0000     1.0000 </r>
       <r>   -48.6941     0.0000     1.0000 </r>
       <r>   -48.5039     0.0000     1.0000 </r>
       <r>   -48.3136     0.0000     1.0000 </r>
       <r>   -48.1234     0.0000     1.0000 </r>
       <r>   -47.9331     0.0000     1.0000 </r>
       <r>   -47.7429     0.0000     1.0000 </r>
       <r>   -47.5526     0.0000     1.0000 </r>
       <r>   -47.3624     0.0000     1.0000 </r>
       <r>   -47.1721     0.0000     1.0000 </r>
       <r>   -46.9819     0.0000     1.0000 </r>
       <r>   -46.7916     0.0000     1.0000 </r>
       <r>   -46.6014     0.0000     1.0000 </r>
       <r>   -46.4112     0.0000     1.0000 </r>
       <r>   -46.2209     0.0000     1.0000 </r>
       <r>   -46.0307     0.0000     1.0000 </r>
       <r>   -45.8404     0.0000     1.0000 </r>
       <r>   -45.6502     0.0000     1.0000 </r>
       <r>   -45.4599     0.0000     1.0000 </r>
       <r>   -45.2697     0.0000     1.0000 </r>
       <r>   -45.0794     0.0000     1.0000 </r>
       <r>   -44.8892     0.0000     1.0000 </r>
       <r>   -44.6989     0.0000     1.0000 </r>
       <r>   -44.5087     0.0000     1.0000 </r>
       <r>   -44.3185     0.0000     1.0000 </r>
       <r>   -44.1282     0.0000     1.0000 </r>
       <r>   -43.9380     0.0000     1.0000 </r>
       <r>   -43.7477     0.0000     1.0000 </r>
       <r>   -43.5575     0.0000     1.0000 </r>
       <r>   -43.3672     0.0000     1.0000 </r>
       <r>   -43.1770     0.0000     1.0000 </r>
       <r>   -42.9867     0.0000     1.0000 </r>
       <r>   -42.7965     0.0000     1.0000 </r>
       <r>   -42.6062     0.0000     1.0000 </r>
       <r>   -42.4160     0.0000     1.0000 </r>
       <r>   -42.2258     0.0000     1.0000 </r>
       <r>   -42.0355     0.0000     1.0000 </r>
       <r>   -41.8453     0.0000     1.0000 </r>
       <r>   -41.6550     0.0000     1.0000 </r>
       <r>   -41.4648     0.0000     1.0000 </r>
       <r>   -41.2745     0.0000     1.0000 </r>
       <r>   -41.0843     0.0000     1.0000 </r>
       <r>   -40.8940     0.0000     1.0000 </r>
       <r>   -40.7038     0.0000     1.0000 </r>
       <r>   -40.5135     0.0000     1.0000 </r>
       <r>   -40.3233     0.0000     1.0000 </r>
       <r>   -40.1331     0.0000     1.0000 </r>
       <r>   -39.9428     0.0000     1.0000 </r>
       <r>   -39.7526     0.0000     1.0000 </r>
       <r>   -39.5623     0.0000     1.0000 </r>
       <r>   -39.3721     0.0000     1.0000 </r>
       <r>   -39.1818     0.0000     1.0000 </r>
       <r>   -38.9916     0.0000     1.0000 </r>
       <r>   -38.8013     0.0000     1.0000 </r>
       <r>   -38.6111     0.0000     1.0000 </r>
       <r>   -38.4208     0.0000     1.0000 </r>
       <r>   -38.2306     0.0000     1.0000 </r>
       <r>   -38.0404     0.0000     1.0000 </r>
       <r>   -37.8501     0.0000     1.0000 </r>
       <r>   -37.6599     0.0000     1.0000 </r>
       <r>   -37.4696     0.0000     1.0000 </r>
       <r>   -37.2794     0.0000     1.0000 </r>
       <r>   -37.0891     0.0000     1.0000 </r>
       <r>   -36.8989     0.0000     1.0000 </r>
       <r>   -36.7086     0.0000     1.0000 </r>
       <r>   -36.5184     0.0000     1.0000 </r>
       <r>   -36.3281     0.0000     1.0000 </r>
       <r>   -36.1379     0.0000     1.0000 </r>
       <r>   -35.9477     0.0000     1.0000 </r>
       <r>   -35.7574     0.0000     1.0000 </r>
       <r>   -35.5672     0.0000     1.0000 </r>
       <r>   -35.3769     0.0000     1.0000 </r>
       <r>   -35.1867     0.0000     1.0000 </r>
       <r>   -34.9964     0.0000     1.0000 </r>
       <r>   -34.8062     0.0000     1.0000 </r>
       <r>   -34.6159     0.0000     1.0000 </r>
       <r>   -34.4257     0.0000     1.0000 </r>
       <r>   -34.2354     0.0000     1.0000 </r>
       <r>   -34.0452     0.0000     1.0000 </r>
       <r>   -33.8550     0.0000     1.0000 </r>
       <r>   -33.6647     0.0000     1.0000 </r>
       <r>   -33.4745     0.0000     1.0000 </r>
       <r>   -33.2842     0.0000     1.0000 </r>
       <r>   -33.0940     0.0000     1.0000 </r>
       <r>   -32.9037     0.0000     1.0000 </r>
       <r>   -32.7135     0.0000     1.0000 </r>
       <r>   -32.5232     0.0000     1.0000 </r>
       <r>   -32.3330     0.0000     1.0000 </r>
       <r>   -32.1427     0.0000     1.0000 </r>
       <r>   -31.9525     0.0000     1.0000 </r>
       <r>   -31.7622     0.0000     1.0000 </r>
       <r>   -31.5720     0.0000     1.0000 </r>
       <r>   -31.3818     0.0000     1.0000 </r>
       <r>   -31.1915     0.0000     1.0000 </r>
       <r>   -31.0013     0.0000     1.0000 </r>
       <r>   -30.8110     0.0000     1.0000 </r>
       <r>   -30.6208     0.0000     1.0000 </r>
       <r>   -30.4305     0.0000     1.0000 </r>
       <r>   -30.2403     0.0000     1.0000 </r>
       <r>   -30.0500     0.0000     1.0000 </r>
       <r>   -29.8598     0.0000     1.0000 </r>
       <r>   -29.6695     0.0000     1.0000 </r>
       <r>   -29.4793     0.0000     1.0000 </r>
       <r>   -29.2891     0.0000     1.0000 </r>
       <r>   -29.0988     0.0000     1.0000 </r>
       <r>   -28.9086     0.0000     1.0000 </r>
       <r>   -28.7183     0.0000     1.0000 </r>
       <r>   -28.5281     0.0000     1.0000 </r>
       <r>   -28.3378     0.0000     1.0000 </r>
       <r>   -28.1476     0.0000     1.0000 </r>
       <r>   -27.9573     0.0000     1.0000 </r>
       <r>   -27.7671     0.0000     1.0000 </r>
       <r>   -27.5768     0.0000     1.0000 </r>
       <r>   -27.3866     0.0000     1.0000 </r>
       <r>   -27.1964     0.0000     1.0000 </r>
       <r>   -27.0061     0.0000     1.0000 </r>
       <r>   -26.8159     0.0000     1.0000 </r>
       <r>   -26.6256     0.0000     1.0000 </r>
       <r>   -26.4354     0.0000     1.0000 </r>
       <r>   -26.2451     0.0000     1.0000 </r>
       <r>   -26.0549     0.0000     1.0000 </r>
       <r>   -25.8646     0.0000     1.0000 </r>
       <r>   -25.6744     0.0000     1.0000 </r>
       <r>   -25.4841     0.0000     1.0000 </r>
       <r>   -25.2939     0.0000     1.0000 </r>
       <r>   -25.1037     0.0000     1.0000 </r>
       <r>   -24.9134     0.0000     1.0000 </r>
       <r>   -24.7232     0.0000     1.0000 </r>
       <r>   -24.5329     0.0000     1.0000 </r>
       <r>   -24.3427     0.0000     1.0000 </r>
       <r>   -24.1524     0.0000     1.0000 </r>
       <r>   -23.9622     0.0000     1.0000 </r>
       <r>   -23.7719     0.0000     1.0000 </r>
       <r>   -23.5817     0.0000     1.0000 </r>
       <r>   -23.3914     0.0000     1.0000 </r>
       <r>   -23.2012     0.0000     1.0000 </r>
       <r>   -23.0110     0.0001     1.0000 </r>
       <r>   -22.8207     1.1815     1.2248 </r>
       <r>   -22.6305     4.0238     1.9903 </r>
       <r>   -22.4402     3.6990     2.6940 </r>
       <r>   -22.2500     2.1927     3.1112 </r>
       <r>   -22.0597     6.6941     4.3847 </r>
       <r>   -21.8695     2.2327     4.8095 </r>
       <r>   -21.6792     1.6668     5.1266 </r>
       <r>   -21.4890     7.0742     6.4724 </r>
       <r>   -21.2987     3.3573     7.1111 </r>
       <r>   -21.1085     3.1898     7.7180 </r>
       <r>   -20.9183     1.3927     7.9829 </r>
       <r>   -20.7280     7.2880     9.3694 </r>
       <r>   -20.5378     5.5010    10.4160 </r>
       <r>   -20.3475     0.1549    10.4454 </r>
       <r>   -20.1573     3.5730    11.1252 </r>
       <r>   -19.9670     6.1840    12.3017 </r>
       <r>   -19.7768     4.2549    13.1111 </r>
       <r>   -19.5865     6.3379    14.3169 </r>
       <r>   -19.3963     0.6704    14.4444 </r>
       <r>   -19.2060     0.2457    14.4912 </r>
       <r>   -19.0158     8.9842    16.2004 </r>
       <r>   -18.8256     5.3792    17.2238 </r>
       <r>   -18.6353     2.9121    17.7778 </r>
       <r>   -18.4451     4.9455    18.7186 </r>
       <r>   -18.2548     2.0630    19.1111 </r>
       <r>   -18.0646     0.2193    19.1528 </r>
       <r>   -17.8743    11.6277    21.3650 </r>
       <r>   -17.6841     3.2164    21.9769 </r>
       <r>   -17.4938     7.6848    23.4389 </r>
       <r>   -17.3036     1.7814    23.7778 </r>
       <r>   -17.1133     0.0079    23.7793 </r>
       <r>   -16.9231     2.6469    24.2828 </r>
       <r>   -16.7329     7.8524    25.7767 </r>
       <r>   -16.5426     0.2020    25.8151 </r>
       <r>   -16.3524     3.3073    26.4443 </r>
       <r>   -16.1621     1.0773    26.6493 </r>
       <r>   -15.9719     4.7454    27.5521 </r>
       <r>   -15.7816    10.5221    29.5539 </r>
       <r>   -15.5914     0.0089    29.5556 </r>
       <r>   -15.4011     2.1099    29.9569 </r>
       <r>   -15.2109    11.9010    32.2211 </r>
       <r>   -15.0206     0.1198    32.2438 </r>
       <r>   -14.8304     6.8715    33.5511 </r>
       <r>   -14.6402     1.1700    33.7737 </r>
       <r>   -14.4499     4.3183    34.5952 </r>
       <r>   -14.2597     7.4932    36.0208 </r>
       <r>   -14.0694     1.0588    36.2222 </r>
       <r>   -13.8792     0.4663    36.3109 </r>
       <r>   -13.6889     7.1929    37.6793 </r>
       <r>   -13.4987     5.3560    38.6983 </r>
       <r>   -13.3084     7.8479    40.1913 </r>
       <r>   -13.1182     6.5862    41.4443 </r>
       <r>   -12.9279     1.4523    41.7206 </r>
       <r>   -12.7377     9.9295    43.6097 </r>
       <r>   -12.5475     2.6354    44.1110 </r>
       <r>   -12.3572     0.0089    44.1127 </r>
       <r>   -12.1670     4.1538    44.9030 </r>
       <r>   -11.9767    14.2885    47.6213 </r>
       <r>   -11.7865     2.5747    48.1111 </r>
       <r>   -11.5962     2.0629    48.5036 </r>
       <r>   -11.4060     4.9456    49.4444 </r>
       <r>   -11.2157     2.8328    49.9834 </r>
       <r>   -11.0255     7.8182    51.4707 </r>
       <r>   -10.8352    10.9516    53.5542 </r>
       <r>   -10.6450     9.9980    55.4563 </r>
       <r>   -10.4548     5.9534    56.5889 </r>
       <r>   -10.2645    14.3635    59.3215 </r>
       <r>   -10.0743    10.2185    61.2655 </r>
       <r>    -9.8840    14.2670    63.9798 </r>
       <r>    -9.6938     7.9470    65.4916 </r>
       <r>    -9.5035    17.3125    68.7853 </r>
       <r>    -9.3133    14.2211    71.4908 </r>
       <r>    -9.1230     5.5513    72.5469 </r>
       <r>    -8.9328     9.6304    74.3790 </r>
       <r>    -8.7425     2.7795    74.9078 </r>
       <r>    -8.5523    20.2846    78.7669 </r>
       <r>    -8.3621    14.7006    81.5636 </r>
       <r>    -8.1718     3.4617    82.2222 </r>
       <r>    -7.9816     0.2495    82.2696 </r>
       <r>    -7.7913     9.2826    84.0356 </r>
       <r>    -7.6011    15.2921    86.9449 </r>
       <r>    -7.4108     5.8183    88.0518 </r>
       <r>    -7.2206     6.9827    89.3802 </r>
       <r>    -7.0303     4.4162    90.2204 </r>
       <r>    -6.8401     4.4393    91.0649 </r>
       <r>    -6.6498    13.1269    93.5623 </r>
       <r>    -6.4596    11.0538    95.6652 </r>
       <r>    -6.2694     5.4684    96.7055 </r>
       <r>    -6.0791     7.1469    98.0652 </r>
       <r>    -5.8889     0.4843    98.1573 </r>
       <r>    -5.6986     3.5151    98.8261 </r>
       <r>    -5.5084     6.4423   100.0517 </r>
       <r>    -5.3181    13.6744   102.6532 </r>
       <r>    -5.1279     0.7213   102.7904 </r>
       <r>    -4.9376     5.4456   103.8264 </r>
       <r>    -4.7474     7.3134   105.2178 </r>
       <r>    -4.5571     1.1938   105.4449 </r>
       <r>    -4.3669     8.6038   107.0817 </r>
       <r>    -4.1767     3.6588   107.7778 </r>
       <r>    -3.9864     0.4479   107.8630 </r>
       <r>    -3.7962     4.8083   108.7777 </r>
       <r>    -3.6059     0.0002   108.7778 </r>
       <r>    -3.4157     0.0005   108.7779 </r>
       <r>    -3.2254     2.2565   109.2072 </r>
       <r>    -3.0352     0.0792   109.2222 </r>
       <r>    -2.8449     0.0000   109.2222 </r>
       <r>    -2.6547     0.0000   109.2222 </r>
       <r>    -2.4644     2.7555   109.7464 </r>
       <r>    -2.2742     4.4341   110.5900 </r>
       <r>    -2.0840     5.6738   111.6694 </r>
       <r>    -1.8937     2.5069   112.1463 </r>
       <r>    -1.7035     2.8602   112.6905 </r>
       <r>    -1.5132    12.5066   115.0698 </r>
       <r>    -1.3230     9.5152   116.8800 </r>
       <r>    -1.1327     7.5755   118.3212 </r>
       <r>    -0.9425     3.2158   118.9330 </r>
       <r>    -0.7522     6.7733   120.2216 </r>
       <r>    -0.5620     0.0031   120.2222 </r>
       <r>    -0.3717     1.8666   120.5773 </r>
       <r>    -0.1815     7.4962   122.0034 </r>
       <r>     0.0088     6.7156   123.2811 </r>
       <r>     0.1990     9.8972   125.1640 </r>
       <r>     0.3892     4.4759   126.0155 </r>
       <r>     0.5795     4.4961   126.8709 </r>
       <r>     0.7697    13.3318   129.4072 </r>
       <r>     0.9600     6.1248   130.5724 </r>
       <r>     1.1502     7.1276   131.9284 </r>
       <r>     1.3405    11.4223   134.1014 </r>
       <r>     1.5307    15.2671   137.0059 </r>
       <r>     1.7210    12.8564   139.4518 </r>
       <r>     1.9112     2.8810   139.9999 </r>
       <r>     2.1015     0.0004   140.0000 </r>
       <r>     2.2917     0.0000   140.0000 </r>
       <r>     2.4819     0.0000   140.0000 </r>
       <r>     2.6722     0.0000   140.0000 </r>
       <r>     2.8624     0.0000   140.0000 </r>
       <r>     3.0527     0.0000   140.0000 </r>
       <r>     3.2429     0.0000   140.0000 </r>
       <r>     3.4332     0.0000   140.0000 </r>
       <r>     3.6234     0.0000   140.0000 </r>
       <r>     3.8137     0.0000   140.0000 </r>
       <r>     4.0039     0.0000   140.0000 </r>
       <r>     4.1942     0.0000   140.0000 </r>
       <r>     4.3844     0.0000   140.0000 </r>
      </set>
     </set>
    </array>
   </total>
  </dos>
 </calculation>
 <structure name="finalpos" >
  <crystal>
   <varray name="basis" >
    <v>      12.30000000       0.00000000       0.00000000 </v>
    <v>      -6.15000000      10.65211247       0.00000000 </v>
    <v>       0.00000000       0.00000000      30.00000000 </v>
   </varray>
   <i name="volume">   3930.62950016 </i>
   <varray name="rec_basis" >
    <v>       0.08130081       0.04693905       0.00000000 </v>
    <v>       0.00000000       0.09387809       0.00000000 </v>
    <v>       0.00000000       0.00000000       0.03333333 </v>
   </varray>
  </crystal>
  <varray name="positions" >
   <v>       0.00345074       0.99986383       0.49609670 </v>
   <v>       0.00348460       0.19970334       0.49664178 </v>
   <v>       0.13682954       0.26641593       0.49662475 </v>
   <v>       0.00369603       0.39951385       0.49732348 </v>
   <v>       0.13694708       0.46642552       0.49708584 </v>
   <v>       0.00383788       0.60005532       0.49711179 </v>
   <v>       0.13728880       0.66673225       0.49714247 </v>
   <v>       0.00373898       0.80037993       0.49623857 </v>
   <v>       0.13693361       0.86663486       0.49637633 </v>
   <v>       0.40332590       0.39971860       0.49590635 </v>
   <v>       0.33679058       0.06643168       0.49601494 </v>
   <v>       0.53661624       0.26629152       0.49570410 </v>
   <v>       0.20350352       0.99988078       0.49615422 </v>
   <v>       0.20353132       0.39972944       0.49672267 </v>
   <v>       0.33680059       0.46648876       0.49629492 </v>
   <v>       0.20362647       0.59981745       0.49699182 </v>
   <v>       0.33686522       0.66650087       0.49656844 </v>
   <v>       0.20361733       0.79994590       0.49668328 </v>
   <v>       0.33686383       0.86652635       0.49644123 </v>
   <v>       0.40346456       0.99981634       0.49614744 </v>
   <v>       0.53673714       0.06636083       0.49614030 </v>
   <v>       0.40335236       0.19969184       0.49582630 </v>
   <v>       0.20346847       0.19976015       0.49630817 </v>
   <v>       0.33677594       0.26642160       0.49600636 </v>
   <v>       0.53671381       0.66650573       0.49577726 </v>
   <v>       0.13676778       0.06644140       0.49620324 </v>
   <v>       0.73675221       0.86656239       0.49579090 </v>
   <v>       0.40345319       0.79981189       0.49641146 </v>
   <v>       0.53677031       0.86643479       0.49613927 </v>
   <v>       0.60343762       0.99974474       0.49621758 </v>
   <v>       0.73674534       0.06635827       0.49634866 </v>
   <v>       0.60329964       0.19960770       0.49607178 </v>
   <v>       0.73647718       0.26588547       0.49658746 </v>
   <v>       0.60285721       0.39947764       0.49554387 </v>
   <v>       0.73629875       0.46622453       0.49571691 </v>
   <v>       0.60324845       0.59978617       0.49552552 </v>
   <v>       0.53657849       0.46639432       0.49553343 </v>
   <v>       0.40344283       0.59979045       0.49620483 </v>
   <v>       0.73644477       0.66674569       0.49555307 </v>
   <v>       0.80346948       0.99983073       0.49611591 </v>
   <v>       0.93675302       0.06643387       0.49626334 </v>
   <v>       0.80338933       0.19958592       0.49670218 </v>
   <v>       0.93678703       0.26628266       0.49693830 </v>
   <v>       0.80315717       0.39930135       0.49657820 </v>
   <v>       0.93695234       0.46624950       0.49725907 </v>
   <v>       0.80315673       0.60002138       0.49569846 </v>
   <v>       0.93698371       0.66696228       0.49635207 </v>
   <v>       0.80338826       0.79995657       0.49565506 </v>
   <v>       0.93678992       0.86661211       0.49589353 </v>
   <v>       0.60345197       0.79982850       0.49586192 </v>
   <v>       0.82898378       0.53361090       0.55293658 </v>
   <v>       0.52033525       0.40496966       0.67613139 </v>
   <v>       0.71141259       0.58973245       0.68898397 </v>
   <v>       0.68672958       0.46155567       0.62731800 </v>
   <v>       0.87646093       0.64798229       0.64082278 </v>
  </varray>
 </structure>
</modeling>
