  49  49   0   0
  0.8021693E+02  0.1230000E-08  0.1230000E-08  0.3000000E-08  0.5000000E-15
  1.000000000000000E-004
  CAR 
 Li defective graphene MACE training lab 
      4.82417247    -54.18231682  301     -3.10214642      1.00000000
    -54.182  0.0000E+00  0.0000E+00  0.0000E+00  0.0000E+00
    -53.986  0.0000E+00  0.0000E+00  0.0000E+00  0.0000E+00
    -53.789  0.0000E+00  0.0000E+00  0.0000E+00  0.0000E+00
    -53.592  0.0000E+00  0.0000E+00  0.0000E+00  0.0000E+00
    -53.396  0.0000E+00  0.0000E+00  0.0000E+00  0.0000E+00
    -53.199  0.0000E+00  0.0000E+00  0.0000E+00  0.0000E+00
    -53.002  0.0000E+00  0.0000E+00  0.0000E+00  0.0000E+00
    -52.805  0.0000E+00  0.0000E+00  0.0000E+00  0.0000E+00
    -52.609  0.0000E+00  0.0000E+00  0.0000E+00  0.0000E+00
    -52.412  0.0000E+00  0.0000E+00  0.0000E+00  0.0000E+00
    -52.215  0.0000E+00  0.0000E+00  0.0000E+00  0.0000E+00
    -52.019  0.0000E+00  0.0000E+00  0.0000E+00  0.0000E+00
    -51.822  0.0000E+00  0.0000E+00  0.0000E+00  0.0000E+00
    -51.625  0.1016E-02  0.1016E-02  0.1999E-03  0.1999E-03
    -51.429  0.4974E+01  0.4974E+01  0.9785E+00  0.9785E+00
    -51.232  0.1095E+00  0.1095E+00  0.1000E+01  0.1000E+01
    -51.035  0.0000E+00  0.0000E+00  0.1000E+01  0.1000E+01
    -50.839  0.0000E+00  0.0000E+00  0.1000E+01  0.1000E+01
    -50.642  0.0000E+00  0.0000E+00  0.1000E+01  0.1000E+01
    -50.445  0.0000E+00  0.0000E+00  0.1000E+01  0.1000E+01
    -50.249  0.0000E+00  0.0000E+00  0.1000E+01  0.1000E+01
    -50.052  0.0000E+00  0.0000E+00  0.1000E+01  0.1000E+01
    -49.855  0.0000E+00  0.0000E+00  0.1000E+01  0.1000E+01
    -49.658  0.0000E+00  0.0000E+00  0.1000E+01  0.1000E+01
    -49.462  0.0000E+00  0.0000E+00  0.1000E+01  0.1000E+01
    -49.265  0.0000E+00  0.0000E+00  0.1000E+01  0.1000E+01
    -49.068  0.0000E+00  0.0000E+00  0.1000E+01  0.1000E+01
    -48.872  0.0000E+00  0.0000E+00  0.1000E+01  0.1000E+01
    -48.675  0.0000E+00  0.0000E+00  0.1000E+01  0.1000E+01
    -48.478  0.0000E+00  0.0000E+00  0.1000E+01  0.1000E+01
    -48.282  0.0000E+00  0.0000E+00  0.1000E+01  0.1000E+01
    -48.085  0.0000E+00  0.0000E+00  0.1000E+01  0.1000E+01
    -47.888  0.0000E+00  0.0000E+00  0.1000E+01  0.1000E+01
    -47.692  0.0000E+00  0.0000E+00  0.1000E+01  0.1000E+01
    -47.495  0.0000E+00  0.0000E+00  0.1000E+01  0.1000E+01
    -47.298  0.0000E+00  0.0000E+00  0.1000E+01  0.1000E+01
    -47.102  0.0000E+00  0.0000E+00  0.1000E+01  0.1000E+01
    -46.905  0.0000E+00  0.0000E+00  0.1000E+01  0.1000E+01
    -46.708  0.0000E+00  0.0000E+00  0.1000E+01  0.1000E+01
    -46.511  0.0000E+00  0.0000E+00  0.1000E+01  0.1000E+01
    -46.315  0.0000E+00  0.0000E+00  0.1000E+01  0.1000E+01
    -46.118  0.0000E+00  0.0000E+00  0.1000E+01  0.1000E+01
    -45.921  0.0000E+00  0.0000E+00  0.1000E+01  0.1000E+01
    -45.725  0.0000E+00  0.0000E+00  0.1000E+01  0.1000E+01
    -45.528  0.0000E+00  0.0000E+00  0.1000E+01  0.1000E+01
    -45.331  0.0000E+00  0.0000E+00  0.1000E+01  0.1000E+01
    -45.135  0.0000E+00  0.0000E+00  0.1000E+01  0.1000E+01
    -44.938  0.0000E+00  0.0000E+00  0.1000E+01  0.1000E+01
    -44.741  0.0000E+00  0.0000E+00  0.1000E+01  0.1000E+01
    -44.545  0.0000E+00  0.0000E+00  0.1000E+01  0.1000E+01
    -44.348  0.0000E+00  0.0000E+00  0.1000E+01  0.1000E+01
    -44.151  0.0000E+00  0.0000E+00  0.1000E+01  0.1000E+01
    -43.955  0.0000E+00  0.0000E+00  0.1000E+01  0.1000E+01
    -43.758  0.0000E+00  0.0000E+00  0.1000E+01  0.1000E+01
    -43.561  0.0000E+00  0.0000E+00  0.1000E+01  0.1000E+01
    -43.364  0.0000E+00  0.0000E+00  0.1000E+01  0.1000E+01
    -43.168  0.0000E+00  0.0000E+00  0.1000E+01  0.1000E+01
    -42.971  0.0000E+00  0.0000E+00  0.1000E+01  0.1000E+01
    -42.774  0.0000E+00  0.0000E+00  0.1000E+01  0.1000E+01
    -42.578  0.0000E+00  0.0000E+00  0.1000E+01  0.1000E+01
    -42.381  0.0000E+00  0.0000E+00  0.1000E+01  0.1000E+01
    -42.184  0.0000E+00  0.0000E+00  0.1000E+01  0.1000E+01
    -41.988  0.0000E+00  0.0000E+00  0.1000E+01  0.1000E+01
    -41.791  0.0000E+00  0.0000E+00  0.1000E+01  0.1000E+01
    -41.594  0.0000E+00  0.0000E+00  0.1000E+01  0.1000E+01
    -41.398  0.0000E+00  0.0000E+00  0.1000E+01  0.1000E+01
    -41.201  0.0000E+00  0.0000E+00  0.1000E+01  0.1000E+01
    -41.004  0.0000E+00  0.0000E+00  0.1000E+01  0.1000E+01
    -40.808  0.0000E+00  0.0000E+00  0.1000E+01  0.1000E+01
    -40.611  0.0000E+00  0.0000E+00  0.1000E+01  0.1000E+01
    -40.414  0.0000E+00  0.0000E+00  0.1000E+01  0.1000E+01
    -40.217  0.0000E+00  0.0000E+00  0.1000E+01  0.1000E+01
    -40.021  0.0000E+00  0.0000E+00  0.1000E+01  0.1000E+01
    -39.824  0.0000E+00  0.0000E+00  0.1000E+01  0.1000E+01
    -39.627  0.0000E+00  0.0000E+00  0.1000E+01  0.1000E+01
    -39.431  0.0000E+00  0.0000E+00  0.1000E+01  0.1000E+01
    -39.234  0.0000E+00  0.0000E+00  0.1000E+01  0.1000E+01
    -39.037  0.0000E+00  0.0000E+00  0.1000E+01  0.1000E+01
    -38.841  0.0000E+00  0.0000E+00  0.1000E+01  0.1000E+01
    -38.644  0.0000E+00  0.0000E+00  0.1000E+01  0.1000E+01
    -38.447  0.0000E+00  0.0000E+00  0.1000E+01  0.1000E+01
    -38.251  0.0000E+00  0.0000E+00  0.1000E+01  0.1000E+01
    -38.054  0.0000E+00  0.0000E+00  0.1000E+01  0.1000E+01
    -37.857  0.0000E+00  0.0000E+00  0.1000E+01  0.1000E+01
    -37.660  0.0000E+00  0.0000E+00  0.1000E+01  0.1000E+01
    -37.464  0.0000E+00  0.0000E+00  0.1000E+01  0.1000E+01
    -37.267  0.0000E+00  0.0000E+00  0.1000E+01  0.1000E+01
    -37.070  0.0000E+00  0.0000E+00  0.1000E+01  0.1000E+01
    -36.874  0.0000E+00  0.0000E+00  0.1000E+01  0.1000E+01
    -36.677  0.0000E+00  0.0000E+00  0.1000E+01  0.1000E+01
    -36.480  0.0000E+00  0.0000E+00  0.1000E+01  0.1000E+01
    -36.284  0.0000E+00  0.0000E+00  0.1000E+01  0.1000E+01
    -36.087  0.0000E+00  0.0000E+00  0.1000E+01  0.1000E+01
    -35.890  0.0000E+00  0.0000E+00  0.1000E+01  0.1000E+01
    -35.694  0.0000E+00  0.0000E+00  0.1000E+01  0.1000E+01
    -35.497  0.0000E+00  0.0000E+00  0.1000E+01  0.1000E+01
    -35.300  0.0000E+00  0.0000E+00  0.1000E+01  0.1000E+01
    -35.104  0.0000E+00  0.0000E+00  0.1000E+01  0.1000E+01
    -34.907  0.0000E+00  0.0000E+00  0.1000E+01  0.1000E+01
    -34.710  0.0000E+00  0.0000E+00  0.1000E+01  0.1000E+01
    -34.513  0.0000E+00  0.0000E+00  0.1000E+01  0.1000E+01
    -34.317  0.0000E+00  0.0000E+00  0.1000E+01  0.1000E+01
    -34.120  0.0000E+00  0.0000E+00  0.1000E+01  0.1000E+01
    -33.923  0.0000E+00  0.0000E+00  0.1000E+01  0.1000E+01
    -33.727  0.0000E+00  0.0000E+00  0.1000E+01  0.1000E+01
    -33.530  0.0000E+00  0.0000E+00  0.1000E+01  0.1000E+01
    -33.333  0.0000E+00  0.0000E+00  0.1000E+01  0.1000E+01
    -33.137  0.0000E+00  0.0000E+00  0.1000E+01  0.1000E+01
    -32.940  0.0000E+00  0.0000E+00  0.1000E+01  0.1000E+01
    -32.743  0.0000E+00  0.0000E+00  0.1000E+01  0.1000E+01
    -32.547  0.0000E+00  0.0000E+00  0.1000E+01  0.1000E+01
    -32.350  0.0000E+00  0.0000E+00  0.1000E+01  0.1000E+01
    -32.153  0.0000E+00  0.0000E+00  0.1000E+01  0.1000E+01
    -31.957  0.0000E+00  0.0000E+00  0.1000E+01  0.1000E+01
    -31.760  0.0000E+00  0.0000E+00  0.1000E+01  0.1000E+01
    -31.563  0.0000E+00  0.0000E+00  0.1000E+01  0.1000E+01
    -31.366  0.0000E+00  0.0000E+00  0.1000E+01  0.1000E+01
    -31.170  0.0000E+00  0.0000E+00  0.1000E+01  0.1000E+01
    -30.973  0.0000E+00  0.0000E+00  0.1000E+01  0.1000E+01
    -30.776  0.0000E+00  0.0000E+00  0.1000E+01  0.1000E+01
    -30.580  0.0000E+00  0.0000E+00  0.1000E+01  0.1000E+01
    -30.383  0.0000E+00  0.0000E+00  0.1000E+01  0.1000E+01
    -30.186  0.0000E+00  0.0000E+00  0.1000E+01  0.1000E+01
    -29.990  0.0000E+00  0.0000E+00  0.1000E+01  0.1000E+01
    -29.793  0.0000E+00  0.0000E+00  0.1000E+01  0.1000E+01
    -29.596  0.0000E+00  0.0000E+00  0.1000E+01  0.1000E+01
    -29.400  0.0000E+00  0.0000E+00  0.1000E+01  0.1000E+01
    -29.203  0.0000E+00  0.0000E+00  0.1000E+01  0.1000E+01
    -29.006  0.0000E+00  0.0000E+00  0.1000E+01  0.1000E+01
    -28.810  0.0000E+00  0.0000E+00  0.1000E+01  0.1000E+01
    -28.613  0.0000E+00  0.0000E+00  0.1000E+01  0.1000E+01
    -28.416  0.0000E+00  0.0000E+00  0.1000E+01  0.1000E+01
    -28.219  0.0000E+00  0.0000E+00  0.1000E+01  0.1000E+01
    -28.023  0.0000E+00  0.0000E+00  0.1000E+01  0.1000E+01
    -27.826  0.0000E+00  0.0000E+00  0.1000E+01  0.1000E+01
    -27.629  0.0000E+00  0.0000E+00  0.1000E+01  0.1000E+01
    -27.433  0.0000E+00  0.0000E+00  0.1000E+01  0.1000E+01
    -27.236  0.0000E+00  0.0000E+00  0.1000E+01  0.1000E+01
    -27.039  0.0000E+00  0.0000E+00  0.1000E+01  0.1000E+01
    -26.843  0.0000E+00  0.0000E+00  0.1000E+01  0.1000E+01
    -26.646  0.0000E+00  0.0000E+00  0.1000E+01  0.1000E+01
    -26.449  0.0000E+00  0.0000E+00  0.1000E+01  0.1000E+01
    -26.253  0.0000E+00  0.0000E+00  0.1000E+01  0.1000E+01
    -26.056  0.0000E+00  0.0000E+00  0.1000E+01  0.1000E+01
    -25.859  0.0000E+00  0.0000E+00  0.1000E+01  0.1000E+01
    -25.663  0.0000E+00  0.0000E+00  0.1000E+01  0.1000E+01
    -25.466  0.0000E+00  0.0000E+00  0.1000E+01  0.1000E+01
    -25.269  0.0000E+00  0.0000E+00  0.1000E+01  0.1000E+01
    -25.072  0.0000E+00  0.0000E+00  0.1000E+01  0.1000E+01
    -24.876  0.0000E+00  0.0000E+00  0.1000E+01  0.1000E+01
    -24.679  0.0000E+00  0.0000E+00  0.1000E+01  0.1000E+01
    -24.482  0.0000E+00  0.0000E+00  0.1000E+01  0.1000E+01
    -24.286  0.0000E+00  0.0000E+00  0.1000E+01  0.1000E+01
    -24.089  0.0000E+00  0.0000E+00  0.1000E+01  0.1000E+01
    -23.892  0.0000E+00  0.0000E+00  0.1000E+01  0.1000E+01
    -23.696  0.0000E+00  0.0000E+00  0.1000E+01  0.1000E+01
    -23.499  0.0000E+00  0.0000E+00  0.1000E+01  0.1000E+01
    -23.302  0.0000E+00  0.0000E+00  0.1000E+01  0.1000E+01
    -23.106  0.0000E+00  0.0000E+00  0.1000E+01  0.1000E+01
    -22.909  0.0000E+00  0.0000E+00  0.1000E+01  0.1000E+01
    -22.712  0.0000E+00  0.0000E+00  0.1000E+01  0.1000E+01
    -22.516  0.4486E-08  0.4486E-08  0.1000E+01  0.1000E+01
    -22.319  0.3148E+00  0.3148E+00  0.1062E+01  0.1062E+01
    -22.122  0.4549E+01  0.4549E+01  0.1957E+01  0.1957E+01
    -21.925  0.2930E+01  0.2930E+01  0.2533E+01  0.2533E+01
    -21.729  0.2437E+01  0.2437E+01  0.3012E+01  0.3012E+01
    -21.532  0.4815E+01  0.4815E+01  0.3959E+01  0.3959E+01
    -21.335  0.3799E+01  0.3799E+01  0.4707E+01  0.4707E+01
    -21.139  0.1534E+01  0.1534E+01  0.5008E+01  0.5008E+01
    -20.942  0.4593E+01  0.4593E+01  0.5912E+01  0.5912E+01
    -20.745  0.5454E+01  0.5454E+01  0.6984E+01  0.6984E+01
    -20.549  0.1634E+01  0.1634E+01  0.7306E+01  0.7306E+01
    -20.352  0.3687E+01  0.3687E+01  0.8031E+01  0.8031E+01
    -20.155  0.3898E+01  0.3898E+01  0.8798E+01  0.8798E+01
    -19.959  0.6233E+01  0.6233E+01  0.1002E+02  0.1002E+02
    -19.762  0.1012E+01  0.1012E+01  0.1022E+02  0.1022E+02
    -19.565  0.3752E+01  0.3752E+01  0.1096E+02  0.1096E+02
    -19.368  0.5984E+01  0.5984E+01  0.1214E+02  0.1214E+02
    -19.172  0.4383E+01  0.4383E+01  0.1300E+02  0.1300E+02
    -18.975  0.4201E+01  0.4201E+01  0.1383E+02  0.1383E+02
    -18.778  0.1692E+01  0.1692E+01  0.1416E+02  0.1416E+02
    -18.582  0.3122E+01  0.3122E+01  0.1477E+02  0.1477E+02
    -18.385  0.5460E+01  0.5460E+01  0.1585E+02  0.1585E+02
    -18.188  0.6912E+01  0.6912E+01  0.1721E+02  0.1721E+02
    -17.992  0.5210E+00  0.5210E+00  0.1731E+02  0.1731E+02
    -17.795  0.4606E+01  0.4606E+01  0.1822E+02  0.1822E+02
    -17.598  0.5100E+01  0.5100E+01  0.1922E+02  0.1922E+02
    -17.402  0.4282E+01  0.4282E+01  0.2006E+02  0.2006E+02
    -17.205  0.4750E+01  0.4750E+01  0.2099E+02  0.2099E+02
    -17.008  0.4655E+01  0.4655E+01  0.2191E+02  0.2191E+02
    -16.812  0.3846E+01  0.3846E+01  0.2267E+02  0.2267E+02
    -16.615  0.1369E+01  0.1369E+01  0.2294E+02  0.2294E+02
    -16.418  0.4656E+01  0.4656E+01  0.2385E+02  0.2385E+02
    -16.221  0.2524E+01  0.2524E+01  0.2435E+02  0.2435E+02
    -16.025  0.3190E+01  0.3190E+01  0.2498E+02  0.2498E+02
    -15.828  0.2777E+01  0.2777E+01  0.2552E+02  0.2552E+02
    -15.631  0.3627E+01  0.3627E+01  0.2624E+02  0.2624E+02
    -15.435  0.3113E+01  0.3113E+01  0.2685E+02  0.2685E+02
    -15.238  0.4800E+01  0.4800E+01  0.2779E+02  0.2779E+02
    -15.041  0.5898E+01  0.5898E+01  0.2895E+02  0.2895E+02
    -14.845  0.3818E+01  0.3818E+01  0.2970E+02  0.2970E+02
    -14.648  0.4734E+01  0.4734E+01  0.3063E+02  0.3063E+02
    -14.451  0.3696E+01  0.3696E+01  0.3136E+02  0.3136E+02
    -14.255  0.4385E+01  0.4385E+01  0.3222E+02  0.3222E+02
    -14.058  0.3329E+01  0.3329E+01  0.3288E+02  0.3288E+02
    -13.861  0.5049E+01  0.5049E+01  0.3387E+02  0.3387E+02
    -13.665  0.2733E+01  0.2733E+01  0.3441E+02  0.3441E+02
    -13.468  0.6308E+01  0.6308E+01  0.3565E+02  0.3565E+02
    -13.271  0.8750E-01  0.8750E-01  0.3567E+02  0.3567E+02
    -13.074  0.1363E+01  0.1363E+01  0.3593E+02  0.3593E+02
    -12.878  0.8018E+01  0.8018E+01  0.3751E+02  0.3751E+02
    -12.681  0.5258E+01  0.5258E+01  0.3855E+02  0.3855E+02
    -12.484  0.4155E+01  0.4155E+01  0.3936E+02  0.3936E+02
    -12.288  0.4638E+01  0.4638E+01  0.4028E+02  0.4028E+02
    -12.091  0.2250E+01  0.2250E+01  0.4072E+02  0.4072E+02
    -11.894  0.4902E+01  0.4902E+01  0.4168E+02  0.4168E+02
    -11.698  0.4836E+01  0.4836E+01  0.4263E+02  0.4263E+02
    -11.501  0.5505E+01  0.5505E+01  0.4372E+02  0.4372E+02
    -11.304  0.5288E+01  0.5288E+01  0.4476E+02  0.4476E+02
    -11.108  0.7242E+01  0.7242E+01  0.4618E+02  0.4618E+02
    -10.911  0.2621E+01  0.2621E+01  0.4670E+02  0.4670E+02
    -10.714  0.5336E+01  0.5336E+01  0.4775E+02  0.4775E+02
    -10.518  0.6027E+01  0.6027E+01  0.4893E+02  0.4893E+02
    -10.321  0.7698E+01  0.7698E+01  0.5045E+02  0.5045E+02
    -10.124  0.9794E+01  0.9794E+01  0.5237E+02  0.5237E+02
     -9.927  0.1093E+02  0.1093E+02  0.5452E+02  0.5452E+02
     -9.731  0.7734E+01  0.7734E+01  0.5604E+02  0.5604E+02
     -9.534  0.8779E+01  0.8779E+01  0.5777E+02  0.5777E+02
     -9.337  0.8185E+01  0.8185E+01  0.5938E+02  0.5938E+02
     -9.141  0.1076E+02  0.1076E+02  0.6150E+02  0.6150E+02
     -8.944  0.1145E+02  0.1145E+02  0.6375E+02  0.6375E+02
     -8.747  0.1286E+02  0.1286E+02  0.6628E+02  0.6628E+02
     -8.551  0.1129E+02  0.1129E+02  0.6850E+02  0.6850E+02
     -8.354  0.7931E+01  0.7931E+01  0.7006E+02  0.7006E+02
     -8.157  0.7393E+01  0.7393E+01  0.7151E+02  0.7151E+02
     -7.961  0.1317E+02  0.1317E+02  0.7410E+02  0.7410E+02
     -7.764  0.1044E+02  0.1044E+02  0.7615E+02  0.7615E+02
     -7.567  0.3586E+01  0.3586E+01  0.7686E+02  0.7686E+02
     -7.371  0.6406E+01  0.6406E+01  0.7812E+02  0.7812E+02
     -7.174  0.1060E+02  0.1060E+02  0.8020E+02  0.8020E+02
     -6.977  0.8458E+01  0.8458E+01  0.8187E+02  0.8187E+02
     -6.780  0.8463E+01  0.8463E+01  0.8353E+02  0.8353E+02
     -6.584  0.5369E+01  0.5369E+01  0.8459E+02  0.8459E+02
     -6.387  0.6824E+01  0.6824E+01  0.8593E+02  0.8593E+02
     -6.190  0.4115E+01  0.4115E+01  0.8674E+02  0.8674E+02
     -5.994  0.9807E+01  0.9807E+01  0.8867E+02  0.8867E+02
     -5.797  0.2818E+01  0.2818E+01  0.8922E+02  0.8922E+02
     -5.600  0.3895E+01  0.3895E+01  0.8999E+02  0.8999E+02
     -5.404  0.5830E+01  0.5830E+01  0.9114E+02  0.9114E+02
     -5.207  0.2731E+01  0.2731E+01  0.9167E+02  0.9167E+02
     -5.010  0.5853E+01  0.5853E+01  0.9282E+02  0.9282E+02
     -4.814  0.6313E+01  0.6313E+01  0.9407E+02  0.9407E+02
     -4.617  0.4178E+01  0.4178E+01  0.9489E+02  0.9489E+02
     -4.420  0.2125E+00  0.2125E+00  0.9493E+02  0.9493E+02
     -4.223  0.2746E+01  0.2746E+01  0.9547E+02  0.9547E+02
     -4.027  0.2723E+01  0.2723E+01  0.9600E+02  0.9600E+02
     -3.830  0.1672E+01  0.1672E+01  0.9633E+02  0.9633E+02
     -3.633  0.3231E+01  0.3231E+01  0.9697E+02  0.9697E+02
     -3.437  0.1565E+00  0.1565E+00  0.9700E+02  0.9700E+02
     -3.240  0.1702E+00  0.1702E+00  0.9703E+02  0.9703E+02
     -3.043  0.2649E+01  0.2649E+01  0.9755E+02  0.9755E+02
     -2.847  0.1090E+01  0.1090E+01  0.9777E+02  0.9777E+02
     -2.650  0.1964E+00  0.1964E+00  0.9781E+02  0.9781E+02
     -2.453  0.2037E+01  0.2037E+01  0.9821E+02  0.9821E+02
     -2.257  0.7173E-01  0.7173E-01  0.9822E+02  0.9822E+02
     -2.060  0.3672E-07  0.3673E-07  0.9822E+02  0.9822E+02
     -1.863  0.4832E+00  0.4832E+00  0.9832E+02  0.9832E+02
     -1.667  0.5979E+01  0.5979E+01  0.9949E+02  0.9949E+02
     -1.470  0.1704E+01  0.1704E+01  0.9983E+02  0.9983E+02
     -1.273  0.2023E+01  0.2023E+01  0.1002E+03  0.1002E+03
     -1.076  0.7741E+01  0.7741E+01  0.1017E+03  0.1017E+03
     -0.880  0.8859E+01  0.8858E+01  0.1035E+03  0.1035E+03
     -0.683  0.5341E+01  0.5342E+01  0.1045E+03  0.1045E+03
     -0.486  0.4872E+01  0.4872E+01  0.1055E+03  0.1055E+03
     -0.290  0.5517E+01  0.5517E+01  0.1066E+03  0.1066E+03
     -0.093  0.3225E+01  0.3225E+01  0.1072E+03  0.1072E+03
      0.104  0.4061E+01  0.4060E+01  0.1080E+03  0.1080E+03
      0.300  0.6419E+01  0.6415E+01  0.1093E+03  0.1093E+03
      0.497  0.8017E+01  0.8017E+01  0.1109E+03  0.1109E+03
      0.694  0.5044E+01  0.5044E+01  0.1119E+03  0.1118E+03
      0.890  0.1225E+02  0.1219E+02  0.1143E+03  0.1142E+03
      1.087  0.9129E+01  0.8967E+01  0.1161E+03  0.1160E+03
      1.284  0.1283E+02  0.1263E+02  0.1186E+03  0.1185E+03
      1.480  0.1376E+02  0.1341E+02  0.1213E+03  0.1211E+03
      1.677  0.1334E+02  0.1351E+02  0.1239E+03  0.1238E+03
      1.874  0.1671E+02  0.1650E+02  0.1272E+03  0.1270E+03
      2.071  0.3165E+01  0.4172E+01  0.1278E+03  0.1279E+03
      2.267  0.9199E+00  0.7369E+00  0.1280E+03  0.1280E+03
      2.464  0.1962E-05  0.1129E-03  0.1280E+03  0.1280E+03
      2.661  0.0000E+00  0.0000E+00  0.1280E+03  0.1280E+03
      2.857  0.0000E+00  0.0000E+00  0.1280E+03  0.1280E+03
      3.054  0.0000E+00  0.0000E+00  0.1280E+03  0.1280E+03
      3.251  0.0000E+00  0.0000E+00  0.1280E+03  0.1280E+03
      3.447  0.0000E+00  0.0000E+00  0.1280E+03  0.1280E+03
      3.644  0.0000E+00  0.0000E+00  0.1280E+03  0.1280E+03
      3.841  0.0000E+00  0.0000E+00  0.1280E+03  0.1280E+03
      4.037  0.0000E+00  0.0000E+00  0.1280E+03  0.1280E+03
      4.234  0.0000E+00  0.0000E+00  0.1280E+03  0.1280E+03
      4.431  0.0000E+00  0.0000E+00  0.1280E+03  0.1280E+03
      4.627  0.0000E+00  0.0000E+00  0.1280E+03  0.1280E+03
      4.824  0.0000E+00  0.0000E+00  0.1280E+03  0.1280E+03
