<?xml version="1.0" encoding="ISO-8859-1"?>
<modeling>
 <generator>
  <i name="program" type="string">vasp </i>
  <i name="version" type="string">5.4.1  </i>
  <i name="subversion" type="string">24Jun15 (build Jul 23 2024 06:15:33) complex                          parallel </i>
  <i name="platform" type="string">IFC91_ompi </i>
  <i name="date" type="string">2026 05 05 </i>
  <i name="time" type="string">14:58:12 </i>
 </generator>
 <incar>
  <i type="string" name="SYSTEM"> Li defective graphene MACE training lab</i>
  <i type="int" name="ISTART">     0</i>
  <i type="string" name="PREC">accurate</i>
  <i type="string" name="ALGO"> Normal</i>
  <i type="logical" name="ADDGRID"> T  </i>
  <i type="int" name="ISPIN">     2</i>
  <i type="int" name="ICHARG">     2</i>
  <i type="int" name="NELM">   120</i>
  <i type="int" name="IBRION">    -1</i>
  <i name="EDIFF">      0.00000100</i>
  <i type="int" name="NSW">     0</i>
  <i type="int" name="ISIF">     2</i>
  <i type="int" name="ISYM">     0</i>
  <i name="ENCUT">    520.00000000</i>
  <v name="MAGMOM">      0.10000000      0.10000000      0.10000000      0.10000000      0.10000000      0.10000000      0.10000000      0.10000000      0.10000000      0.10000000      0.10000000      0.10000000      0.10000000      0.10000000      0.10000000      0.10000000      0.10000000      0.10000000      0.10000000      0.10000000
      0.10000000      0.10000000      0.10000000      0.10000000      0.10000000      0.10000000      0.10000000      0.10000000      0.10000000      0.10000000      0.10000000      0.10000000      0.10000000      0.10000000      0.10000000      0.10000000      0.10000000      0.10000000      0.10000000      0.10000000
      0.10000000      0.10000000      0.10000000      0.10000000      0.10000000      0.10000000      0.10000000      0.10000000      1.00000000</v>
  <i type="string" name="LREAL"> Auto</i>
  <i type="int" name="ISMEAR">     0</i>
  <i name="SIGMA">      0.05000000</i>
  <i type="logical" name="LWAVE"> F  </i>
  <i type="logical" name="LCHARG"> F  </i>
  <i type="logical" name="LASPH"> T  </i>
  <v type="int" name="KPOINT_BSE">    -1     0     0     0</v>
  <i type="int" name="NELM">   120</i>
  <i type="logical" name="LASPH"> T  </i>
 </incar>
 <kpoints>
  <generation param="Gamma">
   <v type="int" name="divisions">       3        3        1 </v>
   <v name="usershift">      0.00000000       0.00000000       0.00000000 </v>
   <v name="genvec1">      0.33333333       0.00000000       0.00000000 </v>
   <v name="genvec2">      0.00000000       0.33333333       0.00000000 </v>
   <v name="genvec3">      0.00000000       0.00000000       1.00000000 </v>
   <v name="shift">      0.00000000       0.00000000       0.00000000 </v>
  </generation>
  <varray name="kpointlist" >
   <v>       0.00000000       0.00000000       0.00000000 </v>
   <v>       0.33333333      -0.00000000       0.00000000 </v>
   <v>       0.00000000       0.33333333       0.00000000 </v>
   <v>       0.33333333       0.33333333       0.00000000 </v>
   <v>      -0.33333333       0.33333333       0.00000000 </v>
  </varray>
  <varray name="weights" >
   <v>       0.11111111 </v>
   <v>       0.22222222 </v>
   <v>       0.22222222 </v>
   <v>       0.22222222 </v>
   <v>       0.22222222 </v>
  </varray>
 </kpoints>
 <parameters>
  <separator name="general" >
   <i type="string" name="SYSTEM">Li defective graphene MACE training lab</i>
   <i type="logical" name="LCOMPAT"> F  </i>
  </separator>
  <separator name="electronic" >
   <i type="string" name="PREC">accura</i>
   <i name="ENMAX">    520.00000000</i>
   <i name="ENAUG">    644.87300000</i>
   <i name="EDIFF">      0.00000100</i>
   <i type="int" name="IALGO">    38</i>
   <i type="int" name="IWAVPR">    10</i>
   <i type="int" name="NBANDS">   128</i>
   <i name="NELECT">    195.00000000</i>
   <i type="int" name="TURBO">     0</i>
   <i type="int" name="IRESTART">     0</i>
   <i type="int" name="NREBOOT">     0</i>
   <i type="int" name="NMIN">     0</i>
   <i name="EREF">      0.00000000</i>
   <separator name="electronic smearing" >
    <i type="int" name="ISMEAR">     0</i>
    <i name="SIGMA">      0.05000000</i>
    <i name="KSPACING">      0.50000000</i>
    <i type="logical" name="KGAMMA"> T  </i>
   </separator>
   <separator name="electronic projectors" >
    <i type="logical" name="LREAL"> T  </i>
    <v name="ROPT">     -0.00025000     -0.00025000</v>
    <i type="int" name="LMAXPAW">  -100</i>
    <i type="int" name="LMAXMIX">     2</i>
    <i type="logical" name="NLSPLINE"> F  </i>
   </separator>
   <separator name="electronic startup" >
    <i type="int" name="ISTART">     0</i>
    <i type="int" name="ICHARG">     2</i>
    <i type="int" name="INIWAV">     1</i>
   </separator>
   <separator name="electronic spin" >
    <i type="int" name="ISPIN">     2</i>
    <i type="logical" name="LNONCOLLINEAR"> F  </i>
    <v name="MAGMOM">      0.10000000      0.10000000      0.10000000      0.10000000      0.10000000      0.10000000      0.10000000      0.10000000      0.10000000      0.10000000      0.10000000      0.10000000      0.10000000      0.10000000      0.10000000      0.10000000      0.10000000      0.10000000      0.10000000      0.10000000
      0.10000000      0.10000000      0.10000000      0.10000000      0.10000000      0.10000000      0.10000000      0.10000000      0.10000000      0.10000000      0.10000000      0.10000000      0.10000000      0.10000000      0.10000000      0.10000000      0.10000000      0.10000000      0.10000000      0.10000000
      0.10000000      0.10000000      0.10000000      0.10000000      0.10000000      0.10000000      0.10000000      0.10000000      1.00000000</v>
    <i name="NUPDOWN">     -1.00000000</i>
    <i type="logical" name="LSORBIT"> F  </i>
    <v name="SAXIS">      0.00000000      0.00000000      1.00000000</v>
    <i type="logical" name="LSPIRAL"> F  </i>
    <v name="QSPIRAL">      0.00000000      0.00000000      0.00000000</v>
    <i type="logical" name="LZEROZ"> F  </i>
   </separator>
   <separator name="electronic exchange-correlation" >
    <i type="logical" name="LASPH"> T  </i>
    <i type="logical" name="LMETAGGA"> F  </i>
   </separator>
   <separator name="electronic convergence" >
    <i type="int" name="NELM">   120</i>
    <i type="int" name="NELMDL">    -5</i>
    <i type="int" name="NELMIN">     2</i>
    <i name="ENINI">    520.00000000</i>
    <separator name="electronic convergence detail" >
     <i type="logical" name="LDIAG"> T  </i>
     <i type="logical" name="LSUBROT"> F  </i>
     <i name="WEIMIN">      0.00000000</i>
     <i name="EBREAK">      0.00000000</i>
     <i name="DEPER">      0.30000000</i>
     <i type="int" name="NRMM">     4</i>
     <i name="TIME">      0.40000000</i>
    </separator>
   </separator>
   <separator name="electronic mixer" >
    <i name="AMIX">      0.40000000</i>
    <i name="BMIX">      1.00000000</i>
    <i name="AMIN">      0.10000000</i>
    <i name="AMIX_MAG">      1.60000000</i>
    <i name="BMIX_MAG">      1.00000000</i>
    <separator name="electronic mixer details" >
     <i type="int" name="IMIX">     4</i>
     <i type="logical" name="MIXFIRST"> F  </i>
     <i type="int" name="MAXMIX">   -45</i>
     <i name="WC">    100.00000000</i>
     <i type="int" name="INIMIX">     1</i>
     <i type="int" name="MIXPRE">     1</i>
     <i type="int" name="MREMOVE">     5</i>
    </separator>
   </separator>
   <separator name="electronic dipolcorrection" >
    <i type="logical" name="LDIPOL"> F  </i>
    <i type="logical" name="LMONO"> F  </i>
    <i type="int" name="IDIPOL">     0</i>
    <i name="EPSILON">      1.00000000</i>
    <v name="DIPOL">   -100.00000000   -100.00000000   -100.00000000</v>
    <i name="EFIELD">      0.00000000</i>
   </separator>
  </separator>
  <separator name="grids" >
   <i type="int" name="NGX">    96</i>
   <i type="int" name="NGY">    96</i>
   <i type="int" name="NGZ">   224</i>
   <i type="int" name="NGXF">   192</i>
   <i type="int" name="NGYF">   192</i>
   <i type="int" name="NGZF">   448</i>
   <i type="logical" name="ADDGRID"> T  </i>
  </separator>
  <separator name="ionic" >
   <i type="int" name="NSW">     0</i>
   <i type="int" name="IBRION">    -1</i>
   <i type="int" name="ISIF">     2</i>
   <i name="PSTRESS">      0.00000000</i>
   <i name="EDIFFG">      0.00001000</i>
   <i type="int" name="NFREE">     0</i>
   <i name="POTIM">      0.50000000</i>
   <i name="SMASS">     -3.00000000</i>
   <i name="SCALEE">      1.00000000</i>
  </separator>
  <separator name="ionic md" >
   <i name="TEBEG">      0.00010000</i>
   <i name="TEEND">      0.00010000</i>
   <i type="int" name="NBLOCK">     1</i>
   <i type="int" name="KBLOCK">     1</i>
   <i type="int" name="NPACO">   256</i>
   <i name="APACO">     16.00000000</i>
  </separator>
  <separator name="symmetry" >
   <i type="int" name="ISYM">     0</i>
   <i name="SYMPREC">      0.00001000</i>
  </separator>
  <separator name="dos" >
   <i type="logical" name="LORBIT"> F  </i>
   <v name="RWIGS">     -1.00000000     -1.00000000</v>
   <i type="int" name="NEDOS">   301</i>
   <i name="EMIN">     10.00000000</i>
   <i name="EMAX">    -10.00000000</i>
   <i name="EFERMI">      0.00000000</i>
  </separator>
  <separator name="writing" >
   <i type="int" name="NWRITE">     2</i>
   <i type="logical" name="LWAVE"> F  </i>
   <i type="logical" name="LCHARG"> F  </i>
   <i type="logical" name="LPARD"> F  </i>
   <i type="logical" name="LVTOT"> F  </i>
   <i type="logical" name="LVHAR"> F  </i>
   <i type="logical" name="LELF"> F  </i>
   <i type="logical" name="LOPTICS"> F  </i>
   <v name="STM">      0.00000000      0.00000000      0.00000000      0.00000000      0.00000000      0.00000000      0.00000000</v>
  </separator>
  <separator name="performance" >
   <i type="int" name="NPAR">     4</i>
   <i type="int" name="NSIM">     4</i>
   <i type="int" name="NBLK">    -1</i>
   <i type="logical" name="LPLANE"> T  </i>
   <i type="logical" name="LSCALAPACK"> T  </i>
   <i type="logical" name="LSCAAWARE"> F  </i>
   <i type="logical" name="LSCALU"> F  </i>
   <i type="logical" name="LASYNC"> F  </i>
   <i type="logical" name="LORBITALREAL"> F  </i>
  </separator>
  <separator name="miscellaneous" >
   <i type="int" name="IDIOT">     3</i>
   <i type="logical" name="LMUSIC"> F  </i>
   <v name="POMASS">     12.01100000      7.01000000</v>
   <v name="DARWINR">      0.00000000      0.00000000</v>
   <v name="DARWINV">      1.00000000      1.00000000</v>
   <i type="logical" name="LCORR"> T  </i>
  </separator>
  <i type="logical" name="GGA_COMPAT"> T  </i>
  <i type="logical" name="LBERRY"> F  </i>
  <i type="int" name="ICORELEVEL">     0</i>
  <i type="logical" name="LDAU"> F  </i>
  <i type="int" name="I_CONSTRAINED_M">     0</i>
  <separator name="electronic exchange-correlation" >
   <i type="string" name="GGA">--</i>
   <i type="int" name="VOSKOWN">     0</i>
   <i type="logical" name="LHFCALC"> F  </i>
   <i type="string" name="PRECFOCK"></i>
   <i type="logical" name="LSYMGRAD"> F  </i>
   <i type="logical" name="LHFONE"> F  </i>
   <i type="logical" name="LRHFCALC"> F  </i>
   <i type="logical" name="LTHOMAS"> F  </i>
   <i type="logical" name="LMODELHF"> F  </i>
   <i name="ENCUT4O">     -1.00000000</i>
   <i type="int" name="EXXOEP">     0</i>
   <i type="int" name="FOURORBIT">     0</i>
   <i name="AEXX">      0.00000000</i>
   <i name="HFALPHA">      0.00000000</i>
   <i name="MCALPHA">      0.00000000</i>
   <i name="ALDAX">      1.00000000</i>
   <i name="AGGAX">      1.00000000</i>
   <i name="ALDAC">      1.00000000</i>
   <i name="AGGAC">      1.00000000</i>
   <i type="int" name="NKREDX">     1</i>
   <i type="int" name="NKREDY">     1</i>
   <i type="int" name="NKREDZ">     1</i>
   <i type="logical" name="SHIFTRED"> F  </i>
   <i type="logical" name="ODDONLY"> F  </i>
   <i type="logical" name="EVENONLY"> F  </i>
   <i type="int" name="LMAXFOCK">     0</i>
   <i type="int" name="NMAXFOCKAE">     0</i>
   <i type="logical" name="LFOCKAEDFT"> F  </i>
   <i name="HFSCREEN">      0.00000000</i>
   <i name="HFSCREENC">      0.00000000</i>
   <i type="int" name="NBANDSGWLOW">     0</i>
  </separator>
  <separator name="vdW DFT" >
   <i type="logical" name="LUSE_VDW"> F  </i>
   <i name="Zab_VDW">     -0.84910000</i>
   <i name="PARAM1">      0.12340000</i>
   <i name="PARAM2">      1.00000000</i>
   <i name="PARAM3">      0.00000000</i>
  </separator>
  <separator name="model GW" >
   <i type="int" name="MODEL_GW">     0</i>
   <i name="MODEL_EPS0">     48.13015714</i>
   <i name="MODEL_ALPHA">      1.00000000</i>
  </separator>
  <separator name="linear response parameters" >
   <i type="logical" name="LEPSILON"> F  </i>
   <i type="logical" name="LRPA"> F  </i>
   <i type="logical" name="LNABLA"> F  </i>
   <i type="logical" name="LVEL"> F  </i>
   <i type="int" name="KINTER">     0</i>
   <i name="CSHIFT">      0.10000000</i>
   <i name="OMEGAMAX">     -1.00000000</i>
   <i name="DEG_THRESHOLD">      0.00200000</i>
  </separator>
  <separator name="orbital magnetization" >
   <i type="logical" name="NUCIND"> F  </i>
   <v name="MAGPOS">      0.00000000      0.00000000      0.00000000</v>
   <i type="logical" name="LNICSALL"> T  </i>
   <i type="logical" name="ORBITALMAG"> F  </i>
   <i type="logical" name="LMAGBLOCH"> F  </i>
   <i type="logical" name="LCHIMAG"> F  </i>
   <i type="logical" name="LGAUGE"> T  </i>
   <i type="int" name="MAGATOM">     0</i>
   <v name="MAGDIPOL">      0.00000000      0.00000000      0.00000000</v>
   <v name="AVECCONST">      0.00000000      0.00000000      0.00000000</v>
  </separator>
  <separator name="response functions" >
   <i type="logical" name="LADDER"> F  </i>
   <i type="logical" name="LFXC"> F  </i>
   <i type="logical" name="LHARTREE"> T  </i>
   <i type="int" name="IBSE">     0</i>
   <v type="int" name="KPOINT">    -1     0     0     0</v>
   <i type="logical" name="LTCTE"> F  </i>
   <i type="logical" name="LTETE"> F  </i>
   <i type="logical" name="LTRIPLET"> F  </i>
   <i type="logical" name="LFXCEPS"> F  </i>
   <i type="logical" name="LFXHEG"> F  </i>
   <i type="int" name="NATURALO">     0</i>
   <i type="logical" name="L2ORDER"> F  </i>
   <i type="logical" name="LUSEW"> F  </i>
   <i name="ENCUTGW">     -2.00000000</i>
   <i name="ENCUTGWSOFT">     -2.00000000</i>
   <i name="ENCUTLF">     -1.00000000</i>
   <i type="int" name="LMAXMP2">    -1</i>
   <i name="SCISSOR">      0.00000000</i>
   <i type="int" name="NOMEGA">     0</i>
   <i type="int" name="NOMEGAR">     0</i>
   <i type="int" name="NBANDSGW">    -1</i>
   <i type="int" name="NBANDSO">    -1</i>
   <i type="int" name="NBANDSV">    -1</i>
   <i type="int" name="NELM">   120</i>
   <i type="int" name="NELMHF">     1</i>
   <i type="int" name="DIM">     3</i>
   <i type="int" name="ANTIRES">     0</i>
   <i name="OMEGAMAX">    -30.00000000</i>
   <i name="OMEGAMIN">    -30.00000000</i>
   <i name="OMEGATL">   -200.00000000</i>
   <i type="int" name="OMEGAGRID">     0</i>
   <i name="CSHIFT">     -0.10000000</i>
   <i type="logical" name="SELFENERGY"> F  </i>
   <i type="logical" name="LSPECTRAL"> F  </i>
   <i type="logical" name="LSPECTRALGW"> F  </i>
   <i type="logical" name="LSINGLES"> F  </i>
   <i type="logical" name="LFERMIGW"> F  </i>
   <i type="logical" name="ODDONLYGW"> F  </i>
   <i type="logical" name="EVENONLYGW"> F  </i>
   <i type="int" name="NKREDLFX">     1</i>
   <i type="int" name="NKREDLFY">     1</i>
   <i type="int" name="NKREDLFZ">     1</i>
   <i type="int" name="MAXMEM">  1800</i>
   <i type="int" name="TELESCOPE">     0</i>
   <i type="int" name="TAUPAR">     1</i>
   <i type="int" name="OMEGAPAR">    -1</i>
   <i name="LAMBDA">      1.00000000</i>
  </separator>
  <separator name="External order field" >
   <i name="OFIELD_KAPPA">      0.00000000</i>
   <v name="OFIELD_K">      0.00000000      0.00000000      0.00000000</v>
   <i name="OFIELD_Q6_NEAR">      0.00000000</i>
   <i name="OFIELD_Q6_FAR">      0.00000000</i>
   <i name="OFIELD_A">      0.00000000</i>
  </separator>
 </parameters>
 <atominfo>
  <atoms>      49 </atoms>
  <types>       2 </types>
  <array name="atoms" >
   <dimension dim="1">ion</dimension>
   <field type="string">element</field>
   <field type="int">atomtype</field>
   <set>
    <rc><c>C </c><c>   1</c></rc>
    <rc><c>C </c><c>   1</c></rc>
    <rc><c>C </c><c>   1</c></rc>
    <rc><c>C </c><c>   1</c></rc>
    <rc><c>C </c><c>   1</c></rc>
    <rc><c>C </c><c>   1</c></rc>
    <rc><c>C </c><c>   1</c></rc>
    <rc><c>C </c><c>   1</c></rc>
    <rc><c>C </c><c>   1</c></rc>
    <rc><c>C </c><c>   1</c></rc>
    <rc><c>C </c><c>   1</c></rc>
    <rc><c>C </c><c>   1</c></rc>
    <rc><c>C </c><c>   1</c></rc>
    <rc><c>C </c><c>   1</c></rc>
    <rc><c>C </c><c>   1</c></rc>
    <rc><c>C </c><c>   1</c></rc>
    <rc><c>C </c><c>   1</c></rc>
    <rc><c>C </c><c>   1</c></rc>
    <rc><c>C </c><c>   1</c></rc>
    <rc><c>C </c><c>   1</c></rc>
    <rc><c>C </c><c>   1</c></rc>
    <rc><c>C </c><c>   1</c></rc>
    <rc><c>C </c><c>   1</c></rc>
    <rc><c>C </c><c>   1</c></rc>
    <rc><c>C </c><c>   1</c></rc>
    <rc><c>C </c><c>   1</c></rc>
    <rc><c>C </c><c>   1</c></rc>
    <rc><c>C </c><c>   1</c></rc>
    <rc><c>C </c><c>   1</c></rc>
    <rc><c>C </c><c>   1</c></rc>
    <rc><c>C </c><c>   1</c></rc>
    <rc><c>C </c><c>   1</c></rc>
    <rc><c>C </c><c>   1</c></rc>
    <rc><c>C </c><c>   1</c></rc>
    <rc><c>C </c><c>   1</c></rc>
    <rc><c>C </c><c>   1</c></rc>
    <rc><c>C </c><c>   1</c></rc>
    <rc><c>C </c><c>   1</c></rc>
    <rc><c>C </c><c>   1</c></rc>
    <rc><c>C </c><c>   1</c></rc>
    <rc><c>C </c><c>   1</c></rc>
    <rc><c>C </c><c>   1</c></rc>
    <rc><c>C </c><c>   1</c></rc>
    <rc><c>C </c><c>   1</c></rc>
    <rc><c>C </c><c>   1</c></rc>
    <rc><c>C </c><c>   1</c></rc>
    <rc><c>C </c><c>   1</c></rc>
    <rc><c>C </c><c>   1</c></rc>
    <rc><c>Li</c><c>   2</c></rc>
   </set>
  </array>
  <array name="atomtypes" >
   <dimension dim="1">type</dimension>
   <field type="int">atomspertype</field>
   <field type="string">element</field>
   <field>mass</field>
   <field>valence</field>
   <field type="string">pseudopotential</field>
   <set>
    <rc><c>  48</c><c>C </c><c>     12.01100000</c><c>      4.00000000</c><c>  PAW_PBE C 08Apr2002                   </c></rc>
    <rc><c>   1</c><c>Li</c><c>      7.01000000</c><c>      3.00000000</c><c>  PAW_PBE Li_sv 10Sep2004               </c></rc>
   </set>
  </array>
 </atominfo>
 <structure name="initialpos" >
  <crystal>
   <varray name="basis" >
    <v>      12.30000000       0.00000000       0.00000000 </v>
    <v>      -6.15000000      10.65211247       0.00000000 </v>
    <v>       0.00000000       0.00000000      30.00000000 </v>
   </varray>
   <i name="volume">   3930.62950016 </i>
   <varray name="rec_basis" >
    <v>       0.08130081       0.04693905       0.00000000 </v>
    <v>       0.00000000       0.09387809       0.00000000 </v>
    <v>       0.00000000       0.00000000       0.03333333 </v>
   </varray>
  </crystal>
  <varray name="positions" >
   <v>       0.00069168       0.99541666       0.49998612 </v>
   <v>       0.13570752       0.06529461       0.50002869 </v>
   <v>       0.00528682       0.19571106       0.50058609 </v>
   <v>       0.13833518       0.26560218       0.50057170 </v>
   <v>       0.99712702       0.39177707       0.50100754 </v>
   <v>       0.13026968       0.46391674       0.50087604 </v>
   <v>       0.97526623       0.57616636       0.49974051 </v>
   <v>       0.11731876       0.65556017       0.50025836 </v>
   <v>       0.98729726       0.78579945       0.49978844 </v>
   <v>       0.12617716       0.86034230       0.49990407 </v>
   <v>       0.20174420       0.99935984       0.49996315 </v>
   <v>       0.34076841       0.07491797       0.49997416 </v>
   <v>       0.20564900       0.20029985       0.50029029 </v>
   <v>       0.34065624       0.27207656       0.50022199 </v>
   <v>       0.19984457       0.39937158       0.50071372 </v>
   <v>       0.33279713       0.46984879       0.50056375 </v>
   <v>       0.19199209       0.59719431       0.50058322 </v>
   <v>       0.32697969       0.66894440       0.50043978 </v>
   <v>       0.19196150       0.79444851       0.50008107 </v>
   <v>       0.33098870       0.87000208       0.50010093 </v>
   <v>       0.40655756       0.00904940       0.49998696 </v>
   <v>       0.54540405       0.08366039       0.49998134 </v>
   <v>       0.41537712       0.21379237       0.49993588 </v>
   <v>       0.55744946       0.29324157       0.49946986 </v>
   <v>       0.40242993       0.40537510       0.50047012 </v>
   <v>       0.53559216       0.47761928       0.50044748 </v>
   <v>       0.39430443       0.60365582       0.50046434 </v>
   <v>       0.52736225       0.67361877       0.50026175 </v>
   <v>       0.39695450       0.80397139       0.50018869 </v>
   <v>       0.53196727       0.87397152       0.50011628 </v>
   <v>       0.60374810       0.00898380       0.50016676 </v>
   <v>       0.73705382       0.07076953       0.50050530 </v>
   <v>       0.62488765       0.22578393       0.49959691 </v>
   <v>       0.76599571       0.29127341       0.50025991 </v>
   <v>       0.62301774       0.43445421       0.49988325 </v>
   <v>       0.59240615       0.60866974       0.50023153 </v>
   <v>       0.72347200       0.66559306       0.50021997 </v>
   <v>       0.59727190       0.80667286       0.50014313 </v>
   <v>       0.73106729       0.86823424       0.50012855 </v>
   <v>       0.80156259       0.00117311       0.50027601 </v>
   <v>       0.93536716       0.06268160       0.50025728 </v>
   <v>       0.80924606       0.20391568       0.50083025 </v>
   <v>       0.94027672       0.26072818       0.50083145 </v>
   <v>       0.90975834       0.43503138       0.50036590 </v>
   <v>       0.76676574       0.57827823       0.49975349 </v>
   <v>       0.90787378       0.64372456       0.49943208 </v>
   <v>       0.79564026       0.79872732       0.50011285 </v>
   <v>       0.92892615       0.86046430       0.49989995 </v>
   <v>       0.74190077       0.45867857       0.55687285 </v>
  </varray>
 </structure>
 <calculation>
  <scstep>
   <time name="dav">   43.55   43.61</time>
   <time name="total">   46.30   46.37</time>
   <energy>
    <i name="alphaZ">     49.28462660 </i>
    <i name="ewald">  52382.95052112 </i>
    <i name="hartreedc"> -57472.54428529 </i>
    <i name="XCdc">    641.27729385 </i>
    <i name="pawpsdc">   5288.51619703 </i>
    <i name="pawaedc">  -5331.18329077 </i>
    <i name="eentropy">     -0.02607222 </i>
    <i name="bandstr">   -972.31932421 </i>
    <i name="atom">   7265.91972593 </i>
    <i name="e_fr_energy">   1851.87539204 </i>
    <i name="e_wo_entrp">   1851.90146427 </i>
    <i name="e_0_energy">   1851.88842815 </i>
   </energy>
  </scstep>
  <scstep>
   <time name="dav">   53.08   53.09</time>
   <time name="total">   53.08   53.09</time>
   <energy>
    <i name="e_fr_energy">     45.92800337 </i>
    <i name="e_wo_entrp">     45.93123421 </i>
    <i name="e_0_energy">     45.92961879 </i>
   </energy>
  </scstep>
  <scstep>
   <time name="dav">   46.33   46.34</time>
   <time name="total">   46.33   46.34</time>
   <energy>
    <i name="e_fr_energy">   -438.81111197 </i>
    <i name="e_wo_entrp">   -438.80786132 </i>
    <i name="e_0_energy">   -438.80948664 </i>
   </energy>
  </scstep>
  <scstep>
   <time name="dav">   45.97   45.97</time>
   <time name="total">   45.97   45.98</time>
   <energy>
    <i name="e_fr_energy">   -465.32667730 </i>
    <i name="e_wo_entrp">   -465.32159805 </i>
    <i name="e_0_energy">   -465.32413767 </i>
   </energy>
  </scstep>
  <scstep>
   <time name="dav">   52.94   52.94</time>
   <time name="total">   57.40   57.41</time>
   <energy>
    <i name="e_fr_energy">   -466.33923944 </i>
    <i name="e_wo_entrp">   -466.33414549 </i>
    <i name="e_0_energy">   -466.33669246 </i>
   </energy>
  </scstep>
  <scstep>
   <time name="dav">   41.24   41.24</time>
   <time name="total">   48.42   48.43</time>
   <energy>
    <i name="e_fr_energy">   -443.76967219 </i>
    <i name="e_wo_entrp">   -443.76302887 </i>
    <i name="e_0_energy">   -443.76635053 </i>
   </energy>
  </scstep>
  <scstep>
   <time name="dav">   42.12   42.12</time>
   <time name="total">   49.35   49.36</time>
   <energy>
    <i name="e_fr_energy">   -432.80137950 </i>
    <i name="e_wo_entrp">   -432.79619259 </i>
    <i name="e_0_energy">   -432.79878604 </i>
   </energy>
  </scstep>
  <scstep>
   <time name="dav">   41.99   41.99</time>
   <time name="total">   49.05   49.06</time>
   <energy>
    <i name="e_fr_energy">   -432.34832379 </i>
    <i name="e_wo_entrp">   -432.34327353 </i>
    <i name="e_0_energy">   -432.34579866 </i>
   </energy>
  </scstep>
  <scstep>
   <time name="dav">   49.99   49.99</time>
   <time name="total">   56.92   56.93</time>
   <energy>
    <i name="e_fr_energy">   -433.54236573 </i>
    <i name="e_wo_entrp">   -433.53729594 </i>
    <i name="e_0_energy">   -433.53983083 </i>
   </energy>
  </scstep>
  <scstep>
   <time name="dav">   40.56   40.56</time>
   <time name="total">   47.41   47.41</time>
   <energy>
    <i name="e_fr_energy">   -434.04891594 </i>
    <i name="e_wo_entrp">   -434.04374212 </i>
    <i name="e_0_energy">   -434.04632903 </i>
   </energy>
  </scstep>
  <scstep>
   <time name="dav">   43.86   43.86</time>
   <time name="total">   50.57   50.58</time>
   <energy>
    <i name="e_fr_energy">   -434.46207874 </i>
    <i name="e_wo_entrp">   -434.45683557 </i>
    <i name="e_0_energy">   -434.45945715 </i>
   </energy>
  </scstep>
  <scstep>
   <time name="dav">   40.12   40.12</time>
   <time name="total">   46.80   46.81</time>
   <energy>
    <i name="e_fr_energy">   -435.24552670 </i>
    <i name="e_wo_entrp">   -435.24007256 </i>
    <i name="e_0_energy">   -435.24279963 </i>
   </energy>
  </scstep>
  <scstep>
   <time name="dav">   39.93   39.93</time>
   <time name="total">   46.60   46.60</time>
   <energy>
    <i name="e_fr_energy">   -435.33795731 </i>
    <i name="e_wo_entrp">   -435.33207935 </i>
    <i name="e_0_energy">   -435.33501833 </i>
   </energy>
  </scstep>
  <scstep>
   <time name="dav">   40.73   40.73</time>
   <time name="total">   47.41   47.41</time>
   <energy>
    <i name="e_fr_energy">   -435.76143536 </i>
    <i name="e_wo_entrp">   -435.75521578 </i>
    <i name="e_0_energy">   -435.75832557 </i>
   </energy>
  </scstep>
  <scstep>
   <time name="dav">   40.72   40.72</time>
   <time name="total">   47.34   47.35</time>
   <energy>
    <i name="e_fr_energy">   -436.49256582 </i>
    <i name="e_wo_entrp">   -436.48617062 </i>
    <i name="e_0_energy">   -436.48936822 </i>
   </energy>
  </scstep>
  <scstep>
   <time name="dav">   41.64   41.64</time>
   <time name="total">   48.27   48.28</time>
   <energy>
    <i name="e_fr_energy">   -436.88717210 </i>
    <i name="e_wo_entrp">   -436.88072781 </i>
    <i name="e_0_energy">   -436.88394995 </i>
   </energy>
  </scstep>
  <scstep>
   <time name="dav">   39.92   39.93</time>
   <time name="total">   46.62   46.62</time>
   <energy>
    <i name="e_fr_energy">   -437.19784558 </i>
    <i name="e_wo_entrp">   -437.19138085 </i>
    <i name="e_0_energy">   -437.19461321 </i>
   </energy>
  </scstep>
  <scstep>
   <time name="dav">   40.88   40.88</time>
   <time name="total">   47.55   47.56</time>
   <energy>
    <i name="e_fr_energy">   -437.31334299 </i>
    <i name="e_wo_entrp">   -437.30687007 </i>
    <i name="e_0_energy">   -437.31010653 </i>
   </energy>
  </scstep>
  <scstep>
   <time name="dav">   40.74   40.74</time>
   <time name="total">   47.46   47.47</time>
   <energy>
    <i name="e_fr_energy">   -437.35471080 </i>
    <i name="e_wo_entrp">   -437.34823521 </i>
    <i name="e_0_energy">   -437.35147301 </i>
   </energy>
  </scstep>
  <scstep>
   <time name="dav">   40.00   40.01</time>
   <time name="total">   46.74   46.74</time>
   <energy>
    <i name="e_fr_energy">   -437.36626517 </i>
    <i name="e_wo_entrp">   -437.35978851 </i>
    <i name="e_0_energy">   -437.36302684 </i>
   </energy>
  </scstep>
  <scstep>
   <time name="dav">   40.35   40.35</time>
   <time name="total">   47.14   47.14</time>
   <energy>
    <i name="e_fr_energy">   -437.37858583 </i>
    <i name="e_wo_entrp">   -437.37210882 </i>
    <i name="e_0_energy">   -437.37534732 </i>
   </energy>
  </scstep>
  <scstep>
   <time name="dav">   39.91   39.91</time>
   <time name="total">   46.62   46.63</time>
   <energy>
    <i name="e_fr_energy">   -437.40533191 </i>
    <i name="e_wo_entrp">   -437.39885478 </i>
    <i name="e_0_energy">   -437.40209335 </i>
   </energy>
  </scstep>
  <scstep>
   <time name="dav">   40.82   40.82</time>
   <time name="total">   47.60   47.61</time>
   <energy>
    <i name="e_fr_energy">   -437.42438799 </i>
    <i name="e_wo_entrp">   -437.41791085 </i>
    <i name="e_0_energy">   -437.42114942 </i>
   </energy>
  </scstep>
  <scstep>
   <time name="dav">   36.60   36.61</time>
   <time name="total">   43.39   43.40</time>
   <energy>
    <i name="e_fr_energy">   -437.42870180 </i>
    <i name="e_wo_entrp">   -437.42222466 </i>
    <i name="e_0_energy">   -437.42546323 </i>
   </energy>
  </scstep>
  <scstep>
   <time name="dav">   35.15   35.15</time>
   <time name="total">   41.93   41.94</time>
   <energy>
    <i name="e_fr_energy">   -437.43123466 </i>
    <i name="e_wo_entrp">   -437.42475753 </i>
    <i name="e_0_energy">   -437.42799609 </i>
   </energy>
  </scstep>
  <scstep>
   <time name="dav">   34.53   34.53</time>
   <time name="total">   41.26   41.27</time>
   <energy>
    <i name="e_fr_energy">   -437.43218002 </i>
    <i name="e_wo_entrp">   -437.42570289 </i>
    <i name="e_0_energy">   -437.42894146 </i>
   </energy>
  </scstep>
  <scstep>
   <time name="dav">   33.27   33.27</time>
   <time name="total">   40.04   40.04</time>
   <energy>
    <i name="e_fr_energy">   -437.43255711 </i>
    <i name="e_wo_entrp">   -437.42607997 </i>
    <i name="e_0_energy">   -437.42931854 </i>
   </energy>
  </scstep>
  <scstep>
   <time name="dav">   33.57   33.57</time>
   <time name="total">   40.44   40.45</time>
   <energy>
    <i name="e_fr_energy">   -437.43278752 </i>
    <i name="e_wo_entrp">   -437.42631037 </i>
    <i name="e_0_energy">   -437.42954895 </i>
   </energy>
  </scstep>
  <scstep>
   <time name="dav">   33.25   33.25</time>
   <time name="total">   40.11   40.12</time>
   <energy>
    <i name="e_fr_energy">   -437.43289592 </i>
    <i name="e_wo_entrp">   -437.42641877 </i>
    <i name="e_0_energy">   -437.42965735 </i>
   </energy>
  </scstep>
  <scstep>
   <time name="dav">   30.42   30.43</time>
   <time name="total">   37.20   37.20</time>
   <energy>
    <i name="e_fr_energy">   -437.43295094 </i>
    <i name="e_wo_entrp">   -437.42647379 </i>
    <i name="e_0_energy">   -437.42971237 </i>
   </energy>
  </scstep>
  <scstep>
   <time name="dav">   30.16   30.16</time>
   <time name="total">   36.96   36.96</time>
   <energy>
    <i name="e_fr_energy">   -437.43299257 </i>
    <i name="e_wo_entrp">   -437.42651542 </i>
    <i name="e_0_energy">   -437.42975400 </i>
   </energy>
  </scstep>
  <scstep>
   <time name="dav">   30.82   30.82</time>
   <time name="total">   37.59   37.60</time>
   <energy>
    <i name="e_fr_energy">   -437.43300636 </i>
    <i name="e_wo_entrp">   -437.42652922 </i>
    <i name="e_0_energy">   -437.42976779 </i>
   </energy>
  </scstep>
  <scstep>
   <time name="dav">   31.10   31.10</time>
   <time name="total">   37.86   37.86</time>
   <energy>
    <i name="e_fr_energy">   -437.43301098 </i>
    <i name="e_wo_entrp">   -437.42653383 </i>
    <i name="e_0_energy">   -437.42977240 </i>
   </energy>
  </scstep>
  <scstep>
   <time name="dav">   29.75   29.75</time>
   <time name="total">   36.49   36.49</time>
   <energy>
    <i name="e_fr_energy">   -437.43301350 </i>
    <i name="e_wo_entrp">   -437.42653635 </i>
    <i name="e_0_energy">   -437.42977492 </i>
   </energy>
  </scstep>
  <scstep>
   <time name="dav">   30.56   30.56</time>
   <time name="total">   37.28   37.28</time>
   <energy>
    <i name="e_fr_energy">   -437.43301459 </i>
    <i name="e_wo_entrp">   -437.42653744 </i>
    <i name="e_0_energy">   -437.42977602 </i>
   </energy>
  </scstep>
  <scstep>
   <time name="dav">   29.92   29.93</time>
   <time name="total">   32.56   32.56</time>
   <energy>
    <i name="alphaZ">     49.28462660 </i>
    <i name="ewald">  52382.95052112 </i>
    <i name="hartreedc"> -58354.01718456 </i>
    <i name="XCdc">    668.51648536 </i>
    <i name="pawpsdc">  19099.84518539 </i>
    <i name="pawaedc"> -19148.16744004 </i>
    <i name="eentropy">     -0.00647715 </i>
    <i name="bandstr">  -2401.75845766 </i>
    <i name="atom">   7265.91972593 </i>
    <i name="e_fr_energy">   -437.43301500 </i>
    <i name="e_wo_entrp">   -437.42653786 </i>
    <i name="e_0_energy">   -437.42977643 </i>
   </energy>
  </scstep>
  <structure>
   <crystal>
    <varray name="basis" >
     <v>      12.30000000       0.00000000       0.00000000 </v>
     <v>      -6.15000000      10.65211247       0.00000000 </v>
     <v>       0.00000000       0.00000000      30.00000000 </v>
    </varray>
    <i name="volume">   3930.62950016 </i>
    <varray name="rec_basis" >
     <v>       0.08130081       0.04693905       0.00000000 </v>
     <v>       0.00000000       0.09387809       0.00000000 </v>
     <v>       0.00000000       0.00000000       0.03333333 </v>
    </varray>
   </crystal>
   <varray name="positions" >
    <v>       0.00069168       0.99541666       0.49998612 </v>
    <v>       0.13570752       0.06529461       0.50002869 </v>
    <v>       0.00528682       0.19571106       0.50058609 </v>
    <v>       0.13833518       0.26560218       0.50057170 </v>
    <v>       0.99712702       0.39177707       0.50100754 </v>
    <v>       0.13026968       0.46391674       0.50087604 </v>
    <v>       0.97526623       0.57616636       0.49974051 </v>
    <v>       0.11731876       0.65556017       0.50025836 </v>
    <v>       0.98729726       0.78579945       0.49978844 </v>
    <v>       0.12617716       0.86034230       0.49990407 </v>
    <v>       0.20174420       0.99935984       0.49996315 </v>
    <v>       0.34076841       0.07491797       0.49997416 </v>
    <v>       0.20564900       0.20029985       0.50029029 </v>
    <v>       0.34065624       0.27207656       0.50022199 </v>
    <v>       0.19984457       0.39937158       0.50071372 </v>
    <v>       0.33279713       0.46984879       0.50056375 </v>
    <v>       0.19199209       0.59719431       0.50058322 </v>
    <v>       0.32697969       0.66894440       0.50043978 </v>
    <v>       0.19196150       0.79444851       0.50008107 </v>
    <v>       0.33098870       0.87000208       0.50010093 </v>
    <v>       0.40655756       0.00904940       0.49998696 </v>
    <v>       0.54540405       0.08366039       0.49998134 </v>
    <v>       0.41537712       0.21379237       0.49993588 </v>
    <v>       0.55744946       0.29324157       0.49946986 </v>
    <v>       0.40242993       0.40537510       0.50047012 </v>
    <v>       0.53559216       0.47761928       0.50044748 </v>
    <v>       0.39430443       0.60365582       0.50046434 </v>
    <v>       0.52736225       0.67361877       0.50026175 </v>
    <v>       0.39695450       0.80397139       0.50018869 </v>
    <v>       0.53196727       0.87397152       0.50011628 </v>
    <v>       0.60374810       0.00898380       0.50016676 </v>
    <v>       0.73705382       0.07076953       0.50050530 </v>
    <v>       0.62488765       0.22578393       0.49959691 </v>
    <v>       0.76599571       0.29127341       0.50025991 </v>
    <v>       0.62301774       0.43445421       0.49988325 </v>
    <v>       0.59240615       0.60866974       0.50023153 </v>
    <v>       0.72347200       0.66559306       0.50021997 </v>
    <v>       0.59727190       0.80667286       0.50014313 </v>
    <v>       0.73106729       0.86823424       0.50012855 </v>
    <v>       0.80156259       0.00117311       0.50027601 </v>
    <v>       0.93536716       0.06268160       0.50025728 </v>
    <v>       0.80924606       0.20391568       0.50083025 </v>
    <v>       0.94027672       0.26072818       0.50083145 </v>
    <v>       0.90975834       0.43503138       0.50036590 </v>
    <v>       0.76676574       0.57827823       0.49975349 </v>
    <v>       0.90787378       0.64372456       0.49943208 </v>
    <v>       0.79564026       0.79872732       0.50011285 </v>
    <v>       0.92892615       0.86046430       0.49989995 </v>
    <v>       0.74190077       0.45867857       0.55687285 </v>
   </varray>
  </structure>
  <varray name="forces" >
   <v>      -0.01619853       0.00214086       0.01126441 </v>
   <v>       0.01038342      -0.00720810       0.00245057 </v>
   <v>      -0.07013288       0.04482246       0.00476132 </v>
   <v>       0.01221028       0.02326350       0.00384882 </v>
   <v>      -0.05717114       0.10828446       0.00210458 </v>
   <v>      -0.00564433       0.00517197      -0.00661311 </v>
   <v>       0.02531729      -0.16149485       0.04039443 </v>
   <v>      -0.01566587       0.01645611      -0.03755882 </v>
   <v>      -0.00444568      -0.04543503      -0.00114538 </v>
   <v>       0.00875710       0.01051375      -0.00126578 </v>
   <v>      -0.00965429       0.00091842      -0.00543543 </v>
   <v>      -0.00806205      -0.02380002      -0.01573076 </v>
   <v>      -0.00977651       0.01733861      -0.01203968 </v>
   <v>      -0.02410936       0.00632257       0.00177935 </v>
   <v>       0.00448984       0.00027460       0.00319350 </v>
   <v>       0.00914617       0.00632419       0.00152557 </v>
   <v>       0.00614136      -0.00014626      -0.00294370 </v>
   <v>       0.00949279       0.00547826      -0.00053454 </v>
   <v>       0.00751761      -0.00696035      -0.00607576 </v>
   <v>      -0.01515319       0.00559585       0.00472997 </v>
   <v>       0.01109019      -0.00843951      -0.00627961 </v>
   <v>      -0.01285006       0.00764928      -0.01865519 </v>
   <v>       0.02853148       0.02117486      -0.00240358 </v>
   <v>       0.04585806      -0.09842199       0.01816122 </v>
   <v>      -0.02844648       0.00113568       0.01617441 </v>
   <v>      -0.08521591       0.05277436      -0.01732664 </v>
   <v>       0.01853196       0.00496340      -0.00222555 </v>
   <v>      -0.04034484       0.02836967       0.01091086 </v>
   <v>       0.01248303      -0.01206964       0.00170954 </v>
   <v>      -0.00017604      -0.00633579       0.00873094 </v>
   <v>       0.00750809      -0.00176693       0.00578236 </v>
   <v>      -0.00110181       0.00238056      -0.01513192 </v>
   <v>       0.15399715       0.05713348       0.04529684 </v>
   <v>      -0.10011452       0.19119752       0.09094281 </v>
   <v>       0.05058452       0.00381540      -0.00919242 </v>
   <v>       0.00540060      -0.00151326      -0.01216296 </v>
   <v>      -0.08254695       0.04160967      -0.01658699 </v>
   <v>       0.00922323      -0.01756770       0.01139050 </v>
   <v>       0.00428949      -0.00786497       0.00410813 </v>
   <v>       0.01026160      -0.00587031      -0.00139671 </v>
   <v>      -0.00977780      -0.02392287       0.00744853 </v>
   <v>      -0.12108425       0.00029255      -0.00634065 </v>
   <v>       0.06055835      -0.03170048       0.03141525 </v>
   <v>      -0.21545424      -0.00220509       0.09314390 </v>
   <v>       0.02033857      -0.06061840      -0.00250107 </v>
   <v>       0.10594582       0.00518842       0.01272842 </v>
   <v>      -0.00935110       0.01816226       0.00714168 </v>
   <v>      -0.00984399       0.01156778       0.00017806 </v>
   <v>       0.31426385      -0.17697897      -0.24176971 </v>
  </varray>
  <varray name="stress" >
   <v>      -1.30574756     -16.25092926       0.20382699 </v>
   <v>     -16.25092926     -20.02058180      -0.11754390 </v>
   <v>       0.20382686      -0.11754382      -0.26370547 </v>
  </varray>
  <energy>
   <i name="e_fr_energy">   -437.43301500 </i>
   <i name="e_wo_entrp">   -437.42977643 </i>
   <i name="e_0_energy">     -0.00647715 </i>
  </energy>
  <time name="totalsc"> 1697.11 1697.40</time>
  <eigenvalues>
   <array>
    <dimension dim="1">band</dimension>
    <dimension dim="2">kpoint</dimension>
    <dimension dim="3">spin</dimension>
    <field>eigene</field>
    <field>occ</field>
    <set>
     <set comment="spin 1">
      <set comment="kpoint 1">
       <r>  -51.5002    1.0000 </r>
       <r>  -22.3157    1.0000 </r>
       <r>  -21.6190    1.0000 </r>
       <r>  -21.4597    1.0000 </r>
       <r>  -21.3803    1.0000 </r>
       <r>  -21.2860    1.0000 </r>
       <r>  -21.1312    1.0000 </r>
       <r>  -20.8618    1.0000 </r>
       <r>  -19.6555    1.0000 </r>
       <r>  -19.5022    1.0000 </r>
       <r>  -19.4830    1.0000 </r>
       <r>  -19.4124    1.0000 </r>
       <r>  -19.3833    1.0000 </r>
       <r>  -19.1387    1.0000 </r>
       <r>  -18.7907    1.0000 </r>
       <r>  -18.6545    1.0000 </r>
       <r>  -18.5369    1.0000 </r>
       <r>  -18.5022    1.0000 </r>
       <r>  -18.2912    1.0000 </r>
       <r>  -17.7107    1.0000 </r>
       <r>  -16.4879    1.0000 </r>
       <r>  -16.4740    1.0000 </r>
       <r>  -16.4420    1.0000 </r>
       <r>  -16.1925    1.0000 </r>
       <r>  -16.0715    1.0000 </r>
       <r>  -15.9501    1.0000 </r>
       <r>  -15.5293    1.0000 </r>
       <r>  -15.4797    1.0000 </r>
       <r>  -15.2878    1.0000 </r>
       <r>  -15.1225    1.0000 </r>
       <r>  -15.0379    1.0000 </r>
       <r>  -14.5865    1.0000 </r>
       <r>  -14.1503    1.0000 </r>
       <r>  -14.0926    1.0000 </r>
       <r>  -13.9618    1.0000 </r>
       <r>  -13.7136    1.0000 </r>
       <r>  -13.5130    1.0000 </r>
       <r>  -12.7429    1.0000 </r>
       <r>  -11.7873    1.0000 </r>
       <r>  -11.6816    1.0000 </r>
       <r>  -11.6758    1.0000 </r>
       <r>  -11.6408    1.0000 </r>
       <r>  -11.5926    1.0000 </r>
       <r>  -11.5109    1.0000 </r>
       <r>  -11.4786    1.0000 </r>
       <r>  -11.3560    1.0000 </r>
       <r>  -11.1757    1.0000 </r>
       <r>  -11.1406    1.0000 </r>
       <r>  -10.7214    1.0000 </r>
       <r>  -10.5801    1.0000 </r>
       <r>  -10.4251    1.0000 </r>
       <r>  -10.2250    1.0000 </r>
       <r>  -10.0779    1.0000 </r>
       <r>  -10.0722    1.0000 </r>
       <r>  -10.0376    1.0000 </r>
       <r>   -9.9155    1.0000 </r>
       <r>   -9.5235    1.0000 </r>
       <r>   -9.4452    1.0000 </r>
       <r>   -9.4013    1.0000 </r>
       <r>   -9.3386    1.0000 </r>
       <r>   -9.2567    1.0000 </r>
       <r>   -9.1900    1.0000 </r>
       <r>   -9.0159    1.0000 </r>
       <r>   -9.0078    1.0000 </r>
       <r>   -8.9504    1.0000 </r>
       <r>   -8.8868    1.0000 </r>
       <r>   -8.8604    1.0000 </r>
       <r>   -8.7358    1.0000 </r>
       <r>   -8.7014    1.0000 </r>
       <r>   -8.6697    1.0000 </r>
       <r>   -8.6233    1.0000 </r>
       <r>   -8.2794    1.0000 </r>
       <r>   -7.9897    1.0000 </r>
       <r>   -7.7686    1.0000 </r>
       <r>   -7.5145    1.0000 </r>
       <r>   -7.3113    1.0000 </r>
       <r>   -7.3081    1.0000 </r>
       <r>   -7.2495    1.0000 </r>
       <r>   -7.2377    1.0000 </r>
       <r>   -7.1951    1.0000 </r>
       <r>   -7.1738    1.0000 </r>
       <r>   -7.1126    1.0000 </r>
       <r>   -7.1002    1.0000 </r>
       <r>   -6.9119    1.0000 </r>
       <r>   -6.4770    1.0000 </r>
       <r>   -6.4262    1.0000 </r>
       <r>   -6.3659    1.0000 </r>
       <r>   -6.3048    1.0000 </r>
       <r>   -6.1976    1.0000 </r>
       <r>   -6.0739    1.0000 </r>
       <r>   -6.0043    1.0000 </r>
       <r>   -5.5696    1.0000 </r>
       <r>   -4.3906    1.0000 </r>
       <r>   -4.3474    1.0000 </r>
       <r>   -4.2826    1.0000 </r>
       <r>   -4.1757    1.0000 </r>
       <r>   -3.9533    1.0000 </r>
       <r>   -3.2204    0.9996 </r>
       <r>   -1.8733    0.0000 </r>
       <r>   -1.6998    0.0000 </r>
       <r>   -1.4655    0.0000 </r>
       <r>   -1.3816    0.0000 </r>
       <r>   -1.2384    0.0000 </r>
       <r>   -0.9128    0.0000 </r>
       <r>   -0.7105    0.0000 </r>
       <r>   -0.1550    0.0000 </r>
       <r>    0.1326    0.0000 </r>
       <r>    0.1812    0.0000 </r>
       <r>    0.2458    0.0000 </r>
       <r>    0.4712    0.0000 </r>
       <r>    0.5143    0.0000 </r>
       <r>    0.6038    0.0000 </r>
       <r>    0.7837    0.0000 </r>
       <r>    0.8151    0.0000 </r>
       <r>    0.8788    0.0000 </r>
       <r>    0.9429    0.0000 </r>
       <r>    1.0180    0.0000 </r>
       <r>    1.1602    0.0000 </r>
       <r>    1.3430    0.0000 </r>
       <r>    1.3949    0.0000 </r>
       <r>    1.3964    0.0000 </r>
       <r>    1.4544    0.0000 </r>
       <r>    1.5285    0.0000 </r>
       <r>    1.8148    0.0000 </r>
       <r>    1.9290    0.0000 </r>
       <r>    2.0172    0.0000 </r>
       <r>    2.0901    0.0000 </r>
       <r>    2.1077    0.0000 </r>
      </set>
      <set comment="kpoint 2">
       <r>  -51.5002    1.0000 </r>
       <r>  -22.2210    1.0000 </r>
       <r>  -21.9447    1.0000 </r>
       <r>  -21.5625    1.0000 </r>
       <r>  -21.3712    1.0000 </r>
       <r>  -21.0183    1.0000 </r>
       <r>  -20.7856    1.0000 </r>
       <r>  -20.5206    1.0000 </r>
       <r>  -20.3550    1.0000 </r>
       <r>  -20.1096    1.0000 </r>
       <r>  -19.6498    1.0000 </r>
       <r>  -19.3455    1.0000 </r>
       <r>  -19.2321    1.0000 </r>
       <r>  -19.0402    1.0000 </r>
       <r>  -18.7484    1.0000 </r>
       <r>  -18.5536    1.0000 </r>
       <r>  -18.3288    1.0000 </r>
       <r>  -17.8583    1.0000 </r>
       <r>  -17.6972    1.0000 </r>
       <r>  -17.4565    1.0000 </r>
       <r>  -17.4162    1.0000 </r>
       <r>  -17.1486    1.0000 </r>
       <r>  -16.9373    1.0000 </r>
       <r>  -16.4960    1.0000 </r>
       <r>  -16.0882    1.0000 </r>
       <r>  -15.7788    1.0000 </r>
       <r>  -15.3848    1.0000 </r>
       <r>  -15.2428    1.0000 </r>
       <r>  -15.1583    1.0000 </r>
       <r>  -14.8834    1.0000 </r>
       <r>  -14.8073    1.0000 </r>
       <r>  -14.5005    1.0000 </r>
       <r>  -14.3396    1.0000 </r>
       <r>  -14.0515    1.0000 </r>
       <r>  -13.6025    1.0000 </r>
       <r>  -13.0397    1.0000 </r>
       <r>  -12.9820    1.0000 </r>
       <r>  -12.7685    1.0000 </r>
       <r>  -12.6774    1.0000 </r>
       <r>  -12.6601    1.0000 </r>
       <r>  -12.3674    1.0000 </r>
       <r>  -12.0459    1.0000 </r>
       <r>  -11.8753    1.0000 </r>
       <r>  -11.4052    1.0000 </r>
       <r>  -11.2759    1.0000 </r>
       <r>  -11.1051    1.0000 </r>
       <r>  -10.8597    1.0000 </r>
       <r>  -10.7409    1.0000 </r>
       <r>  -10.5344    1.0000 </r>
       <r>  -10.4241    1.0000 </r>
       <r>  -10.3186    1.0000 </r>
       <r>  -10.3075    1.0000 </r>
       <r>  -10.1472    1.0000 </r>
       <r>  -10.0041    1.0000 </r>
       <r>   -9.9589    1.0000 </r>
       <r>   -9.7843    1.0000 </r>
       <r>   -9.5784    1.0000 </r>
       <r>   -9.5508    1.0000 </r>
       <r>   -9.4346    1.0000 </r>
       <r>   -9.3951    1.0000 </r>
       <r>   -9.2673    1.0000 </r>
       <r>   -9.2033    1.0000 </r>
       <r>   -9.1250    1.0000 </r>
       <r>   -8.9300    1.0000 </r>
       <r>   -8.8857    1.0000 </r>
       <r>   -8.8758    1.0000 </r>
       <r>   -8.7251    1.0000 </r>
       <r>   -8.6966    1.0000 </r>
       <r>   -8.4718    1.0000 </r>
       <r>   -8.4031    1.0000 </r>
       <r>   -8.2409    1.0000 </r>
       <r>   -8.1652    1.0000 </r>
       <r>   -8.0250    1.0000 </r>
       <r>   -8.0159    1.0000 </r>
       <r>   -7.9604    1.0000 </r>
       <r>   -7.8527    1.0000 </r>
       <r>   -7.6701    1.0000 </r>
       <r>   -7.4113    1.0000 </r>
       <r>   -7.3716    1.0000 </r>
       <r>   -7.2283    1.0000 </r>
       <r>   -7.1012    1.0000 </r>
       <r>   -6.9691    1.0000 </r>
       <r>   -6.8476    1.0000 </r>
       <r>   -6.7736    1.0000 </r>
       <r>   -6.5877    1.0000 </r>
       <r>   -6.5651    1.0000 </r>
       <r>   -6.2309    1.0000 </r>
       <r>   -6.1403    1.0000 </r>
       <r>   -6.0255    1.0000 </r>
       <r>   -5.6098    1.0000 </r>
       <r>   -5.4904    1.0000 </r>
       <r>   -5.3513    1.0000 </r>
       <r>   -5.0405    1.0000 </r>
       <r>   -4.9300    1.0000 </r>
       <r>   -4.7684    1.0000 </r>
       <r>   -4.1636    1.0000 </r>
       <r>   -3.7235    1.0000 </r>
       <r>   -3.1431    0.8764 </r>
       <r>   -1.8075    0.0000 </r>
       <r>   -1.7587    0.0000 </r>
       <r>   -1.0923    0.0000 </r>
       <r>   -1.0349    0.0000 </r>
       <r>   -0.9806    0.0000 </r>
       <r>   -0.8837    0.0000 </r>
       <r>   -0.7677    0.0000 </r>
       <r>   -0.5319    0.0000 </r>
       <r>   -0.3919    0.0000 </r>
       <r>   -0.1172    0.0000 </r>
       <r>    0.2026    0.0000 </r>
       <r>    0.3677    0.0000 </r>
       <r>    0.6071    0.0000 </r>
       <r>    0.6914    0.0000 </r>
       <r>    0.7510    0.0000 </r>
       <r>    0.8338    0.0000 </r>
       <r>    0.9299    0.0000 </r>
       <r>    0.9601    0.0000 </r>
       <r>    1.0789    0.0000 </r>
       <r>    1.1291    0.0000 </r>
       <r>    1.2693    0.0000 </r>
       <r>    1.3439    0.0000 </r>
       <r>    1.3883    0.0000 </r>
       <r>    1.5164    0.0000 </r>
       <r>    1.5531    0.0000 </r>
       <r>    1.6665    0.0000 </r>
       <r>    1.6771    0.0000 </r>
       <r>    1.7987    0.0000 </r>
       <r>    1.8291    0.0000 </r>
       <r>    1.8366    0.0000 </r>
      </set>
      <set comment="kpoint 3">
       <r>  -51.5002    1.0000 </r>
       <r>  -22.2210    1.0000 </r>
       <r>  -21.9447    1.0000 </r>
       <r>  -21.5625    1.0000 </r>
       <r>  -21.3713    1.0000 </r>
       <r>  -21.0186    1.0000 </r>
       <r>  -20.7852    1.0000 </r>
       <r>  -20.5209    1.0000 </r>
       <r>  -20.3551    1.0000 </r>
       <r>  -20.1093    1.0000 </r>
       <r>  -19.6497    1.0000 </r>
       <r>  -19.3455    1.0000 </r>
       <r>  -19.2322    1.0000 </r>
       <r>  -19.0401    1.0000 </r>
       <r>  -18.7487    1.0000 </r>
       <r>  -18.5540    1.0000 </r>
       <r>  -18.3284    1.0000 </r>
       <r>  -17.8584    1.0000 </r>
       <r>  -17.6976    1.0000 </r>
       <r>  -17.4554    1.0000 </r>
       <r>  -17.4168    1.0000 </r>
       <r>  -17.1485    1.0000 </r>
       <r>  -16.9369    1.0000 </r>
       <r>  -16.4956    1.0000 </r>
       <r>  -16.0884    1.0000 </r>
       <r>  -15.7789    1.0000 </r>
       <r>  -15.3848    1.0000 </r>
       <r>  -15.2428    1.0000 </r>
       <r>  -15.1588    1.0000 </r>
       <r>  -14.8838    1.0000 </r>
       <r>  -14.8071    1.0000 </r>
       <r>  -14.5002    1.0000 </r>
       <r>  -14.3402    1.0000 </r>
       <r>  -14.0508    1.0000 </r>
       <r>  -13.6026    1.0000 </r>
       <r>  -13.0401    1.0000 </r>
       <r>  -12.9820    1.0000 </r>
       <r>  -12.7683    1.0000 </r>
       <r>  -12.6766    1.0000 </r>
       <r>  -12.6598    1.0000 </r>
       <r>  -12.3678    1.0000 </r>
       <r>  -12.0448    1.0000 </r>
       <r>  -11.8754    1.0000 </r>
       <r>  -11.4058    1.0000 </r>
       <r>  -11.2762    1.0000 </r>
       <r>  -11.1060    1.0000 </r>
       <r>  -10.8596    1.0000 </r>
       <r>  -10.7422    1.0000 </r>
       <r>  -10.5344    1.0000 </r>
       <r>  -10.4237    1.0000 </r>
       <r>  -10.3187    1.0000 </r>
       <r>  -10.3073    1.0000 </r>
       <r>  -10.1466    1.0000 </r>
       <r>  -10.0046    1.0000 </r>
       <r>   -9.9587    1.0000 </r>
       <r>   -9.7849    1.0000 </r>
       <r>   -9.5790    1.0000 </r>
       <r>   -9.5498    1.0000 </r>
       <r>   -9.4340    1.0000 </r>
       <r>   -9.3949    1.0000 </r>
       <r>   -9.2663    1.0000 </r>
       <r>   -9.2030    1.0000 </r>
       <r>   -9.1252    1.0000 </r>
       <r>   -8.9294    1.0000 </r>
       <r>   -8.8857    1.0000 </r>
       <r>   -8.8766    1.0000 </r>
       <r>   -8.7254    1.0000 </r>
       <r>   -8.6961    1.0000 </r>
       <r>   -8.4720    1.0000 </r>
       <r>   -8.4032    1.0000 </r>
       <r>   -8.2419    1.0000 </r>
       <r>   -8.1657    1.0000 </r>
       <r>   -8.0255    1.0000 </r>
       <r>   -8.0165    1.0000 </r>
       <r>   -7.9602    1.0000 </r>
       <r>   -7.8526    1.0000 </r>
       <r>   -7.6704    1.0000 </r>
       <r>   -7.4099    1.0000 </r>
       <r>   -7.3719    1.0000 </r>
       <r>   -7.2273    1.0000 </r>
       <r>   -7.1011    1.0000 </r>
       <r>   -6.9689    1.0000 </r>
       <r>   -6.8483    1.0000 </r>
       <r>   -6.7739    1.0000 </r>
       <r>   -6.5875    1.0000 </r>
       <r>   -6.5644    1.0000 </r>
       <r>   -6.2316    1.0000 </r>
       <r>   -6.1410    1.0000 </r>
       <r>   -6.0250    1.0000 </r>
       <r>   -5.6100    1.0000 </r>
       <r>   -5.4907    1.0000 </r>
       <r>   -5.3506    1.0000 </r>
       <r>   -5.0411    1.0000 </r>
       <r>   -4.9298    1.0000 </r>
       <r>   -4.7685    1.0000 </r>
       <r>   -4.1641    1.0000 </r>
       <r>   -3.7227    1.0000 </r>
       <r>   -3.1426    0.8738 </r>
       <r>   -1.8086    0.0000 </r>
       <r>   -1.7585    0.0000 </r>
       <r>   -1.0924    0.0000 </r>
       <r>   -1.0356    0.0000 </r>
       <r>   -0.9806    0.0000 </r>
       <r>   -0.8833    0.0000 </r>
       <r>   -0.7679    0.0000 </r>
       <r>   -0.5308    0.0000 </r>
       <r>   -0.3922    0.0000 </r>
       <r>   -0.1170    0.0000 </r>
       <r>    0.2030    0.0000 </r>
       <r>    0.3672    0.0000 </r>
       <r>    0.6081    0.0000 </r>
       <r>    0.6922    0.0000 </r>
       <r>    0.7500    0.0000 </r>
       <r>    0.8347    0.0000 </r>
       <r>    0.9303    0.0000 </r>
       <r>    0.9599    0.0000 </r>
       <r>    1.0783    0.0000 </r>
       <r>    1.1288    0.0000 </r>
       <r>    1.2702    0.0000 </r>
       <r>    1.3436    0.0000 </r>
       <r>    1.3881    0.0000 </r>
       <r>    1.5163    0.0000 </r>
       <r>    1.5529    0.0000 </r>
       <r>    1.6660    0.0000 </r>
       <r>    1.6772    0.0000 </r>
       <r>    1.7980    0.0000 </r>
       <r>    1.8292    0.0000 </r>
       <r>    1.8367    0.0000 </r>
      </set>
      <set comment="kpoint 4">
       <r>  -51.5002    1.0000 </r>
       <r>  -22.1531    1.0000 </r>
       <r>  -22.0012    1.0000 </r>
       <r>  -21.7532    1.0000 </r>
       <r>  -21.1200    1.0000 </r>
       <r>  -21.0722    1.0000 </r>
       <r>  -20.7628    1.0000 </r>
       <r>  -20.2993    1.0000 </r>
       <r>  -20.1487    1.0000 </r>
       <r>  -20.0823    1.0000 </r>
       <r>  -20.0330    1.0000 </r>
       <r>  -19.9191    1.0000 </r>
       <r>  -19.4910    1.0000 </r>
       <r>  -18.4816    1.0000 </r>
       <r>  -18.3688    1.0000 </r>
       <r>  -18.3247    1.0000 </r>
       <r>  -18.2418    1.0000 </r>
       <r>  -17.9818    1.0000 </r>
       <r>  -17.7984    1.0000 </r>
       <r>  -17.5985    1.0000 </r>
       <r>  -17.3492    1.0000 </r>
       <r>  -17.2088    1.0000 </r>
       <r>  -16.9362    1.0000 </r>
       <r>  -16.5927    1.0000 </r>
       <r>  -16.2848    1.0000 </r>
       <r>  -15.8682    1.0000 </r>
       <r>  -15.8140    1.0000 </r>
       <r>  -15.5756    1.0000 </r>
       <r>  -14.9857    1.0000 </r>
       <r>  -14.8068    1.0000 </r>
       <r>  -14.0202    1.0000 </r>
       <r>  -13.9966    1.0000 </r>
       <r>  -13.9113    1.0000 </r>
       <r>  -13.7067    1.0000 </r>
       <r>  -13.6898    1.0000 </r>
       <r>  -13.6273    1.0000 </r>
       <r>  -13.5365    1.0000 </r>
       <r>  -13.0839    1.0000 </r>
       <r>  -12.9101    1.0000 </r>
       <r>  -12.2654    1.0000 </r>
       <r>  -12.1664    1.0000 </r>
       <r>  -12.0330    1.0000 </r>
       <r>  -11.8366    1.0000 </r>
       <r>  -11.5676    1.0000 </r>
       <r>  -11.5293    1.0000 </r>
       <r>  -11.2289    1.0000 </r>
       <r>  -11.1718    1.0000 </r>
       <r>  -10.6219    1.0000 </r>
       <r>  -10.5767    1.0000 </r>
       <r>  -10.3037    1.0000 </r>
       <r>  -10.1906    1.0000 </r>
       <r>  -10.0941    1.0000 </r>
       <r>  -10.0717    1.0000 </r>
       <r>  -10.0542    1.0000 </r>
       <r>   -9.9515    1.0000 </r>
       <r>   -9.8661    1.0000 </r>
       <r>   -9.8434    1.0000 </r>
       <r>   -9.6666    1.0000 </r>
       <r>   -9.2878    1.0000 </r>
       <r>   -9.1828    1.0000 </r>
       <r>   -9.1088    1.0000 </r>
       <r>   -9.0994    1.0000 </r>
       <r>   -9.0183    1.0000 </r>
       <r>   -8.9713    1.0000 </r>
       <r>   -8.7473    1.0000 </r>
       <r>   -8.6866    1.0000 </r>
       <r>   -8.6699    1.0000 </r>
       <r>   -8.5960    1.0000 </r>
       <r>   -8.5048    1.0000 </r>
       <r>   -8.4257    1.0000 </r>
       <r>   -8.2678    1.0000 </r>
       <r>   -8.2012    1.0000 </r>
       <r>   -8.0389    1.0000 </r>
       <r>   -8.0274    1.0000 </r>
       <r>   -7.9244    1.0000 </r>
       <r>   -7.8746    1.0000 </r>
       <r>   -7.8500    1.0000 </r>
       <r>   -7.8200    1.0000 </r>
       <r>   -7.4599    1.0000 </r>
       <r>   -7.4160    1.0000 </r>
       <r>   -7.2781    1.0000 </r>
       <r>   -6.9249    1.0000 </r>
       <r>   -6.8070    1.0000 </r>
       <r>   -6.7837    1.0000 </r>
       <r>   -6.4837    1.0000 </r>
       <r>   -6.1498    1.0000 </r>
       <r>   -6.0775    1.0000 </r>
       <r>   -6.0052    1.0000 </r>
       <r>   -5.8972    1.0000 </r>
       <r>   -5.6596    1.0000 </r>
       <r>   -5.5687    1.0000 </r>
       <r>   -5.2081    1.0000 </r>
       <r>   -5.1241    1.0000 </r>
       <r>   -5.0593    1.0000 </r>
       <r>   -4.8423    1.0000 </r>
       <r>   -4.7038    1.0000 </r>
       <r>   -3.6737    1.0000 </r>
       <r>   -2.6107    0.0000 </r>
       <r>   -2.5073    0.0000 </r>
       <r>   -1.2996    0.0000 </r>
       <r>   -1.2363    0.0000 </r>
       <r>   -1.1857    0.0000 </r>
       <r>   -0.8704    0.0000 </r>
       <r>   -0.6295    0.0000 </r>
       <r>   -0.5132    0.0000 </r>
       <r>   -0.4668    0.0000 </r>
       <r>   -0.2526    0.0000 </r>
       <r>   -0.0002    0.0000 </r>
       <r>    0.0183    0.0000 </r>
       <r>    0.1928    0.0000 </r>
       <r>    0.3460    0.0000 </r>
       <r>    0.3805    0.0000 </r>
       <r>    0.4492    0.0000 </r>
       <r>    0.7265    0.0000 </r>
       <r>    0.7967    0.0000 </r>
       <r>    1.1383    0.0000 </r>
       <r>    1.2336    0.0000 </r>
       <r>    1.2376    0.0000 </r>
       <r>    1.2452    0.0000 </r>
       <r>    1.3094    0.0000 </r>
       <r>    1.3413    0.0000 </r>
       <r>    1.4730    0.0000 </r>
       <r>    1.4909    0.0000 </r>
       <r>    1.5157    0.0000 </r>
       <r>    1.7781    0.0000 </r>
       <r>    1.7796    0.0000 </r>
       <r>    1.7933    0.0000 </r>
       <r>    1.9038    0.0000 </r>
      </set>
      <set comment="kpoint 5">
       <r>  -51.5002    1.0000 </r>
       <r>  -22.2571    1.0000 </r>
       <r>  -21.7578    1.0000 </r>
       <r>  -21.6377    1.0000 </r>
       <r>  -21.5507    1.0000 </r>
       <r>  -20.9012    1.0000 </r>
       <r>  -20.8432    1.0000 </r>
       <r>  -20.5438    1.0000 </r>
       <r>  -20.2125    1.0000 </r>
       <r>  -20.0437    1.0000 </r>
       <r>  -19.5950    1.0000 </r>
       <r>  -19.4293    1.0000 </r>
       <r>  -19.4082    1.0000 </r>
       <r>  -19.0047    1.0000 </r>
       <r>  -18.9738    1.0000 </r>
       <r>  -18.4194    1.0000 </r>
       <r>  -18.2827    1.0000 </r>
       <r>  -17.8792    1.0000 </r>
       <r>  -17.6742    1.0000 </r>
       <r>  -17.2559    1.0000 </r>
       <r>  -17.2494    1.0000 </r>
       <r>  -17.0504    1.0000 </r>
       <r>  -17.0215    1.0000 </r>
       <r>  -16.6713    1.0000 </r>
       <r>  -16.3495    1.0000 </r>
       <r>  -15.8253    1.0000 </r>
       <r>  -15.4541    1.0000 </r>
       <r>  -15.2189    1.0000 </r>
       <r>  -15.2052    1.0000 </r>
       <r>  -14.7310    1.0000 </r>
       <r>  -14.6334    1.0000 </r>
       <r>  -14.4313    1.0000 </r>
       <r>  -14.3370    1.0000 </r>
       <r>  -14.1879    1.0000 </r>
       <r>  -13.5804    1.0000 </r>
       <r>  -13.0523    1.0000 </r>
       <r>  -12.9367    1.0000 </r>
       <r>  -12.8807    1.0000 </r>
       <r>  -12.6163    1.0000 </r>
       <r>  -12.4443    1.0000 </r>
       <r>  -12.3950    1.0000 </r>
       <r>  -11.9325    1.0000 </r>
       <r>  -11.8410    1.0000 </r>
       <r>  -11.6299    1.0000 </r>
       <r>  -11.4295    1.0000 </r>
       <r>  -11.1969    1.0000 </r>
       <r>  -10.9824    1.0000 </r>
       <r>  -10.8222    1.0000 </r>
       <r>  -10.5590    1.0000 </r>
       <r>  -10.3616    1.0000 </r>
       <r>  -10.3337    1.0000 </r>
       <r>  -10.2462    1.0000 </r>
       <r>  -10.1598    1.0000 </r>
       <r>   -9.9049    1.0000 </r>
       <r>   -9.8411    1.0000 </r>
       <r>   -9.7102    1.0000 </r>
       <r>   -9.6467    1.0000 </r>
       <r>   -9.5795    1.0000 </r>
       <r>   -9.5546    1.0000 </r>
       <r>   -9.3325    1.0000 </r>
       <r>   -9.2339    1.0000 </r>
       <r>   -9.0509    1.0000 </r>
       <r>   -8.9813    1.0000 </r>
       <r>   -8.9785    1.0000 </r>
       <r>   -8.9236    1.0000 </r>
       <r>   -8.7954    1.0000 </r>
       <r>   -8.7791    1.0000 </r>
       <r>   -8.7504    1.0000 </r>
       <r>   -8.5711    1.0000 </r>
       <r>   -8.4037    1.0000 </r>
       <r>   -8.1773    1.0000 </r>
       <r>   -8.0836    1.0000 </r>
       <r>   -8.0591    1.0000 </r>
       <r>   -8.0326    1.0000 </r>
       <r>   -7.9239    1.0000 </r>
       <r>   -7.8427    1.0000 </r>
       <r>   -7.6020    1.0000 </r>
       <r>   -7.3544    1.0000 </r>
       <r>   -7.2285    1.0000 </r>
       <r>   -7.1702    1.0000 </r>
       <r>   -7.1610    1.0000 </r>
       <r>   -7.1245    1.0000 </r>
       <r>   -7.1153    1.0000 </r>
       <r>   -6.8090    1.0000 </r>
       <r>   -6.6477    1.0000 </r>
       <r>   -6.4403    1.0000 </r>
       <r>   -6.4039    1.0000 </r>
       <r>   -6.0743    1.0000 </r>
       <r>   -5.9908    1.0000 </r>
       <r>   -5.7067    1.0000 </r>
       <r>   -5.4832    1.0000 </r>
       <r>   -5.1156    1.0000 </r>
       <r>   -4.9746    1.0000 </r>
       <r>   -4.8400    1.0000 </r>
       <r>   -4.8161    1.0000 </r>
       <r>   -4.3681    1.0000 </r>
       <r>   -3.9481    1.0000 </r>
       <r>   -2.9084    0.0000 </r>
       <r>   -1.6932    0.0000 </r>
       <r>   -1.6052    0.0000 </r>
       <r>   -1.1891    0.0000 </r>
       <r>   -1.1703    0.0000 </r>
       <r>   -1.1036    0.0000 </r>
       <r>   -0.9253    0.0000 </r>
       <r>   -0.8727    0.0000 </r>
       <r>   -0.4758    0.0000 </r>
       <r>   -0.3741    0.0000 </r>
       <r>    0.0389    0.0000 </r>
       <r>    0.1949    0.0000 </r>
       <r>    0.3391    0.0000 </r>
       <r>    0.4502    0.0000 </r>
       <r>    0.7760    0.0000 </r>
       <r>    0.8174    0.0000 </r>
       <r>    0.8795    0.0000 </r>
       <r>    0.9574    0.0000 </r>
       <r>    1.1114    0.0000 </r>
       <r>    1.1953    0.0000 </r>
       <r>    1.2218    0.0000 </r>
       <r>    1.3080    0.0000 </r>
       <r>    1.3860    0.0000 </r>
       <r>    1.4921    0.0000 </r>
       <r>    1.5485    0.0000 </r>
       <r>    1.5915    0.0000 </r>
       <r>    1.6717    0.0000 </r>
       <r>    1.6971    0.0000 </r>
       <r>    1.7758    0.0000 </r>
       <r>    1.8335    0.0000 </r>
       <r>    1.8357    0.0000 </r>
      </set>
     </set>
     <set comment="spin 2">
      <set comment="kpoint 1">
       <r>  -51.5002    1.0000 </r>
       <r>  -22.3157    1.0000 </r>
       <r>  -21.6190    1.0000 </r>
       <r>  -21.4597    1.0000 </r>
       <r>  -21.3803    1.0000 </r>
       <r>  -21.2860    1.0000 </r>
       <r>  -21.1312    1.0000 </r>
       <r>  -20.8618    1.0000 </r>
       <r>  -19.6555    1.0000 </r>
       <r>  -19.5022    1.0000 </r>
       <r>  -19.4830    1.0000 </r>
       <r>  -19.4124    1.0000 </r>
       <r>  -19.3833    1.0000 </r>
       <r>  -19.1387    1.0000 </r>
       <r>  -18.7907    1.0000 </r>
       <r>  -18.6545    1.0000 </r>
       <r>  -18.5369    1.0000 </r>
       <r>  -18.5022    1.0000 </r>
       <r>  -18.2912    1.0000 </r>
       <r>  -17.7107    1.0000 </r>
       <r>  -16.4879    1.0000 </r>
       <r>  -16.4740    1.0000 </r>
       <r>  -16.4420    1.0000 </r>
       <r>  -16.1925    1.0000 </r>
       <r>  -16.0715    1.0000 </r>
       <r>  -15.9501    1.0000 </r>
       <r>  -15.5293    1.0000 </r>
       <r>  -15.4797    1.0000 </r>
       <r>  -15.2878    1.0000 </r>
       <r>  -15.1225    1.0000 </r>
       <r>  -15.0379    1.0000 </r>
       <r>  -14.5865    1.0000 </r>
       <r>  -14.1503    1.0000 </r>
       <r>  -14.0926    1.0000 </r>
       <r>  -13.9618    1.0000 </r>
       <r>  -13.7136    1.0000 </r>
       <r>  -13.5130    1.0000 </r>
       <r>  -12.7429    1.0000 </r>
       <r>  -11.7873    1.0000 </r>
       <r>  -11.6816    1.0000 </r>
       <r>  -11.6758    1.0000 </r>
       <r>  -11.6408    1.0000 </r>
       <r>  -11.5926    1.0000 </r>
       <r>  -11.5109    1.0000 </r>
       <r>  -11.4786    1.0000 </r>
       <r>  -11.3560    1.0000 </r>
       <r>  -11.1757    1.0000 </r>
       <r>  -11.1406    1.0000 </r>
       <r>  -10.7214    1.0000 </r>
       <r>  -10.5801    1.0000 </r>
       <r>  -10.4251    1.0000 </r>
       <r>  -10.2250    1.0000 </r>
       <r>  -10.0779    1.0000 </r>
       <r>  -10.0722    1.0000 </r>
       <r>  -10.0376    1.0000 </r>
       <r>   -9.9155    1.0000 </r>
       <r>   -9.5235    1.0000 </r>
       <r>   -9.4452    1.0000 </r>
       <r>   -9.4013    1.0000 </r>
       <r>   -9.3386    1.0000 </r>
       <r>   -9.2567    1.0000 </r>
       <r>   -9.1900    1.0000 </r>
       <r>   -9.0159    1.0000 </r>
       <r>   -9.0078    1.0000 </r>
       <r>   -8.9504    1.0000 </r>
       <r>   -8.8868    1.0000 </r>
       <r>   -8.8604    1.0000 </r>
       <r>   -8.7358    1.0000 </r>
       <r>   -8.7014    1.0000 </r>
       <r>   -8.6697    1.0000 </r>
       <r>   -8.6233    1.0000 </r>
       <r>   -8.2794    1.0000 </r>
       <r>   -7.9897    1.0000 </r>
       <r>   -7.7686    1.0000 </r>
       <r>   -7.5145    1.0000 </r>
       <r>   -7.3113    1.0000 </r>
       <r>   -7.3081    1.0000 </r>
       <r>   -7.2495    1.0000 </r>
       <r>   -7.2377    1.0000 </r>
       <r>   -7.1951    1.0000 </r>
       <r>   -7.1738    1.0000 </r>
       <r>   -7.1126    1.0000 </r>
       <r>   -7.1002    1.0000 </r>
       <r>   -6.9119    1.0000 </r>
       <r>   -6.4770    1.0000 </r>
       <r>   -6.4262    1.0000 </r>
       <r>   -6.3659    1.0000 </r>
       <r>   -6.3048    1.0000 </r>
       <r>   -6.1976    1.0000 </r>
       <r>   -6.0739    1.0000 </r>
       <r>   -6.0043    1.0000 </r>
       <r>   -5.5696    1.0000 </r>
       <r>   -4.3906    1.0000 </r>
       <r>   -4.3474    1.0000 </r>
       <r>   -4.2826    1.0000 </r>
       <r>   -4.1757    1.0000 </r>
       <r>   -3.9533    1.0000 </r>
       <r>   -3.2204    0.9996 </r>
       <r>   -1.8733    0.0000 </r>
       <r>   -1.6998    0.0000 </r>
       <r>   -1.4655    0.0000 </r>
       <r>   -1.3816    0.0000 </r>
       <r>   -1.2384    0.0000 </r>
       <r>   -0.9128    0.0000 </r>
       <r>   -0.7105    0.0000 </r>
       <r>   -0.1550    0.0000 </r>
       <r>    0.1326    0.0000 </r>
       <r>    0.1812    0.0000 </r>
       <r>    0.2458    0.0000 </r>
       <r>    0.4718    0.0000 </r>
       <r>    0.5143    0.0000 </r>
       <r>    0.6038    0.0000 </r>
       <r>    0.7839    0.0000 </r>
       <r>    0.8268    0.0000 </r>
       <r>    0.8789    0.0000 </r>
       <r>    0.9429    0.0000 </r>
       <r>    1.0322    0.0000 </r>
       <r>    1.1603    0.0000 </r>
       <r>    1.3630    0.0000 </r>
       <r>    1.3954    0.0000 </r>
       <r>    1.3968    0.0000 </r>
       <r>    1.4548    0.0000 </r>
       <r>    1.5447    0.0000 </r>
       <r>    1.8148    0.0000 </r>
       <r>    1.9184    0.0000 </r>
       <r>    2.0224    0.0000 </r>
       <r>    2.0455    0.0000 </r>
       <r>    2.1421    0.0000 </r>
      </set>
      <set comment="kpoint 2">
       <r>  -51.5002    1.0000 </r>
       <r>  -22.2210    1.0000 </r>
       <r>  -21.9447    1.0000 </r>
       <r>  -21.5625    1.0000 </r>
       <r>  -21.3712    1.0000 </r>
       <r>  -21.0183    1.0000 </r>
       <r>  -20.7856    1.0000 </r>
       <r>  -20.5206    1.0000 </r>
       <r>  -20.3550    1.0000 </r>
       <r>  -20.1096    1.0000 </r>
       <r>  -19.6498    1.0000 </r>
       <r>  -19.3455    1.0000 </r>
       <r>  -19.2321    1.0000 </r>
       <r>  -19.0402    1.0000 </r>
       <r>  -18.7484    1.0000 </r>
       <r>  -18.5536    1.0000 </r>
       <r>  -18.3288    1.0000 </r>
       <r>  -17.8583    1.0000 </r>
       <r>  -17.6972    1.0000 </r>
       <r>  -17.4565    1.0000 </r>
       <r>  -17.4162    1.0000 </r>
       <r>  -17.1486    1.0000 </r>
       <r>  -16.9373    1.0000 </r>
       <r>  -16.4960    1.0000 </r>
       <r>  -16.0882    1.0000 </r>
       <r>  -15.7788    1.0000 </r>
       <r>  -15.3848    1.0000 </r>
       <r>  -15.2428    1.0000 </r>
       <r>  -15.1583    1.0000 </r>
       <r>  -14.8834    1.0000 </r>
       <r>  -14.8073    1.0000 </r>
       <r>  -14.5005    1.0000 </r>
       <r>  -14.3396    1.0000 </r>
       <r>  -14.0515    1.0000 </r>
       <r>  -13.6025    1.0000 </r>
       <r>  -13.0397    1.0000 </r>
       <r>  -12.9820    1.0000 </r>
       <r>  -12.7685    1.0000 </r>
       <r>  -12.6774    1.0000 </r>
       <r>  -12.6601    1.0000 </r>
       <r>  -12.3674    1.0000 </r>
       <r>  -12.0459    1.0000 </r>
       <r>  -11.8753    1.0000 </r>
       <r>  -11.4052    1.0000 </r>
       <r>  -11.2759    1.0000 </r>
       <r>  -11.1051    1.0000 </r>
       <r>  -10.8597    1.0000 </r>
       <r>  -10.7409    1.0000 </r>
       <r>  -10.5344    1.0000 </r>
       <r>  -10.4241    1.0000 </r>
       <r>  -10.3186    1.0000 </r>
       <r>  -10.3076    1.0000 </r>
       <r>  -10.1472    1.0000 </r>
       <r>  -10.0041    1.0000 </r>
       <r>   -9.9589    1.0000 </r>
       <r>   -9.7843    1.0000 </r>
       <r>   -9.5784    1.0000 </r>
       <r>   -9.5508    1.0000 </r>
       <r>   -9.4346    1.0000 </r>
       <r>   -9.3951    1.0000 </r>
       <r>   -9.2673    1.0000 </r>
       <r>   -9.2033    1.0000 </r>
       <r>   -9.1250    1.0000 </r>
       <r>   -8.9300    1.0000 </r>
       <r>   -8.8857    1.0000 </r>
       <r>   -8.8758    1.0000 </r>
       <r>   -8.7251    1.0000 </r>
       <r>   -8.6966    1.0000 </r>
       <r>   -8.4718    1.0000 </r>
       <r>   -8.4031    1.0000 </r>
       <r>   -8.2409    1.0000 </r>
       <r>   -8.1652    1.0000 </r>
       <r>   -8.0250    1.0000 </r>
       <r>   -8.0159    1.0000 </r>
       <r>   -7.9604    1.0000 </r>
       <r>   -7.8527    1.0000 </r>
       <r>   -7.6701    1.0000 </r>
       <r>   -7.4113    1.0000 </r>
       <r>   -7.3716    1.0000 </r>
       <r>   -7.2283    1.0000 </r>
       <r>   -7.1012    1.0000 </r>
       <r>   -6.9691    1.0000 </r>
       <r>   -6.8476    1.0000 </r>
       <r>   -6.7736    1.0000 </r>
       <r>   -6.5877    1.0000 </r>
       <r>   -6.5651    1.0000 </r>
       <r>   -6.2309    1.0000 </r>
       <r>   -6.1403    1.0000 </r>
       <r>   -6.0255    1.0000 </r>
       <r>   -5.6098    1.0000 </r>
       <r>   -5.4904    1.0000 </r>
       <r>   -5.3513    1.0000 </r>
       <r>   -5.0405    1.0000 </r>
       <r>   -4.9300    1.0000 </r>
       <r>   -4.7684    1.0000 </r>
       <r>   -4.1636    1.0000 </r>
       <r>   -3.7235    1.0000 </r>
       <r>   -3.1431    0.8764 </r>
       <r>   -1.8075    0.0000 </r>
       <r>   -1.7587    0.0000 </r>
       <r>   -1.0923    0.0000 </r>
       <r>   -1.0349    0.0000 </r>
       <r>   -0.9806    0.0000 </r>
       <r>   -0.8837    0.0000 </r>
       <r>   -0.7677    0.0000 </r>
       <r>   -0.5319    0.0000 </r>
       <r>   -0.3919    0.0000 </r>
       <r>   -0.1172    0.0000 </r>
       <r>    0.2027    0.0000 </r>
       <r>    0.3681    0.0000 </r>
       <r>    0.6072    0.0000 </r>
       <r>    0.6916    0.0000 </r>
       <r>    0.7511    0.0000 </r>
       <r>    0.8342    0.0000 </r>
       <r>    0.9302    0.0000 </r>
       <r>    0.9708    0.0000 </r>
       <r>    1.0792    0.0000 </r>
       <r>    1.1403    0.0000 </r>
       <r>    1.2707    0.0000 </r>
       <r>    1.3517    0.0000 </r>
       <r>    1.3971    0.0000 </r>
       <r>    1.5303    0.0000 </r>
       <r>    1.5674    0.0000 </r>
       <r>    1.6698    0.0000 </r>
       <r>    1.6899    0.0000 </r>
       <r>    1.8075    0.0000 </r>
       <r>    1.8396    0.0000 </r>
       <r>    1.8509    0.0000 </r>
      </set>
      <set comment="kpoint 3">
       <r>  -51.5002    1.0000 </r>
       <r>  -22.2210    1.0000 </r>
       <r>  -21.9447    1.0000 </r>
       <r>  -21.5625    1.0000 </r>
       <r>  -21.3713    1.0000 </r>
       <r>  -21.0186    1.0000 </r>
       <r>  -20.7852    1.0000 </r>
       <r>  -20.5209    1.0000 </r>
       <r>  -20.3551    1.0000 </r>
       <r>  -20.1093    1.0000 </r>
       <r>  -19.6497    1.0000 </r>
       <r>  -19.3455    1.0000 </r>
       <r>  -19.2322    1.0000 </r>
       <r>  -19.0401    1.0000 </r>
       <r>  -18.7487    1.0000 </r>
       <r>  -18.5540    1.0000 </r>
       <r>  -18.3284    1.0000 </r>
       <r>  -17.8584    1.0000 </r>
       <r>  -17.6976    1.0000 </r>
       <r>  -17.4554    1.0000 </r>
       <r>  -17.4168    1.0000 </r>
       <r>  -17.1485    1.0000 </r>
       <r>  -16.9369    1.0000 </r>
       <r>  -16.4956    1.0000 </r>
       <r>  -16.0884    1.0000 </r>
       <r>  -15.7789    1.0000 </r>
       <r>  -15.3848    1.0000 </r>
       <r>  -15.2428    1.0000 </r>
       <r>  -15.1588    1.0000 </r>
       <r>  -14.8838    1.0000 </r>
       <r>  -14.8071    1.0000 </r>
       <r>  -14.5002    1.0000 </r>
       <r>  -14.3402    1.0000 </r>
       <r>  -14.0508    1.0000 </r>
       <r>  -13.6026    1.0000 </r>
       <r>  -13.0401    1.0000 </r>
       <r>  -12.9820    1.0000 </r>
       <r>  -12.7683    1.0000 </r>
       <r>  -12.6766    1.0000 </r>
       <r>  -12.6598    1.0000 </r>
       <r>  -12.3678    1.0000 </r>
       <r>  -12.0448    1.0000 </r>
       <r>  -11.8754    1.0000 </r>
       <r>  -11.4058    1.0000 </r>
       <r>  -11.2762    1.0000 </r>
       <r>  -11.1060    1.0000 </r>
       <r>  -10.8596    1.0000 </r>
       <r>  -10.7422    1.0000 </r>
       <r>  -10.5344    1.0000 </r>
       <r>  -10.4237    1.0000 </r>
       <r>  -10.3187    1.0000 </r>
       <r>  -10.3073    1.0000 </r>
       <r>  -10.1466    1.0000 </r>
       <r>  -10.0046    1.0000 </r>
       <r>   -9.9587    1.0000 </r>
       <r>   -9.7849    1.0000 </r>
       <r>   -9.5790    1.0000 </r>
       <r>   -9.5498    1.0000 </r>
       <r>   -9.4340    1.0000 </r>
       <r>   -9.3949    1.0000 </r>
       <r>   -9.2663    1.0000 </r>
       <r>   -9.2030    1.0000 </r>
       <r>   -9.1252    1.0000 </r>
       <r>   -8.9294    1.0000 </r>
       <r>   -8.8857    1.0000 </r>
       <r>   -8.8766    1.0000 </r>
       <r>   -8.7254    1.0000 </r>
       <r>   -8.6961    1.0000 </r>
       <r>   -8.4720    1.0000 </r>
       <r>   -8.4032    1.0000 </r>
       <r>   -8.2419    1.0000 </r>
       <r>   -8.1657    1.0000 </r>
       <r>   -8.0255    1.0000 </r>
       <r>   -8.0165    1.0000 </r>
       <r>   -7.9602    1.0000 </r>
       <r>   -7.8526    1.0000 </r>
       <r>   -7.6704    1.0000 </r>
       <r>   -7.4099    1.0000 </r>
       <r>   -7.3719    1.0000 </r>
       <r>   -7.2273    1.0000 </r>
       <r>   -7.1011    1.0000 </r>
       <r>   -6.9689    1.0000 </r>
       <r>   -6.8483    1.0000 </r>
       <r>   -6.7739    1.0000 </r>
       <r>   -6.5875    1.0000 </r>
       <r>   -6.5644    1.0000 </r>
       <r>   -6.2316    1.0000 </r>
       <r>   -6.1410    1.0000 </r>
       <r>   -6.0250    1.0000 </r>
       <r>   -5.6100    1.0000 </r>
       <r>   -5.4907    1.0000 </r>
       <r>   -5.3506    1.0000 </r>
       <r>   -5.0411    1.0000 </r>
       <r>   -4.9298    1.0000 </r>
       <r>   -4.7685    1.0000 </r>
       <r>   -4.1641    1.0000 </r>
       <r>   -3.7227    1.0000 </r>
       <r>   -3.1426    0.8738 </r>
       <r>   -1.8086    0.0000 </r>
       <r>   -1.7585    0.0000 </r>
       <r>   -1.0924    0.0000 </r>
       <r>   -1.0356    0.0000 </r>
       <r>   -0.9806    0.0000 </r>
       <r>   -0.8833    0.0000 </r>
       <r>   -0.7679    0.0000 </r>
       <r>   -0.5308    0.0000 </r>
       <r>   -0.3922    0.0000 </r>
       <r>   -0.1170    0.0000 </r>
       <r>    0.2030    0.0000 </r>
       <r>    0.3676    0.0000 </r>
       <r>    0.6081    0.0000 </r>
       <r>    0.6923    0.0000 </r>
       <r>    0.7500    0.0000 </r>
       <r>    0.8351    0.0000 </r>
       <r>    0.9306    0.0000 </r>
       <r>    0.9706    0.0000 </r>
       <r>    1.0785    0.0000 </r>
       <r>    1.1402    0.0000 </r>
       <r>    1.2716    0.0000 </r>
       <r>    1.3515    0.0000 </r>
       <r>    1.3969    0.0000 </r>
       <r>    1.5302    0.0000 </r>
       <r>    1.5672    0.0000 </r>
       <r>    1.6691    0.0000 </r>
       <r>    1.6903    0.0000 </r>
       <r>    1.8068    0.0000 </r>
       <r>    1.8397    0.0000 </r>
       <r>    1.8511    0.0000 </r>
      </set>
      <set comment="kpoint 4">
       <r>  -51.5002    1.0000 </r>
       <r>  -22.1531    1.0000 </r>
       <r>  -22.0012    1.0000 </r>
       <r>  -21.7532    1.0000 </r>
       <r>  -21.1200    1.0000 </r>
       <r>  -21.0722    1.0000 </r>
       <r>  -20.7628    1.0000 </r>
       <r>  -20.2993    1.0000 </r>
       <r>  -20.1487    1.0000 </r>
       <r>  -20.0823    1.0000 </r>
       <r>  -20.0330    1.0000 </r>
       <r>  -19.9191    1.0000 </r>
       <r>  -19.4910    1.0000 </r>
       <r>  -18.4816    1.0000 </r>
       <r>  -18.3688    1.0000 </r>
       <r>  -18.3247    1.0000 </r>
       <r>  -18.2418    1.0000 </r>
       <r>  -17.9818    1.0000 </r>
       <r>  -17.7984    1.0000 </r>
       <r>  -17.5985    1.0000 </r>
       <r>  -17.3492    1.0000 </r>
       <r>  -17.2088    1.0000 </r>
       <r>  -16.9362    1.0000 </r>
       <r>  -16.5927    1.0000 </r>
       <r>  -16.2848    1.0000 </r>
       <r>  -15.8682    1.0000 </r>
       <r>  -15.8140    1.0000 </r>
       <r>  -15.5756    1.0000 </r>
       <r>  -14.9857    1.0000 </r>
       <r>  -14.8068    1.0000 </r>
       <r>  -14.0202    1.0000 </r>
       <r>  -13.9966    1.0000 </r>
       <r>  -13.9113    1.0000 </r>
       <r>  -13.7067    1.0000 </r>
       <r>  -13.6898    1.0000 </r>
       <r>  -13.6273    1.0000 </r>
       <r>  -13.5365    1.0000 </r>
       <r>  -13.0839    1.0000 </r>
       <r>  -12.9101    1.0000 </r>
       <r>  -12.2654    1.0000 </r>
       <r>  -12.1664    1.0000 </r>
       <r>  -12.0330    1.0000 </r>
       <r>  -11.8366    1.0000 </r>
       <r>  -11.5676    1.0000 </r>
       <r>  -11.5293    1.0000 </r>
       <r>  -11.2289    1.0000 </r>
       <r>  -11.1718    1.0000 </r>
       <r>  -10.6219    1.0000 </r>
       <r>  -10.5767    1.0000 </r>
       <r>  -10.3037    1.0000 </r>
       <r>  -10.1906    1.0000 </r>
       <r>  -10.0941    1.0000 </r>
       <r>  -10.0717    1.0000 </r>
       <r>  -10.0542    1.0000 </r>
       <r>   -9.9515    1.0000 </r>
       <r>   -9.8661    1.0000 </r>
       <r>   -9.8434    1.0000 </r>
       <r>   -9.6666    1.0000 </r>
       <r>   -9.2878    1.0000 </r>
       <r>   -9.1828    1.0000 </r>
       <r>   -9.1088    1.0000 </r>
       <r>   -9.0994    1.0000 </r>
       <r>   -9.0183    1.0000 </r>
       <r>   -8.9713    1.0000 </r>
       <r>   -8.7473    1.0000 </r>
       <r>   -8.6866    1.0000 </r>
       <r>   -8.6699    1.0000 </r>
       <r>   -8.5960    1.0000 </r>
       <r>   -8.5048    1.0000 </r>
       <r>   -8.4257    1.0000 </r>
       <r>   -8.2678    1.0000 </r>
       <r>   -8.2012    1.0000 </r>
       <r>   -8.0389    1.0000 </r>
       <r>   -8.0274    1.0000 </r>
       <r>   -7.9244    1.0000 </r>
       <r>   -7.8746    1.0000 </r>
       <r>   -7.8500    1.0000 </r>
       <r>   -7.8200    1.0000 </r>
       <r>   -7.4599    1.0000 </r>
       <r>   -7.4160    1.0000 </r>
       <r>   -7.2781    1.0000 </r>
       <r>   -6.9249    1.0000 </r>
       <r>   -6.8070    1.0000 </r>
       <r>   -6.7837    1.0000 </r>
       <r>   -6.4837    1.0000 </r>
       <r>   -6.1498    1.0000 </r>
       <r>   -6.0775    1.0000 </r>
       <r>   -6.0052    1.0000 </r>
       <r>   -5.8972    1.0000 </r>
       <r>   -5.6596    1.0000 </r>
       <r>   -5.5687    1.0000 </r>
       <r>   -5.2081    1.0000 </r>
       <r>   -5.1241    1.0000 </r>
       <r>   -5.0593    1.0000 </r>
       <r>   -4.8423    1.0000 </r>
       <r>   -4.7038    1.0000 </r>
       <r>   -3.6737    1.0000 </r>
       <r>   -2.6107    0.0000 </r>
       <r>   -2.5073    0.0000 </r>
       <r>   -1.2996    0.0000 </r>
       <r>   -1.2363    0.0000 </r>
       <r>   -1.1857    0.0000 </r>
       <r>   -0.8704    0.0000 </r>
       <r>   -0.6295    0.0000 </r>
       <r>   -0.5132    0.0000 </r>
       <r>   -0.4668    0.0000 </r>
       <r>   -0.2526    0.0000 </r>
       <r>   -0.0002    0.0000 </r>
       <r>    0.0183    0.0000 </r>
       <r>    0.1928    0.0000 </r>
       <r>    0.3461    0.0000 </r>
       <r>    0.3807    0.0000 </r>
       <r>    0.4495    0.0000 </r>
       <r>    0.7265    0.0000 </r>
       <r>    0.7968    0.0000 </r>
       <r>    1.1393    0.0000 </r>
       <r>    1.2384    0.0000 </r>
       <r>    1.2495    0.0000 </r>
       <r>    1.2515    0.0000 </r>
       <r>    1.3197    0.0000 </r>
       <r>    1.3522    0.0000 </r>
       <r>    1.4848    0.0000 </r>
       <r>    1.5015    0.0000 </r>
       <r>    1.5297    0.0000 </r>
       <r>    1.7989    0.0000 </r>
       <r>    1.8016    0.0000 </r>
       <r>    1.8070    0.0000 </r>
       <r>    1.9150    0.0000 </r>
      </set>
      <set comment="kpoint 5">
       <r>  -51.5002    1.0000 </r>
       <r>  -22.2571    1.0000 </r>
       <r>  -21.7578    1.0000 </r>
       <r>  -21.6377    1.0000 </r>
       <r>  -21.5507    1.0000 </r>
       <r>  -20.9012    1.0000 </r>
       <r>  -20.8432    1.0000 </r>
       <r>  -20.5438    1.0000 </r>
       <r>  -20.2125    1.0000 </r>
       <r>  -20.0437    1.0000 </r>
       <r>  -19.5950    1.0000 </r>
       <r>  -19.4293    1.0000 </r>
       <r>  -19.4082    1.0000 </r>
       <r>  -19.0047    1.0000 </r>
       <r>  -18.9738    1.0000 </r>
       <r>  -18.4194    1.0000 </r>
       <r>  -18.2827    1.0000 </r>
       <r>  -17.8792    1.0000 </r>
       <r>  -17.6742    1.0000 </r>
       <r>  -17.2559    1.0000 </r>
       <r>  -17.2494    1.0000 </r>
       <r>  -17.0504    1.0000 </r>
       <r>  -17.0215    1.0000 </r>
       <r>  -16.6713    1.0000 </r>
       <r>  -16.3495    1.0000 </r>
       <r>  -15.8253    1.0000 </r>
       <r>  -15.4541    1.0000 </r>
       <r>  -15.2189    1.0000 </r>
       <r>  -15.2052    1.0000 </r>
       <r>  -14.7310    1.0000 </r>
       <r>  -14.6334    1.0000 </r>
       <r>  -14.4313    1.0000 </r>
       <r>  -14.3370    1.0000 </r>
       <r>  -14.1879    1.0000 </r>
       <r>  -13.5804    1.0000 </r>
       <r>  -13.0523    1.0000 </r>
       <r>  -12.9367    1.0000 </r>
       <r>  -12.8807    1.0000 </r>
       <r>  -12.6163    1.0000 </r>
       <r>  -12.4443    1.0000 </r>
       <r>  -12.3950    1.0000 </r>
       <r>  -11.9325    1.0000 </r>
       <r>  -11.8410    1.0000 </r>
       <r>  -11.6299    1.0000 </r>
       <r>  -11.4295    1.0000 </r>
       <r>  -11.1969    1.0000 </r>
       <r>  -10.9824    1.0000 </r>
       <r>  -10.8222    1.0000 </r>
       <r>  -10.5590    1.0000 </r>
       <r>  -10.3616    1.0000 </r>
       <r>  -10.3337    1.0000 </r>
       <r>  -10.2462    1.0000 </r>
       <r>  -10.1598    1.0000 </r>
       <r>   -9.9049    1.0000 </r>
       <r>   -9.8411    1.0000 </r>
       <r>   -9.7102    1.0000 </r>
       <r>   -9.6467    1.0000 </r>
       <r>   -9.5795    1.0000 </r>
       <r>   -9.5546    1.0000 </r>
       <r>   -9.3325    1.0000 </r>
       <r>   -9.2339    1.0000 </r>
       <r>   -9.0509    1.0000 </r>
       <r>   -8.9813    1.0000 </r>
       <r>   -8.9785    1.0000 </r>
       <r>   -8.9236    1.0000 </r>
       <r>   -8.7954    1.0000 </r>
       <r>   -8.7791    1.0000 </r>
       <r>   -8.7504    1.0000 </r>
       <r>   -8.5711    1.0000 </r>
       <r>   -8.4037    1.0000 </r>
       <r>   -8.1773    1.0000 </r>
       <r>   -8.0836    1.0000 </r>
       <r>   -8.0591    1.0000 </r>
       <r>   -8.0326    1.0000 </r>
       <r>   -7.9239    1.0000 </r>
       <r>   -7.8427    1.0000 </r>
       <r>   -7.6020    1.0000 </r>
       <r>   -7.3544    1.0000 </r>
       <r>   -7.2285    1.0000 </r>
       <r>   -7.1702    1.0000 </r>
       <r>   -7.1610    1.0000 </r>
       <r>   -7.1245    1.0000 </r>
       <r>   -7.1153    1.0000 </r>
       <r>   -6.8090    1.0000 </r>
       <r>   -6.6477    1.0000 </r>
       <r>   -6.4403    1.0000 </r>
       <r>   -6.4039    1.0000 </r>
       <r>   -6.0743    1.0000 </r>
       <r>   -5.9908    1.0000 </r>
       <r>   -5.7067    1.0000 </r>
       <r>   -5.4832    1.0000 </r>
       <r>   -5.1156    1.0000 </r>
       <r>   -4.9746    1.0000 </r>
       <r>   -4.8400    1.0000 </r>
       <r>   -4.8161    1.0000 </r>
       <r>   -4.3681    1.0000 </r>
       <r>   -3.9481    1.0000 </r>
       <r>   -2.9084    0.0000 </r>
       <r>   -1.6932    0.0000 </r>
       <r>   -1.6052    0.0000 </r>
       <r>   -1.1891    0.0000 </r>
       <r>   -1.1703    0.0000 </r>
       <r>   -1.1036    0.0000 </r>
       <r>   -0.9253    0.0000 </r>
       <r>   -0.8727    0.0000 </r>
       <r>   -0.4758    0.0000 </r>
       <r>   -0.3741    0.0000 </r>
       <r>    0.0389    0.0000 </r>
       <r>    0.1949    0.0000 </r>
       <r>    0.3394    0.0000 </r>
       <r>    0.4502    0.0000 </r>
       <r>    0.7762    0.0000 </r>
       <r>    0.8180    0.0000 </r>
       <r>    0.8795    0.0000 </r>
       <r>    0.9682    0.0000 </r>
       <r>    1.1198    0.0000 </r>
       <r>    1.1993    0.0000 </r>
       <r>    1.2218    0.0000 </r>
       <r>    1.3142    0.0000 </r>
       <r>    1.3945    0.0000 </r>
       <r>    1.5064    0.0000 </r>
       <r>    1.5629    0.0000 </r>
       <r>    1.5930    0.0000 </r>
       <r>    1.6872    0.0000 </r>
       <r>    1.6975    0.0000 </r>
       <r>    1.7848    0.0000 </r>
       <r>    1.8484    0.0000 </r>
       <r>    1.8529    0.0000 </r>
      </set>
     </set>
    </set>
   </array>
  </eigenvalues>
  <separator name="orbital magnetization" >
   <v name="MAGDIPOLOUT">      0.00000000      0.00000000      0.00000000</v>
  </separator>
  <dos>
   <i name="efermi">     -3.10214642 </i>
   <total>
    <array>
     <dimension dim="1">gridpoints</dimension>
     <dimension dim="2">spin</dimension>
     <field>energy</field>
     <field>total</field>
     <field>integrated</field>
     <set>
      <set comment="spin 1">
       <r>   -54.1823     0.0000     0.0000 </r>
       <r>   -53.9856     0.0000     0.0000 </r>
       <r>   -53.7889     0.0000     0.0000 </r>
       <r>   -53.5923     0.0000     0.0000 </r>
       <r>   -53.3956     0.0000     0.0000 </r>
       <r>   -53.1989     0.0000     0.0000 </r>
       <r>   -53.0022     0.0000     0.0000 </r>
       <r>   -52.8055     0.0000     0.0000 </r>
       <r>   -52.6088     0.0000     0.0000 </r>
       <r>   -52.4121     0.0000     0.0000 </r>
       <r>   -52.2154     0.0000     0.0000 </r>
       <r>   -52.0187     0.0000     0.0000 </r>
       <r>   -51.8221     0.0000     0.0000 </r>
       <r>   -51.6254     0.0010     0.0002 </r>
       <r>   -51.4287     4.9737     0.9785 </r>
       <r>   -51.2320     0.1095     1.0000 </r>
       <r>   -51.0353     0.0000     1.0000 </r>
       <r>   -50.8386     0.0000     1.0000 </r>
       <r>   -50.6419     0.0000     1.0000 </r>
       <r>   -50.4452     0.0000     1.0000 </r>
       <r>   -50.2486     0.0000     1.0000 </r>
       <r>   -50.0519     0.0000     1.0000 </r>
       <r>   -49.8552     0.0000     1.0000 </r>
       <r>   -49.6585     0.0000     1.0000 </r>
       <r>   -49.4618     0.0000     1.0000 </r>
       <r>   -49.2651     0.0000     1.0000 </r>
       <r>   -49.0684     0.0000     1.0000 </r>
       <r>   -48.8717     0.0000     1.0000 </r>
       <r>   -48.6750     0.0000     1.0000 </r>
       <r>   -48.4784     0.0000     1.0000 </r>
       <r>   -48.2817     0.0000     1.0000 </r>
       <r>   -48.0850     0.0000     1.0000 </r>
       <r>   -47.8883     0.0000     1.0000 </r>
       <r>   -47.6916     0.0000     1.0000 </r>
       <r>   -47.4949     0.0000     1.0000 </r>
       <r>   -47.2982     0.0000     1.0000 </r>
       <r>   -47.1015     0.0000     1.0000 </r>
       <r>   -46.9048     0.0000     1.0000 </r>
       <r>   -46.7082     0.0000     1.0000 </r>
       <r>   -46.5115     0.0000     1.0000 </r>
       <r>   -46.3148     0.0000     1.0000 </r>
       <r>   -46.1181     0.0000     1.0000 </r>
       <r>   -45.9214     0.0000     1.0000 </r>
       <r>   -45.7247     0.0000     1.0000 </r>
       <r>   -45.5280     0.0000     1.0000 </r>
       <r>   -45.3313     0.0000     1.0000 </r>
       <r>   -45.1347     0.0000     1.0000 </r>
       <r>   -44.9380     0.0000     1.0000 </r>
       <r>   -44.7413     0.0000     1.0000 </r>
       <r>   -44.5446     0.0000     1.0000 </r>
       <r>   -44.3479     0.0000     1.0000 </r>
       <r>   -44.1512     0.0000     1.0000 </r>
       <r>   -43.9545     0.0000     1.0000 </r>
       <r>   -43.7578     0.0000     1.0000 </r>
       <r>   -43.5611     0.0000     1.0000 </r>
       <r>   -43.3645     0.0000     1.0000 </r>
       <r>   -43.1678     0.0000     1.0000 </r>
       <r>   -42.9711     0.0000     1.0000 </r>
       <r>   -42.7744     0.0000     1.0000 </r>
       <r>   -42.5777     0.0000     1.0000 </r>
       <r>   -42.3810     0.0000     1.0000 </r>
       <r>   -42.1843     0.0000     1.0000 </r>
       <r>   -41.9876     0.0000     1.0000 </r>
       <r>   -41.7910     0.0000     1.0000 </r>
       <r>   -41.5943     0.0000     1.0000 </r>
       <r>   -41.3976     0.0000     1.0000 </r>
       <r>   -41.2009     0.0000     1.0000 </r>
       <r>   -41.0042     0.0000     1.0000 </r>
       <r>   -40.8075     0.0000     1.0000 </r>
       <r>   -40.6108     0.0000     1.0000 </r>
       <r>   -40.4141     0.0000     1.0000 </r>
       <r>   -40.2174     0.0000     1.0000 </r>
       <r>   -40.0208     0.0000     1.0000 </r>
       <r>   -39.8241     0.0000     1.0000 </r>
       <r>   -39.6274     0.0000     1.0000 </r>
       <r>   -39.4307     0.0000     1.0000 </r>
       <r>   -39.2340     0.0000     1.0000 </r>
       <r>   -39.0373     0.0000     1.0000 </r>
       <r>   -38.8406     0.0000     1.0000 </r>
       <r>   -38.6439     0.0000     1.0000 </r>
       <r>   -38.4473     0.0000     1.0000 </r>
       <r>   -38.2506     0.0000     1.0000 </r>
       <r>   -38.0539     0.0000     1.0000 </r>
       <r>   -37.8572     0.0000     1.0000 </r>
       <r>   -37.6605     0.0000     1.0000 </r>
       <r>   -37.4638     0.0000     1.0000 </r>
       <r>   -37.2671     0.0000     1.0000 </r>
       <r>   -37.0704     0.0000     1.0000 </r>
       <r>   -36.8737     0.0000     1.0000 </r>
       <r>   -36.6771     0.0000     1.0000 </r>
       <r>   -36.4804     0.0000     1.0000 </r>
       <r>   -36.2837     0.0000     1.0000 </r>
       <r>   -36.0870     0.0000     1.0000 </r>
       <r>   -35.8903     0.0000     1.0000 </r>
       <r>   -35.6936     0.0000     1.0000 </r>
       <r>   -35.4969     0.0000     1.0000 </r>
       <r>   -35.3002     0.0000     1.0000 </r>
       <r>   -35.1036     0.0000     1.0000 </r>
       <r>   -34.9069     0.0000     1.0000 </r>
       <r>   -34.7102     0.0000     1.0000 </r>
       <r>   -34.5135     0.0000     1.0000 </r>
       <r>   -34.3168     0.0000     1.0000 </r>
       <r>   -34.1201     0.0000     1.0000 </r>
       <r>   -33.9234     0.0000     1.0000 </r>
       <r>   -33.7267     0.0000     1.0000 </r>
       <r>   -33.5300     0.0000     1.0000 </r>
       <r>   -33.3334     0.0000     1.0000 </r>
       <r>   -33.1367     0.0000     1.0000 </r>
       <r>   -32.9400     0.0000     1.0000 </r>
       <r>   -32.7433     0.0000     1.0000 </r>
       <r>   -32.5466     0.0000     1.0000 </r>
       <r>   -32.3499     0.0000     1.0000 </r>
       <r>   -32.1532     0.0000     1.0000 </r>
       <r>   -31.9565     0.0000     1.0000 </r>
       <r>   -31.7599     0.0000     1.0000 </r>
       <r>   -31.5632     0.0000     1.0000 </r>
       <r>   -31.3665     0.0000     1.0000 </r>
       <r>   -31.1698     0.0000     1.0000 </r>
       <r>   -30.9731     0.0000     1.0000 </r>
       <r>   -30.7764     0.0000     1.0000 </r>
       <r>   -30.5797     0.0000     1.0000 </r>
       <r>   -30.3830     0.0000     1.0000 </r>
       <r>   -30.1863     0.0000     1.0000 </r>
       <r>   -29.9897     0.0000     1.0000 </r>
       <r>   -29.7930     0.0000     1.0000 </r>
       <r>   -29.5963     0.0000     1.0000 </r>
       <r>   -29.3996     0.0000     1.0000 </r>
       <r>   -29.2029     0.0000     1.0000 </r>
       <r>   -29.0062     0.0000     1.0000 </r>
       <r>   -28.8095     0.0000     1.0000 </r>
       <r>   -28.6128     0.0000     1.0000 </r>
       <r>   -28.4161     0.0000     1.0000 </r>
       <r>   -28.2195     0.0000     1.0000 </r>
       <r>   -28.0228     0.0000     1.0000 </r>
       <r>   -27.8261     0.0000     1.0000 </r>
       <r>   -27.6294     0.0000     1.0000 </r>
       <r>   -27.4327     0.0000     1.0000 </r>
       <r>   -27.2360     0.0000     1.0000 </r>
       <r>   -27.0393     0.0000     1.0000 </r>
       <r>   -26.8426     0.0000     1.0000 </r>
       <r>   -26.6460     0.0000     1.0000 </r>
       <r>   -26.4493     0.0000     1.0000 </r>
       <r>   -26.2526     0.0000     1.0000 </r>
       <r>   -26.0559     0.0000     1.0000 </r>
       <r>   -25.8592     0.0000     1.0000 </r>
       <r>   -25.6625     0.0000     1.0000 </r>
       <r>   -25.4658     0.0000     1.0000 </r>
       <r>   -25.2691     0.0000     1.0000 </r>
       <r>   -25.0724     0.0000     1.0000 </r>
       <r>   -24.8758     0.0000     1.0000 </r>
       <r>   -24.6791     0.0000     1.0000 </r>
       <r>   -24.4824     0.0000     1.0000 </r>
       <r>   -24.2857     0.0000     1.0000 </r>
       <r>   -24.0890     0.0000     1.0000 </r>
       <r>   -23.8923     0.0000     1.0000 </r>
       <r>   -23.6956     0.0000     1.0000 </r>
       <r>   -23.4989     0.0000     1.0000 </r>
       <r>   -23.3023     0.0000     1.0000 </r>
       <r>   -23.1056     0.0000     1.0000 </r>
       <r>   -22.9089     0.0000     1.0000 </r>
       <r>   -22.7122     0.0000     1.0000 </r>
       <r>   -22.5155     0.0000     1.0000 </r>
       <r>   -22.3188     0.3148     1.0619 </r>
       <r>   -22.1221     4.5488     1.9566 </r>
       <r>   -21.9254     2.9299     2.5329 </r>
       <r>   -21.7287     2.4374     3.0123 </r>
       <r>   -21.5321     4.8149     3.9593 </r>
       <r>   -21.3354     3.7989     4.7065 </r>
       <r>   -21.1387     1.5341     5.0083 </r>
       <r>   -20.9420     4.5928     5.9116 </r>
       <r>   -20.7453     5.4542     6.9844 </r>
       <r>   -20.5486     1.6341     7.3058 </r>
       <r>   -20.3519     3.6868     8.0310 </r>
       <r>   -20.1552     3.8983     8.7977 </r>
       <r>   -19.9586     6.2329    10.0236 </r>
       <r>   -19.7619     1.0121    10.2227 </r>
       <r>   -19.5652     3.7520    10.9607 </r>
       <r>   -19.3685     5.9845    12.1377 </r>
       <r>   -19.1718     4.3835    12.9999 </r>
       <r>   -18.9751     4.2013    13.8263 </r>
       <r>   -18.7784     1.6922    14.1591 </r>
       <r>   -18.5817     3.1222    14.7732 </r>
       <r>   -18.3850     5.4598    15.8471 </r>
       <r>   -18.1884     6.9121    17.2066 </r>
       <r>   -17.9917     0.5210    17.3091 </r>
       <r>   -17.7950     4.6061    18.2151 </r>
       <r>   -17.5983     5.0996    19.2181 </r>
       <r>   -17.4016     4.2819    20.0603 </r>
       <r>   -17.2049     4.7498    20.9945 </r>
       <r>   -17.0082     4.6549    21.9101 </r>
       <r>   -16.8115     3.8460    22.6665 </r>
       <r>   -16.6149     1.3693    22.9359 </r>
       <r>   -16.4182     4.6559    23.8516 </r>
       <r>   -16.2215     2.5240    24.3481 </r>
       <r>   -16.0248     3.1900    24.9755 </r>
       <r>   -15.8281     2.7770    25.5217 </r>
       <r>   -15.6314     3.6272    26.2351 </r>
       <r>   -15.4347     3.1131    26.8475 </r>
       <r>   -15.2380     4.8001    27.7916 </r>
       <r>   -15.0413     5.8977    28.9516 </r>
       <r>   -14.8447     3.8183    29.7026 </r>
       <r>   -14.6480     4.7338    30.6337 </r>
       <r>   -14.4513     3.6963    31.3607 </r>
       <r>   -14.2546     4.3854    32.2233 </r>
       <r>   -14.0579     3.3294    32.8781 </r>
       <r>   -13.8612     5.0491    33.8712 </r>
       <r>   -13.6645     2.7330    34.4088 </r>
       <r>   -13.4678     6.3079    35.6495 </r>
       <r>   -13.2712     0.0875    35.6667 </r>
       <r>   -13.0745     1.3633    35.9348 </r>
       <r>   -12.8778     8.0183    37.5119 </r>
       <r>   -12.6811     5.2579    38.5461 </r>
       <r>   -12.4844     4.1546    39.3633 </r>
       <r>   -12.2877     4.6379    40.2755 </r>
       <r>   -12.0910     2.2497    40.7180 </r>
       <r>   -11.8943     4.9018    41.6821 </r>
       <r>   -11.6976     4.8357    42.6332 </r>
       <r>   -11.5010     5.5054    43.7161 </r>
       <r>   -11.3043     5.2876    44.7561 </r>
       <r>   -11.1076     7.2421    46.1805 </r>
       <r>   -10.9109     2.6208    46.6960 </r>
       <r>   -10.7142     5.3361    47.7455 </r>
       <r>   -10.5175     6.0269    48.9310 </r>
       <r>   -10.3208     7.6978    50.4450 </r>
       <r>   -10.1241     9.7938    52.3714 </r>
       <r>    -9.9274    10.9340    54.5219 </r>
       <r>    -9.7308     7.7338    56.0431 </r>
       <r>    -9.5341     8.7787    57.7698 </r>
       <r>    -9.3374     8.1845    59.3796 </r>
       <r>    -9.1407    10.7578    61.4955 </r>
       <r>    -8.9440    11.4464    63.7469 </r>
       <r>    -8.7473    12.8604    66.2764 </r>
       <r>    -8.5506    11.2851    68.4960 </r>
       <r>    -8.3539     7.9314    70.0560 </r>
       <r>    -8.1573     7.3928    71.5101 </r>
       <r>    -7.9606    13.1742    74.1013 </r>
       <r>    -7.7639    10.4389    76.1545 </r>
       <r>    -7.5672     3.5863    76.8599 </r>
       <r>    -7.3705     6.4055    78.1198 </r>
       <r>    -7.1738    10.5953    80.2038 </r>
       <r>    -6.9771     8.4583    81.8674 </r>
       <r>    -6.7804     8.4634    83.5321 </r>
       <r>    -6.5837     5.3691    84.5881 </r>
       <r>    -6.3871     6.8245    85.9304 </r>
       <r>    -6.1904     4.1148    86.7398 </r>
       <r>    -5.9937     9.8068    88.6686 </r>
       <r>    -5.7970     2.8180    89.2229 </r>
       <r>    -5.6003     3.8947    89.9890 </r>
       <r>    -5.4036     5.8298    91.1356 </r>
       <r>    -5.2069     2.7313    91.6728 </r>
       <r>    -5.0102     5.8525    92.8239 </r>
       <r>    -4.8136     6.3126    94.0656 </r>
       <r>    -4.6169     4.1780    94.8873 </r>
       <r>    -4.4202     0.2125    94.9291 </r>
       <r>    -4.2235     2.7465    95.4693 </r>
       <r>    -4.0268     2.7232    96.0050 </r>
       <r>    -3.8301     1.6717    96.3338 </r>
       <r>    -3.6334     3.2308    96.9692 </r>
       <r>    -3.4367     0.1565    97.0000 </r>
       <r>    -3.2400     0.1702    97.0335 </r>
       <r>    -3.0434     2.6489    97.5545 </r>
       <r>    -2.8467     1.0896    97.7688 </r>
       <r>    -2.6500     0.1964    97.8074 </r>
       <r>    -2.4533     2.0372    98.2081 </r>
       <r>    -2.2566     0.0717    98.2222 </r>
       <r>    -2.0599     0.0000    98.2222 </r>
       <r>    -1.8632     0.4832    98.3173 </r>
       <r>    -1.6665     5.9794    99.4933 </r>
       <r>    -1.4699     1.7042    99.8285 </r>
       <r>    -1.2732     2.0228   100.2264 </r>
       <r>    -1.0765     7.7405   101.7489 </r>
       <r>    -0.8798     8.8592   103.4914 </r>
       <r>    -0.6831     5.3414   104.5419 </r>
       <r>    -0.4864     4.8724   105.5003 </r>
       <r>    -0.2897     5.5171   106.5854 </r>
       <r>    -0.0930     3.2254   107.2198 </r>
       <r>     0.1037     4.0605   108.0185 </r>
       <r>     0.3003     6.4191   109.2811 </r>
       <r>     0.4970     8.0169   110.8579 </r>
       <r>     0.6937     5.0443   111.8500 </r>
       <r>     0.8904    12.2462   114.2587 </r>
       <r>     1.0871     9.1287   116.0542 </r>
       <r>     1.2838    12.8340   118.5785 </r>
       <r>     1.4805    13.7632   121.2856 </r>
       <r>     1.6772    13.3386   123.9091 </r>
       <r>     1.8738    16.7134   127.1965 </r>
       <r>     2.0705     3.1654   127.8191 </r>
       <r>     2.2672     0.9199   128.0000 </r>
       <r>     2.4639     0.0000   128.0000 </r>
       <r>     2.6606     0.0000   128.0000 </r>
       <r>     2.8573     0.0000   128.0000 </r>
       <r>     3.0540     0.0000   128.0000 </r>
       <r>     3.2507     0.0000   128.0000 </r>
       <r>     3.4474     0.0000   128.0000 </r>
       <r>     3.6440     0.0000   128.0000 </r>
       <r>     3.8407     0.0000   128.0000 </r>
       <r>     4.0374     0.0000   128.0000 </r>
       <r>     4.2341     0.0000   128.0000 </r>
       <r>     4.4308     0.0000   128.0000 </r>
       <r>     4.6275     0.0000   128.0000 </r>
       <r>     4.8242     0.0000   128.0000 </r>
      </set>
      <set comment="spin 2">
       <r>   -54.1823     0.0000     0.0000 </r>
       <r>   -53.9856     0.0000     0.0000 </r>
       <r>   -53.7889     0.0000     0.0000 </r>
       <r>   -53.5923     0.0000     0.0000 </r>
       <r>   -53.3956     0.0000     0.0000 </r>
       <r>   -53.1989     0.0000     0.0000 </r>
       <r>   -53.0022     0.0000     0.0000 </r>
       <r>   -52.8055     0.0000     0.0000 </r>
       <r>   -52.6088     0.0000     0.0000 </r>
       <r>   -52.4121     0.0000     0.0000 </r>
       <r>   -52.2154     0.0000     0.0000 </r>
       <r>   -52.0187     0.0000     0.0000 </r>
       <r>   -51.8221     0.0000     0.0000 </r>
       <r>   -51.6254     0.0010     0.0002 </r>
       <r>   -51.4287     4.9737     0.9785 </r>
       <r>   -51.2320     0.1095     1.0000 </r>
       <r>   -51.0353     0.0000     1.0000 </r>
       <r>   -50.8386     0.0000     1.0000 </r>
       <r>   -50.6419     0.0000     1.0000 </r>
       <r>   -50.4452     0.0000     1.0000 </r>
       <r>   -50.2486     0.0000     1.0000 </r>
       <r>   -50.0519     0.0000     1.0000 </r>
       <r>   -49.8552     0.0000     1.0000 </r>
       <r>   -49.6585     0.0000     1.0000 </r>
       <r>   -49.4618     0.0000     1.0000 </r>
       <r>   -49.2651     0.0000     1.0000 </r>
       <r>   -49.0684     0.0000     1.0000 </r>
       <r>   -48.8717     0.0000     1.0000 </r>
       <r>   -48.6750     0.0000     1.0000 </r>
       <r>   -48.4784     0.0000     1.0000 </r>
       <r>   -48.2817     0.0000     1.0000 </r>
       <r>   -48.0850     0.0000     1.0000 </r>
       <r>   -47.8883     0.0000     1.0000 </r>
       <r>   -47.6916     0.0000     1.0000 </r>
       <r>   -47.4949     0.0000     1.0000 </r>
       <r>   -47.2982     0.0000     1.0000 </r>
       <r>   -47.1015     0.0000     1.0000 </r>
       <r>   -46.9048     0.0000     1.0000 </r>
       <r>   -46.7082     0.0000     1.0000 </r>
       <r>   -46.5115     0.0000     1.0000 </r>
       <r>   -46.3148     0.0000     1.0000 </r>
       <r>   -46.1181     0.0000     1.0000 </r>
       <r>   -45.9214     0.0000     1.0000 </r>
       <r>   -45.7247     0.0000     1.0000 </r>
       <r>   -45.5280     0.0000     1.0000 </r>
       <r>   -45.3313     0.0000     1.0000 </r>
       <r>   -45.1347     0.0000     1.0000 </r>
       <r>   -44.9380     0.0000     1.0000 </r>
       <r>   -44.7413     0.0000     1.0000 </r>
       <r>   -44.5446     0.0000     1.0000 </r>
       <r>   -44.3479     0.0000     1.0000 </r>
       <r>   -44.1512     0.0000     1.0000 </r>
       <r>   -43.9545     0.0000     1.0000 </r>
       <r>   -43.7578     0.0000     1.0000 </r>
       <r>   -43.5611     0.0000     1.0000 </r>
       <r>   -43.3645     0.0000     1.0000 </r>
       <r>   -43.1678     0.0000     1.0000 </r>
       <r>   -42.9711     0.0000     1.0000 </r>
       <r>   -42.7744     0.0000     1.0000 </r>
       <r>   -42.5777     0.0000     1.0000 </r>
       <r>   -42.3810     0.0000     1.0000 </r>
       <r>   -42.1843     0.0000     1.0000 </r>
       <r>   -41.9876     0.0000     1.0000 </r>
       <r>   -41.7910     0.0000     1.0000 </r>
       <r>   -41.5943     0.0000     1.0000 </r>
       <r>   -41.3976     0.0000     1.0000 </r>
       <r>   -41.2009     0.0000     1.0000 </r>
       <r>   -41.0042     0.0000     1.0000 </r>
       <r>   -40.8075     0.0000     1.0000 </r>
       <r>   -40.6108     0.0000     1.0000 </r>
       <r>   -40.4141     0.0000     1.0000 </r>
       <r>   -40.2174     0.0000     1.0000 </r>
       <r>   -40.0208     0.0000     1.0000 </r>
       <r>   -39.8241     0.0000     1.0000 </r>
       <r>   -39.6274     0.0000     1.0000 </r>
       <r>   -39.4307     0.0000     1.0000 </r>
       <r>   -39.2340     0.0000     1.0000 </r>
       <r>   -39.0373     0.0000     1.0000 </r>
       <r>   -38.8406     0.0000     1.0000 </r>
       <r>   -38.6439     0.0000     1.0000 </r>
       <r>   -38.4473     0.0000     1.0000 </r>
       <r>   -38.2506     0.0000     1.0000 </r>
       <r>   -38.0539     0.0000     1.0000 </r>
       <r>   -37.8572     0.0000     1.0000 </r>
       <r>   -37.6605     0.0000     1.0000 </r>
       <r>   -37.4638     0.0000     1.0000 </r>
       <r>   -37.2671     0.0000     1.0000 </r>
       <r>   -37.0704     0.0000     1.0000 </r>
       <r>   -36.8737     0.0000     1.0000 </r>
       <r>   -36.6771     0.0000     1.0000 </r>
       <r>   -36.4804     0.0000     1.0000 </r>
       <r>   -36.2837     0.0000     1.0000 </r>
       <r>   -36.0870     0.0000     1.0000 </r>
       <r>   -35.8903     0.0000     1.0000 </r>
       <r>   -35.6936     0.0000     1.0000 </r>
       <r>   -35.4969     0.0000     1.0000 </r>
       <r>   -35.3002     0.0000     1.0000 </r>
       <r>   -35.1036     0.0000     1.0000 </r>
       <r>   -34.9069     0.0000     1.0000 </r>
       <r>   -34.7102     0.0000     1.0000 </r>
       <r>   -34.5135     0.0000     1.0000 </r>
       <r>   -34.3168     0.0000     1.0000 </r>
       <r>   -34.1201     0.0000     1.0000 </r>
       <r>   -33.9234     0.0000     1.0000 </r>
       <r>   -33.7267     0.0000     1.0000 </r>
       <r>   -33.5300     0.0000     1.0000 </r>
       <r>   -33.3334     0.0000     1.0000 </r>
       <r>   -33.1367     0.0000     1.0000 </r>
       <r>   -32.9400     0.0000     1.0000 </r>
       <r>   -32.7433     0.0000     1.0000 </r>
       <r>   -32.5466     0.0000     1.0000 </r>
       <r>   -32.3499     0.0000     1.0000 </r>
       <r>   -32.1532     0.0000     1.0000 </r>
       <r>   -31.9565     0.0000     1.0000 </r>
       <r>   -31.7599     0.0000     1.0000 </r>
       <r>   -31.5632     0.0000     1.0000 </r>
       <r>   -31.3665     0.0000     1.0000 </r>
       <r>   -31.1698     0.0000     1.0000 </r>
       <r>   -30.9731     0.0000     1.0000 </r>
       <r>   -30.7764     0.0000     1.0000 </r>
       <r>   -30.5797     0.0000     1.0000 </r>
       <r>   -30.3830     0.0000     1.0000 </r>
       <r>   -30.1863     0.0000     1.0000 </r>
       <r>   -29.9897     0.0000     1.0000 </r>
       <r>   -29.7930     0.0000     1.0000 </r>
       <r>   -29.5963     0.0000     1.0000 </r>
       <r>   -29.3996     0.0000     1.0000 </r>
       <r>   -29.2029     0.0000     1.0000 </r>
       <r>   -29.0062     0.0000     1.0000 </r>
       <r>   -28.8095     0.0000     1.0000 </r>
       <r>   -28.6128     0.0000     1.0000 </r>
       <r>   -28.4161     0.0000     1.0000 </r>
       <r>   -28.2195     0.0000     1.0000 </r>
       <r>   -28.0228     0.0000     1.0000 </r>
       <r>   -27.8261     0.0000     1.0000 </r>
       <r>   -27.6294     0.0000     1.0000 </r>
       <r>   -27.4327     0.0000     1.0000 </r>
       <r>   -27.2360     0.0000     1.0000 </r>
       <r>   -27.0393     0.0000     1.0000 </r>
       <r>   -26.8426     0.0000     1.0000 </r>
       <r>   -26.6460     0.0000     1.0000 </r>
       <r>   -26.4493     0.0000     1.0000 </r>
       <r>   -26.2526     0.0000     1.0000 </r>
       <r>   -26.0559     0.0000     1.0000 </r>
       <r>   -25.8592     0.0000     1.0000 </r>
       <r>   -25.6625     0.0000     1.0000 </r>
       <r>   -25.4658     0.0000     1.0000 </r>
       <r>   -25.2691     0.0000     1.0000 </r>
       <r>   -25.0724     0.0000     1.0000 </r>
       <r>   -24.8758     0.0000     1.0000 </r>
       <r>   -24.6791     0.0000     1.0000 </r>
       <r>   -24.4824     0.0000     1.0000 </r>
       <r>   -24.2857     0.0000     1.0000 </r>
       <r>   -24.0890     0.0000     1.0000 </r>
       <r>   -23.8923     0.0000     1.0000 </r>
       <r>   -23.6956     0.0000     1.0000 </r>
       <r>   -23.4989     0.0000     1.0000 </r>
       <r>   -23.3023     0.0000     1.0000 </r>
       <r>   -23.1056     0.0000     1.0000 </r>
       <r>   -22.9089     0.0000     1.0000 </r>
       <r>   -22.7122     0.0000     1.0000 </r>
       <r>   -22.5155     0.0000     1.0000 </r>
       <r>   -22.3188     0.3148     1.0619 </r>
       <r>   -22.1221     4.5488     1.9566 </r>
       <r>   -21.9254     2.9299     2.5329 </r>
       <r>   -21.7287     2.4374     3.0123 </r>
       <r>   -21.5321     4.8149     3.9593 </r>
       <r>   -21.3354     3.7989     4.7065 </r>
       <r>   -21.1387     1.5341     5.0083 </r>
       <r>   -20.9420     4.5928     5.9116 </r>
       <r>   -20.7453     5.4542     6.9844 </r>
       <r>   -20.5486     1.6341     7.3058 </r>
       <r>   -20.3519     3.6868     8.0310 </r>
       <r>   -20.1552     3.8983     8.7977 </r>
       <r>   -19.9586     6.2329    10.0236 </r>
       <r>   -19.7619     1.0121    10.2227 </r>
       <r>   -19.5652     3.7520    10.9607 </r>
       <r>   -19.3685     5.9845    12.1377 </r>
       <r>   -19.1718     4.3835    12.9999 </r>
       <r>   -18.9751     4.2013    13.8263 </r>
       <r>   -18.7784     1.6922    14.1591 </r>
       <r>   -18.5817     3.1222    14.7732 </r>
       <r>   -18.3850     5.4598    15.8471 </r>
       <r>   -18.1884     6.9121    17.2066 </r>
       <r>   -17.9917     0.5210    17.3091 </r>
       <r>   -17.7950     4.6061    18.2151 </r>
       <r>   -17.5983     5.0996    19.2181 </r>
       <r>   -17.4016     4.2819    20.0603 </r>
       <r>   -17.2049     4.7498    20.9945 </r>
       <r>   -17.0082     4.6550    21.9101 </r>
       <r>   -16.8115     3.8460    22.6665 </r>
       <r>   -16.6149     1.3693    22.9359 </r>
       <r>   -16.4182     4.6559    23.8516 </r>
       <r>   -16.2215     2.5240    24.3481 </r>
       <r>   -16.0248     3.1900    24.9755 </r>
       <r>   -15.8281     2.7770    25.5217 </r>
       <r>   -15.6314     3.6272    26.2351 </r>
       <r>   -15.4347     3.1131    26.8475 </r>
       <r>   -15.2380     4.8001    27.7916 </r>
       <r>   -15.0413     5.8977    28.9516 </r>
       <r>   -14.8447     3.8183    29.7026 </r>
       <r>   -14.6480     4.7337    30.6337 </r>
       <r>   -14.4513     3.6963    31.3607 </r>
       <r>   -14.2546     4.3854    32.2233 </r>
       <r>   -14.0579     3.3294    32.8781 </r>
       <r>   -13.8612     5.0491    33.8712 </r>
       <r>   -13.6645     2.7330    34.4088 </r>
       <r>   -13.4678     6.3079    35.6495 </r>
       <r>   -13.2712     0.0875    35.6667 </r>
       <r>   -13.0745     1.3633    35.9348 </r>
       <r>   -12.8778     8.0183    37.5119 </r>
       <r>   -12.6811     5.2579    38.5461 </r>
       <r>   -12.4844     4.1546    39.3633 </r>
       <r>   -12.2877     4.6379    40.2755 </r>
       <r>   -12.0910     2.2497    40.7180 </r>
       <r>   -11.8943     4.9018    41.6821 </r>
       <r>   -11.6976     4.8357    42.6332 </r>
       <r>   -11.5010     5.5054    43.7161 </r>
       <r>   -11.3043     5.2876    44.7561 </r>
       <r>   -11.1076     7.2421    46.1805 </r>
       <r>   -10.9109     2.6208    46.6960 </r>
       <r>   -10.7142     5.3361    47.7455 </r>
       <r>   -10.5175     6.0269    48.9310 </r>
       <r>   -10.3208     7.6978    50.4450 </r>
       <r>   -10.1241     9.7938    52.3714 </r>
       <r>    -9.9274    10.9340    54.5220 </r>
       <r>    -9.7308     7.7338    56.0431 </r>
       <r>    -9.5341     8.7788    57.7698 </r>
       <r>    -9.3374     8.1845    59.3796 </r>
       <r>    -9.1407    10.7578    61.4955 </r>
       <r>    -8.9440    11.4464    63.7469 </r>
       <r>    -8.7473    12.8604    66.2764 </r>
       <r>    -8.5506    11.2850    68.4960 </r>
       <r>    -8.3539     7.9314    70.0560 </r>
       <r>    -8.1573     7.3928    71.5101 </r>
       <r>    -7.9606    13.1742    74.1013 </r>
       <r>    -7.7639    10.4389    76.1545 </r>
       <r>    -7.5672     3.5863    76.8599 </r>
       <r>    -7.3705     6.4055    78.1198 </r>
       <r>    -7.1738    10.5953    80.2038 </r>
       <r>    -6.9771     8.4583    81.8674 </r>
       <r>    -6.7804     8.4634    83.5321 </r>
       <r>    -6.5837     5.3691    84.5881 </r>
       <r>    -6.3871     6.8245    85.9304 </r>
       <r>    -6.1904     4.1148    86.7398 </r>
       <r>    -5.9937     9.8069    88.6687 </r>
       <r>    -5.7970     2.8180    89.2229 </r>
       <r>    -5.6003     3.8947    89.9890 </r>
       <r>    -5.4036     5.8298    91.1356 </r>
       <r>    -5.2069     2.7313    91.6728 </r>
       <r>    -5.0102     5.8525    92.8239 </r>
       <r>    -4.8136     6.3126    94.0656 </r>
       <r>    -4.6169     4.1780    94.8873 </r>
       <r>    -4.4202     0.2125    94.9291 </r>
       <r>    -4.2235     2.7465    95.4693 </r>
       <r>    -4.0268     2.7232    96.0050 </r>
       <r>    -3.8301     1.6717    96.3338 </r>
       <r>    -3.6334     3.2308    96.9692 </r>
       <r>    -3.4367     0.1565    97.0000 </r>
       <r>    -3.2400     0.1702    97.0335 </r>
       <r>    -3.0434     2.6489    97.5545 </r>
       <r>    -2.8467     1.0896    97.7688 </r>
       <r>    -2.6500     0.1964    97.8074 </r>
       <r>    -2.4533     2.0372    98.2081 </r>
       <r>    -2.2566     0.0717    98.2222 </r>
       <r>    -2.0599     0.0000    98.2222 </r>
       <r>    -1.8632     0.4832    98.3173 </r>
       <r>    -1.6665     5.9794    99.4933 </r>
       <r>    -1.4699     1.7042    99.8285 </r>
       <r>    -1.2732     2.0228   100.2264 </r>
       <r>    -1.0765     7.7405   101.7489 </r>
       <r>    -0.8798     8.8582   103.4912 </r>
       <r>    -0.6831     5.3424   104.5419 </r>
       <r>    -0.4864     4.8724   105.5003 </r>
       <r>    -0.2897     5.5171   106.5854 </r>
       <r>    -0.0930     3.2254   107.2198 </r>
       <r>     0.1037     4.0605   108.0185 </r>
       <r>     0.3003     6.4148   109.2802 </r>
       <r>     0.4970     8.0166   110.8570 </r>
       <r>     0.6937     5.0445   111.8492 </r>
       <r>     0.8904    12.1851   114.2458 </r>
       <r>     1.0871     8.9665   116.0094 </r>
       <r>     1.2838    12.6337   118.4943 </r>
       <r>     1.4805    13.4059   121.1311 </r>
       <r>     1.6772    13.5102   123.7884 </r>
       <r>     1.8738    16.5030   127.0344 </r>
       <r>     2.0705     4.1725   127.8550 </r>
       <r>     2.2672     0.7369   128.0000 </r>
       <r>     2.4639     0.0001   128.0000 </r>
       <r>     2.6606     0.0000   128.0000 </r>
       <r>     2.8573     0.0000   128.0000 </r>
       <r>     3.0540     0.0000   128.0000 </r>
       <r>     3.2507     0.0000   128.0000 </r>
       <r>     3.4474     0.0000   128.0000 </r>
       <r>     3.6440     0.0000   128.0000 </r>
       <r>     3.8407     0.0000   128.0000 </r>
       <r>     4.0374     0.0000   128.0000 </r>
       <r>     4.2341     0.0000   128.0000 </r>
       <r>     4.4308     0.0000   128.0000 </r>
       <r>     4.6275     0.0000   128.0000 </r>
       <r>     4.8242     0.0000   128.0000 </r>
      </set>
     </set>
    </array>
   </total>
  </dos>
 </calculation>
 <structure name="finalpos" >
  <crystal>
   <varray name="basis" >
    <v>      12.30000000       0.00000000       0.00000000 </v>
    <v>      -6.15000000      10.65211247       0.00000000 </v>
    <v>       0.00000000       0.00000000      30.00000000 </v>
   </varray>
   <i name="volume">   3930.62950016 </i>
   <varray name="rec_basis" >
    <v>       0.08130081       0.04693905       0.00000000 </v>
    <v>       0.00000000       0.09387809       0.00000000 </v>
    <v>       0.00000000       0.00000000       0.03333333 </v>
   </varray>
  </crystal>
  <varray name="positions" >
   <v>       0.00069168       0.99541666       0.49998612 </v>
   <v>       0.13570752       0.06529461       0.50002869 </v>
   <v>       0.00528682       0.19571106       0.50058609 </v>
   <v>       0.13833518       0.26560218       0.50057170 </v>
   <v>       0.99712702       0.39177707       0.50100754 </v>
   <v>       0.13026968       0.46391674       0.50087604 </v>
   <v>       0.97526623       0.57616636       0.49974051 </v>
   <v>       0.11731876       0.65556017       0.50025836 </v>
   <v>       0.98729726       0.78579945       0.49978844 </v>
   <v>       0.12617716       0.86034230       0.49990407 </v>
   <v>       0.20174420       0.99935984       0.49996315 </v>
   <v>       0.34076841       0.07491797       0.49997416 </v>
   <v>       0.20564900       0.20029985       0.50029029 </v>
   <v>       0.34065624       0.27207656       0.50022199 </v>
   <v>       0.19984457       0.39937158       0.50071372 </v>
   <v>       0.33279713       0.46984879       0.50056375 </v>
   <v>       0.19199209       0.59719431       0.50058322 </v>
   <v>       0.32697969       0.66894440       0.50043978 </v>
   <v>       0.19196150       0.79444851       0.50008107 </v>
   <v>       0.33098870       0.87000208       0.50010093 </v>
   <v>       0.40655756       0.00904940       0.49998696 </v>
   <v>       0.54540405       0.08366039       0.49998134 </v>
   <v>       0.41537712       0.21379237       0.49993588 </v>
   <v>       0.55744946       0.29324157       0.49946986 </v>
   <v>       0.40242993       0.40537510       0.50047012 </v>
   <v>       0.53559216       0.47761928       0.50044748 </v>
   <v>       0.39430443       0.60365582       0.50046434 </v>
   <v>       0.52736225       0.67361877       0.50026175 </v>
   <v>       0.39695450       0.80397139       0.50018869 </v>
   <v>       0.53196727       0.87397152       0.50011628 </v>
   <v>       0.60374810       0.00898380       0.50016676 </v>
   <v>       0.73705382       0.07076953       0.50050530 </v>
   <v>       0.62488765       0.22578393       0.49959691 </v>
   <v>       0.76599571       0.29127341       0.50025991 </v>
   <v>       0.62301774       0.43445421       0.49988325 </v>
   <v>       0.59240615       0.60866974       0.50023153 </v>
   <v>       0.72347200       0.66559306       0.50021997 </v>
   <v>       0.59727190       0.80667286       0.50014313 </v>
   <v>       0.73106729       0.86823424       0.50012855 </v>
   <v>       0.80156259       0.00117311       0.50027601 </v>
   <v>       0.93536716       0.06268160       0.50025728 </v>
   <v>       0.80924606       0.20391568       0.50083025 </v>
   <v>       0.94027672       0.26072818       0.50083145 </v>
   <v>       0.90975834       0.43503138       0.50036590 </v>
   <v>       0.76676574       0.57827823       0.49975349 </v>
   <v>       0.90787378       0.64372456       0.49943208 </v>
   <v>       0.79564026       0.79872732       0.50011285 </v>
   <v>       0.92892615       0.86046430       0.49989995 </v>
   <v>       0.74190077       0.45867857       0.55687285 </v>
  </varray>
 </structure>
</modeling>
