C  Li                                   
   1.00000000000000     
    12.3000000000000007    0.0000000000000000    0.0000000000000000
    -6.1500000000000004   10.6521124665485960    0.0000000000000000
     0.0000000000000000    0.0000000000000000   30.0000000000000000
   C    Li
    49     1
Direct
  0.0024167526589451  0.0048344793157611  0.4995596880785698
  0.0004780787191550  0.2035436868433038  0.4970848987478718
  0.1346360871304384  0.2692707416803231  0.4972190477541218
  0.9925199738261909  0.4019865840056909  0.4983580768667721
  0.1296013490853554  0.4671009746188943  0.4984624246074318
  0.9954065625979283  0.6014012334636121  0.5049458296184639
  0.1293183739549875  0.6653985774124678  0.5011658886684103
  0.0021970113265937  0.8053658626888236  0.5045039881514839
  0.1344548447182632  0.8690939096522285  0.5003433666689929
  0.2014247186480631  0.0022019920746601  0.4980988333586325
  0.9362916681565423  0.8725830464888773  0.5034919403127205
  0.3344201967814087  0.0667462109302974  0.4969970399985684
  0.3378022895419548  0.2689101202947057  0.4971561147055326
  0.2009423019619305  0.4018847945709680  0.4978482435712905
  0.3374995728609349  0.4671011643670653  0.4984627534534170
  0.1977770224886797  0.5996237030252018  0.4988843884735061
  0.3325080877972297  0.6650167065641170  0.4983736572628530
  0.1980817118524740  0.7991904309826978  0.5002098475521635
  0.3312469517588283  0.8639884658712518  0.4981578033907681
  0.3977156060153604  0.9966849290729698  0.4968587030099272
  0.5306414667473476  0.0612831171902215  0.4959915327373281
  0.4023734793664389  0.2003822652025633  0.4969135715785029
  0.1359444988805478  0.0704556224247739  0.4980164894983190
  0.5362554499247238  0.2642268242661530  0.4967304850245711
  0.4094657246391620  0.4019859596517676  0.4983585497095717
  0.5488390480580136  0.4679344868318154  0.5003463849830396
  0.5360794773024153  0.6653989289986981  0.5011664980198418
  0.3988849168039366  0.7977691370126507  0.4981613658326154
  0.5327407465404974  0.8639881514190861  0.4981584923854427
  0.5989697242842240  0.9966849173766050  0.4968589630449785
  0.7323258719854806  0.0667468779767049  0.4969977295269814
  0.5958592775223011  0.1917192135002352  0.4957179133309140
  0.7279705067347919  0.2642271883178609  0.4967313664455517
  0.6160598910372954  0.3951243647682503  0.4982619521204086
  0.6059939820877247  0.6014020713257793  0.5049464586465504
  0.7389847612682914  0.6734873142665876  0.5114161469408387
  0.2030655798491736  0.2035436362894600  0.4970847542559298
  0.6011086621779640  0.7991900236796639  0.5002103457564715
  0.8007777438828185  0.0022015288370980  0.4980985750133016
  0.9345120232451620  0.0704556411293566  0.4980159796933776
  0.7980090076438202  0.2003819904206381  0.4969138931623931
  0.9311080445250610  0.2689108790877768  0.4971550701417868
  0.7790660058772545  0.3951244497940749  0.4982616927048014
  0.9190950897728669  0.4679345456026880  0.5003455727278379
  0.8078333329720309  0.6156662694303208  0.5240962920695793
  0.9345027949711877  0.6734874144137351  0.5114155822598505
  0.8031686917987173  0.8053649288103699  0.5045043681384840
  0.4018455679324404  0.5996238102397200  0.4988847881418437
  0.7346392244385598  0.8690929056947851  0.5003427291801188
  0.7024924980224725  0.4049833264204068  0.5565908723263178
 
  0.00000000E+00  0.00000000E+00  0.00000000E+00
  0.00000000E+00  0.00000000E+00  0.00000000E+00
  0.00000000E+00  0.00000000E+00  0.00000000E+00
  0.00000000E+00  0.00000000E+00  0.00000000E+00
  0.00000000E+00  0.00000000E+00  0.00000000E+00
  0.00000000E+00  0.00000000E+00  0.00000000E+00
  0.00000000E+00  0.00000000E+00  0.00000000E+00
  0.00000000E+00  0.00000000E+00  0.00000000E+00
  0.00000000E+00  0.00000000E+00  0.00000000E+00
  0.00000000E+00  0.00000000E+00  0.00000000E+00
  0.00000000E+00  0.00000000E+00  0.00000000E+00
  0.00000000E+00  0.00000000E+00  0.00000000E+00
  0.00000000E+00  0.00000000E+00  0.00000000E+00
  0.00000000E+00  0.00000000E+00  0.00000000E+00
  0.00000000E+00  0.00000000E+00  0.00000000E+00
  0.00000000E+00  0.00000000E+00  0.00000000E+00
  0.00000000E+00  0.00000000E+00  0.00000000E+00
  0.00000000E+00  0.00000000E+00  0.00000000E+00
  0.00000000E+00  0.00000000E+00  0.00000000E+00
  0.00000000E+00  0.00000000E+00  0.00000000E+00
  0.00000000E+00  0.00000000E+00  0.00000000E+00
  0.00000000E+00  0.00000000E+00  0.00000000E+00
  0.00000000E+00  0.00000000E+00  0.00000000E+00
  0.00000000E+00  0.00000000E+00  0.00000000E+00
  0.00000000E+00  0.00000000E+00  0.00000000E+00
  0.00000000E+00  0.00000000E+00  0.00000000E+00
  0.00000000E+00  0.00000000E+00  0.00000000E+00
  0.00000000E+00  0.00000000E+00  0.00000000E+00
  0.00000000E+00  0.00000000E+00  0.00000000E+00
  0.00000000E+00  0.00000000E+00  0.00000000E+00
  0.00000000E+00  0.00000000E+00  0.00000000E+00
  0.00000000E+00  0.00000000E+00  0.00000000E+00
  0.00000000E+00  0.00000000E+00  0.00000000E+00
  0.00000000E+00  0.00000000E+00  0.00000000E+00
  0.00000000E+00  0.00000000E+00  0.00000000E+00
  0.00000000E+00  0.00000000E+00  0.00000000E+00
  0.00000000E+00  0.00000000E+00  0.00000000E+00
  0.00000000E+00  0.00000000E+00  0.00000000E+00
  0.00000000E+00  0.00000000E+00  0.00000000E+00
  0.00000000E+00  0.00000000E+00  0.00000000E+00
  0.00000000E+00  0.00000000E+00  0.00000000E+00
  0.00000000E+00  0.00000000E+00  0.00000000E+00
  0.00000000E+00  0.00000000E+00  0.00000000E+00
  0.00000000E+00  0.00000000E+00  0.00000000E+00
  0.00000000E+00  0.00000000E+00  0.00000000E+00
  0.00000000E+00  0.00000000E+00  0.00000000E+00
  0.00000000E+00  0.00000000E+00  0.00000000E+00
  0.00000000E+00  0.00000000E+00  0.00000000E+00
  0.00000000E+00  0.00000000E+00  0.00000000E+00
  0.00000000E+00  0.00000000E+00  0.00000000E+00
