  50  50   0   0
  0.7861259E+02  0.1230000E-08  0.1230000E-08  0.3000000E-08  0.5000000E-15
  1.000000000000000E-004
  CAR 
 Li defective graphene MACE training lab 
      4.64111526    -52.95970385  301     -2.90832854      1.00000000
    -52.960  0.0000E+00  0.0000E+00  0.0000E+00  0.0000E+00
    -52.768  0.0000E+00  0.0000E+00  0.0000E+00  0.0000E+00
    -52.576  0.0000E+00  0.0000E+00  0.0000E+00  0.0000E+00
    -52.384  0.0000E+00  0.0000E+00  0.0000E+00  0.0000E+00
    -52.192  0.0000E+00  0.0000E+00  0.0000E+00  0.0000E+00
    -52.000  0.0000E+00  0.0000E+00  0.0000E+00  0.0000E+00
    -51.808  0.0000E+00  0.0000E+00  0.0000E+00  0.0000E+00
    -51.616  0.0000E+00  0.0000E+00  0.0000E+00  0.0000E+00
    -51.424  0.0000E+00  0.0000E+00  0.0000E+00  0.0000E+00
    -51.232  0.0000E+00  0.0000E+00  0.0000E+00  0.0000E+00
    -51.040  0.0000E+00  0.0000E+00  0.0000E+00  0.0000E+00
    -50.848  0.0000E+00  0.0000E+00  0.0000E+00  0.0000E+00
    -50.656  0.0000E+00  0.0000E+00  0.0000E+00  0.0000E+00
    -50.464  0.1428E-02  0.7983E-03  0.2742E-03  0.1533E-03
    -50.272  0.5081E+01  0.5029E+01  0.9759E+00  0.9657E+00
    -50.080  0.1258E+00  0.1787E+00  0.1000E+01  0.1000E+01
    -49.888  0.0000E+00  0.0000E+00  0.1000E+01  0.1000E+01
    -49.696  0.0000E+00  0.0000E+00  0.1000E+01  0.1000E+01
    -49.504  0.0000E+00  0.0000E+00  0.1000E+01  0.1000E+01
    -49.312  0.0000E+00  0.0000E+00  0.1000E+01  0.1000E+01
    -49.120  0.0000E+00  0.0000E+00  0.1000E+01  0.1000E+01
    -48.928  0.0000E+00  0.0000E+00  0.1000E+01  0.1000E+01
    -48.736  0.0000E+00  0.0000E+00  0.1000E+01  0.1000E+01
    -48.544  0.0000E+00  0.0000E+00  0.1000E+01  0.1000E+01
    -48.352  0.0000E+00  0.0000E+00  0.1000E+01  0.1000E+01
    -48.160  0.0000E+00  0.0000E+00  0.1000E+01  0.1000E+01
    -47.968  0.0000E+00  0.0000E+00  0.1000E+01  0.1000E+01
    -47.776  0.0000E+00  0.0000E+00  0.1000E+01  0.1000E+01
    -47.584  0.0000E+00  0.0000E+00  0.1000E+01  0.1000E+01
    -47.392  0.0000E+00  0.0000E+00  0.1000E+01  0.1000E+01
    -47.200  0.0000E+00  0.0000E+00  0.1000E+01  0.1000E+01
    -47.008  0.0000E+00  0.0000E+00  0.1000E+01  0.1000E+01
    -46.816  0.0000E+00  0.0000E+00  0.1000E+01  0.1000E+01
    -46.624  0.0000E+00  0.0000E+00  0.1000E+01  0.1000E+01
    -46.432  0.0000E+00  0.0000E+00  0.1000E+01  0.1000E+01
    -46.240  0.0000E+00  0.0000E+00  0.1000E+01  0.1000E+01
    -46.048  0.0000E+00  0.0000E+00  0.1000E+01  0.1000E+01
    -45.856  0.0000E+00  0.0000E+00  0.1000E+01  0.1000E+01
    -45.664  0.0000E+00  0.0000E+00  0.1000E+01  0.1000E+01
    -45.472  0.0000E+00  0.0000E+00  0.1000E+01  0.1000E+01
    -45.280  0.0000E+00  0.0000E+00  0.1000E+01  0.1000E+01
    -45.088  0.0000E+00  0.0000E+00  0.1000E+01  0.1000E+01
    -44.896  0.0000E+00  0.0000E+00  0.1000E+01  0.1000E+01
    -44.704  0.0000E+00  0.0000E+00  0.1000E+01  0.1000E+01
    -44.512  0.0000E+00  0.0000E+00  0.1000E+01  0.1000E+01
    -44.320  0.0000E+00  0.0000E+00  0.1000E+01  0.1000E+01
    -44.128  0.0000E+00  0.0000E+00  0.1000E+01  0.1000E+01
    -43.936  0.0000E+00  0.0000E+00  0.1000E+01  0.1000E+01
    -43.744  0.0000E+00  0.0000E+00  0.1000E+01  0.1000E+01
    -43.552  0.0000E+00  0.0000E+00  0.1000E+01  0.1000E+01
    -43.360  0.0000E+00  0.0000E+00  0.1000E+01  0.1000E+01
    -43.168  0.0000E+00  0.0000E+00  0.1000E+01  0.1000E+01
    -42.976  0.0000E+00  0.0000E+00  0.1000E+01  0.1000E+01
    -42.784  0.0000E+00  0.0000E+00  0.1000E+01  0.1000E+01
    -42.592  0.0000E+00  0.0000E+00  0.1000E+01  0.1000E+01
    -42.400  0.0000E+00  0.0000E+00  0.1000E+01  0.1000E+01
    -42.208  0.0000E+00  0.0000E+00  0.1000E+01  0.1000E+01
    -42.016  0.0000E+00  0.0000E+00  0.1000E+01  0.1000E+01
    -41.824  0.0000E+00  0.0000E+00  0.1000E+01  0.1000E+01
    -41.632  0.0000E+00  0.0000E+00  0.1000E+01  0.1000E+01
    -41.440  0.0000E+00  0.0000E+00  0.1000E+01  0.1000E+01
    -41.248  0.0000E+00  0.0000E+00  0.1000E+01  0.1000E+01
    -41.056  0.0000E+00  0.0000E+00  0.1000E+01  0.1000E+01
    -40.864  0.0000E+00  0.0000E+00  0.1000E+01  0.1000E+01
    -40.672  0.0000E+00  0.0000E+00  0.1000E+01  0.1000E+01
    -40.480  0.0000E+00  0.0000E+00  0.1000E+01  0.1000E+01
    -40.288  0.0000E+00  0.0000E+00  0.1000E+01  0.1000E+01
    -40.096  0.0000E+00  0.0000E+00  0.1000E+01  0.1000E+01
    -39.904  0.0000E+00  0.0000E+00  0.1000E+01  0.1000E+01
    -39.712  0.0000E+00  0.0000E+00  0.1000E+01  0.1000E+01
    -39.520  0.0000E+00  0.0000E+00  0.1000E+01  0.1000E+01
    -39.328  0.0000E+00  0.0000E+00  0.1000E+01  0.1000E+01
    -39.136  0.0000E+00  0.0000E+00  0.1000E+01  0.1000E+01
    -38.944  0.0000E+00  0.0000E+00  0.1000E+01  0.1000E+01
    -38.752  0.0000E+00  0.0000E+00  0.1000E+01  0.1000E+01
    -38.559  0.0000E+00  0.0000E+00  0.1000E+01  0.1000E+01
    -38.367  0.0000E+00  0.0000E+00  0.1000E+01  0.1000E+01
    -38.175  0.0000E+00  0.0000E+00  0.1000E+01  0.1000E+01
    -37.983  0.0000E+00  0.0000E+00  0.1000E+01  0.1000E+01
    -37.791  0.0000E+00  0.0000E+00  0.1000E+01  0.1000E+01
    -37.599  0.0000E+00  0.0000E+00  0.1000E+01  0.1000E+01
    -37.407  0.0000E+00  0.0000E+00  0.1000E+01  0.1000E+01
    -37.215  0.0000E+00  0.0000E+00  0.1000E+01  0.1000E+01
    -37.023  0.0000E+00  0.0000E+00  0.1000E+01  0.1000E+01
    -36.831  0.0000E+00  0.0000E+00  0.1000E+01  0.1000E+01
    -36.639  0.0000E+00  0.0000E+00  0.1000E+01  0.1000E+01
    -36.447  0.0000E+00  0.0000E+00  0.1000E+01  0.1000E+01
    -36.255  0.0000E+00  0.0000E+00  0.1000E+01  0.1000E+01
    -36.063  0.0000E+00  0.0000E+00  0.1000E+01  0.1000E+01
    -35.871  0.0000E+00  0.0000E+00  0.1000E+01  0.1000E+01
    -35.679  0.0000E+00  0.0000E+00  0.1000E+01  0.1000E+01
    -35.487  0.0000E+00  0.0000E+00  0.1000E+01  0.1000E+01
    -35.295  0.0000E+00  0.0000E+00  0.1000E+01  0.1000E+01
    -35.103  0.0000E+00  0.0000E+00  0.1000E+01  0.1000E+01
    -34.911  0.0000E+00  0.0000E+00  0.1000E+01  0.1000E+01
    -34.719  0.0000E+00  0.0000E+00  0.1000E+01  0.1000E+01
    -34.527  0.0000E+00  0.0000E+00  0.1000E+01  0.1000E+01
    -34.335  0.0000E+00  0.0000E+00  0.1000E+01  0.1000E+01
    -34.143  0.0000E+00  0.0000E+00  0.1000E+01  0.1000E+01
    -33.951  0.0000E+00  0.0000E+00  0.1000E+01  0.1000E+01
    -33.759  0.0000E+00  0.0000E+00  0.1000E+01  0.1000E+01
    -33.567  0.0000E+00  0.0000E+00  0.1000E+01  0.1000E+01
    -33.375  0.0000E+00  0.0000E+00  0.1000E+01  0.1000E+01
    -33.183  0.0000E+00  0.0000E+00  0.1000E+01  0.1000E+01
    -32.991  0.0000E+00  0.0000E+00  0.1000E+01  0.1000E+01
    -32.799  0.0000E+00  0.0000E+00  0.1000E+01  0.1000E+01
    -32.607  0.0000E+00  0.0000E+00  0.1000E+01  0.1000E+01
    -32.415  0.0000E+00  0.0000E+00  0.1000E+01  0.1000E+01
    -32.223  0.0000E+00  0.0000E+00  0.1000E+01  0.1000E+01
    -32.031  0.0000E+00  0.0000E+00  0.1000E+01  0.1000E+01
    -31.839  0.0000E+00  0.0000E+00  0.1000E+01  0.1000E+01
    -31.647  0.0000E+00  0.0000E+00  0.1000E+01  0.1000E+01
    -31.455  0.0000E+00  0.0000E+00  0.1000E+01  0.1000E+01
    -31.263  0.0000E+00  0.0000E+00  0.1000E+01  0.1000E+01
    -31.071  0.0000E+00  0.0000E+00  0.1000E+01  0.1000E+01
    -30.879  0.0000E+00  0.0000E+00  0.1000E+01  0.1000E+01
    -30.687  0.0000E+00  0.0000E+00  0.1000E+01  0.1000E+01
    -30.495  0.0000E+00  0.0000E+00  0.1000E+01  0.1000E+01
    -30.303  0.0000E+00  0.0000E+00  0.1000E+01  0.1000E+01
    -30.111  0.0000E+00  0.0000E+00  0.1000E+01  0.1000E+01
    -29.919  0.0000E+00  0.0000E+00  0.1000E+01  0.1000E+01
    -29.727  0.0000E+00  0.0000E+00  0.1000E+01  0.1000E+01
    -29.535  0.0000E+00  0.0000E+00  0.1000E+01  0.1000E+01
    -29.343  0.0000E+00  0.0000E+00  0.1000E+01  0.1000E+01
    -29.151  0.0000E+00  0.0000E+00  0.1000E+01  0.1000E+01
    -28.959  0.0000E+00  0.0000E+00  0.1000E+01  0.1000E+01
    -28.767  0.0000E+00  0.0000E+00  0.1000E+01  0.1000E+01
    -28.575  0.0000E+00  0.0000E+00  0.1000E+01  0.1000E+01
    -28.383  0.0000E+00  0.0000E+00  0.1000E+01  0.1000E+01
    -28.191  0.0000E+00  0.0000E+00  0.1000E+01  0.1000E+01
    -27.999  0.0000E+00  0.0000E+00  0.1000E+01  0.1000E+01
    -27.807  0.0000E+00  0.0000E+00  0.1000E+01  0.1000E+01
    -27.615  0.0000E+00  0.0000E+00  0.1000E+01  0.1000E+01
    -27.423  0.0000E+00  0.0000E+00  0.1000E+01  0.1000E+01
    -27.231  0.0000E+00  0.0000E+00  0.1000E+01  0.1000E+01
    -27.039  0.0000E+00  0.0000E+00  0.1000E+01  0.1000E+01
    -26.847  0.0000E+00  0.0000E+00  0.1000E+01  0.1000E+01
    -26.655  0.0000E+00  0.0000E+00  0.1000E+01  0.1000E+01
    -26.463  0.0000E+00  0.0000E+00  0.1000E+01  0.1000E+01
    -26.271  0.0000E+00  0.0000E+00  0.1000E+01  0.1000E+01
    -26.079  0.0000E+00  0.0000E+00  0.1000E+01  0.1000E+01
    -25.887  0.0000E+00  0.0000E+00  0.1000E+01  0.1000E+01
    -25.695  0.0000E+00  0.0000E+00  0.1000E+01  0.1000E+01
    -25.503  0.0000E+00  0.0000E+00  0.1000E+01  0.1000E+01
    -25.311  0.0000E+00  0.0000E+00  0.1000E+01  0.1000E+01
    -25.119  0.0000E+00  0.0000E+00  0.1000E+01  0.1000E+01
    -24.927  0.0000E+00  0.0000E+00  0.1000E+01  0.1000E+01
    -24.735  0.0000E+00  0.0000E+00  0.1000E+01  0.1000E+01
    -24.543  0.0000E+00  0.0000E+00  0.1000E+01  0.1000E+01
    -24.351  0.0000E+00  0.0000E+00  0.1000E+01  0.1000E+01
    -24.159  0.0000E+00  0.0000E+00  0.1000E+01  0.1000E+01
    -23.967  0.0000E+00  0.0000E+00  0.1000E+01  0.1000E+01
    -23.775  0.0000E+00  0.0000E+00  0.1000E+01  0.1000E+01
    -23.583  0.0000E+00  0.0000E+00  0.1000E+01  0.1000E+01
    -23.391  0.0000E+00  0.0000E+00  0.1000E+01  0.1000E+01
    -23.199  0.0000E+00  0.0000E+00  0.1000E+01  0.1000E+01
    -23.007  0.0000E+00  0.0000E+00  0.1000E+01  0.1000E+01
    -22.815  0.0000E+00  0.0000E+00  0.1000E+01  0.1000E+01
    -22.623  0.7954E-06  0.9080E-07  0.1000E+01  0.1000E+01
    -22.431  0.5892E+00  0.4192E+00  0.1113E+01  0.1080E+01
    -22.239  0.4355E+01  0.4368E+01  0.1949E+01  0.1919E+01
    -22.047  0.3014E+01  0.2747E+01  0.2528E+01  0.2447E+01
    -21.855  0.3045E+01  0.3457E+01  0.3113E+01  0.3110E+01
    -21.663  0.5055E+01  0.4723E+01  0.4083E+01  0.4017E+01
    -21.471  0.3988E+01  0.4204E+01  0.4849E+01  0.4824E+01
    -21.279  0.1448E+01  0.1287E+01  0.5127E+01  0.5071E+01
    -21.087  0.4781E+01  0.4475E+01  0.6045E+01  0.5931E+01
    -20.895  0.5548E+01  0.6125E+01  0.7110E+01  0.7107E+01
    -20.703  0.2176E+01  0.1194E+01  0.7528E+01  0.7336E+01
    -20.511  0.2924E+01  0.3525E+01  0.8089E+01  0.8013E+01
    -20.319  0.5782E+01  0.5043E+01  0.9199E+01  0.8981E+01
    -20.127  0.5052E+01  0.5933E+01  0.1017E+02  0.1012E+02
    -19.935  0.2805E+00  0.5314E+00  0.1022E+02  0.1022E+02
    -19.743  0.4437E+01  0.3504E+01  0.1108E+02  0.1090E+02
    -19.551  0.5565E+01  0.5526E+01  0.1214E+02  0.1196E+02
    -19.359  0.4544E+01  0.5421E+01  0.1302E+02  0.1300E+02
    -19.167  0.4121E+01  0.3634E+01  0.1381E+02  0.1369E+02
    -18.975  0.2550E+01  0.2400E+01  0.1430E+02  0.1416E+02
    -18.783  0.2243E+01  0.2689E+01  0.1473E+02  0.1467E+02
    -18.591  0.5238E+01  0.5155E+01  0.1573E+02  0.1566E+02
    -18.399  0.7372E+01  0.7252E+01  0.1715E+02  0.1705E+02
    -18.207  0.1542E+01  0.2033E+01  0.1744E+02  0.1744E+02
    -18.015  0.4612E+01  0.3836E+01  0.1833E+02  0.1818E+02
    -17.823  0.4020E+01  0.4669E+01  0.1910E+02  0.1908E+02
    -17.631  0.1166E+01  0.9566E+00  0.1933E+02  0.1926E+02
    -17.439  0.8208E+01  0.7778E+01  0.2090E+02  0.2075E+02
    -17.247  0.6993E+01  0.6675E+01  0.2224E+02  0.2204E+02
    -17.055  0.2594E+01  0.3349E+01  0.2274E+02  0.2268E+02
    -16.863  0.2470E+01  0.1578E+01  0.2322E+02  0.2298E+02
    -16.671  0.2281E+01  0.3311E+01  0.2366E+02  0.2362E+02
    -16.479  0.4249E+01  0.3752E+01  0.2447E+02  0.2434E+02
    -16.287  0.2757E+01  0.3435E+01  0.2500E+02  0.2500E+02
    -16.095  0.3870E+01  0.2155E+01  0.2574E+02  0.2541E+02
    -15.903  0.2445E+01  0.3920E+01  0.2621E+02  0.2616E+02
    -15.711  0.1451E+01  0.1527E+01  0.2649E+02  0.2646E+02
    -15.519  0.5205E+01  0.5137E+01  0.2749E+02  0.2744E+02
    -15.327  0.8603E+01  0.8247E+01  0.2914E+02  0.2903E+02
    -15.135  0.5053E+00  0.1030E+01  0.2924E+02  0.2922E+02
    -14.943  0.7375E+01  0.6551E+01  0.3066E+02  0.3048E+02
    -14.751  0.3723E+01  0.4075E+01  0.3137E+02  0.3126E+02
    -14.559  0.5268E+01  0.5207E+01  0.3238E+02  0.3226E+02
    -14.367  0.2681E+01  0.3260E+01  0.3290E+02  0.3289E+02
    -14.175  0.1854E+01  0.1792E+01  0.3325E+02  0.3323E+02
    -13.983  0.5568E+01  0.4912E+01  0.3432E+02  0.3418E+02
    -13.791  0.7010E+01  0.7442E+01  0.3567E+02  0.3561E+02
    -13.599  0.1155E+01  0.1456E+01  0.3589E+02  0.3589E+02
    -13.407  0.2959E-01  0.1741E-01  0.3589E+02  0.3589E+02
    -13.215  0.5633E+01  0.4964E+01  0.3698E+02  0.3684E+02
    -13.023  0.6473E+01  0.6857E+01  0.3822E+02  0.3816E+02
    -12.831  0.4960E+01  0.4748E+01  0.3917E+02  0.3907E+02
    -12.639  0.5493E+01  0.4698E+01  0.4023E+02  0.3997E+02
    -12.447  0.1187E+01  0.2460E+01  0.4045E+02  0.4045E+02
    -12.255  0.8679E+01  0.7997E+01  0.4212E+02  0.4198E+02
    -12.063  0.1190E+01  0.1616E+01  0.4235E+02  0.4229E+02
    -11.871  0.2463E+01  0.2236E+01  0.4282E+02  0.4272E+02
    -11.679  0.8362E+01  0.8406E+01  0.4443E+02  0.4433E+02
    -11.487  0.3998E+01  0.4033E+01  0.4519E+02  0.4511E+02
    -11.295  0.7829E+01  0.7838E+01  0.4670E+02  0.4661E+02
    -11.103  0.3852E+01  0.3727E+01  0.4744E+02  0.4733E+02
    -10.911  0.3474E+01  0.3963E+01  0.4810E+02  0.4809E+02
    -10.719  0.5959E+01  0.4167E+01  0.4925E+02  0.4889E+02
    -10.527  0.5411E+01  0.6454E+01  0.5029E+02  0.5013E+02
    -10.335  0.1191E+02  0.1213E+02  0.5257E+02  0.5246E+02
    -10.143  0.8543E+01  0.8579E+01  0.5421E+02  0.5411E+02
     -9.951  0.1060E+02  0.9570E+01  0.5625E+02  0.5594E+02
     -9.759  0.8299E+01  0.8917E+01  0.5784E+02  0.5766E+02
     -9.567  0.8897E+01  0.8773E+01  0.5955E+02  0.5934E+02
     -9.375  0.1357E+02  0.1397E+02  0.6216E+02  0.6202E+02
     -9.183  0.1147E+02  0.1090E+02  0.6436E+02  0.6412E+02
     -8.991  0.1061E+02  0.1037E+02  0.6639E+02  0.6611E+02
     -8.799  0.1379E+02  0.1428E+02  0.6904E+02  0.6885E+02
     -8.607  0.4670E+01  0.4424E+01  0.6994E+02  0.6970E+02
     -8.415  0.1104E+02  0.1122E+02  0.7206E+02  0.7185E+02
     -8.223  0.6967E+01  0.6926E+01  0.7340E+02  0.7318E+02
     -8.031  0.1370E+02  0.1360E+02  0.7603E+02  0.7579E+02
     -7.839  0.5750E+01  0.6021E+01  0.7713E+02  0.7695E+02
     -7.647  0.4533E+01  0.4734E+01  0.7800E+02  0.7786E+02
     -7.455  0.8559E+01  0.7070E+01  0.7964E+02  0.7921E+02
     -7.263  0.9555E+01  0.1024E+02  0.8148E+02  0.8118E+02
     -7.071  0.8660E+01  0.9453E+01  0.8314E+02  0.8300E+02
     -6.879  0.7597E+01  0.7112E+01  0.8460E+02  0.8436E+02
     -6.687  0.5058E+01  0.5328E+01  0.8557E+02  0.8538E+02
     -6.495  0.6151E+01  0.6552E+01  0.8675E+02  0.8664E+02
     -6.303  0.5908E+01  0.5877E+01  0.8789E+02  0.8777E+02
     -6.111  0.8639E+01  0.7341E+01  0.8955E+02  0.8918E+02
     -5.919  0.4671E+01  0.6412E+01  0.9044E+02  0.9041E+02
     -5.727  0.5204E+01  0.3991E+01  0.9144E+02  0.9118E+02
     -5.535  0.3509E+01  0.4863E+01  0.9212E+02  0.9211E+02
     -5.343  0.3651E+01  0.3030E+01  0.9282E+02  0.9269E+02
     -5.151  0.6073E+01  0.5308E+01  0.9398E+02  0.9371E+02
     -4.959  0.9905E+01  0.1110E+02  0.9588E+02  0.9584E+02
     -4.767  0.7984E-01  0.2396E+00  0.9590E+02  0.9589E+02
     -4.575  0.3838E+01  0.1304E+01  0.9664E+02  0.9614E+02
     -4.383  0.3151E+01  0.4214E+01  0.9724E+02  0.9695E+02
     -4.191  0.5446E+00  0.1859E+01  0.9735E+02  0.9731E+02
     -3.999  0.5737E+01  0.3154E+01  0.9845E+02  0.9791E+02
     -3.807  0.1735E+01  0.4672E+00  0.9878E+02  0.9800E+02
     -3.615  0.1142E+01  0.3700E+01  0.9900E+02  0.9871E+02
     -3.423  0.2493E+00  0.3489E+00  0.9905E+02  0.9878E+02
     -3.231  0.3752E+01  0.6070E-02  0.9977E+02  0.9878E+02
     -3.039  0.1619E+00  0.1149E+01  0.9980E+02  0.9900E+02
     -2.847  0.1046E+01  0.4884E+00  0.1000E+03  0.9909E+02
     -2.655  0.4936E+00  0.4503E+01  0.1001E+03  0.9996E+02
     -2.463  0.6638E+00  0.1246E+01  0.1002E+03  0.1002E+03
     -2.271  0.9032E-07  0.1307E+00  0.1002E+03  0.1002E+03
     -2.079  0.2165E+00  0.2701E-02  0.1003E+03  0.1002E+03
     -1.887  0.2995E+01  0.2638E+01  0.1008E+03  0.1007E+03
     -1.695  0.5668E+01  0.4992E+01  0.1019E+03  0.1017E+03
     -1.503  0.3300E+01  0.2290E+01  0.1026E+03  0.1021E+03
     -1.311  0.6460E+01  0.5623E+01  0.1038E+03  0.1032E+03
     -1.119  0.5581E+01  0.7612E+01  0.1049E+03  0.1047E+03
     -0.927  0.8142E+01  0.7761E+01  0.1064E+03  0.1062E+03
     -0.735  0.6263E+01  0.6922E+01  0.1076E+03  0.1075E+03
     -0.543  0.5980E+01  0.5493E+01  0.1088E+03  0.1085E+03
     -0.351  0.4006E+01  0.5278E+01  0.1096E+03  0.1096E+03
     -0.159  0.5728E+00  0.1240E+00  0.1097E+03  0.1096E+03
      0.033  0.7221E+01  0.5905E+01  0.1111E+03  0.1107E+03
      0.225  0.3893E+01  0.5204E+01  0.1118E+03  0.1117E+03
      0.417  0.5248E+01  0.4789E+01  0.1128E+03  0.1126E+03
      0.609  0.6325E+01  0.6258E+01  0.1140E+03  0.1138E+03
      0.801  0.5387E+01  0.5491E+01  0.1151E+03  0.1149E+03
      0.993  0.8729E+01  0.8605E+01  0.1167E+03  0.1165E+03
      1.185  0.9421E+01  0.9839E+01  0.1185E+03  0.1184E+03
      1.377  0.1173E+02  0.1082E+02  0.1208E+03  0.1205E+03
      1.569  0.1633E+02  0.1602E+02  0.1239E+03  0.1236E+03
      1.761  0.1576E+02  0.1596E+02  0.1270E+03  0.1266E+03
      1.953  0.4877E+01  0.6922E+01  0.1279E+03  0.1280E+03
      2.145  0.5646E+00  0.1263E+00  0.1280E+03  0.1280E+03
      2.337  0.1587E-03  0.0000E+00  0.1280E+03  0.1280E+03
      2.529  0.0000E+00  0.0000E+00  0.1280E+03  0.1280E+03
      2.721  0.0000E+00  0.0000E+00  0.1280E+03  0.1280E+03
      2.913  0.0000E+00  0.0000E+00  0.1280E+03  0.1280E+03
      3.105  0.0000E+00  0.0000E+00  0.1280E+03  0.1280E+03
      3.297  0.0000E+00  0.0000E+00  0.1280E+03  0.1280E+03
      3.489  0.0000E+00  0.0000E+00  0.1280E+03  0.1280E+03
      3.681  0.0000E+00  0.0000E+00  0.1280E+03  0.1280E+03
      3.873  0.0000E+00  0.0000E+00  0.1280E+03  0.1280E+03
      4.065  0.0000E+00  0.0000E+00  0.1280E+03  0.1280E+03
      4.257  0.0000E+00  0.0000E+00  0.1280E+03  0.1280E+03
      4.449  0.0000E+00  0.0000E+00  0.1280E+03  0.1280E+03
      4.641  0.0000E+00  0.0000E+00  0.1280E+03  0.1280E+03
