       N       E                     dE             d eps       ncg     rms          rms(c)
DAV:   1     0.192298260658E+04    0.19230E+04   -0.65919E+04  3136   0.107E+03
DAV:   2     0.553048714057E+02   -0.18677E+04   -0.17354E+04  3928   0.236E+02
DAV:   3    -0.448264973432E+03   -0.50357E+03   -0.49916E+03  3368   0.130E+02
DAV:   4    -0.476709644432E+03   -0.28445E+02   -0.28041E+02  3264   0.403E+01
DAV:   5    -0.477824900601E+03   -0.11153E+01   -0.11045E+01  4136   0.664E+00    0.326E+01
DAV:   6    -0.454397382842E+03    0.23428E+02   -0.26639E+01  2808   0.125E+01    0.188E+01
DAV:   7    -0.443782655445E+03    0.10615E+02   -0.16064E+01  2888   0.101E+01    0.101E+01
DAV:   8    -0.443104762902E+03    0.67789E+00   -0.55068E+00  2976   0.556E+00    0.398E+00
DAV:   9    -0.443698320556E+03   -0.59356E+00   -0.90864E-01  3408   0.267E+00    0.202E+00
DAV:  10    -0.444075545568E+03   -0.37723E+00   -0.26640E-01  2808   0.127E+00    0.114E+00
DAV:  11    -0.444368784451E+03   -0.29324E+00   -0.97490E-02  2936   0.783E-01    0.789E-01
DAV:  12    -0.444677844860E+03   -0.30906E+00   -0.48144E-02  2776   0.490E-01    0.654E-01
DAV:  13    -0.445222091135E+03   -0.54425E+00   -0.88021E-02  2880   0.537E-01    0.483E-01
DAV:  14    -0.445295631937E+03   -0.73541E-01   -0.93328E-02  2800   0.571E-01    0.335E-01
DAV:  15    -0.445810201613E+03   -0.51457E+00   -0.36137E-02  2936   0.328E-01    0.239E-01
DAV:  16    -0.446278975272E+03   -0.46877E+00   -0.16610E-02  2880   0.212E-01    0.165E-01
DAV:  17    -0.446619321961E+03   -0.34035E+00   -0.67359E-03  2896   0.155E-01    0.119E-01
DAV:  18    -0.446854862890E+03   -0.23554E+00   -0.42487E-03  2848   0.121E-01    0.846E-02
DAV:  19    -0.446955333277E+03   -0.10047E+00   -0.18345E-03  2880   0.772E-02    0.611E-02
DAV:  20    -0.446991153012E+03   -0.35820E-01   -0.98543E-04  2856   0.525E-02    0.432E-02
DAV:  21    -0.447002674098E+03   -0.11521E-01   -0.42300E-04  3048   0.334E-02    0.308E-02
DAV:  22    -0.447020779611E+03   -0.18106E-01   -0.13754E-04  2904   0.226E-02    0.206E-02
DAV:  23    -0.447043100361E+03   -0.22321E-01   -0.42029E-05  2912   0.154E-02    0.125E-02
DAV:  24    -0.447052678719E+03   -0.95784E-02   -0.16258E-05  2600   0.120E-02    0.778E-03
DAV:  25    -0.447055811229E+03   -0.31325E-02   -0.11957E-05  2352   0.962E-03    0.506E-03
DAV:  26    -0.447057167327E+03   -0.13561E-02   -0.19511E-05  2288   0.107E-02    0.334E-03
DAV:  27    -0.447057991614E+03   -0.82429E-03   -0.10364E-05  2232   0.942E-03    0.192E-03
DAV:  28    -0.447058322421E+03   -0.33081E-03   -0.37979E-06  2328   0.544E-03    0.125E-03
DAV:  29    -0.447058461259E+03   -0.13884E-03   -0.89157E-07  1776   0.327E-03    0.873E-04
DAV:  30    -0.447058564739E+03   -0.10348E-03   -0.66529E-07  1920   0.191E-03    0.574E-04
DAV:  31    -0.447058617284E+03   -0.52545E-04   -0.37537E-07  1944   0.133E-03    0.386E-04
DAV:  32    -0.447058645224E+03   -0.27939E-04   -0.14716E-07  1968   0.867E-04    0.246E-04
DAV:  33    -0.447058662215E+03   -0.16991E-04   -0.73520E-08  1928   0.581E-04    0.181E-04
DAV:  34    -0.447058668334E+03   -0.61194E-05   -0.15208E-08  1928   0.368E-04    0.136E-04
DAV:  35    -0.447058671835E+03   -0.35004E-05   -0.38487E-09  1824   0.261E-04    0.115E-04
DAV:  36    -0.447058673041E+03   -0.12057E-05    0.98391E-09  1840   0.156E-04    0.110E-04
DAV:  37    -0.447058673559E+03   -0.51802E-06    0.13903E-08  1720   0.963E-05
   1 F= -.44705867E+03 E0= -.44705849E+03  d E =-.373936E-03  mag=     0.9963
