  55  55   0   0
  0.7146599E+02  0.1230000E-08  0.1230000E-08  0.3000000E-08  0.5000000E-15
  1.000000000000000E-004
  CAR 
 Li defective graphene MACE training lab 
      4.39148050    -52.77678477  301     -2.94959727      1.00000000
    -52.777  0.0000E+00  0.0000E+00  0.0000E+00  0.0000E+00
    -52.586  0.0000E+00  0.0000E+00  0.0000E+00  0.0000E+00
    -52.396  0.0000E+00  0.0000E+00  0.0000E+00  0.0000E+00
    -52.205  0.0000E+00  0.0000E+00  0.0000E+00  0.0000E+00
    -52.015  0.0000E+00  0.0000E+00  0.0000E+00  0.0000E+00
    -51.824  0.0000E+00  0.0000E+00  0.0000E+00  0.0000E+00
    -51.633  0.0000E+00  0.0000E+00  0.0000E+00  0.0000E+00
    -51.443  0.0000E+00  0.0000E+00  0.0000E+00  0.0000E+00
    -51.252  0.0000E+00  0.0000E+00  0.0000E+00  0.0000E+00
    -51.062  0.0000E+00  0.0000E+00  0.0000E+00  0.0000E+00
    -50.871  0.0000E+00  0.0000E+00  0.0000E+00  0.0000E+00
    -50.681  0.0000E+00  0.0000E+00  0.0000E+00  0.0000E+00
    -50.490  0.0000E+00  0.0000E+00  0.0000E+00  0.0000E+00
    -50.299  0.1584E-02  0.1515E-02  0.3019E-03  0.2887E-03
    -50.109  0.5115E+01  0.5111E+01  0.9750E+00  0.9743E+00
    -49.918  0.1312E+00  0.1350E+00  0.1000E+01  0.1000E+01
    -49.728  0.0000E+00  0.0000E+00  0.1000E+01  0.1000E+01
    -49.537  0.0000E+00  0.0000E+00  0.1000E+01  0.1000E+01
    -49.347  0.0000E+00  0.0000E+00  0.1000E+01  0.1000E+01
    -49.156  0.0000E+00  0.0000E+00  0.1000E+01  0.1000E+01
    -48.966  0.0000E+00  0.0000E+00  0.1000E+01  0.1000E+01
    -48.775  0.0000E+00  0.0000E+00  0.1000E+01  0.1000E+01
    -48.584  0.0000E+00  0.0000E+00  0.1000E+01  0.1000E+01
    -48.394  0.0000E+00  0.0000E+00  0.1000E+01  0.1000E+01
    -48.203  0.0000E+00  0.0000E+00  0.1000E+01  0.1000E+01
    -48.013  0.0000E+00  0.0000E+00  0.1000E+01  0.1000E+01
    -47.822  0.0000E+00  0.0000E+00  0.1000E+01  0.1000E+01
    -47.632  0.0000E+00  0.0000E+00  0.1000E+01  0.1000E+01
    -47.441  0.0000E+00  0.0000E+00  0.1000E+01  0.1000E+01
    -47.251  0.0000E+00  0.0000E+00  0.1000E+01  0.1000E+01
    -47.060  0.0000E+00  0.0000E+00  0.1000E+01  0.1000E+01
    -46.869  0.0000E+00  0.0000E+00  0.1000E+01  0.1000E+01
    -46.679  0.0000E+00  0.0000E+00  0.1000E+01  0.1000E+01
    -46.488  0.0000E+00  0.0000E+00  0.1000E+01  0.1000E+01
    -46.298  0.0000E+00  0.0000E+00  0.1000E+01  0.1000E+01
    -46.107  0.0000E+00  0.0000E+00  0.1000E+01  0.1000E+01
    -45.917  0.0000E+00  0.0000E+00  0.1000E+01  0.1000E+01
    -45.726  0.0000E+00  0.0000E+00  0.1000E+01  0.1000E+01
    -45.535  0.0000E+00  0.0000E+00  0.1000E+01  0.1000E+01
    -45.345  0.0000E+00  0.0000E+00  0.1000E+01  0.1000E+01
    -45.154  0.0000E+00  0.0000E+00  0.1000E+01  0.1000E+01
    -44.964  0.0000E+00  0.0000E+00  0.1000E+01  0.1000E+01
    -44.773  0.0000E+00  0.0000E+00  0.1000E+01  0.1000E+01
    -44.583  0.0000E+00  0.0000E+00  0.1000E+01  0.1000E+01
    -44.392  0.0000E+00  0.0000E+00  0.1000E+01  0.1000E+01
    -44.202  0.0000E+00  0.0000E+00  0.1000E+01  0.1000E+01
    -44.011  0.0000E+00  0.0000E+00  0.1000E+01  0.1000E+01
    -43.820  0.0000E+00  0.0000E+00  0.1000E+01  0.1000E+01
    -43.630  0.0000E+00  0.0000E+00  0.1000E+01  0.1000E+01
    -43.439  0.0000E+00  0.0000E+00  0.1000E+01  0.1000E+01
    -43.249  0.0000E+00  0.0000E+00  0.1000E+01  0.1000E+01
    -43.058  0.0000E+00  0.0000E+00  0.1000E+01  0.1000E+01
    -42.868  0.0000E+00  0.0000E+00  0.1000E+01  0.1000E+01
    -42.677  0.0000E+00  0.0000E+00  0.1000E+01  0.1000E+01
    -42.486  0.0000E+00  0.0000E+00  0.1000E+01  0.1000E+01
    -42.296  0.0000E+00  0.0000E+00  0.1000E+01  0.1000E+01
    -42.105  0.0000E+00  0.0000E+00  0.1000E+01  0.1000E+01
    -41.915  0.0000E+00  0.0000E+00  0.1000E+01  0.1000E+01
    -41.724  0.0000E+00  0.0000E+00  0.1000E+01  0.1000E+01
    -41.534  0.0000E+00  0.0000E+00  0.1000E+01  0.1000E+01
    -41.343  0.0000E+00  0.0000E+00  0.1000E+01  0.1000E+01
    -41.153  0.0000E+00  0.0000E+00  0.1000E+01  0.1000E+01
    -40.962  0.0000E+00  0.0000E+00  0.1000E+01  0.1000E+01
    -40.771  0.0000E+00  0.0000E+00  0.1000E+01  0.1000E+01
    -40.581  0.0000E+00  0.0000E+00  0.1000E+01  0.1000E+01
    -40.390  0.0000E+00  0.0000E+00  0.1000E+01  0.1000E+01
    -40.200  0.0000E+00  0.0000E+00  0.1000E+01  0.1000E+01
    -40.009  0.0000E+00  0.0000E+00  0.1000E+01  0.1000E+01
    -39.819  0.0000E+00  0.0000E+00  0.1000E+01  0.1000E+01
    -39.628  0.0000E+00  0.0000E+00  0.1000E+01  0.1000E+01
    -39.438  0.0000E+00  0.0000E+00  0.1000E+01  0.1000E+01
    -39.247  0.0000E+00  0.0000E+00  0.1000E+01  0.1000E+01
    -39.056  0.0000E+00  0.0000E+00  0.1000E+01  0.1000E+01
    -38.866  0.0000E+00  0.0000E+00  0.1000E+01  0.1000E+01
    -38.675  0.0000E+00  0.0000E+00  0.1000E+01  0.1000E+01
    -38.485  0.0000E+00  0.0000E+00  0.1000E+01  0.1000E+01
    -38.294  0.0000E+00  0.0000E+00  0.1000E+01  0.1000E+01
    -38.104  0.0000E+00  0.0000E+00  0.1000E+01  0.1000E+01
    -37.913  0.0000E+00  0.0000E+00  0.1000E+01  0.1000E+01
    -37.722  0.0000E+00  0.0000E+00  0.1000E+01  0.1000E+01
    -37.532  0.0000E+00  0.0000E+00  0.1000E+01  0.1000E+01
    -37.341  0.0000E+00  0.0000E+00  0.1000E+01  0.1000E+01
    -37.151  0.0000E+00  0.0000E+00  0.1000E+01  0.1000E+01
    -36.960  0.0000E+00  0.0000E+00  0.1000E+01  0.1000E+01
    -36.770  0.0000E+00  0.0000E+00  0.1000E+01  0.1000E+01
    -36.579  0.0000E+00  0.0000E+00  0.1000E+01  0.1000E+01
    -36.389  0.0000E+00  0.0000E+00  0.1000E+01  0.1000E+01
    -36.198  0.0000E+00  0.0000E+00  0.1000E+01  0.1000E+01
    -36.007  0.0000E+00  0.0000E+00  0.1000E+01  0.1000E+01
    -35.817  0.0000E+00  0.0000E+00  0.1000E+01  0.1000E+01
    -35.626  0.0000E+00  0.0000E+00  0.1000E+01  0.1000E+01
    -35.436  0.0000E+00  0.0000E+00  0.1000E+01  0.1000E+01
    -35.245  0.0000E+00  0.0000E+00  0.1000E+01  0.1000E+01
    -35.055  0.0000E+00  0.0000E+00  0.1000E+01  0.1000E+01
    -34.864  0.0000E+00  0.0000E+00  0.1000E+01  0.1000E+01
    -34.674  0.0000E+00  0.0000E+00  0.1000E+01  0.1000E+01
    -34.483  0.0000E+00  0.0000E+00  0.1000E+01  0.1000E+01
    -34.292  0.0000E+00  0.0000E+00  0.1000E+01  0.1000E+01
    -34.102  0.0000E+00  0.0000E+00  0.1000E+01  0.1000E+01
    -33.911  0.0000E+00  0.0000E+00  0.1000E+01  0.1000E+01
    -33.721  0.0000E+00  0.0000E+00  0.1000E+01  0.1000E+01
    -33.530  0.0000E+00  0.0000E+00  0.1000E+01  0.1000E+01
    -33.340  0.0000E+00  0.0000E+00  0.1000E+01  0.1000E+01
    -33.149  0.0000E+00  0.0000E+00  0.1000E+01  0.1000E+01
    -32.958  0.0000E+00  0.0000E+00  0.1000E+01  0.1000E+01
    -32.768  0.0000E+00  0.0000E+00  0.1000E+01  0.1000E+01
    -32.577  0.0000E+00  0.0000E+00  0.1000E+01  0.1000E+01
    -32.387  0.0000E+00  0.0000E+00  0.1000E+01  0.1000E+01
    -32.196  0.0000E+00  0.0000E+00  0.1000E+01  0.1000E+01
    -32.006  0.0000E+00  0.0000E+00  0.1000E+01  0.1000E+01
    -31.815  0.0000E+00  0.0000E+00  0.1000E+01  0.1000E+01
    -31.625  0.0000E+00  0.0000E+00  0.1000E+01  0.1000E+01
    -31.434  0.0000E+00  0.0000E+00  0.1000E+01  0.1000E+01
    -31.243  0.0000E+00  0.0000E+00  0.1000E+01  0.1000E+01
    -31.053  0.0000E+00  0.0000E+00  0.1000E+01  0.1000E+01
    -30.862  0.0000E+00  0.0000E+00  0.1000E+01  0.1000E+01
    -30.672  0.0000E+00  0.0000E+00  0.1000E+01  0.1000E+01
    -30.481  0.0000E+00  0.0000E+00  0.1000E+01  0.1000E+01
    -30.291  0.0000E+00  0.0000E+00  0.1000E+01  0.1000E+01
    -30.100  0.0000E+00  0.0000E+00  0.1000E+01  0.1000E+01
    -29.909  0.0000E+00  0.0000E+00  0.1000E+01  0.1000E+01
    -29.719  0.0000E+00  0.0000E+00  0.1000E+01  0.1000E+01
    -29.528  0.0000E+00  0.0000E+00  0.1000E+01  0.1000E+01
    -29.338  0.0000E+00  0.0000E+00  0.1000E+01  0.1000E+01
    -29.147  0.0000E+00  0.0000E+00  0.1000E+01  0.1000E+01
    -28.957  0.0000E+00  0.0000E+00  0.1000E+01  0.1000E+01
    -28.766  0.0000E+00  0.0000E+00  0.1000E+01  0.1000E+01
    -28.576  0.0000E+00  0.0000E+00  0.1000E+01  0.1000E+01
    -28.385  0.0000E+00  0.0000E+00  0.1000E+01  0.1000E+01
    -28.194  0.0000E+00  0.0000E+00  0.1000E+01  0.1000E+01
    -28.004  0.0000E+00  0.0000E+00  0.1000E+01  0.1000E+01
    -27.813  0.0000E+00  0.0000E+00  0.1000E+01  0.1000E+01
    -27.623  0.0000E+00  0.0000E+00  0.1000E+01  0.1000E+01
    -27.432  0.0000E+00  0.0000E+00  0.1000E+01  0.1000E+01
    -27.242  0.0000E+00  0.0000E+00  0.1000E+01  0.1000E+01
    -27.051  0.0000E+00  0.0000E+00  0.1000E+01  0.1000E+01
    -26.861  0.0000E+00  0.0000E+00  0.1000E+01  0.1000E+01
    -26.670  0.0000E+00  0.0000E+00  0.1000E+01  0.1000E+01
    -26.479  0.0000E+00  0.0000E+00  0.1000E+01  0.1000E+01
    -26.289  0.0000E+00  0.0000E+00  0.1000E+01  0.1000E+01
    -26.098  0.0000E+00  0.0000E+00  0.1000E+01  0.1000E+01
    -25.908  0.0000E+00  0.0000E+00  0.1000E+01  0.1000E+01
    -25.717  0.0000E+00  0.0000E+00  0.1000E+01  0.1000E+01
    -25.527  0.0000E+00  0.0000E+00  0.1000E+01  0.1000E+01
    -25.336  0.0000E+00  0.0000E+00  0.1000E+01  0.1000E+01
    -25.145  0.0000E+00  0.0000E+00  0.1000E+01  0.1000E+01
    -24.955  0.0000E+00  0.0000E+00  0.1000E+01  0.1000E+01
    -24.764  0.0000E+00  0.0000E+00  0.1000E+01  0.1000E+01
    -24.574  0.0000E+00  0.0000E+00  0.1000E+01  0.1000E+01
    -24.383  0.0000E+00  0.0000E+00  0.1000E+01  0.1000E+01
    -24.193  0.0000E+00  0.0000E+00  0.1000E+01  0.1000E+01
    -24.002  0.0000E+00  0.0000E+00  0.1000E+01  0.1000E+01
    -23.812  0.0000E+00  0.0000E+00  0.1000E+01  0.1000E+01
    -23.621  0.0000E+00  0.0000E+00  0.1000E+01  0.1000E+01
    -23.430  0.0000E+00  0.0000E+00  0.1000E+01  0.1000E+01
    -23.240  0.0000E+00  0.0000E+00  0.1000E+01  0.1000E+01
    -23.049  0.6465E-05  0.6416E-05  0.1000E+01  0.1000E+01
    -22.859  0.7755E+00  0.7743E+00  0.1148E+01  0.1148E+01
    -22.668  0.4353E+01  0.4354E+01  0.1977E+01  0.1977E+01
    -22.478  0.2575E+01  0.2574E+01  0.2468E+01  0.2468E+01
    -22.287  0.3374E+01  0.3376E+01  0.3111E+01  0.3111E+01
    -22.096  0.5685E+01  0.5683E+01  0.4195E+01  0.4194E+01
    -21.906  0.2984E+01  0.2986E+01  0.4763E+01  0.4763E+01
    -21.715  0.1851E+01  0.1851E+01  0.5116E+01  0.5116E+01
    -21.525  0.6101E+01  0.6098E+01  0.6278E+01  0.6278E+01
    -21.334  0.4370E+01  0.4372E+01  0.7111E+01  0.7111E+01
    -21.144  0.2771E+01  0.2770E+01  0.7639E+01  0.7639E+01
    -20.953  0.1279E+01  0.1279E+01  0.7883E+01  0.7883E+01
    -20.763  0.7318E+01  0.7318E+01  0.9278E+01  0.9277E+01
    -20.572  0.5721E+01  0.5722E+01  0.1037E+02  0.1037E+02
    -20.381  0.4033E+00  0.4037E+00  0.1044E+02  0.1044E+02
    -20.191  0.3445E+01  0.3444E+01  0.1110E+02  0.1110E+02
    -20.000  0.5051E+01  0.5048E+01  0.1206E+02  0.1206E+02
    -19.810  0.5497E+01  0.5500E+01  0.1311E+02  0.1311E+02
    -19.619  0.5635E+01  0.5633E+01  0.1418E+02  0.1418E+02
    -19.429  0.1362E+01  0.1364E+01  0.1444E+02  0.1444E+02
    -19.238  0.1140E+00  0.1138E+00  0.1447E+02  0.1447E+02
    -19.048  0.8394E+01  0.8392E+01  0.1607E+02  0.1607E+02
    -18.857  0.5711E+01  0.5712E+01  0.1715E+02  0.1715E+02
    -18.666  0.3273E+01  0.3274E+01  0.1778E+02  0.1778E+02
    -18.476  0.3933E+01  0.3931E+01  0.1853E+02  0.1853E+02
    -18.285  0.3064E+01  0.3066E+01  0.1911E+02  0.1911E+02
    -18.095  0.1076E+00  0.1072E+00  0.1913E+02  0.1913E+02
    -17.904  0.1076E+02  0.1076E+02  0.2118E+02  0.2118E+02
    -17.714  0.3691E+01  0.3693E+01  0.2189E+02  0.2189E+02
    -17.523  0.7687E+01  0.7687E+01  0.2335E+02  0.2335E+02
    -17.332  0.2239E+01  0.2240E+01  0.2378E+02  0.2378E+02
    -17.142  0.3735E-02  0.3718E-02  0.2378E+02  0.2378E+02
    -16.951  0.2363E+01  0.2362E+01  0.2423E+02  0.2423E+02
    -16.761  0.8113E+01  0.8114E+01  0.2577E+02  0.2577E+02
    -16.570  0.1283E+00  0.1282E+00  0.2580E+02  0.2580E+02
    -16.380  0.3383E+01  0.3384E+01  0.2644E+02  0.2644E+02
    -16.189  0.7678E+00  0.7669E+00  0.2659E+02  0.2659E+02
    -15.999  0.4685E+01  0.4685E+01  0.2748E+02  0.2748E+02
    -15.808  0.1085E+02  0.1086E+02  0.2955E+02  0.2955E+02
    -15.617  0.2036E-01  0.2043E-01  0.2956E+02  0.2956E+02
    -15.427  0.1523E+01  0.1521E+01  0.2985E+02  0.2985E+02
    -15.236  0.1246E+02  0.1246E+02  0.3222E+02  0.3222E+02
    -15.046  0.7827E-01  0.7813E-01  0.3223E+02  0.3223E+02
    -14.855  0.6891E+01  0.6891E+01  0.3355E+02  0.3355E+02
    -14.665  0.9464E+00  0.9454E+00  0.3373E+02  0.3373E+02
    -14.474  0.4200E+01  0.4199E+01  0.3453E+02  0.3453E+02
    -14.283  0.7679E+01  0.7681E+01  0.3599E+02  0.3599E+02
    -14.093  0.1210E+01  0.1210E+01  0.3622E+02  0.3622E+02
    -13.902  0.3913E+00  0.3910E+00  0.3630E+02  0.3630E+02
    -13.712  0.7085E+01  0.7084E+01  0.3765E+02  0.3765E+02
    -13.521  0.5403E+01  0.4912E+01  0.3868E+02  0.3858E+02
    -13.331  0.7854E+01  0.8257E+01  0.4017E+02  0.4016E+02
    -13.140  0.6671E+01  0.6759E+01  0.4144E+02  0.4144E+02
    -12.950  0.1293E+01  0.1292E+01  0.4169E+02  0.4169E+02
    -12.759  0.9957E+01  0.9957E+01  0.4359E+02  0.4359E+02
    -12.568  0.2745E+01  0.2746E+01  0.4411E+02  0.4411E+02
    -12.378  0.7421E-02  0.7396E-02  0.4411E+02  0.4411E+02
    -12.187  0.4100E+01  0.4100E+01  0.4489E+02  0.4489E+02
    -11.997  0.1409E+02  0.1409E+02  0.4758E+02  0.4758E+02
    -11.806  0.2791E+01  0.2793E+01  0.4811E+02  0.4811E+02
    -11.616  0.1929E+01  0.1927E+01  0.4848E+02  0.4848E+02
    -11.425  0.5068E+01  0.5069E+01  0.4944E+02  0.4944E+02
    -11.235  0.2703E+01  0.2700E+01  0.4996E+02  0.4996E+02
    -11.044  0.7932E+01  0.7932E+01  0.5147E+02  0.5147E+02
    -10.853  0.1096E+02  0.1095E+02  0.5356E+02  0.5356E+02
    -10.663  0.9887E+01  0.9901E+01  0.5544E+02  0.5544E+02
    -10.472  0.8714E+01  0.5950E+01  0.5710E+02  0.5658E+02
    -10.282  0.1248E+02  0.1195E+02  0.5948E+02  0.5885E+02
    -10.091  0.9365E+01  0.1261E+02  0.6127E+02  0.6126E+02
     -9.901  0.1431E+02  0.1436E+02  0.6399E+02  0.6399E+02
     -9.710  0.7962E+01  0.7965E+01  0.6551E+02  0.6551E+02
     -9.519  0.1726E+02  0.1726E+02  0.6880E+02  0.6880E+02
     -9.329  0.1420E+02  0.1420E+02  0.7151E+02  0.7150E+02
     -9.138  0.5616E+01  0.5619E+01  0.7258E+02  0.7258E+02
     -8.948  0.9501E+01  0.9501E+01  0.7439E+02  0.7439E+02
     -8.757  0.2851E+01  0.2847E+01  0.7493E+02  0.7493E+02
     -8.567  0.1856E+02  0.1840E+02  0.7847E+02  0.7844E+02
     -8.376  0.1628E+02  0.1645E+02  0.8157E+02  0.8157E+02
     -8.186  0.3424E+01  0.3425E+01  0.8222E+02  0.8222E+02
     -7.995  0.3017E+00  0.2995E+00  0.8228E+02  0.8228E+02
     -7.804  0.9412E+01  0.9407E+01  0.8407E+02  0.8407E+02
     -7.614  0.1536E+02  0.1535E+02  0.8700E+02  0.8700E+02
     -7.423  0.5570E+01  0.5584E+01  0.8806E+02  0.8806E+02
     -7.233  0.7099E+01  0.7090E+01  0.8941E+02  0.8941E+02
     -7.042  0.4347E+01  0.4355E+01  0.9024E+02  0.9024E+02
     -6.852  0.7892E+01  0.4389E+01  0.9175E+02  0.9108E+02
     -6.661  0.1048E+02  0.1280E+02  0.9374E+02  0.9352E+02
     -6.470  0.1022E+02  0.1140E+02  0.9569E+02  0.9569E+02
     -6.280  0.5415E+01  0.5417E+01  0.9672E+02  0.9672E+02
     -6.089  0.7132E+01  0.7131E+01  0.9808E+02  0.9808E+02
     -5.899  0.5291E+00  0.5273E+00  0.9818E+02  0.9818E+02
     -5.708  0.3552E+01  0.3549E+01  0.9886E+02  0.9886E+02
     -5.518  0.6998E+01  0.6979E+01  0.1002E+03  0.1002E+03
     -5.327  0.1311E+02  0.1313E+02  0.1027E+03  0.1027E+03
     -5.137  0.5371E+01  0.4610E+00  0.1037E+03  0.1028E+03
     -4.946  0.1193E+01  0.5179E+01  0.1039E+03  0.1038E+03
     -4.755  0.6815E+01  0.7687E+01  0.1052E+03  0.1052E+03
     -4.565  0.1073E+01  0.1128E+01  0.1054E+03  0.1054E+03
     -4.374  0.7169E+01  0.7270E+01  0.1068E+03  0.1068E+03
     -4.184  0.5075E+01  0.4974E+01  0.1078E+03  0.1078E+03
     -3.993  0.3083E+01  0.8736E-01  0.1084E+03  0.1078E+03
     -3.803  0.2165E+01  0.5157E+01  0.1088E+03  0.1088E+03
     -3.612  0.5409E-07  0.2952E-02  0.1088E+03  0.1088E+03
     -3.422  0.1423E-02  0.1373E-02  0.1088E+03  0.1088E+03
     -3.231  0.2294E+01  0.2294E+01  0.1092E+03  0.1092E+03
     -3.040  0.7627E-01  0.3732E-01  0.1092E+03  0.1092E+03
     -2.850  0.5200E+01  0.0000E+00  0.1102E+03  0.1092E+03
     -2.659  0.8050E-02  0.6751E-09  0.1102E+03  0.1092E+03
     -2.469  0.1389E-06  0.9143E+00  0.1102E+03  0.1094E+03
     -2.278  0.2655E+01  0.6916E+01  0.1107E+03  0.1107E+03
     -2.088  0.4946E+01  0.5000E+01  0.1117E+03  0.1117E+03
     -1.897  0.2593E+01  0.2610E+01  0.1122E+03  0.1122E+03
     -1.706  0.1865E+01  0.1752E+01  0.1125E+03  0.1125E+03
     -1.516  0.1443E+02  0.1311E+02  0.1153E+03  0.1150E+03
     -1.325  0.8501E+01  0.9906E+01  0.1169E+03  0.1169E+03
     -1.135  0.8005E+01  0.8019E+01  0.1184E+03  0.1184E+03
     -0.944  0.2997E+01  0.2987E+01  0.1190E+03  0.1190E+03
     -0.754  0.6487E+01  0.6510E+01  0.1202E+03  0.1202E+03
     -0.563  0.1228E+00  0.7598E-03  0.1202E+03  0.1202E+03
     -0.373  0.7063E+01  0.2058E+01  0.1216E+03  0.1206E+03
     -0.182  0.4867E+01  0.6503E+01  0.1225E+03  0.1219E+03
      0.009  0.4794E+01  0.7919E+01  0.1234E+03  0.1234E+03
      0.199  0.1020E+02  0.1051E+02  0.1254E+03  0.1254E+03
      0.390  0.4706E+01  0.3707E+01  0.1263E+03  0.1261E+03
      0.580  0.4151E+01  0.4277E+01  0.1271E+03  0.1269E+03
      0.771  0.1315E+02  0.1345E+02  0.1296E+03  0.1295E+03
      0.961  0.6824E+01  0.5974E+01  0.1309E+03  0.1306E+03
      1.152  0.7245E+01  0.7059E+01  0.1323E+03  0.1319E+03
      1.343  0.1186E+02  0.1241E+02  0.1345E+03  0.1343E+03
      1.533  0.1532E+02  0.1449E+02  0.1374E+03  0.1371E+03
      1.724  0.1116E+02  0.1281E+02  0.1396E+03  0.1395E+03
      1.914  0.2323E+01  0.2620E+01  0.1400E+03  0.1400E+03
      2.105  0.1174E-03  0.3720E-03  0.1400E+03  0.1400E+03
      2.295  0.0000E+00  0.0000E+00  0.1400E+03  0.1400E+03
      2.486  0.0000E+00  0.0000E+00  0.1400E+03  0.1400E+03
      2.676  0.0000E+00  0.0000E+00  0.1400E+03  0.1400E+03
      2.867  0.0000E+00  0.0000E+00  0.1400E+03  0.1400E+03
      3.058  0.0000E+00  0.0000E+00  0.1400E+03  0.1400E+03
      3.248  0.0000E+00  0.0000E+00  0.1400E+03  0.1400E+03
      3.439  0.0000E+00  0.0000E+00  0.1400E+03  0.1400E+03
      3.629  0.0000E+00  0.0000E+00  0.1400E+03  0.1400E+03
      3.820  0.0000E+00  0.0000E+00  0.1400E+03  0.1400E+03
      4.010  0.0000E+00  0.0000E+00  0.1400E+03  0.1400E+03
      4.201  0.0000E+00  0.0000E+00  0.1400E+03  0.1400E+03
      4.391  0.0000E+00  0.0000E+00  0.1400E+03  0.1400E+03
