<?xml version="1.0" encoding="ISO-8859-1"?>
<modeling>
 <generator>
  <i name="program" type="string">vasp </i>
  <i name="version" type="string">5.4.1  </i>
  <i name="subversion" type="string">24Jun15 (build Jul 23 2024 06:15:33) complex                          parallel </i>
  <i name="platform" type="string">IFC91_ompi </i>
  <i name="date" type="string">2026 05 05 </i>
  <i name="time" type="string">21:42:41 </i>
 </generator>
 <incar>
  <i type="string" name="SYSTEM"> Li defective graphene MACE training lab</i>
  <i type="int" name="ISTART">     0</i>
  <i type="string" name="PREC">accurate</i>
  <i type="string" name="ALGO"> Normal</i>
  <i type="logical" name="ADDGRID"> T  </i>
  <i type="int" name="ISPIN">     2</i>
  <i type="int" name="ICHARG">     2</i>
  <i type="int" name="NELM">   120</i>
  <i type="int" name="IBRION">    -1</i>
  <i name="EDIFF">      0.00000100</i>
  <i type="int" name="NSW">     0</i>
  <i type="int" name="ISIF">     2</i>
  <i type="int" name="ISYM">     0</i>
  <i name="ENCUT">    520.00000000</i>
  <v name="MAGMOM">      0.10000000      0.10000000      0.10000000      0.10000000      0.10000000      0.10000000      0.10000000      0.10000000      0.10000000      0.10000000      0.10000000      0.10000000      0.10000000      0.10000000      0.10000000      0.10000000      0.10000000      0.10000000      0.10000000      0.10000000
      0.10000000      0.10000000      0.10000000      0.10000000      0.10000000      0.10000000      0.10000000      0.10000000      0.10000000      0.10000000      0.10000000      0.10000000      0.10000000      0.10000000      0.10000000      0.10000000      0.10000000      0.10000000      0.10000000      0.10000000
      0.10000000      0.10000000      0.10000000      0.10000000      0.10000000      0.10000000      0.10000000      0.10000000      0.10000000      0.10000000      1.00000000      0.10000000      0.10000000      0.10000000      0.10000000</v>
  <i type="string" name="LREAL"> Auto</i>
  <i type="int" name="ISMEAR">     0</i>
  <i name="SIGMA">      0.05000000</i>
  <i type="logical" name="LWAVE"> F  </i>
  <i type="logical" name="LCHARG"> F  </i>
  <i type="logical" name="LASPH"> T  </i>
  <v type="int" name="KPOINT_BSE">    -1     0     0     0</v>
  <i type="int" name="NELM">   120</i>
  <i type="logical" name="LASPH"> T  </i>
 </incar>
 <kpoints>
  <generation param="Gamma">
   <v type="int" name="divisions">       3        3        1 </v>
   <v name="usershift">      0.00000000       0.00000000       0.00000000 </v>
   <v name="genvec1">      0.33333333       0.00000000       0.00000000 </v>
   <v name="genvec2">      0.00000000       0.33333333       0.00000000 </v>
   <v name="genvec3">      0.00000000       0.00000000       1.00000000 </v>
   <v name="shift">      0.00000000       0.00000000       0.00000000 </v>
  </generation>
  <varray name="kpointlist" >
   <v>       0.00000000       0.00000000       0.00000000 </v>
   <v>       0.33333333      -0.00000000       0.00000000 </v>
   <v>       0.00000000       0.33333333       0.00000000 </v>
   <v>       0.33333333       0.33333333       0.00000000 </v>
   <v>      -0.33333333       0.33333333       0.00000000 </v>
  </varray>
  <varray name="weights" >
   <v>       0.11111111 </v>
   <v>       0.22222222 </v>
   <v>       0.22222222 </v>
   <v>       0.22222222 </v>
   <v>       0.22222222 </v>
  </varray>
 </kpoints>
 <parameters>
  <separator name="general" >
   <i type="string" name="SYSTEM">Li defective graphene MACE training lab</i>
   <i type="logical" name="LCOMPAT"> F  </i>
  </separator>
  <separator name="electronic" >
   <i type="string" name="PREC">accura</i>
   <i name="ENMAX">    520.00000000</i>
   <i name="ENAUG">    644.87300000</i>
   <i name="EDIFF">      0.00000100</i>
   <i type="int" name="IALGO">    38</i>
   <i type="int" name="IWAVPR">    10</i>
   <i type="int" name="NBANDS">   140</i>
   <i name="NELECT">    219.00000000</i>
   <i type="int" name="TURBO">     0</i>
   <i type="int" name="IRESTART">     0</i>
   <i type="int" name="NREBOOT">     0</i>
   <i type="int" name="NMIN">     0</i>
   <i name="EREF">      0.00000000</i>
   <separator name="electronic smearing" >
    <i type="int" name="ISMEAR">     0</i>
    <i name="SIGMA">      0.05000000</i>
    <i name="KSPACING">      0.50000000</i>
    <i type="logical" name="KGAMMA"> T  </i>
   </separator>
   <separator name="electronic projectors" >
    <i type="logical" name="LREAL"> T  </i>
    <v name="ROPT">     -0.00025000     -0.00025000     -0.00025000</v>
    <i type="int" name="LMAXPAW">  -100</i>
    <i type="int" name="LMAXMIX">     2</i>
    <i type="logical" name="NLSPLINE"> F  </i>
   </separator>
   <separator name="electronic startup" >
    <i type="int" name="ISTART">     0</i>
    <i type="int" name="ICHARG">     2</i>
    <i type="int" name="INIWAV">     1</i>
   </separator>
   <separator name="electronic spin" >
    <i type="int" name="ISPIN">     2</i>
    <i type="logical" name="LNONCOLLINEAR"> F  </i>
    <v name="MAGMOM">      0.10000000      0.10000000      0.10000000      0.10000000      0.10000000      0.10000000      0.10000000      0.10000000      0.10000000      0.10000000      0.10000000      0.10000000      0.10000000      0.10000000      0.10000000      0.10000000      0.10000000      0.10000000      0.10000000      0.10000000
      0.10000000      0.10000000      0.10000000      0.10000000      0.10000000      0.10000000      0.10000000      0.10000000      0.10000000      0.10000000      0.10000000      0.10000000      0.10000000      0.10000000      0.10000000      0.10000000      0.10000000      0.10000000      0.10000000      0.10000000
      0.10000000      0.10000000      0.10000000      0.10000000      0.10000000      0.10000000      0.10000000      0.10000000      0.10000000      0.10000000      1.00000000      0.10000000      0.10000000      0.10000000      0.10000000</v>
    <i name="NUPDOWN">     -1.00000000</i>
    <i type="logical" name="LSORBIT"> F  </i>
    <v name="SAXIS">      0.00000000      0.00000000      1.00000000</v>
    <i type="logical" name="LSPIRAL"> F  </i>
    <v name="QSPIRAL">      0.00000000      0.00000000      0.00000000</v>
    <i type="logical" name="LZEROZ"> F  </i>
   </separator>
   <separator name="electronic exchange-correlation" >
    <i type="logical" name="LASPH"> T  </i>
    <i type="logical" name="LMETAGGA"> F  </i>
   </separator>
   <separator name="electronic convergence" >
    <i type="int" name="NELM">   120</i>
    <i type="int" name="NELMDL">    -5</i>
    <i type="int" name="NELMIN">     2</i>
    <i name="ENINI">    520.00000000</i>
    <separator name="electronic convergence detail" >
     <i type="logical" name="LDIAG"> T  </i>
     <i type="logical" name="LSUBROT"> F  </i>
     <i name="WEIMIN">      0.00000000</i>
     <i name="EBREAK">      0.00000000</i>
     <i name="DEPER">      0.30000000</i>
     <i type="int" name="NRMM">     4</i>
     <i name="TIME">      0.40000000</i>
    </separator>
   </separator>
   <separator name="electronic mixer" >
    <i name="AMIX">      0.40000000</i>
    <i name="BMIX">      1.00000000</i>
    <i name="AMIN">      0.10000000</i>
    <i name="AMIX_MAG">      1.60000000</i>
    <i name="BMIX_MAG">      1.00000000</i>
    <separator name="electronic mixer details" >
     <i type="int" name="IMIX">     4</i>
     <i type="logical" name="MIXFIRST"> F  </i>
     <i type="int" name="MAXMIX">   -45</i>
     <i name="WC">    100.00000000</i>
     <i type="int" name="INIMIX">     1</i>
     <i type="int" name="MIXPRE">     1</i>
     <i type="int" name="MREMOVE">     5</i>
    </separator>
   </separator>
   <separator name="electronic dipolcorrection" >
    <i type="logical" name="LDIPOL"> F  </i>
    <i type="logical" name="LMONO"> F  </i>
    <i type="int" name="IDIPOL">     0</i>
    <i name="EPSILON">      1.00000000</i>
    <v name="DIPOL">   -100.00000000   -100.00000000   -100.00000000</v>
    <i name="EFIELD">      0.00000000</i>
   </separator>
  </separator>
  <separator name="grids" >
   <i type="int" name="NGX">    96</i>
   <i type="int" name="NGY">    96</i>
   <i type="int" name="NGZ">   224</i>
   <i type="int" name="NGXF">   192</i>
   <i type="int" name="NGYF">   192</i>
   <i type="int" name="NGZF">   448</i>
   <i type="logical" name="ADDGRID"> T  </i>
  </separator>
  <separator name="ionic" >
   <i type="int" name="NSW">     0</i>
   <i type="int" name="IBRION">    -1</i>
   <i type="int" name="ISIF">     2</i>
   <i name="PSTRESS">      0.00000000</i>
   <i name="EDIFFG">      0.00001000</i>
   <i type="int" name="NFREE">     0</i>
   <i name="POTIM">      0.50000000</i>
   <i name="SMASS">     -3.00000000</i>
   <i name="SCALEE">      1.00000000</i>
  </separator>
  <separator name="ionic md" >
   <i name="TEBEG">      0.00010000</i>
   <i name="TEEND">      0.00010000</i>
   <i type="int" name="NBLOCK">     1</i>
   <i type="int" name="KBLOCK">     1</i>
   <i type="int" name="NPACO">   256</i>
   <i name="APACO">     16.00000000</i>
  </separator>
  <separator name="symmetry" >
   <i type="int" name="ISYM">     0</i>
   <i name="SYMPREC">      0.00001000</i>
  </separator>
  <separator name="dos" >
   <i type="logical" name="LORBIT"> F  </i>
   <v name="RWIGS">     -1.00000000     -1.00000000     -1.00000000</v>
   <i type="int" name="NEDOS">   301</i>
   <i name="EMIN">     10.00000000</i>
   <i name="EMAX">    -10.00000000</i>
   <i name="EFERMI">      0.00000000</i>
  </separator>
  <separator name="writing" >
   <i type="int" name="NWRITE">     2</i>
   <i type="logical" name="LWAVE"> F  </i>
   <i type="logical" name="LCHARG"> F  </i>
   <i type="logical" name="LPARD"> F  </i>
   <i type="logical" name="LVTOT"> F  </i>
   <i type="logical" name="LVHAR"> F  </i>
   <i type="logical" name="LELF"> F  </i>
   <i type="logical" name="LOPTICS"> F  </i>
   <v name="STM">      0.00000000      0.00000000      0.00000000      0.00000000      0.00000000      0.00000000      0.00000000</v>
  </separator>
  <separator name="performance" >
   <i type="int" name="NPAR">     4</i>
   <i type="int" name="NSIM">     4</i>
   <i type="int" name="NBLK">    -1</i>
   <i type="logical" name="LPLANE"> T  </i>
   <i type="logical" name="LSCALAPACK"> T  </i>
   <i type="logical" name="LSCAAWARE"> F  </i>
   <i type="logical" name="LSCALU"> F  </i>
   <i type="logical" name="LASYNC"> F  </i>
   <i type="logical" name="LORBITALREAL"> F  </i>
  </separator>
  <separator name="miscellaneous" >
   <i type="int" name="IDIOT">     3</i>
   <i type="logical" name="LMUSIC"> F  </i>
   <v name="POMASS">     12.01100000      7.01000000     28.08500000</v>
   <v name="DARWINR">      0.00000000      0.00000000      0.00000000</v>
   <v name="DARWINV">      1.00000000      1.00000000      1.00000000</v>
   <i type="logical" name="LCORR"> T  </i>
  </separator>
  <i type="logical" name="GGA_COMPAT"> T  </i>
  <i type="logical" name="LBERRY"> F  </i>
  <i type="int" name="ICORELEVEL">     0</i>
  <i type="logical" name="LDAU"> F  </i>
  <i type="int" name="I_CONSTRAINED_M">     0</i>
  <separator name="electronic exchange-correlation" >
   <i type="string" name="GGA">--</i>
   <i type="int" name="VOSKOWN">     0</i>
   <i type="logical" name="LHFCALC"> F  </i>
   <i type="string" name="PRECFOCK"></i>
   <i type="logical" name="LSYMGRAD"> F  </i>
   <i type="logical" name="LHFONE"> F  </i>
   <i type="logical" name="LRHFCALC"> F  </i>
   <i type="logical" name="LTHOMAS"> F  </i>
   <i type="logical" name="LMODELHF"> F  </i>
   <i name="ENCUT4O">     -1.00000000</i>
   <i type="int" name="EXXOEP">     0</i>
   <i type="int" name="FOURORBIT">     0</i>
   <i name="AEXX">      0.00000000</i>
   <i name="HFALPHA">      0.00000000</i>
   <i name="MCALPHA">      0.00000000</i>
   <i name="ALDAX">      1.00000000</i>
   <i name="AGGAX">      1.00000000</i>
   <i name="ALDAC">      1.00000000</i>
   <i name="AGGAC">      1.00000000</i>
   <i type="int" name="NKREDX">     1</i>
   <i type="int" name="NKREDY">     1</i>
   <i type="int" name="NKREDZ">     1</i>
   <i type="logical" name="SHIFTRED"> F  </i>
   <i type="logical" name="ODDONLY"> F  </i>
   <i type="logical" name="EVENONLY"> F  </i>
   <i type="int" name="LMAXFOCK">     0</i>
   <i type="int" name="NMAXFOCKAE">     0</i>
   <i type="logical" name="LFOCKAEDFT"> F  </i>
   <i name="HFSCREEN">      0.00000000</i>
   <i name="HFSCREENC">      0.00000000</i>
   <i type="int" name="NBANDSGWLOW">     0</i>
  </separator>
  <separator name="vdW DFT" >
   <i type="logical" name="LUSE_VDW"> F  </i>
   <i name="Zab_VDW">     -0.84910000</i>
   <i name="PARAM1">      0.12340000</i>
   <i name="PARAM2">      1.00000000</i>
   <i name="PARAM3">      0.00000000</i>
  </separator>
  <separator name="model GW" >
   <i type="int" name="MODEL_GW">     0</i>
   <i name="MODEL_EPS0">     42.87959455</i>
   <i name="MODEL_ALPHA">      1.00000000</i>
  </separator>
  <separator name="linear response parameters" >
   <i type="logical" name="LEPSILON"> F  </i>
   <i type="logical" name="LRPA"> F  </i>
   <i type="logical" name="LNABLA"> F  </i>
   <i type="logical" name="LVEL"> F  </i>
   <i type="int" name="KINTER">     0</i>
   <i name="CSHIFT">      0.10000000</i>
   <i name="OMEGAMAX">     -1.00000000</i>
   <i name="DEG_THRESHOLD">      0.00200000</i>
  </separator>
  <separator name="orbital magnetization" >
   <i type="logical" name="NUCIND"> F  </i>
   <v name="MAGPOS">      0.00000000      0.00000000      0.00000000</v>
   <i type="logical" name="LNICSALL"> T  </i>
   <i type="logical" name="ORBITALMAG"> F  </i>
   <i type="logical" name="LMAGBLOCH"> F  </i>
   <i type="logical" name="LCHIMAG"> F  </i>
   <i type="logical" name="LGAUGE"> T  </i>
   <i type="int" name="MAGATOM">     0</i>
   <v name="MAGDIPOL">      0.00000000      0.00000000      0.00000000</v>
   <v name="AVECCONST">      0.00000000      0.00000000      0.00000000</v>
  </separator>
  <separator name="response functions" >
   <i type="logical" name="LADDER"> F  </i>
   <i type="logical" name="LFXC"> F  </i>
   <i type="logical" name="LHARTREE"> T  </i>
   <i type="int" name="IBSE">     0</i>
   <v type="int" name="KPOINT">    -1     0     0     0</v>
   <i type="logical" name="LTCTE"> F  </i>
   <i type="logical" name="LTETE"> F  </i>
   <i type="logical" name="LTRIPLET"> F  </i>
   <i type="logical" name="LFXCEPS"> F  </i>
   <i type="logical" name="LFXHEG"> F  </i>
   <i type="int" name="NATURALO">     0</i>
   <i type="logical" name="L2ORDER"> F  </i>
   <i type="logical" name="LUSEW"> F  </i>
   <i name="ENCUTGW">     -2.00000000</i>
   <i name="ENCUTGWSOFT">     -2.00000000</i>
   <i name="ENCUTLF">     -1.00000000</i>
   <i type="int" name="LMAXMP2">    -1</i>
   <i name="SCISSOR">      0.00000000</i>
   <i type="int" name="NOMEGA">     0</i>
   <i type="int" name="NOMEGAR">     0</i>
   <i type="int" name="NBANDSGW">    -1</i>
   <i type="int" name="NBANDSO">    -1</i>
   <i type="int" name="NBANDSV">    -1</i>
   <i type="int" name="NELM">   120</i>
   <i type="int" name="NELMHF">     1</i>
   <i type="int" name="DIM">     3</i>
   <i type="int" name="ANTIRES">     0</i>
   <i name="OMEGAMAX">    -30.00000000</i>
   <i name="OMEGAMIN">    -30.00000000</i>
   <i name="OMEGATL">   -200.00000000</i>
   <i type="int" name="OMEGAGRID">     0</i>
   <i name="CSHIFT">     -0.10000000</i>
   <i type="logical" name="SELFENERGY"> F  </i>
   <i type="logical" name="LSPECTRAL"> F  </i>
   <i type="logical" name="LSPECTRALGW"> F  </i>
   <i type="logical" name="LSINGLES"> F  </i>
   <i type="logical" name="LFERMIGW"> F  </i>
   <i type="logical" name="ODDONLYGW"> F  </i>
   <i type="logical" name="EVENONLYGW"> F  </i>
   <i type="int" name="NKREDLFX">     1</i>
   <i type="int" name="NKREDLFY">     1</i>
   <i type="int" name="NKREDLFZ">     1</i>
   <i type="int" name="MAXMEM">  1800</i>
   <i type="int" name="TELESCOPE">     0</i>
   <i type="int" name="TAUPAR">     1</i>
   <i type="int" name="OMEGAPAR">    -1</i>
   <i name="LAMBDA">      1.00000000</i>
  </separator>
  <separator name="External order field" >
   <i name="OFIELD_KAPPA">      0.00000000</i>
   <v name="OFIELD_K">      0.00000000      0.00000000      0.00000000</v>
   <i name="OFIELD_Q6_NEAR">      0.00000000</i>
   <i name="OFIELD_Q6_FAR">      0.00000000</i>
   <i name="OFIELD_A">      0.00000000</i>
  </separator>
 </parameters>
 <atominfo>
  <atoms>      55 </atoms>
  <types>       3 </types>
  <array name="atoms" >
   <dimension dim="1">ion</dimension>
   <field type="string">element</field>
   <field type="int">atomtype</field>
   <set>
    <rc><c>C </c><c>   1</c></rc>
    <rc><c>C </c><c>   1</c></rc>
    <rc><c>C </c><c>   1</c></rc>
    <rc><c>C </c><c>   1</c></rc>
    <rc><c>C </c><c>   1</c></rc>
    <rc><c>C </c><c>   1</c></rc>
    <rc><c>C </c><c>   1</c></rc>
    <rc><c>C </c><c>   1</c></rc>
    <rc><c>C </c><c>   1</c></rc>
    <rc><c>C </c><c>   1</c></rc>
    <rc><c>C </c><c>   1</c></rc>
    <rc><c>C </c><c>   1</c></rc>
    <rc><c>C </c><c>   1</c></rc>
    <rc><c>C </c><c>   1</c></rc>
    <rc><c>C </c><c>   1</c></rc>
    <rc><c>C </c><c>   1</c></rc>
    <rc><c>C </c><c>   1</c></rc>
    <rc><c>C </c><c>   1</c></rc>
    <rc><c>C </c><c>   1</c></rc>
    <rc><c>C </c><c>   1</c></rc>
    <rc><c>C </c><c>   1</c></rc>
    <rc><c>C </c><c>   1</c></rc>
    <rc><c>C </c><c>   1</c></rc>
    <rc><c>C </c><c>   1</c></rc>
    <rc><c>C </c><c>   1</c></rc>
    <rc><c>C </c><c>   1</c></rc>
    <rc><c>C </c><c>   1</c></rc>
    <rc><c>C </c><c>   1</c></rc>
    <rc><c>C </c><c>   1</c></rc>
    <rc><c>C </c><c>   1</c></rc>
    <rc><c>C </c><c>   1</c></rc>
    <rc><c>C </c><c>   1</c></rc>
    <rc><c>C </c><c>   1</c></rc>
    <rc><c>C </c><c>   1</c></rc>
    <rc><c>C </c><c>   1</c></rc>
    <rc><c>C </c><c>   1</c></rc>
    <rc><c>C </c><c>   1</c></rc>
    <rc><c>C </c><c>   1</c></rc>
    <rc><c>C </c><c>   1</c></rc>
    <rc><c>C </c><c>   1</c></rc>
    <rc><c>C </c><c>   1</c></rc>
    <rc><c>C </c><c>   1</c></rc>
    <rc><c>C </c><c>   1</c></rc>
    <rc><c>C </c><c>   1</c></rc>
    <rc><c>C </c><c>   1</c></rc>
    <rc><c>C </c><c>   1</c></rc>
    <rc><c>C </c><c>   1</c></rc>
    <rc><c>C </c><c>   1</c></rc>
    <rc><c>C </c><c>   1</c></rc>
    <rc><c>C </c><c>   1</c></rc>
    <rc><c>Li</c><c>   2</c></rc>
    <rc><c>Si</c><c>   3</c></rc>
    <rc><c>Si</c><c>   3</c></rc>
    <rc><c>Si</c><c>   3</c></rc>
    <rc><c>Si</c><c>   3</c></rc>
   </set>
  </array>
  <array name="atomtypes" >
   <dimension dim="1">type</dimension>
   <field type="int">atomspertype</field>
   <field type="string">element</field>
   <field>mass</field>
   <field>valence</field>
   <field type="string">pseudopotential</field>
   <set>
    <rc><c>  50</c><c>C </c><c>     12.01100000</c><c>      4.00000000</c><c>  PAW_PBE C 08Apr2002                   </c></rc>
    <rc><c>   1</c><c>Li</c><c>      7.01000000</c><c>      3.00000000</c><c>  PAW_PBE Li_sv 10Sep2004               </c></rc>
    <rc><c>   4</c><c>Si</c><c>     28.08500000</c><c>      4.00000000</c><c>  PAW_PBE Si 05Jan2001                  </c></rc>
   </set>
  </array>
 </atominfo>
 <structure name="initialpos" >
  <crystal>
   <varray name="basis" >
    <v>      12.30000000       0.00000000       0.00000000 </v>
    <v>      -6.15000000      10.65211247       0.00000000 </v>
    <v>       0.00000000       0.00000000      30.00000000 </v>
   </varray>
   <i name="volume">   3930.62950016 </i>
   <varray name="rec_basis" >
    <v>       0.08130081       0.04693905       0.00000000 </v>
    <v>       0.00000000       0.09387809       0.00000000 </v>
    <v>       0.00000000       0.00000000       0.03333333 </v>
   </varray>
  </crystal>
  <varray name="positions" >
   <v>       0.00345074       0.99986383       0.49609670 </v>
   <v>       0.00348460       0.19970334       0.49664178 </v>
   <v>       0.13682954       0.26641593       0.49662475 </v>
   <v>       0.00369603       0.39951385       0.49732348 </v>
   <v>       0.13694708       0.46642552       0.49708584 </v>
   <v>       0.00383788       0.60005532       0.49711179 </v>
   <v>       0.13728880       0.66673225       0.49714247 </v>
   <v>       0.00373898       0.80037993       0.49623857 </v>
   <v>       0.13693361       0.86663486       0.49637633 </v>
   <v>       0.40332590       0.39971860       0.49590635 </v>
   <v>       0.33679058       0.06643168       0.49601494 </v>
   <v>       0.53661624       0.26629152       0.49570410 </v>
   <v>       0.20350352       0.99988078       0.49615422 </v>
   <v>       0.20353132       0.39972944       0.49672267 </v>
   <v>       0.33680059       0.46648876       0.49629492 </v>
   <v>       0.20362647       0.59981745       0.49699182 </v>
   <v>       0.33686522       0.66650087       0.49656844 </v>
   <v>       0.20361733       0.79994590       0.49668328 </v>
   <v>       0.33686383       0.86652635       0.49644123 </v>
   <v>       0.40346456       0.99981634       0.49614744 </v>
   <v>       0.53673714       0.06636083       0.49614030 </v>
   <v>       0.40335236       0.19969184       0.49582630 </v>
   <v>       0.20346847       0.19976015       0.49630817 </v>
   <v>       0.33677594       0.26642160       0.49600636 </v>
   <v>       0.53671381       0.66650573       0.49577726 </v>
   <v>       0.13676778       0.06644140       0.49620324 </v>
   <v>       0.73675221       0.86656239       0.49579090 </v>
   <v>       0.40345319       0.79981189       0.49641146 </v>
   <v>       0.53677031       0.86643479       0.49613927 </v>
   <v>       0.60343762       0.99974474       0.49621758 </v>
   <v>       0.73674534       0.06635827       0.49634866 </v>
   <v>       0.60329964       0.19960770       0.49607178 </v>
   <v>       0.73647718       0.26588547       0.49658746 </v>
   <v>       0.60285721       0.39947764       0.49554387 </v>
   <v>       0.73629875       0.46622453       0.49571691 </v>
   <v>       0.60324845       0.59978617       0.49552552 </v>
   <v>       0.53657849       0.46639432       0.49553343 </v>
   <v>       0.40344283       0.59979045       0.49620483 </v>
   <v>       0.73644477       0.66674569       0.49555307 </v>
   <v>       0.80346948       0.99983073       0.49611591 </v>
   <v>       0.93675302       0.06643387       0.49626334 </v>
   <v>       0.80338933       0.19958592       0.49670218 </v>
   <v>       0.93678703       0.26628266       0.49693830 </v>
   <v>       0.80315717       0.39930135       0.49657820 </v>
   <v>       0.93695234       0.46624950       0.49725907 </v>
   <v>       0.80315673       0.60002138       0.49569846 </v>
   <v>       0.93698371       0.66696228       0.49635207 </v>
   <v>       0.80338826       0.79995657       0.49565506 </v>
   <v>       0.93678992       0.86661211       0.49589353 </v>
   <v>       0.60345197       0.79982850       0.49586192 </v>
   <v>       0.84379779       0.53373289       0.55293658 </v>
   <v>       0.52033525       0.40496966       0.67613139 </v>
   <v>       0.71141259       0.58973245       0.68898397 </v>
   <v>       0.68672958       0.46155567       0.62731800 </v>
   <v>       0.87646093       0.64798229       0.64082278 </v>
  </varray>
 </structure>
 <calculation>
  <scstep>
   <time name="dav">   46.88   46.88</time>
   <time name="total">   49.87   49.88</time>
   <energy>
    <i name="alphaZ">     59.51446491 </i>
    <i name="ewald">  59548.87400238 </i>
    <i name="hartreedc"> -65154.56424114 </i>
    <i name="XCdc">    632.72269886 </i>
    <i name="pawpsdc">   5858.04939626 </i>
    <i name="pawaedc">  -5831.48174947 </i>
    <i name="eentropy">     -0.03052178 </i>
    <i name="bandstr">  -1035.79569491 </i>
    <i name="atom">   7972.48291802 </i>
    <i name="e_fr_energy">   2049.77127314 </i>
    <i name="e_wo_entrp">   2049.80179492 </i>
    <i name="e_0_energy">   2049.78653403 </i>
   </energy>
  </scstep>
  <scstep>
   <time name="dav">   40.53   40.53</time>
   <time name="total">   40.53   40.55</time>
   <energy>
    <i name="e_fr_energy">     29.26154485 </i>
    <i name="e_wo_entrp">     29.27090924 </i>
    <i name="e_0_energy">     29.26622704 </i>
   </energy>
  </scstep>
  <scstep>
   <time name="dav">   35.59   35.59</time>
   <time name="total">   35.59   35.60</time>
   <energy>
    <i name="e_fr_energy">   -483.17565384 </i>
    <i name="e_wo_entrp">   -483.16969717 </i>
    <i name="e_0_energy">   -483.17267551 </i>
   </energy>
  </scstep>
  <scstep>
   <time name="dav">   34.77   34.77</time>
   <time name="total">   34.77   34.77</time>
   <energy>
    <i name="e_fr_energy">   -513.31866840 </i>
    <i name="e_wo_entrp">   -513.30565772 </i>
    <i name="e_0_energy">   -513.31216306 </i>
   </energy>
  </scstep>
  <scstep>
   <time name="dav">   41.46   41.46</time>
   <time name="total">   44.66   44.66</time>
   <energy>
    <i name="e_fr_energy">   -514.50151894 </i>
    <i name="e_wo_entrp">   -514.48784003 </i>
    <i name="e_0_energy">   -514.49467949 </i>
   </energy>
  </scstep>
  <scstep>
   <time name="dav">   32.82   32.82</time>
   <time name="total">   38.09   38.09</time>
   <energy>
    <i name="e_fr_energy">   -487.62511292 </i>
    <i name="e_wo_entrp">   -487.60874179 </i>
    <i name="e_0_energy">   -487.61692736 </i>
   </energy>
  </scstep>
  <scstep>
   <time name="dav">   31.58   31.58</time>
   <time name="total">   36.81   36.81</time>
   <energy>
    <i name="e_fr_energy">   -477.27268439 </i>
    <i name="e_wo_entrp">   -477.25868486 </i>
    <i name="e_0_energy">   -477.26568463 </i>
   </energy>
  </scstep>
  <scstep>
   <time name="dav">   30.95   30.95</time>
   <time name="total">   36.21   36.21</time>
   <energy>
    <i name="e_fr_energy">   -475.67790923 </i>
    <i name="e_wo_entrp">   -475.66394548 </i>
    <i name="e_0_energy">   -475.67092735 </i>
   </energy>
  </scstep>
  <scstep>
   <time name="dav">   35.35   35.35</time>
   <time name="total">   40.60   40.60</time>
   <energy>
    <i name="e_fr_energy">   -475.71169886 </i>
    <i name="e_wo_entrp">   -475.69773515 </i>
    <i name="e_0_energy">   -475.70471700 </i>
   </energy>
  </scstep>
  <scstep>
   <time name="dav">   32.19   32.19</time>
   <time name="total">   37.43   37.43</time>
   <energy>
    <i name="e_fr_energy">   -476.25145686 </i>
    <i name="e_wo_entrp">   -476.23749282 </i>
    <i name="e_0_energy">   -476.24447484 </i>
   </energy>
  </scstep>
  <scstep>
   <time name="dav">   31.78   31.78</time>
   <time name="total">   36.99   36.99</time>
   <energy>
    <i name="e_fr_energy">   -476.82057299 </i>
    <i name="e_wo_entrp">   -476.80660890 </i>
    <i name="e_0_energy">   -476.81359095 </i>
   </energy>
  </scstep>
  <scstep>
   <time name="dav">   31.74   31.74</time>
   <time name="total">   36.95   36.96</time>
   <energy>
    <i name="e_fr_energy">   -477.47804754 </i>
    <i name="e_wo_entrp">   -477.46408344 </i>
    <i name="e_0_energy">   -477.47106549 </i>
   </energy>
  </scstep>
  <scstep>
   <time name="dav">   30.41   30.41</time>
   <time name="total">   35.62   35.62</time>
   <energy>
    <i name="e_fr_energy">   -478.07553613 </i>
    <i name="e_wo_entrp">   -478.06157181 </i>
    <i name="e_0_energy">   -478.06855397 </i>
   </energy>
  </scstep>
  <scstep>
   <time name="dav">   30.38   30.38</time>
   <time name="total">   35.59   35.60</time>
   <energy>
    <i name="e_fr_energy">   -478.25285312 </i>
    <i name="e_wo_entrp">   -478.23888823 </i>
    <i name="e_0_energy">   -478.24587067 </i>
   </energy>
  </scstep>
  <scstep>
   <time name="dav">   30.61   30.61</time>
   <time name="total">   35.80   35.80</time>
   <energy>
    <i name="e_fr_energy">   -478.91749747 </i>
    <i name="e_wo_entrp">   -478.90353212 </i>
    <i name="e_0_energy">   -478.91051479 </i>
   </energy>
  </scstep>
  <scstep>
   <time name="dav">   31.01   31.01</time>
   <time name="total">   36.24   36.24</time>
   <energy>
    <i name="e_fr_energy">   -479.31205823 </i>
    <i name="e_wo_entrp">   -479.29809287 </i>
    <i name="e_0_energy">   -479.30507555 </i>
   </energy>
  </scstep>
  <scstep>
   <time name="dav">   31.11   31.11</time>
   <time name="total">   36.34   36.34</time>
   <energy>
    <i name="e_fr_energy">   -479.56515688 </i>
    <i name="e_wo_entrp">   -479.55119161 </i>
    <i name="e_0_energy">   -479.55817425 </i>
   </energy>
  </scstep>
  <scstep>
   <time name="dav">   31.53   31.53</time>
   <time name="total">   36.74   36.74</time>
   <energy>
    <i name="e_fr_energy">   -479.69169589 </i>
    <i name="e_wo_entrp">   -479.67773071 </i>
    <i name="e_0_energy">   -479.68471330 </i>
   </energy>
  </scstep>
  <scstep>
   <time name="dav">   32.02   32.02</time>
   <time name="total">   37.21   37.21</time>
   <energy>
    <i name="e_fr_energy">   -479.73643247 </i>
    <i name="e_wo_entrp">   -479.72246740 </i>
    <i name="e_0_energy">   -479.72944993 </i>
   </energy>
  </scstep>
  <scstep>
   <time name="dav">   31.08   31.08</time>
   <time name="total">   36.31   36.31</time>
   <energy>
    <i name="e_fr_energy">   -479.76274525 </i>
    <i name="e_wo_entrp">   -479.74878036 </i>
    <i name="e_0_energy">   -479.75576280 </i>
   </energy>
  </scstep>
  <scstep>
   <time name="dav">   32.44   32.44</time>
   <time name="total">   37.68   37.68</time>
   <energy>
    <i name="e_fr_energy">   -479.77194529 </i>
    <i name="e_wo_entrp">   -479.75798055 </i>
    <i name="e_0_energy">   -479.76496292 </i>
   </energy>
  </scstep>
  <scstep>
   <time name="dav">   31.31   31.31</time>
   <time name="total">   36.52   36.52</time>
   <energy>
    <i name="e_fr_energy">   -479.78422516 </i>
    <i name="e_wo_entrp">   -479.77026055 </i>
    <i name="e_0_energy">   -479.77724285 </i>
   </energy>
  </scstep>
  <scstep>
   <time name="dav">   31.24   31.24</time>
   <time name="total">   36.45   36.45</time>
   <energy>
    <i name="e_fr_energy">   -479.79848180 </i>
    <i name="e_wo_entrp">   -479.78451725 </i>
    <i name="e_0_energy">   -479.79149952 </i>
   </energy>
  </scstep>
  <scstep>
   <time name="dav">   28.20   28.20</time>
   <time name="total">   33.45   33.45</time>
   <energy>
    <i name="e_fr_energy">   -479.80571494 </i>
    <i name="e_wo_entrp">   -479.79175040 </i>
    <i name="e_0_energy">   -479.79873267 </i>
   </energy>
  </scstep>
  <scstep>
   <time name="dav">   27.03   27.03</time>
   <time name="total">   32.29   32.29</time>
   <energy>
    <i name="e_fr_energy">   -479.80856072 </i>
    <i name="e_wo_entrp">   -479.79459617 </i>
    <i name="e_0_energy">   -479.80157845 </i>
   </energy>
  </scstep>
  <scstep>
   <time name="dav">   26.71   26.71</time>
   <time name="total">   31.96   31.96</time>
   <energy>
    <i name="e_fr_energy">   -479.80975042 </i>
    <i name="e_wo_entrp">   -479.79578585 </i>
    <i name="e_0_energy">   -479.80276814 </i>
   </energy>
  </scstep>
  <scstep>
   <time name="dav">   27.53   27.54</time>
   <time name="total">   32.76   32.76</time>
   <energy>
    <i name="e_fr_energy">   -479.81031548 </i>
    <i name="e_wo_entrp">   -479.79635088 </i>
    <i name="e_0_energy">   -479.80333318 </i>
   </energy>
  </scstep>
  <scstep>
   <time name="dav">   27.01   27.01</time>
   <time name="total">   32.27   32.27</time>
   <energy>
    <i name="e_fr_energy">   -479.81053513 </i>
    <i name="e_wo_entrp">   -479.79657052 </i>
    <i name="e_0_energy">   -479.80355283 </i>
   </energy>
  </scstep>
  <scstep>
   <time name="dav">   27.54   27.55</time>
   <time name="total">   32.81   32.82</time>
   <energy>
    <i name="e_fr_energy">   -479.81062577 </i>
    <i name="e_wo_entrp">   -479.79666116 </i>
    <i name="e_0_energy">   -479.80364346 </i>
   </energy>
  </scstep>
  <scstep>
   <time name="dav">   24.39   24.39</time>
   <time name="total">   29.65   29.65</time>
   <energy>
    <i name="e_fr_energy">   -479.81068369 </i>
    <i name="e_wo_entrp">   -479.79671908 </i>
    <i name="e_0_energy">   -479.80370139 </i>
   </energy>
  </scstep>
  <scstep>
   <time name="dav">   24.52   24.52</time>
   <time name="total">   29.76   29.77</time>
   <energy>
    <i name="e_fr_energy">   -479.81070984 </i>
    <i name="e_wo_entrp">   -479.79674522 </i>
    <i name="e_0_energy">   -479.80372753 </i>
   </energy>
  </scstep>
  <scstep>
   <time name="dav">   23.71   23.71</time>
   <time name="total">   29.00   29.00</time>
   <energy>
    <i name="e_fr_energy">   -479.81072504 </i>
    <i name="e_wo_entrp">   -479.79676042 </i>
    <i name="e_0_energy">   -479.80374273 </i>
   </energy>
  </scstep>
  <scstep>
   <time name="dav">   22.91   22.91</time>
   <time name="total">   28.20   28.21</time>
   <energy>
    <i name="e_fr_energy">   -479.81073523 </i>
    <i name="e_wo_entrp">   -479.79677061 </i>
    <i name="e_0_energy">   -479.80375292 </i>
   </energy>
  </scstep>
  <scstep>
   <time name="dav">   22.48   22.49</time>
   <time name="total">   27.75   27.76</time>
   <energy>
    <i name="e_fr_energy">   -479.81073818 </i>
    <i name="e_wo_entrp">   -479.79677356 </i>
    <i name="e_0_energy">   -479.80375587 </i>
   </energy>
  </scstep>
  <scstep>
   <time name="dav">   22.85   22.85</time>
   <time name="total">   28.12   28.13</time>
   <energy>
    <i name="e_fr_energy">   -479.81074007 </i>
    <i name="e_wo_entrp">   -479.79677545 </i>
    <i name="e_0_energy">   -479.80375776 </i>
   </energy>
  </scstep>
  <scstep>
   <time name="dav">   22.41   22.41</time>
   <time name="total">   24.52   24.53</time>
   <energy>
    <i name="alphaZ">     59.51446491 </i>
    <i name="ewald">  59548.87400238 </i>
    <i name="hartreedc"> -66033.97526586 </i>
    <i name="XCdc">    663.44021563 </i>
    <i name="pawpsdc">  22366.09264135 </i>
    <i name="pawaedc"> -22345.99560477 </i>
    <i name="eentropy">     -0.01396462 </i>
    <i name="bandstr">  -2710.23014772 </i>
    <i name="atom">   7972.48291802 </i>
    <i name="e_fr_energy">   -479.81074068 </i>
    <i name="e_wo_entrp">   -479.79677606 </i>
    <i name="e_0_energy">   -479.80375837 </i>
   </energy>
  </scstep>
  <structure>
   <crystal>
    <varray name="basis" >
     <v>      12.30000000       0.00000000       0.00000000 </v>
     <v>      -6.15000000      10.65211247       0.00000000 </v>
     <v>       0.00000000       0.00000000      30.00000000 </v>
    </varray>
    <i name="volume">   3930.62950016 </i>
    <varray name="rec_basis" >
     <v>       0.08130081       0.04693905       0.00000000 </v>
     <v>       0.00000000       0.09387809       0.00000000 </v>
     <v>       0.00000000       0.00000000       0.03333333 </v>
    </varray>
   </crystal>
   <varray name="positions" >
    <v>       0.00345074       0.99986383       0.49609670 </v>
    <v>       0.00348460       0.19970334       0.49664178 </v>
    <v>       0.13682954       0.26641593       0.49662475 </v>
    <v>       0.00369603       0.39951385       0.49732348 </v>
    <v>       0.13694708       0.46642552       0.49708584 </v>
    <v>       0.00383788       0.60005532       0.49711179 </v>
    <v>       0.13728880       0.66673225       0.49714247 </v>
    <v>       0.00373898       0.80037993       0.49623857 </v>
    <v>       0.13693361       0.86663486       0.49637633 </v>
    <v>       0.40332590       0.39971860       0.49590635 </v>
    <v>       0.33679058       0.06643168       0.49601494 </v>
    <v>       0.53661624       0.26629152       0.49570410 </v>
    <v>       0.20350352       0.99988078       0.49615422 </v>
    <v>       0.20353132       0.39972944       0.49672267 </v>
    <v>       0.33680059       0.46648876       0.49629492 </v>
    <v>       0.20362647       0.59981745       0.49699182 </v>
    <v>       0.33686522       0.66650087       0.49656844 </v>
    <v>       0.20361733       0.79994590       0.49668328 </v>
    <v>       0.33686383       0.86652635       0.49644123 </v>
    <v>       0.40346456       0.99981634       0.49614744 </v>
    <v>       0.53673714       0.06636083       0.49614030 </v>
    <v>       0.40335236       0.19969184       0.49582630 </v>
    <v>       0.20346847       0.19976015       0.49630817 </v>
    <v>       0.33677594       0.26642160       0.49600636 </v>
    <v>       0.53671381       0.66650573       0.49577726 </v>
    <v>       0.13676778       0.06644140       0.49620324 </v>
    <v>       0.73675221       0.86656239       0.49579090 </v>
    <v>       0.40345319       0.79981189       0.49641146 </v>
    <v>       0.53677031       0.86643479       0.49613927 </v>
    <v>       0.60343762       0.99974474       0.49621758 </v>
    <v>       0.73674534       0.06635827       0.49634866 </v>
    <v>       0.60329964       0.19960770       0.49607178 </v>
    <v>       0.73647718       0.26588547       0.49658746 </v>
    <v>       0.60285721       0.39947764       0.49554387 </v>
    <v>       0.73629875       0.46622453       0.49571691 </v>
    <v>       0.60324845       0.59978617       0.49552552 </v>
    <v>       0.53657849       0.46639432       0.49553343 </v>
    <v>       0.40344283       0.59979045       0.49620483 </v>
    <v>       0.73644477       0.66674569       0.49555307 </v>
    <v>       0.80346948       0.99983073       0.49611591 </v>
    <v>       0.93675302       0.06643387       0.49626334 </v>
    <v>       0.80338933       0.19958592       0.49670218 </v>
    <v>       0.93678703       0.26628266       0.49693830 </v>
    <v>       0.80315717       0.39930135       0.49657820 </v>
    <v>       0.93695234       0.46624950       0.49725907 </v>
    <v>       0.80315673       0.60002138       0.49569846 </v>
    <v>       0.93698371       0.66696228       0.49635207 </v>
    <v>       0.80338826       0.79995657       0.49565506 </v>
    <v>       0.93678992       0.86661211       0.49589353 </v>
    <v>       0.60345197       0.79982850       0.49586192 </v>
    <v>       0.84379779       0.53373289       0.55293658 </v>
    <v>       0.52033525       0.40496966       0.67613139 </v>
    <v>       0.71141259       0.58973245       0.68898397 </v>
    <v>       0.68672958       0.46155567       0.62731800 </v>
    <v>       0.87646093       0.64798229       0.64082278 </v>
   </varray>
  </structure>
  <varray name="forces" >
   <v>       0.00574609       0.00325900       0.00066976 </v>
   <v>      -0.00372140       0.00565338       0.00460819 </v>
   <v>      -0.01184823      -0.00079085      -0.00709921 </v>
   <v>      -0.00714630       0.00024482       0.01779267 </v>
   <v>      -0.01061590       0.00859645       0.00692219 </v>
   <v>       0.04421796       0.00305723      -0.04023517 </v>
   <v>      -0.01540781      -0.00226688       0.00556092 </v>
   <v>      -0.01236047       0.02004291       0.02194176 </v>
   <v>      -0.00499806      -0.00681500       0.00389786 </v>
   <v>       0.00985857       0.00251448      -0.00021861 </v>
   <v>       0.00419784      -0.00798233       0.01226282 </v>
   <v>      -0.00825994      -0.00491975       0.01120256 </v>
   <v>      -0.00296192       0.00006513       0.00247599 </v>
   <v>      -0.00379654       0.00346986       0.00068241 </v>
   <v>       0.00310377      -0.00012126       0.00094894 </v>
   <v>      -0.01379573      -0.01075717       0.01246108 </v>
   <v>      -0.00401560       0.00003024      -0.00352620 </v>
   <v>      -0.00734742       0.00140062      -0.00102177 </v>
   <v>      -0.00074698      -0.00205658      -0.00058376 </v>
   <v>      -0.00644334      -0.00523983      -0.00226263 </v>
   <v>      -0.00260887      -0.00138436       0.00180464 </v>
   <v>       0.00044148       0.02150408       0.00092398 </v>
   <v>      -0.00468329      -0.00236003      -0.00500552 </v>
   <v>      -0.00654466      -0.00638157      -0.00055015 </v>
   <v>       0.00643163       0.00446632       0.00808992 </v>
   <v>       0.00667663       0.00033933      -0.00305913 </v>
   <v>      -0.00469456      -0.01349360       0.00142355 </v>
   <v>       0.01292850       0.00645237      -0.00471171 </v>
   <v>      -0.00641026       0.00600597       0.00225100 </v>
   <v>       0.00018480       0.00502072      -0.01013408 </v>
   <v>      -0.01300875      -0.01150744      -0.00304350 </v>
   <v>       0.00311252      -0.00604803       0.00077689 </v>
   <v>      -0.00855922      -0.02146313       0.01154251 </v>
   <v>      -0.04695494      -0.02434542       0.00934315 </v>
   <v>      -0.18714307      -0.15452249      -0.41106935 </v>
   <v>      -0.01059280       0.00789093      -0.00875633 </v>
   <v>      -0.00472838      -0.00802134      -0.00763359 </v>
   <v>      -0.00208031      -0.00563142       0.00060140 </v>
   <v>      -0.04144677       0.02105889       0.01092709 </v>
   <v>       0.00852023      -0.00284300       0.00259099 </v>
   <v>      -0.00420530       0.00152819      -0.00242851 </v>
   <v>       0.00688000       0.01864548       0.00179434 </v>
   <v>      -0.00467697       0.00737986       0.00059721 </v>
   <v>       0.03832826      -0.07035456      -0.12242858 </v>
   <v>       0.03793517      -0.00496522      -0.05500868 </v>
   <v>      -0.17906907       0.15433858      -0.41733322 </v>
   <v>       0.03833055       0.07291349      -0.12081347 </v>
   <v>      -0.00194304       0.00840066       0.00590562 </v>
   <v>       0.00226157       0.00021132      -0.00029492 </v>
   <v>      -0.00431922      -0.00266532       0.00265126 </v>
   <v>       0.32775873      -0.00505817       1.27323541 </v>
   <v>      -0.00278609      -0.00688213      -0.00472621 </v>
   <v>      -0.00910798      -0.03609323       0.02040651 </v>
   <v>       0.03244945       0.02534247      -0.07225817 </v>
   <v>       0.06966547       0.01513733      -0.15209015 </v>
  </varray>
  <varray name="stress" >
   <v>       5.19062936       0.02505611       0.38327431 </v>
   <v>       0.02505609       5.23437101      -0.03306818 </v>
   <v>       0.38327416      -0.03306817       0.42961304 </v>
  </varray>
  <energy>
   <i name="e_fr_energy">   -479.81074068 </i>
   <i name="e_wo_entrp">   -479.80375837 </i>
   <i name="e_0_energy">     -0.01396462 </i>
  </energy>
  <time name="totalsc"> 1320.12 1320.28</time>
  <eigenvalues>
   <array>
    <dimension dim="1">band</dimension>
    <dimension dim="2">kpoint</dimension>
    <dimension dim="3">spin</dimension>
    <field>eigene</field>
    <field>occ</field>
    <set>
     <set comment="spin 1">
      <set comment="kpoint 1">
       <r>  -50.1782    1.0000 </r>
       <r>  -22.8993    1.0000 </r>
       <r>  -22.1049    1.0000 </r>
       <r>  -21.9475    1.0000 </r>
       <r>  -21.9429    1.0000 </r>
       <r>  -21.8528    1.0000 </r>
       <r>  -21.8500    1.0000 </r>
       <r>  -21.8268    1.0000 </r>
       <r>  -20.1356    1.0000 </r>
       <r>  -20.0971    1.0000 </r>
       <r>  -20.0946    1.0000 </r>
       <r>  -20.0444    1.0000 </r>
       <r>  -20.0436    1.0000 </r>
       <r>  -20.0223    1.0000 </r>
       <r>  -19.1911    1.0000 </r>
       <r>  -19.1865    1.0000 </r>
       <r>  -19.1665    1.0000 </r>
       <r>  -19.1529    1.0000 </r>
       <r>  -19.1262    1.0000 </r>
       <r>  -19.1258    1.0000 </r>
       <r>  -17.0472    1.0000 </r>
       <r>  -17.0435    1.0000 </r>
       <r>  -16.9806    1.0000 </r>
       <r>  -16.9797    1.0000 </r>
       <r>  -16.9276    1.0000 </r>
       <r>  -16.9124    1.0000 </r>
       <r>  -16.0573    1.0000 </r>
       <r>  -16.0135    1.0000 </r>
       <r>  -16.0121    1.0000 </r>
       <r>  -15.9860    1.0000 </r>
       <r>  -15.9856    1.0000 </r>
       <r>  -15.9770    1.0000 </r>
       <r>  -14.6527    1.0000 </r>
       <r>  -14.6489    1.0000 </r>
       <r>  -14.6484    1.0000 </r>
       <r>  -14.6353    1.0000 </r>
       <r>  -14.6346    1.0000 </r>
       <r>  -14.6250    1.0000 </r>
       <r>  -13.4746    1.0000 </r>
       <r>  -12.2894    1.0000 </r>
       <r>  -12.2869    1.0000 </r>
       <r>  -12.2534    1.0000 </r>
       <r>  -12.2512    1.0000 </r>
       <r>  -12.2277    1.0000 </r>
       <r>  -12.2164    1.0000 </r>
       <r>  -12.2076    1.0000 </r>
       <r>  -12.2000    1.0000 </r>
       <r>  -12.1228    1.0000 </r>
       <r>  -12.1223    1.0000 </r>
       <r>  -12.1059    1.0000 </r>
       <r>  -12.1051    1.0000 </r>
       <r>  -11.0129    1.0000 </r>
       <r>  -10.7900    1.0000 </r>
       <r>  -10.7809    1.0000 </r>
       <r>  -10.7779    1.0000 </r>
       <r>  -10.7713    1.0000 </r>
       <r>  -10.7689    1.0000 </r>
       <r>  -10.7684    1.0000 </r>
       <r>  -10.4788    1.0000 </r>
       <r>  -10.0793    1.0000 </r>
       <r>   -9.8882    1.0000 </r>
       <r>   -9.8833    1.0000 </r>
       <r>   -9.7538    1.0000 </r>
       <r>   -9.7498    1.0000 </r>
       <r>   -9.7263    1.0000 </r>
       <r>   -9.5363    1.0000 </r>
       <r>   -9.5335    1.0000 </r>
       <r>   -9.5206    1.0000 </r>
       <r>   -9.4782    1.0000 </r>
       <r>   -9.4772    1.0000 </r>
       <r>   -9.4309    1.0000 </r>
       <r>   -9.4301    1.0000 </r>
       <r>   -9.4247    1.0000 </r>
       <r>   -9.4235    1.0000 </r>
       <r>   -9.4061    1.0000 </r>
       <r>   -9.4041    1.0000 </r>
       <r>   -9.3731    1.0000 </r>
       <r>   -8.5857    1.0000 </r>
       <r>   -7.8465    1.0000 </r>
       <r>   -7.8432    1.0000 </r>
       <r>   -7.8359    1.0000 </r>
       <r>   -7.8283    1.0000 </r>
       <r>   -7.8254    1.0000 </r>
       <r>   -7.7769    1.0000 </r>
       <r>   -7.7746    1.0000 </r>
       <r>   -7.7600    1.0000 </r>
       <r>   -7.7570    1.0000 </r>
       <r>   -7.6675    1.0000 </r>
       <r>   -7.6648    1.0000 </r>
       <r>   -7.6322    1.0000 </r>
       <r>   -6.9100    1.0000 </r>
       <r>   -6.8829    1.0000 </r>
       <r>   -6.8387    1.0000 </r>
       <r>   -6.7909    1.0000 </r>
       <r>   -6.7650    1.0000 </r>
       <r>   -6.7287    1.0000 </r>
       <r>   -6.7254    1.0000 </r>
       <r>   -6.3093    1.0000 </r>
       <r>   -6.3083    1.0000 </r>
       <r>   -5.1925    1.0000 </r>
       <r>   -4.9184    1.0000 </r>
       <r>   -4.9165    1.0000 </r>
       <r>   -4.9010    1.0000 </r>
       <r>   -4.8028    1.0000 </r>
       <r>   -4.7977    1.0000 </r>
       <r>   -4.7332    1.0000 </r>
       <r>   -4.7106    1.0000 </r>
       <r>   -4.3734    1.0000 </r>
       <r>   -3.9995    1.0000 </r>
       <r>   -2.9553    0.5642 </r>
       <r>   -2.0891    0.0000 </r>
       <r>   -2.0870    0.0000 </r>
       <r>   -2.0098    0.0000 </r>
       <r>   -2.0084    0.0000 </r>
       <r>   -1.9558    0.0000 </r>
       <r>   -1.9000    0.0000 </r>
       <r>   -1.5794    0.0000 </r>
       <r>   -1.5085    0.0000 </r>
       <r>   -0.4965    0.0000 </r>
       <r>   -0.2067    0.0000 </r>
       <r>   -0.1899    0.0000 </r>
       <r>   -0.1379    0.0000 </r>
       <r>   -0.0805    0.0000 </r>
       <r>   -0.0746    0.0000 </r>
       <r>   -0.0665    0.0000 </r>
       <r>   -0.0280    0.0000 </r>
       <r>    0.3588    0.0000 </r>
       <r>    0.6012    0.0000 </r>
       <r>    0.9077    0.0000 </r>
       <r>    0.9323    0.0000 </r>
       <r>    1.1918    0.0000 </r>
       <r>    1.2294    0.0000 </r>
       <r>    1.2806    0.0000 </r>
       <r>    1.3516    0.0000 </r>
       <r>    1.4174    0.0000 </r>
       <r>    1.4840    0.0000 </r>
       <r>    1.4920    0.0000 </r>
       <r>    1.5879    0.0000 </r>
       <r>    1.5990    0.0000 </r>
       <r>    1.6347    0.0000 </r>
      </set>
      <set comment="kpoint 2">
       <r>  -50.1782    1.0000 </r>
       <r>  -22.8083    1.0000 </r>
       <r>  -22.4559    1.0000 </r>
       <r>  -22.1365    1.0000 </r>
       <r>  -22.1118    1.0000 </r>
       <r>  -21.5394    1.0000 </r>
       <r>  -21.4787    1.0000 </r>
       <r>  -21.1728    1.0000 </r>
       <r>  -20.9161    1.0000 </r>
       <r>  -20.8611    1.0000 </r>
       <r>  -20.2597    1.0000 </r>
       <r>  -19.9798    1.0000 </r>
       <r>  -19.9757    1.0000 </r>
       <r>  -19.6519    1.0000 </r>
       <r>  -19.6467    1.0000 </r>
       <r>  -19.1012    1.0000 </r>
       <r>  -19.0475    1.0000 </r>
       <r>  -18.4830    1.0000 </r>
       <r>  -18.4799    1.0000 </r>
       <r>  -17.9926    1.0000 </r>
       <r>  -17.9145    1.0000 </r>
       <r>  -17.9050    1.0000 </r>
       <r>  -17.6674    1.0000 </r>
       <r>  -17.6612    1.0000 </r>
       <r>  -16.8719    1.0000 </r>
       <r>  -16.8566    1.0000 </r>
       <r>  -16.1613    1.0000 </r>
       <r>  -15.9122    1.0000 </r>
       <r>  -15.9084    1.0000 </r>
       <r>  -15.4014    1.0000 </r>
       <r>  -15.3950    1.0000 </r>
       <r>  -15.3582    1.0000 </r>
       <r>  -15.3303    1.0000 </r>
       <r>  -14.9704    1.0000 </r>
       <r>  -14.9362    1.0000 </r>
       <r>  -13.7589    1.0000 </r>
       <r>  -13.7565    1.0000 </r>
       <r>  -13.5454    1.0000 </r>
       <r>  -13.5166    1.0000 </r>
       <r>  -13.4746    1.0000 </r>
       <r>  -13.2769    1.0000 </r>
       <r>  -13.2632    1.0000 </r>
       <r>  -12.9375    1.0000 </r>
       <r>  -12.8160    1.0000 </r>
       <r>  -12.8137    1.0000 </r>
       <r>  -12.0532    1.0000 </r>
       <r>  -12.0158    1.0000 </r>
       <r>  -11.6030    1.0000 </r>
       <r>  -11.5845    1.0000 </r>
       <r>  -11.2308    1.0000 </r>
       <r>  -11.2142    1.0000 </r>
       <r>  -11.1656    1.0000 </r>
       <r>  -10.9560    1.0000 </r>
       <r>  -10.9412    1.0000 </r>
       <r>  -10.9040    1.0000 </r>
       <r>  -10.4949    1.0000 </r>
       <r>  -10.4626    1.0000 </r>
       <r>  -10.3298    1.0000 </r>
       <r>  -10.3033    1.0000 </r>
       <r>  -10.2747    1.0000 </r>
       <r>  -10.2662    1.0000 </r>
       <r>  -10.0980    1.0000 </r>
       <r>  -10.0693    1.0000 </r>
       <r>   -9.9588    1.0000 </r>
       <r>   -9.9460    1.0000 </r>
       <r>   -9.6939    1.0000 </r>
       <r>   -9.6702    1.0000 </r>
       <r>   -9.6595    1.0000 </r>
       <r>   -9.5675    1.0000 </r>
       <r>   -9.5625    1.0000 </r>
       <r>   -9.4107    1.0000 </r>
       <r>   -9.3243    1.0000 </r>
       <r>   -9.0703    1.0000 </r>
       <r>   -8.9719    1.0000 </r>
       <r>   -8.7445    1.0000 </r>
       <r>   -8.7217    1.0000 </r>
       <r>   -8.7014    1.0000 </r>
       <r>   -8.6093    1.0000 </r>
       <r>   -8.5638    1.0000 </r>
       <r>   -8.5167    1.0000 </r>
       <r>   -8.4751    1.0000 </r>
       <r>   -8.4418    1.0000 </r>
       <r>   -7.9462    1.0000 </r>
       <r>   -7.8972    1.0000 </r>
       <r>   -7.7132    1.0000 </r>
       <r>   -7.6968    1.0000 </r>
       <r>   -7.6607    1.0000 </r>
       <r>   -7.6012    1.0000 </r>
       <r>   -7.2789    1.0000 </r>
       <r>   -7.2736    1.0000 </r>
       <r>   -7.1041    1.0000 </r>
       <r>   -6.8702    1.0000 </r>
       <r>   -6.7325    1.0000 </r>
       <r>   -6.6806    1.0000 </r>
       <r>   -6.5809    1.0000 </r>
       <r>   -6.5313    1.0000 </r>
       <r>   -6.1748    1.0000 </r>
       <r>   -6.1533    1.0000 </r>
       <r>   -5.8532    1.0000 </r>
       <r>   -5.5411    1.0000 </r>
       <r>   -5.5164    1.0000 </r>
       <r>   -5.3856    1.0000 </r>
       <r>   -5.3798    1.0000 </r>
       <r>   -5.1908    1.0000 </r>
       <r>   -4.9042    1.0000 </r>
       <r>   -4.4169    1.0000 </r>
       <r>   -4.3910    1.0000 </r>
       <r>   -4.3475    1.0000 </r>
       <r>   -4.0020    1.0000 </r>
       <r>   -2.9542    0.5519 </r>
       <r>   -2.2745    0.0000 </r>
       <r>   -2.2592    0.0000 </r>
       <r>   -1.6329    0.0000 </r>
       <r>   -1.6039    0.0000 </r>
       <r>   -1.5309    0.0000 </r>
       <r>   -1.5091    0.0000 </r>
       <r>   -1.4149    0.0000 </r>
       <r>   -1.2239    0.0000 </r>
       <r>   -1.2171    0.0000 </r>
       <r>   -0.9010    0.0000 </r>
       <r>   -0.8806    0.0000 </r>
       <r>   -0.4872    0.0000 </r>
       <r>    0.0513    0.0000 </r>
       <r>    0.1278    0.0000 </r>
       <r>    0.1738    0.0000 </r>
       <r>    0.3633    0.0000 </r>
       <r>    0.5880    0.0000 </r>
       <r>    0.6667    0.0000 </r>
       <r>    0.6861    0.0000 </r>
       <r>    0.7265    0.0000 </r>
       <r>    0.9035    0.0000 </r>
       <r>    1.0222    0.0000 </r>
       <r>    1.1553    0.0000 </r>
       <r>    1.2433    0.0000 </r>
       <r>    1.3519    0.0000 </r>
       <r>    1.3633    0.0000 </r>
       <r>    1.4190    0.0000 </r>
       <r>    1.5123    0.0000 </r>
       <r>    1.5192    0.0000 </r>
       <r>    1.6373    0.0000 </r>
      </set>
      <set comment="kpoint 3">
       <r>  -50.1782    1.0000 </r>
       <r>  -22.8081    1.0000 </r>
       <r>  -22.4571    1.0000 </r>
       <r>  -22.1358    1.0000 </r>
       <r>  -22.1109    1.0000 </r>
       <r>  -21.5407    1.0000 </r>
       <r>  -21.4784    1.0000 </r>
       <r>  -21.1724    1.0000 </r>
       <r>  -20.9171    1.0000 </r>
       <r>  -20.8607    1.0000 </r>
       <r>  -20.2595    1.0000 </r>
       <r>  -19.9807    1.0000 </r>
       <r>  -19.9733    1.0000 </r>
       <r>  -19.6522    1.0000 </r>
       <r>  -19.6472    1.0000 </r>
       <r>  -19.1021    1.0000 </r>
       <r>  -19.0471    1.0000 </r>
       <r>  -18.4838    1.0000 </r>
       <r>  -18.4789    1.0000 </r>
       <r>  -17.9928    1.0000 </r>
       <r>  -17.9156    1.0000 </r>
       <r>  -17.9040    1.0000 </r>
       <r>  -17.6680    1.0000 </r>
       <r>  -17.6601    1.0000 </r>
       <r>  -16.8725    1.0000 </r>
       <r>  -16.8562    1.0000 </r>
       <r>  -16.1620    1.0000 </r>
       <r>  -15.9121    1.0000 </r>
       <r>  -15.9079    1.0000 </r>
       <r>  -15.4006    1.0000 </r>
       <r>  -15.3927    1.0000 </r>
       <r>  -15.3590    1.0000 </r>
       <r>  -15.3312    1.0000 </r>
       <r>  -14.9720    1.0000 </r>
       <r>  -14.9356    1.0000 </r>
       <r>  -13.7589    1.0000 </r>
       <r>  -13.7558    1.0000 </r>
       <r>  -13.5480    1.0000 </r>
       <r>  -13.5157    1.0000 </r>
       <r>  -13.4746    1.0000 </r>
       <r>  -13.2770    1.0000 </r>
       <r>  -13.2639    1.0000 </r>
       <r>  -12.9380    1.0000 </r>
       <r>  -12.8159    1.0000 </r>
       <r>  -12.8126    1.0000 </r>
       <r>  -12.0517    1.0000 </r>
       <r>  -12.0147    1.0000 </r>
       <r>  -11.6030    1.0000 </r>
       <r>  -11.5841    1.0000 </r>
       <r>  -11.2315    1.0000 </r>
       <r>  -11.2146    1.0000 </r>
       <r>  -11.1663    1.0000 </r>
       <r>  -10.9558    1.0000 </r>
       <r>  -10.9420    1.0000 </r>
       <r>  -10.9039    1.0000 </r>
       <r>  -10.4978    1.0000 </r>
       <r>  -10.4604    1.0000 </r>
       <r>  -10.3298    1.0000 </r>
       <r>  -10.3044    1.0000 </r>
       <r>  -10.2749    1.0000 </r>
       <r>  -10.2653    1.0000 </r>
       <r>  -10.0966    1.0000 </r>
       <r>  -10.0700    1.0000 </r>
       <r>   -9.9592    1.0000 </r>
       <r>   -9.9469    1.0000 </r>
       <r>   -9.6926    1.0000 </r>
       <r>   -9.6707    1.0000 </r>
       <r>   -9.6594    1.0000 </r>
       <r>   -9.5669    1.0000 </r>
       <r>   -9.5623    1.0000 </r>
       <r>   -9.4095    1.0000 </r>
       <r>   -9.3260    1.0000 </r>
       <r>   -9.0700    1.0000 </r>
       <r>   -8.9713    1.0000 </r>
       <r>   -8.7435    1.0000 </r>
       <r>   -8.7186    1.0000 </r>
       <r>   -8.6941    1.0000 </r>
       <r>   -8.6276    1.0000 </r>
       <r>   -8.5571    1.0000 </r>
       <r>   -8.5160    1.0000 </r>
       <r>   -8.4758    1.0000 </r>
       <r>   -8.4417    1.0000 </r>
       <r>   -7.9465    1.0000 </r>
       <r>   -7.8991    1.0000 </r>
       <r>   -7.7131    1.0000 </r>
       <r>   -7.6972    1.0000 </r>
       <r>   -7.6575    1.0000 </r>
       <r>   -7.6004    1.0000 </r>
       <r>   -7.2793    1.0000 </r>
       <r>   -7.2735    1.0000 </r>
       <r>   -7.1032    1.0000 </r>
       <r>   -6.8715    1.0000 </r>
       <r>   -6.7330    1.0000 </r>
       <r>   -6.6823    1.0000 </r>
       <r>   -6.5806    1.0000 </r>
       <r>   -6.5307    1.0000 </r>
       <r>   -6.1747    1.0000 </r>
       <r>   -6.1517    1.0000 </r>
       <r>   -5.8567    1.0000 </r>
       <r>   -5.5443    1.0000 </r>
       <r>   -5.5121    1.0000 </r>
       <r>   -5.3863    1.0000 </r>
       <r>   -5.3783    1.0000 </r>
       <r>   -5.1905    1.0000 </r>
       <r>   -4.9043    1.0000 </r>
       <r>   -4.4129    1.0000 </r>
       <r>   -4.3867    1.0000 </r>
       <r>   -4.3553    1.0000 </r>
       <r>   -4.0011    1.0000 </r>
       <r>   -2.9557    0.5684 </r>
       <r>   -2.2833    0.0000 </r>
       <r>   -2.2513    0.0000 </r>
       <r>   -1.6504    0.0000 </r>
       <r>   -1.5859    0.0000 </r>
       <r>   -1.5240    0.0000 </r>
       <r>   -1.4840    0.0000 </r>
       <r>   -1.4485    0.0000 </r>
       <r>   -1.2260    0.0000 </r>
       <r>   -1.2129    0.0000 </r>
       <r>   -0.9035    0.0000 </r>
       <r>   -0.8782    0.0000 </r>
       <r>   -0.4798    0.0000 </r>
       <r>    0.0426    0.0000 </r>
       <r>    0.1266    0.0000 </r>
       <r>    0.1770    0.0000 </r>
       <r>    0.3465    0.0000 </r>
       <r>    0.6068    0.0000 </r>
       <r>    0.6684    0.0000 </r>
       <r>    0.6849    0.0000 </r>
       <r>    0.7275    0.0000 </r>
       <r>    0.9352    0.0000 </r>
       <r>    0.9976    0.0000 </r>
       <r>    1.1367    0.0000 </r>
       <r>    1.2448    0.0000 </r>
       <r>    1.3546    0.0000 </r>
       <r>    1.3647    0.0000 </r>
       <r>    1.3954    0.0000 </r>
       <r>    1.5094    0.0000 </r>
       <r>    1.5675    0.0000 </r>
       <r>    1.6358    0.0000 </r>
      </set>
      <set comment="kpoint 4">
       <r>  -50.1782    1.0000 </r>
       <r>  -22.7131    1.0000 </r>
       <r>  -22.4918    1.0000 </r>
       <r>  -22.4874    1.0000 </r>
       <r>  -21.6436    1.0000 </r>
       <r>  -21.5950    1.0000 </r>
       <r>  -21.5936    1.0000 </r>
       <r>  -20.7632    1.0000 </r>
       <r>  -20.7230    1.0000 </r>
       <r>  -20.7207    1.0000 </r>
       <r>  -20.6163    1.0000 </r>
       <r>  -20.6146    1.0000 </r>
       <r>  -20.6125    1.0000 </r>
       <r>  -18.9497    1.0000 </r>
       <r>  -18.9457    1.0000 </r>
       <r>  -18.9087    1.0000 </r>
       <r>  -18.8198    1.0000 </r>
       <r>  -18.8037    1.0000 </r>
       <r>  -18.8025    1.0000 </r>
       <r>  -18.0346    1.0000 </r>
       <r>  -18.0332    1.0000 </r>
       <r>  -17.9735    1.0000 </r>
       <r>  -17.5164    1.0000 </r>
       <r>  -17.5150    1.0000 </r>
       <r>  -17.4985    1.0000 </r>
       <r>  -16.5173    1.0000 </r>
       <r>  -16.4940    1.0000 </r>
       <r>  -16.4929    1.0000 </r>
       <r>  -15.9060    1.0000 </r>
       <r>  -15.9051    1.0000 </r>
       <r>  -14.4750    1.0000 </r>
       <r>  -14.4733    1.0000 </r>
       <r>  -14.4432    1.0000 </r>
       <r>  -14.4320    1.0000 </r>
       <r>  -14.4094    1.0000 </r>
       <r>  -14.4088    1.0000 </r>
       <r>  -14.3264    1.0000 </r>
       <r>  -14.3248    1.0000 </r>
       <r>  -14.2534    1.0000 </r>
       <r>  -13.8873    1.0000 </r>
       <r>  -13.4746    1.0000 </r>
       <r>  -12.8145    1.0000 </r>
       <r>  -12.6921    1.0000 </r>
       <r>  -12.6890    1.0000 </r>
       <r>  -12.0652    1.0000 </r>
       <r>  -12.0634    1.0000 </r>
       <r>  -12.0437    1.0000 </r>
       <r>  -12.0119    1.0000 </r>
       <r>  -12.0105    1.0000 </r>
       <r>  -11.9990    1.0000 </r>
       <r>  -10.8202    1.0000 </r>
       <r>  -10.7864    1.0000 </r>
       <r>  -10.7739    1.0000 </r>
       <r>  -10.7716    1.0000 </r>
       <r>  -10.6706    1.0000 </r>
       <r>  -10.6686    1.0000 </r>
       <r>  -10.6493    1.0000 </r>
       <r>  -10.5178    1.0000 </r>
       <r>  -10.5119    1.0000 </r>
       <r>  -10.4710    1.0000 </r>
       <r>  -10.0603    1.0000 </r>
       <r>  -10.0593    1.0000 </r>
       <r>  -10.0563    1.0000 </r>
       <r>   -9.8352    1.0000 </r>
       <r>   -9.8338    1.0000 </r>
       <r>   -9.8050    1.0000 </r>
       <r>   -9.5207    1.0000 </r>
       <r>   -9.4685    1.0000 </r>
       <r>   -9.4670    1.0000 </r>
       <r>   -9.1677    1.0000 </r>
       <r>   -9.1559    1.0000 </r>
       <r>   -9.1555    1.0000 </r>
       <r>   -9.1248    1.0000 </r>
       <r>   -9.1233    1.0000 </r>
       <r>   -9.1019    1.0000 </r>
       <r>   -8.6871    1.0000 </r>
       <r>   -8.6854    1.0000 </r>
       <r>   -8.6700    1.0000 </r>
       <r>   -8.6144    1.0000 </r>
       <r>   -8.4971    1.0000 </r>
       <r>   -8.4861    1.0000 </r>
       <r>   -8.4611    1.0000 </r>
       <r>   -8.3235    1.0000 </r>
       <r>   -8.3212    1.0000 </r>
       <r>   -8.3174    1.0000 </r>
       <r>   -7.5028    1.0000 </r>
       <r>   -7.5003    1.0000 </r>
       <r>   -7.4051    1.0000 </r>
       <r>   -6.9999    1.0000 </r>
       <r>   -6.9965    1.0000 </r>
       <r>   -6.9378    1.0000 </r>
       <r>   -6.8738    1.0000 </r>
       <r>   -6.6180    1.0000 </r>
       <r>   -6.6092    1.0000 </r>
       <r>   -6.4441    1.0000 </r>
       <r>   -6.3905    1.0000 </r>
       <r>   -6.3507    1.0000 </r>
       <r>   -6.3500    1.0000 </r>
       <r>   -5.6781    1.0000 </r>
       <r>   -5.6744    1.0000 </r>
       <r>   -5.5329    1.0000 </r>
       <r>   -5.4262    1.0000 </r>
       <r>   -5.4214    1.0000 </r>
       <r>   -5.4006    1.0000 </r>
       <r>   -5.1898    1.0000 </r>
       <r>   -4.9042    1.0000 </r>
       <r>   -4.3761    1.0000 </r>
       <r>   -4.0026    1.0000 </r>
       <r>   -3.3080    1.0000 </r>
       <r>   -3.3063    1.0000 </r>
       <r>   -2.9538    0.5468 </r>
       <r>   -1.7238    0.0000 </r>
       <r>   -1.7082    0.0000 </r>
       <r>   -1.6426    0.0000 </r>
       <r>   -1.5542    0.0000 </r>
       <r>   -1.4997    0.0000 </r>
       <r>   -1.1343    0.0000 </r>
       <r>   -1.1281    0.0000 </r>
       <r>   -1.0258    0.0000 </r>
       <r>   -0.5024    0.0000 </r>
       <r>   -0.4142    0.0000 </r>
       <r>   -0.4001    0.0000 </r>
       <r>   -0.2598    0.0000 </r>
       <r>   -0.2398    0.0000 </r>
       <r>   -0.1903    0.0000 </r>
       <r>   -0.1889    0.0000 </r>
       <r>    0.1202    0.0000 </r>
       <r>    0.4025    0.0000 </r>
       <r>    0.4776    0.0000 </r>
       <r>    0.6632    0.0000 </r>
       <r>    0.9097    0.0000 </r>
       <r>    1.0078    0.0000 </r>
       <r>    1.1195    0.0000 </r>
       <r>    1.2771    0.0000 </r>
       <r>    1.4036    0.0000 </r>
       <r>    1.5760    0.0000 </r>
       <r>    1.6052    0.0000 </r>
       <r>    1.6933    0.0000 </r>
       <r>    1.7566    0.0000 </r>
       <r>    1.7824    0.0000 </r>
      </set>
      <set comment="kpoint 5">
       <r>  -50.1782    1.0000 </r>
       <r>  -22.8078    1.0000 </r>
       <r>  -22.4581    1.0000 </r>
       <r>  -22.1346    1.0000 </r>
       <r>  -22.1106    1.0000 </r>
       <r>  -21.5416    1.0000 </r>
       <r>  -21.4784    1.0000 </r>
       <r>  -21.1721    1.0000 </r>
       <r>  -20.9177    1.0000 </r>
       <r>  -20.8607    1.0000 </r>
       <r>  -20.2594    1.0000 </r>
       <r>  -19.9780    1.0000 </r>
       <r>  -19.9745    1.0000 </r>
       <r>  -19.6526    1.0000 </r>
       <r>  -19.6476    1.0000 </r>
       <r>  -19.1026    1.0000 </r>
       <r>  -19.0472    1.0000 </r>
       <r>  -18.4826    1.0000 </r>
       <r>  -18.4799    1.0000 </r>
       <r>  -17.9948    1.0000 </r>
       <r>  -17.9136    1.0000 </r>
       <r>  -17.9050    1.0000 </r>
       <r>  -17.6667    1.0000 </r>
       <r>  -17.6607    1.0000 </r>
       <r>  -16.8715    1.0000 </r>
       <r>  -16.8563    1.0000 </r>
       <r>  -16.1616    1.0000 </r>
       <r>  -15.9122    1.0000 </r>
       <r>  -15.9084    1.0000 </r>
       <r>  -15.4000    1.0000 </r>
       <r>  -15.3939    1.0000 </r>
       <r>  -15.3594    1.0000 </r>
       <r>  -15.3317    1.0000 </r>
       <r>  -14.9710    1.0000 </r>
       <r>  -14.9356    1.0000 </r>
       <r>  -13.7585    1.0000 </r>
       <r>  -13.7565    1.0000 </r>
       <r>  -13.5466    1.0000 </r>
       <r>  -13.5164    1.0000 </r>
       <r>  -13.4746    1.0000 </r>
       <r>  -13.2770    1.0000 </r>
       <r>  -13.2633    1.0000 </r>
       <r>  -12.9378    1.0000 </r>
       <r>  -12.8155    1.0000 </r>
       <r>  -12.8137    1.0000 </r>
       <r>  -12.0528    1.0000 </r>
       <r>  -12.0140    1.0000 </r>
       <r>  -11.6041    1.0000 </r>
       <r>  -11.5841    1.0000 </r>
       <r>  -11.2311    1.0000 </r>
       <r>  -11.2142    1.0000 </r>
       <r>  -11.1660    1.0000 </r>
       <r>  -10.9563    1.0000 </r>
       <r>  -10.9415    1.0000 </r>
       <r>  -10.9034    1.0000 </r>
       <r>  -10.4962    1.0000 </r>
       <r>  -10.4645    1.0000 </r>
       <r>  -10.3296    1.0000 </r>
       <r>  -10.3034    1.0000 </r>
       <r>  -10.2742    1.0000 </r>
       <r>  -10.2653    1.0000 </r>
       <r>  -10.0944    1.0000 </r>
       <r>  -10.0687    1.0000 </r>
       <r>   -9.9602    1.0000 </r>
       <r>   -9.9472    1.0000 </r>
       <r>   -9.6927    1.0000 </r>
       <r>   -9.6717    1.0000 </r>
       <r>   -9.6605    1.0000 </r>
       <r>   -9.5658    1.0000 </r>
       <r>   -9.5615    1.0000 </r>
       <r>   -9.4120    1.0000 </r>
       <r>   -9.3258    1.0000 </r>
       <r>   -9.0699    1.0000 </r>
       <r>   -8.9705    1.0000 </r>
       <r>   -8.7443    1.0000 </r>
       <r>   -8.7186    1.0000 </r>
       <r>   -8.6957    1.0000 </r>
       <r>   -8.6255    1.0000 </r>
       <r>   -8.5574    1.0000 </r>
       <r>   -8.5168    1.0000 </r>
       <r>   -8.4760    1.0000 </r>
       <r>   -8.4412    1.0000 </r>
       <r>   -7.9453    1.0000 </r>
       <r>   -7.8989    1.0000 </r>
       <r>   -7.7125    1.0000 </r>
       <r>   -7.6966    1.0000 </r>
       <r>   -7.6586    1.0000 </r>
       <r>   -7.5999    1.0000 </r>
       <r>   -7.2821    1.0000 </r>
       <r>   -7.2747    1.0000 </r>
       <r>   -7.1031    1.0000 </r>
       <r>   -6.8635    1.0000 </r>
       <r>   -6.7330    1.0000 </r>
       <r>   -6.6893    1.0000 </r>
       <r>   -6.5794    1.0000 </r>
       <r>   -6.5310    1.0000 </r>
       <r>   -6.1739    1.0000 </r>
       <r>   -6.1534    1.0000 </r>
       <r>   -5.8545    1.0000 </r>
       <r>   -5.5417    1.0000 </r>
       <r>   -5.5173    1.0000 </r>
       <r>   -5.3842    1.0000 </r>
       <r>   -5.3777    1.0000 </r>
       <r>   -5.1897    1.0000 </r>
       <r>   -4.9043    1.0000 </r>
       <r>   -4.4212    1.0000 </r>
       <r>   -4.3895    1.0000 </r>
       <r>   -4.3475    1.0000 </r>
       <r>   -3.9991    1.0000 </r>
       <r>   -2.9541    0.5508 </r>
       <r>   -2.2737    0.0000 </r>
       <r>   -2.2586    0.0000 </r>
       <r>   -1.6341    0.0000 </r>
       <r>   -1.5972    0.0000 </r>
       <r>   -1.5468    0.0000 </r>
       <r>   -1.4817    0.0000 </r>
       <r>   -1.4356    0.0000 </r>
       <r>   -1.2227    0.0000 </r>
       <r>   -1.2129    0.0000 </r>
       <r>   -0.9008    0.0000 </r>
       <r>   -0.8803    0.0000 </r>
       <r>   -0.4916    0.0000 </r>
       <r>    0.0320    0.0000 </r>
       <r>    0.1252    0.0000 </r>
       <r>    0.1738    0.0000 </r>
       <r>    0.3608    0.0000 </r>
       <r>    0.5826    0.0000 </r>
       <r>    0.6710    0.0000 </r>
       <r>    0.6883    0.0000 </r>
       <r>    0.7884    0.0000 </r>
       <r>    0.8734    0.0000 </r>
       <r>    1.0032    0.0000 </r>
       <r>    1.1980    0.0000 </r>
       <r>    1.2645    0.0000 </r>
       <r>    1.3266    0.0000 </r>
       <r>    1.3614    0.0000 </r>
       <r>    1.3651    0.0000 </r>
       <r>    1.4933    0.0000 </r>
       <r>    1.5149    0.0000 </r>
       <r>    1.6268    0.0000 </r>
      </set>
     </set>
     <set comment="spin 2">
      <set comment="kpoint 1">
       <r>  -50.1778    1.0000 </r>
       <r>  -22.8993    1.0000 </r>
       <r>  -22.1048    1.0000 </r>
       <r>  -21.9474    1.0000 </r>
       <r>  -21.9428    1.0000 </r>
       <r>  -21.8528    1.0000 </r>
       <r>  -21.8500    1.0000 </r>
       <r>  -21.8267    1.0000 </r>
       <r>  -20.1355    1.0000 </r>
       <r>  -20.0970    1.0000 </r>
       <r>  -20.0945    1.0000 </r>
       <r>  -20.0444    1.0000 </r>
       <r>  -20.0436    1.0000 </r>
       <r>  -20.0222    1.0000 </r>
       <r>  -19.1910    1.0000 </r>
       <r>  -19.1865    1.0000 </r>
       <r>  -19.1665    1.0000 </r>
       <r>  -19.1529    1.0000 </r>
       <r>  -19.1262    1.0000 </r>
       <r>  -19.1258    1.0000 </r>
       <r>  -17.0472    1.0000 </r>
       <r>  -17.0435    1.0000 </r>
       <r>  -16.9806    1.0000 </r>
       <r>  -16.9796    1.0000 </r>
       <r>  -16.9276    1.0000 </r>
       <r>  -16.9124    1.0000 </r>
       <r>  -16.0572    1.0000 </r>
       <r>  -16.0135    1.0000 </r>
       <r>  -16.0120    1.0000 </r>
       <r>  -15.9860    1.0000 </r>
       <r>  -15.9856    1.0000 </r>
       <r>  -15.9770    1.0000 </r>
       <r>  -14.6526    1.0000 </r>
       <r>  -14.6488    1.0000 </r>
       <r>  -14.6484    1.0000 </r>
       <r>  -14.6353    1.0000 </r>
       <r>  -14.6346    1.0000 </r>
       <r>  -14.6249    1.0000 </r>
       <r>  -13.4058    1.0000 </r>
       <r>  -12.2894    1.0000 </r>
       <r>  -12.2868    1.0000 </r>
       <r>  -12.2534    1.0000 </r>
       <r>  -12.2511    1.0000 </r>
       <r>  -12.2277    1.0000 </r>
       <r>  -12.2164    1.0000 </r>
       <r>  -12.2075    1.0000 </r>
       <r>  -12.2000    1.0000 </r>
       <r>  -12.1228    1.0000 </r>
       <r>  -12.1223    1.0000 </r>
       <r>  -12.1058    1.0000 </r>
       <r>  -12.1051    1.0000 </r>
       <r>  -11.0125    1.0000 </r>
       <r>  -10.7900    1.0000 </r>
       <r>  -10.7808    1.0000 </r>
       <r>  -10.7779    1.0000 </r>
       <r>  -10.7712    1.0000 </r>
       <r>  -10.7689    1.0000 </r>
       <r>  -10.7683    1.0000 </r>
       <r>  -10.2741    1.0000 </r>
       <r>  -10.0773    1.0000 </r>
       <r>   -9.8879    1.0000 </r>
       <r>   -9.8829    1.0000 </r>
       <r>   -9.7537    1.0000 </r>
       <r>   -9.7497    1.0000 </r>
       <r>   -9.7263    1.0000 </r>
       <r>   -9.5363    1.0000 </r>
       <r>   -9.5335    1.0000 </r>
       <r>   -9.5206    1.0000 </r>
       <r>   -9.4781    1.0000 </r>
       <r>   -9.4771    1.0000 </r>
       <r>   -9.4309    1.0000 </r>
       <r>   -9.4301    1.0000 </r>
       <r>   -9.4246    1.0000 </r>
       <r>   -9.4235    1.0000 </r>
       <r>   -9.4060    1.0000 </r>
       <r>   -9.4041    1.0000 </r>
       <r>   -9.3730    1.0000 </r>
       <r>   -8.5819    1.0000 </r>
       <r>   -7.8465    1.0000 </r>
       <r>   -7.8431    1.0000 </r>
       <r>   -7.8359    1.0000 </r>
       <r>   -7.8280    1.0000 </r>
       <r>   -7.8249    1.0000 </r>
       <r>   -7.7768    1.0000 </r>
       <r>   -7.7744    1.0000 </r>
       <r>   -7.7599    1.0000 </r>
       <r>   -7.7569    1.0000 </r>
       <r>   -7.6674    1.0000 </r>
       <r>   -7.6647    1.0000 </r>
       <r>   -7.6322    1.0000 </r>
       <r>   -6.8895    1.0000 </r>
       <r>   -6.8827    1.0000 </r>
       <r>   -6.7909    1.0000 </r>
       <r>   -6.7654    1.0000 </r>
       <r>   -6.7348    1.0000 </r>
       <r>   -6.7286    1.0000 </r>
       <r>   -6.6790    1.0000 </r>
       <r>   -6.3093    1.0000 </r>
       <r>   -6.3083    1.0000 </r>
       <r>   -5.0059    1.0000 </r>
       <r>   -4.9162    1.0000 </r>
       <r>   -4.9130    1.0000 </r>
       <r>   -4.8372    1.0000 </r>
       <r>   -4.8026    1.0000 </r>
       <r>   -4.7975    1.0000 </r>
       <r>   -4.7331    1.0000 </r>
       <r>   -4.7106    1.0000 </r>
       <r>   -4.3756    1.0000 </r>
       <r>   -3.9163    1.0000 </r>
       <r>   -2.4366    0.0000 </r>
       <r>   -2.0870    0.0000 </r>
       <r>   -2.0863    0.0000 </r>
       <r>   -2.0095    0.0000 </r>
       <r>   -2.0082    0.0000 </r>
       <r>   -1.9553    0.0000 </r>
       <r>   -1.8999    0.0000 </r>
       <r>   -1.5763    0.0000 </r>
       <r>   -1.4480    0.0000 </r>
       <r>   -0.2385    0.0000 </r>
       <r>   -0.2062    0.0000 </r>
       <r>   -0.1405    0.0000 </r>
       <r>   -0.1292    0.0000 </r>
       <r>   -0.0804    0.0000 </r>
       <r>   -0.0732    0.0000 </r>
       <r>   -0.0665    0.0000 </r>
       <r>   -0.0076    0.0000 </r>
       <r>    0.3846    0.0000 </r>
       <r>    0.6252    0.0000 </r>
       <r>    0.9375    0.0000 </r>
       <r>    0.9927    0.0000 </r>
       <r>    1.2129    0.0000 </r>
       <r>    1.2537    0.0000 </r>
       <r>    1.2956    0.0000 </r>
       <r>    1.3625    0.0000 </r>
       <r>    1.4324    0.0000 </r>
       <r>    1.4962    0.0000 </r>
       <r>    1.5879    0.0000 </r>
       <r>    1.5931    0.0000 </r>
       <r>    1.6299    0.0000 </r>
       <r>    1.6478    0.0000 </r>
      </set>
      <set comment="kpoint 2">
       <r>  -50.1778    1.0000 </r>
       <r>  -22.8082    1.0000 </r>
       <r>  -22.4559    1.0000 </r>
       <r>  -22.1365    1.0000 </r>
       <r>  -22.1118    1.0000 </r>
       <r>  -21.5394    1.0000 </r>
       <r>  -21.4786    1.0000 </r>
       <r>  -21.1728    1.0000 </r>
       <r>  -20.9161    1.0000 </r>
       <r>  -20.8611    1.0000 </r>
       <r>  -20.2597    1.0000 </r>
       <r>  -19.9798    1.0000 </r>
       <r>  -19.9756    1.0000 </r>
       <r>  -19.6518    1.0000 </r>
       <r>  -19.6467    1.0000 </r>
       <r>  -19.1011    1.0000 </r>
       <r>  -19.0475    1.0000 </r>
       <r>  -18.4830    1.0000 </r>
       <r>  -18.4798    1.0000 </r>
       <r>  -17.9925    1.0000 </r>
       <r>  -17.9144    1.0000 </r>
       <r>  -17.9049    1.0000 </r>
       <r>  -17.6673    1.0000 </r>
       <r>  -17.6612    1.0000 </r>
       <r>  -16.8719    1.0000 </r>
       <r>  -16.8566    1.0000 </r>
       <r>  -16.1613    1.0000 </r>
       <r>  -15.9121    1.0000 </r>
       <r>  -15.9084    1.0000 </r>
       <r>  -15.4013    1.0000 </r>
       <r>  -15.3950    1.0000 </r>
       <r>  -15.3581    1.0000 </r>
       <r>  -15.3303    1.0000 </r>
       <r>  -14.9704    1.0000 </r>
       <r>  -14.9361    1.0000 </r>
       <r>  -13.7588    1.0000 </r>
       <r>  -13.7565    1.0000 </r>
       <r>  -13.5453    1.0000 </r>
       <r>  -13.5166    1.0000 </r>
       <r>  -13.4059    1.0000 </r>
       <r>  -13.2769    1.0000 </r>
       <r>  -13.2632    1.0000 </r>
       <r>  -12.9375    1.0000 </r>
       <r>  -12.8160    1.0000 </r>
       <r>  -12.8137    1.0000 </r>
       <r>  -12.0532    1.0000 </r>
       <r>  -12.0158    1.0000 </r>
       <r>  -11.6030    1.0000 </r>
       <r>  -11.5845    1.0000 </r>
       <r>  -11.2308    1.0000 </r>
       <r>  -11.2142    1.0000 </r>
       <r>  -11.1656    1.0000 </r>
       <r>  -10.9560    1.0000 </r>
       <r>  -10.9411    1.0000 </r>
       <r>  -10.9034    1.0000 </r>
       <r>  -10.4815    1.0000 </r>
       <r>  -10.3298    1.0000 </r>
       <r>  -10.3036    1.0000 </r>
       <r>  -10.2747    1.0000 </r>
       <r>  -10.2703    1.0000 </r>
       <r>  -10.2655    1.0000 </r>
       <r>  -10.0976    1.0000 </r>
       <r>  -10.0685    1.0000 </r>
       <r>   -9.9588    1.0000 </r>
       <r>   -9.9460    1.0000 </r>
       <r>   -9.6938    1.0000 </r>
       <r>   -9.6701    1.0000 </r>
       <r>   -9.6595    1.0000 </r>
       <r>   -9.5675    1.0000 </r>
       <r>   -9.5625    1.0000 </r>
       <r>   -9.4106    1.0000 </r>
       <r>   -9.3241    1.0000 </r>
       <r>   -9.0703    1.0000 </r>
       <r>   -8.9718    1.0000 </r>
       <r>   -8.7444    1.0000 </r>
       <r>   -8.7215    1.0000 </r>
       <r>   -8.7011    1.0000 </r>
       <r>   -8.6092    1.0000 </r>
       <r>   -8.5602    1.0000 </r>
       <r>   -8.5166    1.0000 </r>
       <r>   -8.4751    1.0000 </r>
       <r>   -8.4417    1.0000 </r>
       <r>   -7.9461    1.0000 </r>
       <r>   -7.8972    1.0000 </r>
       <r>   -7.7131    1.0000 </r>
       <r>   -7.6967    1.0000 </r>
       <r>   -7.6603    1.0000 </r>
       <r>   -7.6011    1.0000 </r>
       <r>   -7.2786    1.0000 </r>
       <r>   -7.2734    1.0000 </r>
       <r>   -7.1041    1.0000 </r>
       <r>   -6.7335    1.0000 </r>
       <r>   -6.7236    1.0000 </r>
       <r>   -6.6571    1.0000 </r>
       <r>   -6.5798    1.0000 </r>
       <r>   -6.5313    1.0000 </r>
       <r>   -6.1746    1.0000 </r>
       <r>   -6.1532    1.0000 </r>
       <r>   -5.8531    1.0000 </r>
       <r>   -5.5408    1.0000 </r>
       <r>   -5.5160    1.0000 </r>
       <r>   -5.3855    1.0000 </r>
       <r>   -5.3797    1.0000 </r>
       <r>   -5.0023    1.0000 </r>
       <r>   -4.8374    1.0000 </r>
       <r>   -4.4174    1.0000 </r>
       <r>   -4.3913    1.0000 </r>
       <r>   -4.3485    1.0000 </r>
       <r>   -3.9188    1.0000 </r>
       <r>   -2.4347    0.0000 </r>
       <r>   -2.2737    0.0000 </r>
       <r>   -2.2587    0.0000 </r>
       <r>   -1.6295    0.0000 </r>
       <r>   -1.5904    0.0000 </r>
       <r>   -1.5286    0.0000 </r>
       <r>   -1.4837    0.0000 </r>
       <r>   -1.3938    0.0000 </r>
       <r>   -1.2234    0.0000 </r>
       <r>   -1.2169    0.0000 </r>
       <r>   -0.9004    0.0000 </r>
       <r>   -0.8802    0.0000 </r>
       <r>   -0.1657    0.0000 </r>
       <r>    0.0610    0.0000 </r>
       <r>    0.1297    0.0000 </r>
       <r>    0.1751    0.0000 </r>
       <r>    0.3817    0.0000 </r>
       <r>    0.6143    0.0000 </r>
       <r>    0.6699    0.0000 </r>
       <r>    0.6867    0.0000 </r>
       <r>    0.7492    0.0000 </r>
       <r>    0.9361    0.0000 </r>
       <r>    1.0502    0.0000 </r>
       <r>    1.1871    0.0000 </r>
       <r>    1.2789    0.0000 </r>
       <r>    1.3532    0.0000 </r>
       <r>    1.3639    0.0000 </r>
       <r>    1.4338    0.0000 </r>
       <r>    1.5262    0.0000 </r>
       <r>    1.5537    0.0000 </r>
       <r>    1.6390    0.0000 </r>
      </set>
      <set comment="kpoint 3">
       <r>  -50.1778    1.0000 </r>
       <r>  -22.8080    1.0000 </r>
       <r>  -22.4570    1.0000 </r>
       <r>  -22.1358    1.0000 </r>
       <r>  -22.1108    1.0000 </r>
       <r>  -21.5407    1.0000 </r>
       <r>  -21.4784    1.0000 </r>
       <r>  -21.1724    1.0000 </r>
       <r>  -20.9171    1.0000 </r>
       <r>  -20.8606    1.0000 </r>
       <r>  -20.2594    1.0000 </r>
       <r>  -19.9806    1.0000 </r>
       <r>  -19.9733    1.0000 </r>
       <r>  -19.6522    1.0000 </r>
       <r>  -19.6472    1.0000 </r>
       <r>  -19.1020    1.0000 </r>
       <r>  -19.0470    1.0000 </r>
       <r>  -18.4838    1.0000 </r>
       <r>  -18.4789    1.0000 </r>
       <r>  -17.9928    1.0000 </r>
       <r>  -17.9156    1.0000 </r>
       <r>  -17.9040    1.0000 </r>
       <r>  -17.6680    1.0000 </r>
       <r>  -17.6600    1.0000 </r>
       <r>  -16.8724    1.0000 </r>
       <r>  -16.8561    1.0000 </r>
       <r>  -16.1620    1.0000 </r>
       <r>  -15.9121    1.0000 </r>
       <r>  -15.9079    1.0000 </r>
       <r>  -15.4005    1.0000 </r>
       <r>  -15.3926    1.0000 </r>
       <r>  -15.3589    1.0000 </r>
       <r>  -15.3312    1.0000 </r>
       <r>  -14.9720    1.0000 </r>
       <r>  -14.9356    1.0000 </r>
       <r>  -13.7589    1.0000 </r>
       <r>  -13.7557    1.0000 </r>
       <r>  -13.5479    1.0000 </r>
       <r>  -13.5157    1.0000 </r>
       <r>  -13.4059    1.0000 </r>
       <r>  -13.2769    1.0000 </r>
       <r>  -13.2639    1.0000 </r>
       <r>  -12.9379    1.0000 </r>
       <r>  -12.8158    1.0000 </r>
       <r>  -12.8125    1.0000 </r>
       <r>  -12.0516    1.0000 </r>
       <r>  -12.0147    1.0000 </r>
       <r>  -11.6030    1.0000 </r>
       <r>  -11.5841    1.0000 </r>
       <r>  -11.2315    1.0000 </r>
       <r>  -11.2145    1.0000 </r>
       <r>  -11.1663    1.0000 </r>
       <r>  -10.9557    1.0000 </r>
       <r>  -10.9419    1.0000 </r>
       <r>  -10.9033    1.0000 </r>
       <r>  -10.4826    1.0000 </r>
       <r>  -10.3298    1.0000 </r>
       <r>  -10.3045    1.0000 </r>
       <r>  -10.2751    1.0000 </r>
       <r>  -10.2695    1.0000 </r>
       <r>  -10.2651    1.0000 </r>
       <r>  -10.0956    1.0000 </r>
       <r>  -10.0699    1.0000 </r>
       <r>   -9.9591    1.0000 </r>
       <r>   -9.9469    1.0000 </r>
       <r>   -9.6926    1.0000 </r>
       <r>   -9.6707    1.0000 </r>
       <r>   -9.6594    1.0000 </r>
       <r>   -9.5669    1.0000 </r>
       <r>   -9.5622    1.0000 </r>
       <r>   -9.4093    1.0000 </r>
       <r>   -9.3260    1.0000 </r>
       <r>   -9.0700    1.0000 </r>
       <r>   -8.9712    1.0000 </r>
       <r>   -8.7435    1.0000 </r>
       <r>   -8.7185    1.0000 </r>
       <r>   -8.6938    1.0000 </r>
       <r>   -8.6267    1.0000 </r>
       <r>   -8.5541    1.0000 </r>
       <r>   -8.5159    1.0000 </r>
       <r>   -8.4758    1.0000 </r>
       <r>   -8.4417    1.0000 </r>
       <r>   -7.9463    1.0000 </r>
       <r>   -7.8990    1.0000 </r>
       <r>   -7.7131    1.0000 </r>
       <r>   -7.6972    1.0000 </r>
       <r>   -7.6573    1.0000 </r>
       <r>   -7.6002    1.0000 </r>
       <r>   -7.2791    1.0000 </r>
       <r>   -7.2733    1.0000 </r>
       <r>   -7.1032    1.0000 </r>
       <r>   -6.7342    1.0000 </r>
       <r>   -6.7274    1.0000 </r>
       <r>   -6.6558    1.0000 </r>
       <r>   -6.5798    1.0000 </r>
       <r>   -6.5307    1.0000 </r>
       <r>   -6.1745    1.0000 </r>
       <r>   -6.1515    1.0000 </r>
       <r>   -5.8564    1.0000 </r>
       <r>   -5.5440    1.0000 </r>
       <r>   -5.5119    1.0000 </r>
       <r>   -5.3862    1.0000 </r>
       <r>   -5.3782    1.0000 </r>
       <r>   -5.0021    1.0000 </r>
       <r>   -4.8375    1.0000 </r>
       <r>   -4.4127    1.0000 </r>
       <r>   -4.3876    1.0000 </r>
       <r>   -4.3565    1.0000 </r>
       <r>   -3.9180    1.0000 </r>
       <r>   -2.4379    0.0000 </r>
       <r>   -2.2807    0.0000 </r>
       <r>   -2.2511    0.0000 </r>
       <r>   -1.6463    0.0000 </r>
       <r>   -1.5747    0.0000 </r>
       <r>   -1.5202    0.0000 </r>
       <r>   -1.4529    0.0000 </r>
       <r>   -1.4337    0.0000 </r>
       <r>   -1.2258    0.0000 </r>
       <r>   -1.2125    0.0000 </r>
       <r>   -0.9027    0.0000 </r>
       <r>   -0.8776    0.0000 </r>
       <r>   -0.1558    0.0000 </r>
       <r>    0.0539    0.0000 </r>
       <r>    0.1275    0.0000 </r>
       <r>    0.1777    0.0000 </r>
       <r>    0.3671    0.0000 </r>
       <r>    0.6345    0.0000 </r>
       <r>    0.6702    0.0000 </r>
       <r>    0.6853    0.0000 </r>
       <r>    0.7521    0.0000 </r>
       <r>    0.9547    0.0000 </r>
       <r>    1.0445    0.0000 </r>
       <r>    1.1606    0.0000 </r>
       <r>    1.2912    0.0000 </r>
       <r>    1.3566    0.0000 </r>
       <r>    1.3650    0.0000 </r>
       <r>    1.4112    0.0000 </r>
       <r>    1.5233    0.0000 </r>
       <r>    1.5875    0.0000 </r>
       <r>    1.6362    0.0000 </r>
      </set>
      <set comment="kpoint 4">
       <r>  -50.1778    1.0000 </r>
       <r>  -22.7130    1.0000 </r>
       <r>  -22.4917    1.0000 </r>
       <r>  -22.4874    1.0000 </r>
       <r>  -21.6436    1.0000 </r>
       <r>  -21.5950    1.0000 </r>
       <r>  -21.5936    1.0000 </r>
       <r>  -20.7631    1.0000 </r>
       <r>  -20.7230    1.0000 </r>
       <r>  -20.7207    1.0000 </r>
       <r>  -20.6163    1.0000 </r>
       <r>  -20.6146    1.0000 </r>
       <r>  -20.6125    1.0000 </r>
       <r>  -18.9496    1.0000 </r>
       <r>  -18.9457    1.0000 </r>
       <r>  -18.9087    1.0000 </r>
       <r>  -18.8198    1.0000 </r>
       <r>  -18.8037    1.0000 </r>
       <r>  -18.8025    1.0000 </r>
       <r>  -18.0346    1.0000 </r>
       <r>  -18.0332    1.0000 </r>
       <r>  -17.9735    1.0000 </r>
       <r>  -17.5163    1.0000 </r>
       <r>  -17.5150    1.0000 </r>
       <r>  -17.4985    1.0000 </r>
       <r>  -16.5173    1.0000 </r>
       <r>  -16.4939    1.0000 </r>
       <r>  -16.4929    1.0000 </r>
       <r>  -15.9060    1.0000 </r>
       <r>  -15.9050    1.0000 </r>
       <r>  -14.4750    1.0000 </r>
       <r>  -14.4733    1.0000 </r>
       <r>  -14.4431    1.0000 </r>
       <r>  -14.4319    1.0000 </r>
       <r>  -14.4094    1.0000 </r>
       <r>  -14.4088    1.0000 </r>
       <r>  -14.3263    1.0000 </r>
       <r>  -14.3248    1.0000 </r>
       <r>  -14.2533    1.0000 </r>
       <r>  -13.8873    1.0000 </r>
       <r>  -13.4058    1.0000 </r>
       <r>  -12.8145    1.0000 </r>
       <r>  -12.6921    1.0000 </r>
       <r>  -12.6890    1.0000 </r>
       <r>  -12.0652    1.0000 </r>
       <r>  -12.0633    1.0000 </r>
       <r>  -12.0437    1.0000 </r>
       <r>  -12.0119    1.0000 </r>
       <r>  -12.0105    1.0000 </r>
       <r>  -11.9990    1.0000 </r>
       <r>  -10.8197    1.0000 </r>
       <r>  -10.7856    1.0000 </r>
       <r>  -10.7739    1.0000 </r>
       <r>  -10.7715    1.0000 </r>
       <r>  -10.6705    1.0000 </r>
       <r>  -10.6686    1.0000 </r>
       <r>  -10.6493    1.0000 </r>
       <r>  -10.5157    1.0000 </r>
       <r>  -10.5104    1.0000 </r>
       <r>  -10.2683    1.0000 </r>
       <r>  -10.0603    1.0000 </r>
       <r>  -10.0593    1.0000 </r>
       <r>  -10.0563    1.0000 </r>
       <r>   -9.8351    1.0000 </r>
       <r>   -9.8338    1.0000 </r>
       <r>   -9.8049    1.0000 </r>
       <r>   -9.5205    1.0000 </r>
       <r>   -9.4685    1.0000 </r>
       <r>   -9.4668    1.0000 </r>
       <r>   -9.1676    1.0000 </r>
       <r>   -9.1558    1.0000 </r>
       <r>   -9.1554    1.0000 </r>
       <r>   -9.1248    1.0000 </r>
       <r>   -9.1233    1.0000 </r>
       <r>   -9.1019    1.0000 </r>
       <r>   -8.6870    1.0000 </r>
       <r>   -8.6854    1.0000 </r>
       <r>   -8.6700    1.0000 </r>
       <r>   -8.6117    1.0000 </r>
       <r>   -8.4968    1.0000 </r>
       <r>   -8.4858    1.0000 </r>
       <r>   -8.4600    1.0000 </r>
       <r>   -8.3234    1.0000 </r>
       <r>   -8.3211    1.0000 </r>
       <r>   -8.3173    1.0000 </r>
       <r>   -7.5028    1.0000 </r>
       <r>   -7.5003    1.0000 </r>
       <r>   -7.4050    1.0000 </r>
       <r>   -6.9999    1.0000 </r>
       <r>   -6.9964    1.0000 </r>
       <r>   -6.9378    1.0000 </r>
       <r>   -6.7172    1.0000 </r>
       <r>   -6.6175    1.0000 </r>
       <r>   -6.5954    1.0000 </r>
       <r>   -6.4439    1.0000 </r>
       <r>   -6.3905    1.0000 </r>
       <r>   -6.3505    1.0000 </r>
       <r>   -6.3499    1.0000 </r>
       <r>   -5.6777    1.0000 </r>
       <r>   -5.6741    1.0000 </r>
       <r>   -5.5328    1.0000 </r>
       <r>   -5.4261    1.0000 </r>
       <r>   -5.4212    1.0000 </r>
       <r>   -5.4003    1.0000 </r>
       <r>   -5.0015    1.0000 </r>
       <r>   -4.8374    1.0000 </r>
       <r>   -4.3783    1.0000 </r>
       <r>   -3.9195    1.0000 </r>
       <r>   -3.3075    1.0000 </r>
       <r>   -3.3060    1.0000 </r>
       <r>   -2.4340    0.0000 </r>
       <r>   -1.7220    0.0000 </r>
       <r>   -1.7032    0.0000 </r>
       <r>   -1.6420    0.0000 </r>
       <r>   -1.5500    0.0000 </r>
       <r>   -1.4456    0.0000 </r>
       <r>   -1.1342    0.0000 </r>
       <r>   -1.1274    0.0000 </r>
       <r>   -1.0257    0.0000 </r>
       <r>   -0.4171    0.0000 </r>
       <r>   -0.4120    0.0000 </r>
       <r>   -0.2600    0.0000 </r>
       <r>   -0.2446    0.0000 </r>
       <r>   -0.1967    0.0000 </r>
       <r>   -0.1899    0.0000 </r>
       <r>   -0.1515    0.0000 </r>
       <r>    0.1314    0.0000 </r>
       <r>    0.4206    0.0000 </r>
       <r>    0.4990    0.0000 </r>
       <r>    0.6910    0.0000 </r>
       <r>    0.9282    0.0000 </r>
       <r>    1.0346    0.0000 </r>
       <r>    1.1947    0.0000 </r>
       <r>    1.3120    0.0000 </r>
       <r>    1.4292    0.0000 </r>
       <r>    1.5991    0.0000 </r>
       <r>    1.6337    0.0000 </r>
       <r>    1.7093    0.0000 </r>
       <r>    1.7677    0.0000 </r>
       <r>    1.7929    0.0000 </r>
      </set>
      <set comment="kpoint 5">
       <r>  -50.1778    1.0000 </r>
       <r>  -22.8078    1.0000 </r>
       <r>  -22.4581    1.0000 </r>
       <r>  -22.1346    1.0000 </r>
       <r>  -22.1105    1.0000 </r>
       <r>  -21.5416    1.0000 </r>
       <r>  -21.4784    1.0000 </r>
       <r>  -21.1721    1.0000 </r>
       <r>  -20.9176    1.0000 </r>
       <r>  -20.8607    1.0000 </r>
       <r>  -20.2593    1.0000 </r>
       <r>  -19.9779    1.0000 </r>
       <r>  -19.9744    1.0000 </r>
       <r>  -19.6525    1.0000 </r>
       <r>  -19.6476    1.0000 </r>
       <r>  -19.1025    1.0000 </r>
       <r>  -19.0471    1.0000 </r>
       <r>  -18.4826    1.0000 </r>
       <r>  -18.4799    1.0000 </r>
       <r>  -17.9947    1.0000 </r>
       <r>  -17.9136    1.0000 </r>
       <r>  -17.9050    1.0000 </r>
       <r>  -17.6666    1.0000 </r>
       <r>  -17.6607    1.0000 </r>
       <r>  -16.8715    1.0000 </r>
       <r>  -16.8563    1.0000 </r>
       <r>  -16.1616    1.0000 </r>
       <r>  -15.9122    1.0000 </r>
       <r>  -15.9084    1.0000 </r>
       <r>  -15.4000    1.0000 </r>
       <r>  -15.3939    1.0000 </r>
       <r>  -15.3593    1.0000 </r>
       <r>  -15.3317    1.0000 </r>
       <r>  -14.9710    1.0000 </r>
       <r>  -14.9356    1.0000 </r>
       <r>  -13.7585    1.0000 </r>
       <r>  -13.7565    1.0000 </r>
       <r>  -13.5465    1.0000 </r>
       <r>  -13.5164    1.0000 </r>
       <r>  -13.4059    1.0000 </r>
       <r>  -13.2769    1.0000 </r>
       <r>  -13.2633    1.0000 </r>
       <r>  -12.9377    1.0000 </r>
       <r>  -12.8155    1.0000 </r>
       <r>  -12.8137    1.0000 </r>
       <r>  -12.0528    1.0000 </r>
       <r>  -12.0140    1.0000 </r>
       <r>  -11.6040    1.0000 </r>
       <r>  -11.5840    1.0000 </r>
       <r>  -11.2311    1.0000 </r>
       <r>  -11.2142    1.0000 </r>
       <r>  -11.1660    1.0000 </r>
       <r>  -10.9562    1.0000 </r>
       <r>  -10.9415    1.0000 </r>
       <r>  -10.9028    1.0000 </r>
       <r>  -10.4842    1.0000 </r>
       <r>  -10.3298    1.0000 </r>
       <r>  -10.3036    1.0000 </r>
       <r>  -10.2747    1.0000 </r>
       <r>  -10.2701    1.0000 </r>
       <r>  -10.2651    1.0000 </r>
       <r>  -10.0938    1.0000 </r>
       <r>  -10.0679    1.0000 </r>
       <r>   -9.9602    1.0000 </r>
       <r>   -9.9472    1.0000 </r>
       <r>   -9.6927    1.0000 </r>
       <r>   -9.6717    1.0000 </r>
       <r>   -9.6605    1.0000 </r>
       <r>   -9.5658    1.0000 </r>
       <r>   -9.5615    1.0000 </r>
       <r>   -9.4118    1.0000 </r>
       <r>   -9.3257    1.0000 </r>
       <r>   -9.0699    1.0000 </r>
       <r>   -8.9704    1.0000 </r>
       <r>   -8.7442    1.0000 </r>
       <r>   -8.7184    1.0000 </r>
       <r>   -8.6954    1.0000 </r>
       <r>   -8.6249    1.0000 </r>
       <r>   -8.5544    1.0000 </r>
       <r>   -8.5168    1.0000 </r>
       <r>   -8.4760    1.0000 </r>
       <r>   -8.4412    1.0000 </r>
       <r>   -7.9452    1.0000 </r>
       <r>   -7.8988    1.0000 </r>
       <r>   -7.7124    1.0000 </r>
       <r>   -7.6966    1.0000 </r>
       <r>   -7.6580    1.0000 </r>
       <r>   -7.5998    1.0000 </r>
       <r>   -7.2815    1.0000 </r>
       <r>   -7.2746    1.0000 </r>
       <r>   -7.1030    1.0000 </r>
       <r>   -6.7330    1.0000 </r>
       <r>   -6.6969    1.0000 </r>
       <r>   -6.6885    1.0000 </r>
       <r>   -6.5769    1.0000 </r>
       <r>   -6.5310    1.0000 </r>
       <r>   -6.1736    1.0000 </r>
       <r>   -6.1532    1.0000 </r>
       <r>   -5.8543    1.0000 </r>
       <r>   -5.5411    1.0000 </r>
       <r>   -5.5171    1.0000 </r>
       <r>   -5.3840    1.0000 </r>
       <r>   -5.3777    1.0000 </r>
       <r>   -5.0014    1.0000 </r>
       <r>   -4.8375    1.0000 </r>
       <r>   -4.4214    1.0000 </r>
       <r>   -4.3899    1.0000 </r>
       <r>   -4.3486    1.0000 </r>
       <r>   -3.9160    1.0000 </r>
       <r>   -2.4350    0.0000 </r>
       <r>   -2.2732    0.0000 </r>
       <r>   -2.2574    0.0000 </r>
       <r>   -1.6301    0.0000 </r>
       <r>   -1.5849    0.0000 </r>
       <r>   -1.5443    0.0000 </r>
       <r>   -1.4378    0.0000 </r>
       <r>   -1.4336    0.0000 </r>
       <r>   -1.2226    0.0000 </r>
       <r>   -1.2119    0.0000 </r>
       <r>   -0.8990    0.0000 </r>
       <r>   -0.8801    0.0000 </r>
       <r>   -0.1776    0.0000 </r>
       <r>    0.0468    0.0000 </r>
       <r>    0.1262    0.0000 </r>
       <r>    0.1740    0.0000 </r>
       <r>    0.3873    0.0000 </r>
       <r>    0.6097    0.0000 </r>
       <r>    0.6719    0.0000 </r>
       <r>    0.6891    0.0000 </r>
       <r>    0.8087    0.0000 </r>
       <r>    0.8901    0.0000 </r>
       <r>    1.0503    0.0000 </r>
       <r>    1.2328    0.0000 </r>
       <r>    1.2877    0.0000 </r>
       <r>    1.3485    0.0000 </r>
       <r>    1.3655    0.0000 </r>
       <r>    1.3827    0.0000 </r>
       <r>    1.5061    0.0000 </r>
       <r>    1.5371    0.0000 </r>
       <r>    1.6305    0.0000 </r>
      </set>
     </set>
    </set>
   </array>
  </eigenvalues>
  <separator name="orbital magnetization" >
   <v name="MAGDIPOLOUT">      0.00000000      0.00000000      0.00000000</v>
  </separator>
  <dos>
   <i name="efermi">     -2.94959727 </i>
   <total>
    <array>
     <dimension dim="1">gridpoints</dimension>
     <dimension dim="2">spin</dimension>
     <field>energy</field>
     <field>total</field>
     <field>integrated</field>
     <set>
      <set comment="spin 1">
       <r>   -52.7768     0.0000     0.0000 </r>
       <r>   -52.5862     0.0000     0.0000 </r>
       <r>   -52.3957     0.0000     0.0000 </r>
       <r>   -52.2051     0.0000     0.0000 </r>
       <r>   -52.0145     0.0000     0.0000 </r>
       <r>   -51.8240     0.0000     0.0000 </r>
       <r>   -51.6334     0.0000     0.0000 </r>
       <r>   -51.4429     0.0000     0.0000 </r>
       <r>   -51.2523     0.0000     0.0000 </r>
       <r>   -51.0617     0.0000     0.0000 </r>
       <r>   -50.8712     0.0000     0.0000 </r>
       <r>   -50.6806     0.0000     0.0000 </r>
       <r>   -50.4901     0.0000     0.0000 </r>
       <r>   -50.2995     0.0016     0.0003 </r>
       <r>   -50.1089     5.1149     0.9750 </r>
       <r>   -49.9184     0.1312     1.0000 </r>
       <r>   -49.7278     0.0000     1.0000 </r>
       <r>   -49.5372     0.0000     1.0000 </r>
       <r>   -49.3467     0.0000     1.0000 </r>
       <r>   -49.1561     0.0000     1.0000 </r>
       <r>   -48.9656     0.0000     1.0000 </r>
       <r>   -48.7750     0.0000     1.0000 </r>
       <r>   -48.5844     0.0000     1.0000 </r>
       <r>   -48.3939     0.0000     1.0000 </r>
       <r>   -48.2033     0.0000     1.0000 </r>
       <r>   -48.0128     0.0000     1.0000 </r>
       <r>   -47.8222     0.0000     1.0000 </r>
       <r>   -47.6316     0.0000     1.0000 </r>
       <r>   -47.4411     0.0000     1.0000 </r>
       <r>   -47.2505     0.0000     1.0000 </r>
       <r>   -47.0600     0.0000     1.0000 </r>
       <r>   -46.8694     0.0000     1.0000 </r>
       <r>   -46.6788     0.0000     1.0000 </r>
       <r>   -46.4883     0.0000     1.0000 </r>
       <r>   -46.2977     0.0000     1.0000 </r>
       <r>   -46.1072     0.0000     1.0000 </r>
       <r>   -45.9166     0.0000     1.0000 </r>
       <r>   -45.7260     0.0000     1.0000 </r>
       <r>   -45.5355     0.0000     1.0000 </r>
       <r>   -45.3449     0.0000     1.0000 </r>
       <r>   -45.1543     0.0000     1.0000 </r>
       <r>   -44.9638     0.0000     1.0000 </r>
       <r>   -44.7732     0.0000     1.0000 </r>
       <r>   -44.5827     0.0000     1.0000 </r>
       <r>   -44.3921     0.0000     1.0000 </r>
       <r>   -44.2015     0.0000     1.0000 </r>
       <r>   -44.0110     0.0000     1.0000 </r>
       <r>   -43.8204     0.0000     1.0000 </r>
       <r>   -43.6299     0.0000     1.0000 </r>
       <r>   -43.4393     0.0000     1.0000 </r>
       <r>   -43.2487     0.0000     1.0000 </r>
       <r>   -43.0582     0.0000     1.0000 </r>
       <r>   -42.8676     0.0000     1.0000 </r>
       <r>   -42.6771     0.0000     1.0000 </r>
       <r>   -42.4865     0.0000     1.0000 </r>
       <r>   -42.2959     0.0000     1.0000 </r>
       <r>   -42.1054     0.0000     1.0000 </r>
       <r>   -41.9148     0.0000     1.0000 </r>
       <r>   -41.7243     0.0000     1.0000 </r>
       <r>   -41.5337     0.0000     1.0000 </r>
       <r>   -41.3431     0.0000     1.0000 </r>
       <r>   -41.1526     0.0000     1.0000 </r>
       <r>   -40.9620     0.0000     1.0000 </r>
       <r>   -40.7714     0.0000     1.0000 </r>
       <r>   -40.5809     0.0000     1.0000 </r>
       <r>   -40.3903     0.0000     1.0000 </r>
       <r>   -40.1998     0.0000     1.0000 </r>
       <r>   -40.0092     0.0000     1.0000 </r>
       <r>   -39.8186     0.0000     1.0000 </r>
       <r>   -39.6281     0.0000     1.0000 </r>
       <r>   -39.4375     0.0000     1.0000 </r>
       <r>   -39.2470     0.0000     1.0000 </r>
       <r>   -39.0564     0.0000     1.0000 </r>
       <r>   -38.8658     0.0000     1.0000 </r>
       <r>   -38.6753     0.0000     1.0000 </r>
       <r>   -38.4847     0.0000     1.0000 </r>
       <r>   -38.2942     0.0000     1.0000 </r>
       <r>   -38.1036     0.0000     1.0000 </r>
       <r>   -37.9130     0.0000     1.0000 </r>
       <r>   -37.7225     0.0000     1.0000 </r>
       <r>   -37.5319     0.0000     1.0000 </r>
       <r>   -37.3414     0.0000     1.0000 </r>
       <r>   -37.1508     0.0000     1.0000 </r>
       <r>   -36.9602     0.0000     1.0000 </r>
       <r>   -36.7697     0.0000     1.0000 </r>
       <r>   -36.5791     0.0000     1.0000 </r>
       <r>   -36.3885     0.0000     1.0000 </r>
       <r>   -36.1980     0.0000     1.0000 </r>
       <r>   -36.0074     0.0000     1.0000 </r>
       <r>   -35.8169     0.0000     1.0000 </r>
       <r>   -35.6263     0.0000     1.0000 </r>
       <r>   -35.4357     0.0000     1.0000 </r>
       <r>   -35.2452     0.0000     1.0000 </r>
       <r>   -35.0546     0.0000     1.0000 </r>
       <r>   -34.8641     0.0000     1.0000 </r>
       <r>   -34.6735     0.0000     1.0000 </r>
       <r>   -34.4829     0.0000     1.0000 </r>
       <r>   -34.2924     0.0000     1.0000 </r>
       <r>   -34.1018     0.0000     1.0000 </r>
       <r>   -33.9113     0.0000     1.0000 </r>
       <r>   -33.7207     0.0000     1.0000 </r>
       <r>   -33.5301     0.0000     1.0000 </r>
       <r>   -33.3396     0.0000     1.0000 </r>
       <r>   -33.1490     0.0000     1.0000 </r>
       <r>   -32.9585     0.0000     1.0000 </r>
       <r>   -32.7679     0.0000     1.0000 </r>
       <r>   -32.5773     0.0000     1.0000 </r>
       <r>   -32.3868     0.0000     1.0000 </r>
       <r>   -32.1962     0.0000     1.0000 </r>
       <r>   -32.0056     0.0000     1.0000 </r>
       <r>   -31.8151     0.0000     1.0000 </r>
       <r>   -31.6245     0.0000     1.0000 </r>
       <r>   -31.4340     0.0000     1.0000 </r>
       <r>   -31.2434     0.0000     1.0000 </r>
       <r>   -31.0528     0.0000     1.0000 </r>
       <r>   -30.8623     0.0000     1.0000 </r>
       <r>   -30.6717     0.0000     1.0000 </r>
       <r>   -30.4812     0.0000     1.0000 </r>
       <r>   -30.2906     0.0000     1.0000 </r>
       <r>   -30.1000     0.0000     1.0000 </r>
       <r>   -29.9095     0.0000     1.0000 </r>
       <r>   -29.7189     0.0000     1.0000 </r>
       <r>   -29.5284     0.0000     1.0000 </r>
       <r>   -29.3378     0.0000     1.0000 </r>
       <r>   -29.1472     0.0000     1.0000 </r>
       <r>   -28.9567     0.0000     1.0000 </r>
       <r>   -28.7661     0.0000     1.0000 </r>
       <r>   -28.5756     0.0000     1.0000 </r>
       <r>   -28.3850     0.0000     1.0000 </r>
       <r>   -28.1944     0.0000     1.0000 </r>
       <r>   -28.0039     0.0000     1.0000 </r>
       <r>   -27.8133     0.0000     1.0000 </r>
       <r>   -27.6227     0.0000     1.0000 </r>
       <r>   -27.4322     0.0000     1.0000 </r>
       <r>   -27.2416     0.0000     1.0000 </r>
       <r>   -27.0511     0.0000     1.0000 </r>
       <r>   -26.8605     0.0000     1.0000 </r>
       <r>   -26.6699     0.0000     1.0000 </r>
       <r>   -26.4794     0.0000     1.0000 </r>
       <r>   -26.2888     0.0000     1.0000 </r>
       <r>   -26.0983     0.0000     1.0000 </r>
       <r>   -25.9077     0.0000     1.0000 </r>
       <r>   -25.7171     0.0000     1.0000 </r>
       <r>   -25.5266     0.0000     1.0000 </r>
       <r>   -25.3360     0.0000     1.0000 </r>
       <r>   -25.1455     0.0000     1.0000 </r>
       <r>   -24.9549     0.0000     1.0000 </r>
       <r>   -24.7643     0.0000     1.0000 </r>
       <r>   -24.5738     0.0000     1.0000 </r>
       <r>   -24.3832     0.0000     1.0000 </r>
       <r>   -24.1927     0.0000     1.0000 </r>
       <r>   -24.0021     0.0000     1.0000 </r>
       <r>   -23.8115     0.0000     1.0000 </r>
       <r>   -23.6210     0.0000     1.0000 </r>
       <r>   -23.4304     0.0000     1.0000 </r>
       <r>   -23.2398     0.0000     1.0000 </r>
       <r>   -23.0493     0.0000     1.0000 </r>
       <r>   -22.8587     0.7755     1.1478 </r>
       <r>   -22.6682     4.3534     1.9774 </r>
       <r>   -22.4776     2.5753     2.4681 </r>
       <r>   -22.2870     3.3742     3.1111 </r>
       <r>   -22.0965     5.6853     4.1945 </r>
       <r>   -21.9059     2.9839     4.7631 </r>
       <r>   -21.7154     1.8510     5.1159 </r>
       <r>   -21.5248     6.1007     6.2784 </r>
       <r>   -21.3342     4.3696     7.1111 </r>
       <r>   -21.1437     2.7710     7.6391 </r>
       <r>   -20.9531     1.2795     7.8830 </r>
       <r>   -20.7626     7.3181     9.2775 </r>
       <r>   -20.5720     5.7214    10.3678 </r>
       <r>   -20.3814     0.4033    10.4446 </r>
       <r>   -20.1909     3.4447    11.1011 </r>
       <r>   -20.0003     5.0514    12.0637 </r>
       <r>   -19.8098     5.4967    13.1111 </r>
       <r>   -19.6192     5.6350    14.1849 </r>
       <r>   -19.4286     1.3619    14.4444 </r>
       <r>   -19.2381     0.1140    14.4662 </r>
       <r>   -19.0475     8.3942    16.0658 </r>
       <r>   -18.8569     5.7105    17.1540 </r>
       <r>   -18.6664     3.2733    17.7778 </r>
       <r>   -18.4758     3.9334    18.5273 </r>
       <r>   -18.2853     3.0637    19.1111 </r>
       <r>   -18.0947     0.1076    19.1316 </r>
       <r>   -17.9041    10.7643    21.1829 </r>
       <r>   -17.7136     3.6912    21.8863 </r>
       <r>   -17.5230     7.6868    23.3511 </r>
       <r>   -17.3325     2.2392    23.7778 </r>
       <r>   -17.1419     0.0037    23.7785 </r>
       <r>   -16.9513     2.3632    24.2288 </r>
       <r>   -16.7608     8.1135    25.7749 </r>
       <r>   -16.5702     0.1283    25.7994 </r>
       <r>   -16.3797     3.3835    26.4441 </r>
       <r>   -16.1891     0.7678    26.5905 </r>
       <r>   -15.9985     4.6850    27.4832 </r>
       <r>   -15.8080    10.8545    29.5517 </r>
       <r>   -15.6174     0.0204    29.5556 </r>
       <r>   -15.4269     1.5234    29.8459 </r>
       <r>   -15.2363    12.4566    32.2196 </r>
       <r>   -15.0457     0.0783    32.2345 </r>
       <r>   -14.8552     6.8911    33.5477 </r>
       <r>   -14.6646     0.9464    33.7280 </r>
       <r>   -14.4740     4.1997    34.5283 </r>
       <r>   -14.2835     7.6794    35.9917 </r>
       <r>   -14.0929     1.2096    36.2222 </r>
       <r>   -13.9024     0.3913    36.2968 </r>
       <r>   -13.7118     7.0848    37.6469 </r>
       <r>   -13.5212     5.4028    38.6764 </r>
       <r>   -13.3307     7.8538    40.1731 </r>
       <r>   -13.1401     6.6707    41.4442 </r>
       <r>   -12.9496     1.2928    41.6906 </r>
       <r>   -12.7590     9.9567    43.5880 </r>
       <r>   -12.5684     2.7446    44.1110 </r>
       <r>   -12.3779     0.0074    44.1124 </r>
       <r>   -12.1873     4.1004    44.8938 </r>
       <r>   -11.9968    14.0929    47.5793 </r>
       <r>   -11.8062     2.7906    48.1111 </r>
       <r>   -11.6156     1.9289    48.4787 </r>
       <r>   -11.4251     5.0680    49.4444 </r>
       <r>   -11.2345     2.7030    49.9595 </r>
       <r>   -11.0440     7.9316    51.4710 </r>
       <r>   -10.8534    10.9622    53.5599 </r>
       <r>   -10.6628     9.8867    55.4440 </r>
       <r>   -10.4723     8.7140    57.1045 </r>
       <r>   -10.2817    12.4803    59.4828 </r>
       <r>   -10.0911     9.3650    61.2674 </r>
       <r>    -9.9006    14.3053    63.9934 </r>
       <r>    -9.7100     7.9624    65.5107 </r>
       <r>    -9.5195    17.2610    68.8000 </r>
       <r>    -9.3289    14.1981    71.5056 </r>
       <r>    -9.1383     5.6159    72.5758 </r>
       <r>    -8.9478     9.5015    74.3864 </r>
       <r>    -8.7572     2.8515    74.9298 </r>
       <r>    -8.5667    18.5611    78.4668 </r>
       <r>    -8.3761    16.2834    81.5698 </r>
       <r>    -8.1855     3.4236    82.2222 </r>
       <r>    -7.9950     0.3017    82.2797 </r>
       <r>    -7.8044     9.4116    84.0731 </r>
       <r>    -7.6139    15.3592    87.0000 </r>
       <r>    -7.4233     5.5696    88.0614 </r>
       <r>    -7.2327     7.0989    89.4141 </r>
       <r>    -7.0422     4.3471    90.2425 </r>
       <r>    -6.8516     7.8923    91.7465 </r>
       <r>    -6.6611    10.4790    93.7434 </r>
       <r>    -6.4705    10.2171    95.6904 </r>
       <r>    -6.2799     5.4152    96.7223 </r>
       <r>    -6.0894     7.1325    98.0815 </r>
       <r>    -5.8988     0.5291    98.1823 </r>
       <r>    -5.7082     3.5520    98.8592 </r>
       <r>    -5.5177     6.9982   100.1927 </r>
       <r>    -5.3271    13.1073   102.6905 </r>
       <r>    -5.1366     5.3711   103.7140 </r>
       <r>    -4.9460     1.1929   103.9413 </r>
       <r>    -4.7554     6.8149   105.2400 </r>
       <r>    -4.5649     1.0730   105.4445 </r>
       <r>    -4.3743     7.1691   106.8106 </r>
       <r>    -4.1838     5.0754   107.7778 </r>
       <r>    -3.9932     3.0828   108.3652 </r>
       <r>    -3.8026     2.1648   108.7778 </r>
       <r>    -3.6121     0.0000   108.7778 </r>
       <r>    -3.4215     0.0014   108.7780 </r>
       <r>    -3.2310     2.2945   109.2153 </r>
       <r>    -3.0404     0.0763   109.2298 </r>
       <r>    -2.8498     5.1998   110.2207 </r>
       <r>    -2.6593     0.0080   110.2222 </r>
       <r>    -2.4687     0.0000   110.2222 </r>
       <r>    -2.2782     2.6551   110.7282 </r>
       <r>    -2.0876     4.9463   111.6707 </r>
       <r>    -1.8970     2.5930   112.1649 </r>
       <r>    -1.7065     1.8653   112.5203 </r>
       <r>    -1.5159    14.4260   115.2694 </r>
       <r>    -1.3253     8.5012   116.8894 </r>
       <r>    -1.1348     8.0055   118.4149 </r>
       <r>    -0.9442     2.9967   118.9859 </r>
       <r>    -0.7537     6.4869   120.2221 </r>
       <r>    -0.5631     0.1228   120.2455 </r>
       <r>    -0.3725     7.0628   121.5914 </r>
       <r>    -0.1820     4.8671   122.5189 </r>
       <r>     0.0086     4.7938   123.4324 </r>
       <r>     0.1991    10.1951   125.3752 </r>
       <r>     0.3897     4.7063   126.2720 </r>
       <r>     0.5803     4.1510   127.0630 </r>
       <r>     0.7708    13.1549   129.5698 </r>
       <r>     0.9614     6.8236   130.8701 </r>
       <r>     1.1519     7.2451   132.2507 </r>
       <r>     1.3425    11.8594   134.5107 </r>
       <r>     1.5331    15.3215   137.4304 </r>
       <r>     1.7236    11.1614   139.5573 </r>
       <r>     1.9142     2.3231   140.0000 </r>
       <r>     2.1047     0.0001   140.0000 </r>
       <r>     2.2953     0.0000   140.0000 </r>
       <r>     2.4859     0.0000   140.0000 </r>
       <r>     2.6764     0.0000   140.0000 </r>
       <r>     2.8670     0.0000   140.0000 </r>
       <r>     3.0576     0.0000   140.0000 </r>
       <r>     3.2481     0.0000   140.0000 </r>
       <r>     3.4387     0.0000   140.0000 </r>
       <r>     3.6292     0.0000   140.0000 </r>
       <r>     3.8198     0.0000   140.0000 </r>
       <r>     4.0104     0.0000   140.0000 </r>
       <r>     4.2009     0.0000   140.0000 </r>
       <r>     4.3915     0.0000   140.0000 </r>
      </set>
      <set comment="spin 2">
       <r>   -52.7768     0.0000     0.0000 </r>
       <r>   -52.5862     0.0000     0.0000 </r>
       <r>   -52.3957     0.0000     0.0000 </r>
       <r>   -52.2051     0.0000     0.0000 </r>
       <r>   -52.0145     0.0000     0.0000 </r>
       <r>   -51.8240     0.0000     0.0000 </r>
       <r>   -51.6334     0.0000     0.0000 </r>
       <r>   -51.4429     0.0000     0.0000 </r>
       <r>   -51.2523     0.0000     0.0000 </r>
       <r>   -51.0617     0.0000     0.0000 </r>
       <r>   -50.8712     0.0000     0.0000 </r>
       <r>   -50.6806     0.0000     0.0000 </r>
       <r>   -50.4901     0.0000     0.0000 </r>
       <r>   -50.2995     0.0015     0.0003 </r>
       <r>   -50.1089     5.1112     0.9743 </r>
       <r>   -49.9184     0.1350     1.0000 </r>
       <r>   -49.7278     0.0000     1.0000 </r>
       <r>   -49.5372     0.0000     1.0000 </r>
       <r>   -49.3467     0.0000     1.0000 </r>
       <r>   -49.1561     0.0000     1.0000 </r>
       <r>   -48.9656     0.0000     1.0000 </r>
       <r>   -48.7750     0.0000     1.0000 </r>
       <r>   -48.5844     0.0000     1.0000 </r>
       <r>   -48.3939     0.0000     1.0000 </r>
       <r>   -48.2033     0.0000     1.0000 </r>
       <r>   -48.0128     0.0000     1.0000 </r>
       <r>   -47.8222     0.0000     1.0000 </r>
       <r>   -47.6316     0.0000     1.0000 </r>
       <r>   -47.4411     0.0000     1.0000 </r>
       <r>   -47.2505     0.0000     1.0000 </r>
       <r>   -47.0600     0.0000     1.0000 </r>
       <r>   -46.8694     0.0000     1.0000 </r>
       <r>   -46.6788     0.0000     1.0000 </r>
       <r>   -46.4883     0.0000     1.0000 </r>
       <r>   -46.2977     0.0000     1.0000 </r>
       <r>   -46.1072     0.0000     1.0000 </r>
       <r>   -45.9166     0.0000     1.0000 </r>
       <r>   -45.7260     0.0000     1.0000 </r>
       <r>   -45.5355     0.0000     1.0000 </r>
       <r>   -45.3449     0.0000     1.0000 </r>
       <r>   -45.1543     0.0000     1.0000 </r>
       <r>   -44.9638     0.0000     1.0000 </r>
       <r>   -44.7732     0.0000     1.0000 </r>
       <r>   -44.5827     0.0000     1.0000 </r>
       <r>   -44.3921     0.0000     1.0000 </r>
       <r>   -44.2015     0.0000     1.0000 </r>
       <r>   -44.0110     0.0000     1.0000 </r>
       <r>   -43.8204     0.0000     1.0000 </r>
       <r>   -43.6299     0.0000     1.0000 </r>
       <r>   -43.4393     0.0000     1.0000 </r>
       <r>   -43.2487     0.0000     1.0000 </r>
       <r>   -43.0582     0.0000     1.0000 </r>
       <r>   -42.8676     0.0000     1.0000 </r>
       <r>   -42.6771     0.0000     1.0000 </r>
       <r>   -42.4865     0.0000     1.0000 </r>
       <r>   -42.2959     0.0000     1.0000 </r>
       <r>   -42.1054     0.0000     1.0000 </r>
       <r>   -41.9148     0.0000     1.0000 </r>
       <r>   -41.7243     0.0000     1.0000 </r>
       <r>   -41.5337     0.0000     1.0000 </r>
       <r>   -41.3431     0.0000     1.0000 </r>
       <r>   -41.1526     0.0000     1.0000 </r>
       <r>   -40.9620     0.0000     1.0000 </r>
       <r>   -40.7714     0.0000     1.0000 </r>
       <r>   -40.5809     0.0000     1.0000 </r>
       <r>   -40.3903     0.0000     1.0000 </r>
       <r>   -40.1998     0.0000     1.0000 </r>
       <r>   -40.0092     0.0000     1.0000 </r>
       <r>   -39.8186     0.0000     1.0000 </r>
       <r>   -39.6281     0.0000     1.0000 </r>
       <r>   -39.4375     0.0000     1.0000 </r>
       <r>   -39.2470     0.0000     1.0000 </r>
       <r>   -39.0564     0.0000     1.0000 </r>
       <r>   -38.8658     0.0000     1.0000 </r>
       <r>   -38.6753     0.0000     1.0000 </r>
       <r>   -38.4847     0.0000     1.0000 </r>
       <r>   -38.2942     0.0000     1.0000 </r>
       <r>   -38.1036     0.0000     1.0000 </r>
       <r>   -37.9130     0.0000     1.0000 </r>
       <r>   -37.7225     0.0000     1.0000 </r>
       <r>   -37.5319     0.0000     1.0000 </r>
       <r>   -37.3414     0.0000     1.0000 </r>
       <r>   -37.1508     0.0000     1.0000 </r>
       <r>   -36.9602     0.0000     1.0000 </r>
       <r>   -36.7697     0.0000     1.0000 </r>
       <r>   -36.5791     0.0000     1.0000 </r>
       <r>   -36.3885     0.0000     1.0000 </r>
       <r>   -36.1980     0.0000     1.0000 </r>
       <r>   -36.0074     0.0000     1.0000 </r>
       <r>   -35.8169     0.0000     1.0000 </r>
       <r>   -35.6263     0.0000     1.0000 </r>
       <r>   -35.4357     0.0000     1.0000 </r>
       <r>   -35.2452     0.0000     1.0000 </r>
       <r>   -35.0546     0.0000     1.0000 </r>
       <r>   -34.8641     0.0000     1.0000 </r>
       <r>   -34.6735     0.0000     1.0000 </r>
       <r>   -34.4829     0.0000     1.0000 </r>
       <r>   -34.2924     0.0000     1.0000 </r>
       <r>   -34.1018     0.0000     1.0000 </r>
       <r>   -33.9113     0.0000     1.0000 </r>
       <r>   -33.7207     0.0000     1.0000 </r>
       <r>   -33.5301     0.0000     1.0000 </r>
       <r>   -33.3396     0.0000     1.0000 </r>
       <r>   -33.1490     0.0000     1.0000 </r>
       <r>   -32.9585     0.0000     1.0000 </r>
       <r>   -32.7679     0.0000     1.0000 </r>
       <r>   -32.5773     0.0000     1.0000 </r>
       <r>   -32.3868     0.0000     1.0000 </r>
       <r>   -32.1962     0.0000     1.0000 </r>
       <r>   -32.0056     0.0000     1.0000 </r>
       <r>   -31.8151     0.0000     1.0000 </r>
       <r>   -31.6245     0.0000     1.0000 </r>
       <r>   -31.4340     0.0000     1.0000 </r>
       <r>   -31.2434     0.0000     1.0000 </r>
       <r>   -31.0528     0.0000     1.0000 </r>
       <r>   -30.8623     0.0000     1.0000 </r>
       <r>   -30.6717     0.0000     1.0000 </r>
       <r>   -30.4812     0.0000     1.0000 </r>
       <r>   -30.2906     0.0000     1.0000 </r>
       <r>   -30.1000     0.0000     1.0000 </r>
       <r>   -29.9095     0.0000     1.0000 </r>
       <r>   -29.7189     0.0000     1.0000 </r>
       <r>   -29.5284     0.0000     1.0000 </r>
       <r>   -29.3378     0.0000     1.0000 </r>
       <r>   -29.1472     0.0000     1.0000 </r>
       <r>   -28.9567     0.0000     1.0000 </r>
       <r>   -28.7661     0.0000     1.0000 </r>
       <r>   -28.5756     0.0000     1.0000 </r>
       <r>   -28.3850     0.0000     1.0000 </r>
       <r>   -28.1944     0.0000     1.0000 </r>
       <r>   -28.0039     0.0000     1.0000 </r>
       <r>   -27.8133     0.0000     1.0000 </r>
       <r>   -27.6227     0.0000     1.0000 </r>
       <r>   -27.4322     0.0000     1.0000 </r>
       <r>   -27.2416     0.0000     1.0000 </r>
       <r>   -27.0511     0.0000     1.0000 </r>
       <r>   -26.8605     0.0000     1.0000 </r>
       <r>   -26.6699     0.0000     1.0000 </r>
       <r>   -26.4794     0.0000     1.0000 </r>
       <r>   -26.2888     0.0000     1.0000 </r>
       <r>   -26.0983     0.0000     1.0000 </r>
       <r>   -25.9077     0.0000     1.0000 </r>
       <r>   -25.7171     0.0000     1.0000 </r>
       <r>   -25.5266     0.0000     1.0000 </r>
       <r>   -25.3360     0.0000     1.0000 </r>
       <r>   -25.1455     0.0000     1.0000 </r>
       <r>   -24.9549     0.0000     1.0000 </r>
       <r>   -24.7643     0.0000     1.0000 </r>
       <r>   -24.5738     0.0000     1.0000 </r>
       <r>   -24.3832     0.0000     1.0000 </r>
       <r>   -24.1927     0.0000     1.0000 </r>
       <r>   -24.0021     0.0000     1.0000 </r>
       <r>   -23.8115     0.0000     1.0000 </r>
       <r>   -23.6210     0.0000     1.0000 </r>
       <r>   -23.4304     0.0000     1.0000 </r>
       <r>   -23.2398     0.0000     1.0000 </r>
       <r>   -23.0493     0.0000     1.0000 </r>
       <r>   -22.8587     0.7743     1.1476 </r>
       <r>   -22.6682     4.3540     1.9773 </r>
       <r>   -22.4776     2.5738     2.4677 </r>
       <r>   -22.2870     3.3763     3.1111 </r>
       <r>   -22.0965     5.6827     4.1940 </r>
       <r>   -21.9059     2.9860     4.7630 </r>
       <r>   -21.7154     1.8514     5.1158 </r>
       <r>   -21.5248     6.0983     6.2779 </r>
       <r>   -21.3342     4.3722     7.1111 </r>
       <r>   -21.1437     2.7702     7.6390 </r>
       <r>   -20.9531     1.2791     7.8827 </r>
       <r>   -20.7626     7.3179     9.2772 </r>
       <r>   -20.5720     5.7224    10.3677 </r>
       <r>   -20.3814     0.4037    10.4446 </r>
       <r>   -20.1909     3.4444    11.1010 </r>
       <r>   -20.0003     5.0484    12.0630 </r>
       <r>   -19.8098     5.5000    13.1111 </r>
       <r>   -19.6192     5.6333    14.1846 </r>
       <r>   -19.4286     1.3636    14.4444 </r>
       <r>   -19.2381     0.1138    14.4661 </r>
       <r>   -19.0475     8.3923    16.0654 </r>
       <r>   -18.8569     5.7121    17.1539 </r>
       <r>   -18.6664     3.2739    17.7778 </r>
       <r>   -18.4758     3.9306    18.5268 </r>
       <r>   -18.2853     3.0664    19.1111 </r>
       <r>   -18.0947     0.1072    19.1315 </r>
       <r>   -17.9041    10.7617    21.1823 </r>
       <r>   -17.7136     3.6932    21.8861 </r>
       <r>   -17.5230     7.6865    23.3508 </r>
       <r>   -17.3325     2.2404    23.7778 </r>
       <r>   -17.1419     0.0037    23.7785 </r>
       <r>   -16.9513     2.3623    24.2287 </r>
       <r>   -16.7608     8.1143    25.7749 </r>
       <r>   -16.5702     0.1282    25.7993 </r>
       <r>   -16.3797     3.3837    26.4441 </r>
       <r>   -16.1891     0.7669    26.5903 </r>
       <r>   -15.9985     4.6848    27.4830 </r>
       <r>   -15.8080    10.8556    29.5517 </r>
       <r>   -15.6174     0.0204    29.5556 </r>
       <r>   -15.4269     1.5208    29.8454 </r>
       <r>   -15.2363    12.4592    32.2196 </r>
       <r>   -15.0457     0.0781    32.2345 </r>
       <r>   -14.8552     6.8912    33.5477 </r>
       <r>   -14.6646     0.9454    33.7278 </r>
       <r>   -14.4740     4.1988    34.5280 </r>
       <r>   -14.2835     7.6806    35.9916 </r>
       <r>   -14.0929     1.2103    36.2222 </r>
       <r>   -13.9024     0.3910    36.2967 </r>
       <r>   -13.7118     7.0839    37.6467 </r>
       <r>   -13.5212     4.9120    38.5827 </r>
       <r>   -13.3307     8.2572    40.1562 </r>
       <r>   -13.1401     6.7592    41.4442 </r>
       <r>   -12.9496     1.2916    41.6904 </r>
       <r>   -12.7590     9.9570    43.5878 </r>
       <r>   -12.5684     2.7456    44.1110 </r>
       <r>   -12.3779     0.0074    44.1124 </r>
       <r>   -12.1873     4.0996    44.8936 </r>
       <r>   -11.9968    14.0912    47.5788 </r>
       <r>   -11.8062     2.7932    48.1111 </r>
       <r>   -11.6156     1.9274    48.4784 </r>
       <r>   -11.4251     5.0695    49.4444 </r>
       <r>   -11.2345     2.7004    49.9590 </r>
       <r>   -11.0440     7.9323    51.4706 </r>
       <r>   -10.8534    10.9490    53.5571 </r>
       <r>   -10.6628     9.9012    55.4439 </r>
       <r>   -10.4723     5.9501    56.5777 </r>
       <r>   -10.2817    11.9457    58.8541 </r>
       <r>   -10.0911    12.6072    61.2565 </r>
       <r>    -9.9006    14.3571    63.9924 </r>
       <r>    -9.7100     7.9652    65.5103 </r>
       <r>    -9.5195    17.2581    68.7990 </r>
       <r>    -9.3289    14.1991    71.5048 </r>
       <r>    -9.1383     5.6185    72.5755 </r>
       <r>    -8.9478     9.5007    74.3859 </r>
       <r>    -8.7572     2.8469    74.9284 </r>
       <r>    -8.5667    18.4031    78.4353 </r>
       <r>    -8.3761    16.4466    81.5694 </r>
       <r>    -8.1855     3.4254    82.2222 </r>
       <r>    -7.9950     0.2995    82.2792 </r>
       <r>    -7.8044     9.4074    84.0719 </r>
       <r>    -7.6139    15.3514    86.9973 </r>
       <r>    -7.4233     5.5836    88.0613 </r>
       <r>    -7.2327     7.0901    89.4124 </r>
       <r>    -7.0422     4.3552    90.2424 </r>
       <r>    -6.8516     4.3885    91.0786 </r>
       <r>    -6.6611    12.8013    93.5181 </r>
       <r>    -6.4705    11.3969    95.6899 </r>
       <r>    -6.2799     5.4170    96.7222 </r>
       <r>    -6.0894     7.1314    98.0811 </r>
       <r>    -5.8988     0.5273    98.1816 </r>
       <r>    -5.7082     3.5494    98.8580 </r>
       <r>    -5.5177     6.9792   100.1879 </r>
       <r>    -5.3271    13.1300   102.6900 </r>
       <r>    -5.1366     0.4610   102.7779 </r>
       <r>    -4.9460     5.1787   103.7647 </r>
       <r>    -4.7554     7.6867   105.2295 </r>
       <r>    -4.5649     1.1280   105.4445 </r>
       <r>    -4.3743     7.2704   106.8299 </r>
       <r>    -4.1838     4.9741   107.7778 </r>
       <r>    -3.9932     0.0874   107.7944 </r>
       <r>    -3.8026     5.1574   108.7772 </r>
       <r>    -3.6121     0.0030   108.7778 </r>
       <r>    -3.4215     0.0014   108.7780 </r>
       <r>    -3.2310     2.2936   109.2151 </r>
       <r>    -3.0404     0.0373   109.2222 </r>
       <r>    -2.8498     0.0000   109.2222 </r>
       <r>    -2.6593     0.0000   109.2222 </r>
       <r>    -2.4687     0.9143   109.3965 </r>
       <r>    -2.2782     6.9158   110.7143 </r>
       <r>    -2.0876     5.0002   111.6672 </r>
       <r>    -1.8970     2.6100   112.1645 </r>
       <r>    -1.7065     1.7516   112.4983 </r>
       <r>    -1.5159    13.1095   114.9965 </r>
       <r>    -1.3253     9.9058   116.8841 </r>
       <r>    -1.1348     8.0191   118.4123 </r>
       <r>    -0.9442     2.9872   118.9815 </r>
       <r>    -0.7537     6.5101   120.2221 </r>
       <r>    -0.5631     0.0008   120.2222 </r>
       <r>    -0.3725     2.0579   120.6144 </r>
       <r>    -0.1820     6.5028   121.8536 </r>
       <r>     0.0086     7.9195   123.3627 </r>
       <r>     0.1991    10.5131   125.3661 </r>
       <r>     0.3897     3.7069   126.0725 </r>
       <r>     0.5803     4.2766   126.8874 </r>
       <r>     0.7708    13.4511   129.4507 </r>
       <r>     0.9614     5.9742   130.5891 </r>
       <r>     1.1519     7.0586   131.9342 </r>
       <r>     1.3425    12.4117   134.2994 </r>
       <r>     1.5331    14.4892   137.0605 </r>
       <r>     1.7236    12.8054   139.5007 </r>
       <r>     1.9142     2.6198   139.9999 </r>
       <r>     2.1047     0.0004   140.0000 </r>
       <r>     2.2953     0.0000   140.0000 </r>
       <r>     2.4859     0.0000   140.0000 </r>
       <r>     2.6764     0.0000   140.0000 </r>
       <r>     2.8670     0.0000   140.0000 </r>
       <r>     3.0576     0.0000   140.0000 </r>
       <r>     3.2481     0.0000   140.0000 </r>
       <r>     3.4387     0.0000   140.0000 </r>
       <r>     3.6292     0.0000   140.0000 </r>
       <r>     3.8198     0.0000   140.0000 </r>
       <r>     4.0104     0.0000   140.0000 </r>
       <r>     4.2009     0.0000   140.0000 </r>
       <r>     4.3915     0.0000   140.0000 </r>
      </set>
     </set>
    </array>
   </total>
  </dos>
 </calculation>
 <structure name="finalpos" >
  <crystal>
   <varray name="basis" >
    <v>      12.30000000       0.00000000       0.00000000 </v>
    <v>      -6.15000000      10.65211247       0.00000000 </v>
    <v>       0.00000000       0.00000000      30.00000000 </v>
   </varray>
   <i name="volume">   3930.62950016 </i>
   <varray name="rec_basis" >
    <v>       0.08130081       0.04693905       0.00000000 </v>
    <v>       0.00000000       0.09387809       0.00000000 </v>
    <v>       0.00000000       0.00000000       0.03333333 </v>
   </varray>
  </crystal>
  <varray name="positions" >
   <v>       0.00345074       0.99986383       0.49609670 </v>
   <v>       0.00348460       0.19970334       0.49664178 </v>
   <v>       0.13682954       0.26641593       0.49662475 </v>
   <v>       0.00369603       0.39951385       0.49732348 </v>
   <v>       0.13694708       0.46642552       0.49708584 </v>
   <v>       0.00383788       0.60005532       0.49711179 </v>
   <v>       0.13728880       0.66673225       0.49714247 </v>
   <v>       0.00373898       0.80037993       0.49623857 </v>
   <v>       0.13693361       0.86663486       0.49637633 </v>
   <v>       0.40332590       0.39971860       0.49590635 </v>
   <v>       0.33679058       0.06643168       0.49601494 </v>
   <v>       0.53661624       0.26629152       0.49570410 </v>
   <v>       0.20350352       0.99988078       0.49615422 </v>
   <v>       0.20353132       0.39972944       0.49672267 </v>
   <v>       0.33680059       0.46648876       0.49629492 </v>
   <v>       0.20362647       0.59981745       0.49699182 </v>
   <v>       0.33686522       0.66650087       0.49656844 </v>
   <v>       0.20361733       0.79994590       0.49668328 </v>
   <v>       0.33686383       0.86652635       0.49644123 </v>
   <v>       0.40346456       0.99981634       0.49614744 </v>
   <v>       0.53673714       0.06636083       0.49614030 </v>
   <v>       0.40335236       0.19969184       0.49582630 </v>
   <v>       0.20346847       0.19976015       0.49630817 </v>
   <v>       0.33677594       0.26642160       0.49600636 </v>
   <v>       0.53671381       0.66650573       0.49577726 </v>
   <v>       0.13676778       0.06644140       0.49620324 </v>
   <v>       0.73675221       0.86656239       0.49579090 </v>
   <v>       0.40345319       0.79981189       0.49641146 </v>
   <v>       0.53677031       0.86643479       0.49613927 </v>
   <v>       0.60343762       0.99974474       0.49621758 </v>
   <v>       0.73674534       0.06635827       0.49634866 </v>
   <v>       0.60329964       0.19960770       0.49607178 </v>
   <v>       0.73647718       0.26588547       0.49658746 </v>
   <v>       0.60285721       0.39947764       0.49554387 </v>
   <v>       0.73629875       0.46622453       0.49571691 </v>
   <v>       0.60324845       0.59978617       0.49552552 </v>
   <v>       0.53657849       0.46639432       0.49553343 </v>
   <v>       0.40344283       0.59979045       0.49620483 </v>
   <v>       0.73644477       0.66674569       0.49555307 </v>
   <v>       0.80346948       0.99983073       0.49611591 </v>
   <v>       0.93675302       0.06643387       0.49626334 </v>
   <v>       0.80338933       0.19958592       0.49670218 </v>
   <v>       0.93678703       0.26628266       0.49693830 </v>
   <v>       0.80315717       0.39930135       0.49657820 </v>
   <v>       0.93695234       0.46624950       0.49725907 </v>
   <v>       0.80315673       0.60002138       0.49569846 </v>
   <v>       0.93698371       0.66696228       0.49635207 </v>
   <v>       0.80338826       0.79995657       0.49565506 </v>
   <v>       0.93678992       0.86661211       0.49589353 </v>
   <v>       0.60345197       0.79982850       0.49586192 </v>
   <v>       0.84379779       0.53373289       0.55293658 </v>
   <v>       0.52033525       0.40496966       0.67613139 </v>
   <v>       0.71141259       0.58973245       0.68898397 </v>
   <v>       0.68672958       0.46155567       0.62731800 </v>
   <v>       0.87646093       0.64798229       0.64082278 </v>
  </varray>
 </structure>
</modeling>
