       N       E                     dE             d eps       ncg     rms          rms(c)
DAV:   1     0.194407764360E+04    0.19441E+04   -0.67597E+04  3232   0.106E+03
DAV:   2     0.427948929932E+02   -0.19013E+04   -0.17572E+04  4072   0.237E+02
DAV:   3    -0.462676783746E+03   -0.50547E+03   -0.50106E+03  3472   0.129E+02
DAV:   4    -0.489626676054E+03   -0.26950E+02   -0.26657E+02  3384   0.389E+01
DAV:   5    -0.490534601988E+03   -0.90793E+00   -0.90149E+00  3616   0.611E+00    0.329E+01
DAV:   6    -0.465434213788E+03    0.25100E+02   -0.25107E+01  3004   0.125E+01    0.190E+01
DAV:   7    -0.453376847711E+03    0.12057E+02   -0.17148E+01  3056   0.998E+00    0.993E+00
DAV:   8    -0.452757569017E+03    0.61928E+00   -0.44072E+00  2996   0.474E+00    0.386E+00
DAV:   9    -0.453799825418E+03   -0.10423E+01   -0.58262E-01  3476   0.199E+00    0.144E+00
DAV:  10    -0.454140534572E+03   -0.34071E+00   -0.18571E-01  2856   0.101E+00    0.980E-01
DAV:  11    -0.454450129523E+03   -0.30959E+00   -0.49196E-02  3280   0.483E-01    0.835E-01
DAV:  12    -0.455173713509E+03   -0.72358E+00   -0.21322E-01  2836   0.813E-01    0.592E-01
DAV:  13    -0.455164654158E+03    0.90594E-02   -0.12559E-01  2800   0.638E-01    0.427E-01
DAV:  14    -0.455791741887E+03   -0.62709E+00   -0.58742E-02  2872   0.417E-01    0.292E-01
DAV:  15    -0.456491581160E+03   -0.69984E+00   -0.31119E-02  2956   0.276E-01    0.201E-01
DAV:  16    -0.456891798432E+03   -0.40022E+00   -0.81793E-03  2956   0.178E-01    0.150E-01
DAV:  17    -0.457227116837E+03   -0.33532E+00   -0.67918E-03  2912   0.154E-01    0.993E-02
DAV:  18    -0.457340483878E+03   -0.11337E+00   -0.23487E-03  2960   0.939E-02    0.743E-02
DAV:  19    -0.457380983134E+03   -0.40499E-01   -0.12372E-03  3044   0.721E-02    0.547E-02
DAV:  20    -0.457395330470E+03   -0.14347E-01   -0.76885E-04  3016   0.628E-02    0.375E-02
DAV:  21    -0.457411454044E+03   -0.16124E-01   -0.35526E-04  2980   0.532E-02    0.253E-02
DAV:  22    -0.457439778361E+03   -0.28324E-01   -0.18984E-04  2948   0.468E-02    0.151E-02
DAV:  23    -0.457453753276E+03   -0.13975E-01   -0.98958E-05  2876   0.372E-02    0.950E-03
DAV:  24    -0.457458052527E+03   -0.42993E-02   -0.58112E-05  2588   0.262E-02    0.620E-03
DAV:  25    -0.457460214586E+03   -0.21621E-02   -0.42739E-05  2456   0.213E-02    0.370E-03
DAV:  26    -0.457461095327E+03   -0.88074E-03   -0.13883E-05  2440   0.120E-02    0.242E-03
DAV:  27    -0.457461491947E+03   -0.39662E-03   -0.38641E-06  2336   0.600E-03    0.149E-03
DAV:  28    -0.457461721072E+03   -0.22913E-03   -0.16841E-06  2240   0.343E-03    0.997E-04
DAV:  29    -0.457461832198E+03   -0.11113E-03   -0.59215E-07  2048   0.194E-03    0.658E-04
DAV:  30    -0.457461906663E+03   -0.74465E-04   -0.45253E-07  2008   0.134E-03    0.415E-04
DAV:  31    -0.457461945918E+03   -0.39255E-04   -0.22078E-07  2020   0.986E-04    0.274E-04
DAV:  32    -0.457461963548E+03   -0.17630E-04   -0.82673E-08  1976   0.684E-04    0.185E-04
DAV:  33    -0.457461970555E+03   -0.70074E-05   -0.26894E-08  2004   0.437E-04    0.150E-04
DAV:  34    -0.457461972891E+03   -0.23360E-05    0.14773E-09  1988   0.258E-04    0.137E-04
DAV:  35    -0.457461973940E+03   -0.10486E-05    0.11973E-08  1892   0.156E-04    0.132E-04
DAV:  36    -0.457461974450E+03   -0.51046E-06    0.15507E-08  1880   0.102E-04
   1 F= -.45746197E+03 E0= -.45745859E+03  d E =-.677310E-02  mag=     0.2976
