C  Li
 1.0000000000000000
    12.3000000000000007    0.0000000000000000    0.0000000000000000
    -6.1500000000000004   10.6521124665485960    0.0000000000000000
     0.0000000000000000    0.0000000000000000   30.0000000000000000
 C   Li 
  50   1
Direct
  0.9982463223676361  0.0045148480604069  0.5045697375395338
  0.1306421385087052  0.0693754739734214  0.5101472268343697
  0.9945033367255569  0.2054369261090619  0.4953394139625963
  0.1287434375435501  0.2689782188445617  0.4982199701472184
  0.9954992360467858  0.4092438692663884  0.4899749787699394
  0.1311162320676213  0.4701151816155431  0.4960825087264703
  0.0169462650711216  0.6170702060213585  0.5008620228475982
  0.1436845888729696  0.6734673499807450  0.5090685928923392
  0.0068005623237593  0.8103511011011094  0.5090690585445351
  0.1363466309173402  0.8709328356661548  0.5171070283027782
  0.1976942223149311  0.0022360271910483  0.5173113509339492
  0.5166351579326013  0.2498730808507414  0.5022948290849698
  0.4021866696158741  0.3965025309727337  0.4966125754687442
  0.3284779750516271  0.2646057141157209  0.5042926172998653
  0.1985726043935615  0.4016143317312735  0.4966886329598211
  0.3346489484050418  0.4649460673541072  0.4967896137242774
  0.2048848062105617  0.6021455993176298  0.5035215565845670
  0.3378485733786353  0.6649135306704345  0.5045696817062447
  0.2042664586724579  0.8030133619112780  0.5171068698233408
  0.3355695318673088  0.8643608974347250  0.5173113460301233
  0.3969704153658066  0.9956809001724148  0.5179301310377534
  0.5267765696528530  0.0564075269797397  0.5102989891491484
  0.3897407486271420  0.1934433369263595  0.5102990217961255
  0.3290141598106012  0.0636369891201260  0.5179301151130773
  0.1954674856277649  0.2018283457837273  0.5049077329590350
  0.5377664104059851  0.4573226302394979  0.4904478825124673
  0.6023116165415939  0.7954101870278498  0.4982198973371788
  0.5387703980565988  0.6611701117713168  0.4953394585079869
  0.4027091406451954  0.7973087980008418  0.5101471449327125
  0.5351618549575803  0.8621342933736422  0.5049077274296868
  0.5979390952035011  0.9951447317728478  0.5042925585751425
  0.7298357957073679  0.0688533276443127  0.4966124393052511
  0.5832062581487646  0.1833019008997500  0.5022948009891415
  0.7078268657768531  0.2592048608142441  0.4890083987036638
  0.5925381315658382  0.3744936875902065  0.4890084236995497
  0.7108803948547375  0.3775472125688897  0.4788600770504963
  0.6067749696366322  0.5931217230007851  0.4898596507013277
  0.9354787428826973  0.8715514384338644  0.5035218478984639
  0.4045251100547240  0.5976014762282930  0.4981507987276825
  0.7349476780500720  0.8652393539153119  0.4966886283516343
  0.7982793362240428  0.0013156050068871  0.4967894754832091
  0.9309347019401489  0.0711916648731101  0.4981508062268913
  0.7906558556282690  0.2044330479180989  0.4904478411511502
  0.9264549737174275  0.2734414722290028  0.4898596633516363
  0.8219482609965792  0.4886148721691786  0.4784195453979955
  0.9407065587051318  0.4920179295580288  0.4881665618765282
  0.8253515515581873  0.6073734068516392  0.4881665856065237
  0.9504036502197590  0.6836129387218510  0.5008621772481191
  0.8034485044428578  0.7977828220508190  0.4960828593250279
  0.7425774379745670  0.6621658875834433  0.4899750784003429
  0.7958976834592700  0.4433385200087585  0.5569183852872314
Cartesian
  0.0000000000000000  0.0000000000000000  0.0000000000000000
  0.0000000000000000  0.0000000000000000  0.0000000000000000
  0.0000000000000000  0.0000000000000000  0.0000000000000000
  0.0000000000000000  0.0000000000000000  0.0000000000000000
  0.0000000000000000  0.0000000000000000  0.0000000000000000
  0.0000000000000000  0.0000000000000000  0.0000000000000000
  0.0000000000000000  0.0000000000000000  0.0000000000000000
  0.0000000000000000  0.0000000000000000  0.0000000000000000
  0.0000000000000000  0.0000000000000000  0.0000000000000000
  0.0000000000000000  0.0000000000000000  0.0000000000000000
  0.0000000000000000  0.0000000000000000  0.0000000000000000
  0.0000000000000000  0.0000000000000000  0.0000000000000000
  0.0000000000000000  0.0000000000000000  0.0000000000000000
  0.0000000000000000  0.0000000000000000  0.0000000000000000
  0.0000000000000000  0.0000000000000000  0.0000000000000000
  0.0000000000000000  0.0000000000000000  0.0000000000000000
  0.0000000000000000  0.0000000000000000  0.0000000000000000
  0.0000000000000000  0.0000000000000000  0.0000000000000000
  0.0000000000000000  0.0000000000000000  0.0000000000000000
  0.0000000000000000  0.0000000000000000  0.0000000000000000
  0.0000000000000000  0.0000000000000000  0.0000000000000000
  0.0000000000000000  0.0000000000000000  0.0000000000000000
  0.0000000000000000  0.0000000000000000  0.0000000000000000
  0.0000000000000000  0.0000000000000000  0.0000000000000000
  0.0000000000000000  0.0000000000000000  0.0000000000000000
  0.0000000000000000  0.0000000000000000  0.0000000000000000
  0.0000000000000000  0.0000000000000000  0.0000000000000000
  0.0000000000000000  0.0000000000000000  0.0000000000000000
  0.0000000000000000  0.0000000000000000  0.0000000000000000
  0.0000000000000000  0.0000000000000000  0.0000000000000000
  0.0000000000000000  0.0000000000000000  0.0000000000000000
  0.0000000000000000  0.0000000000000000  0.0000000000000000
  0.0000000000000000  0.0000000000000000  0.0000000000000000
  0.0000000000000000  0.0000000000000000  0.0000000000000000
  0.0000000000000000  0.0000000000000000  0.0000000000000000
  0.0000000000000000  0.0000000000000000  0.0000000000000000
  0.0000000000000000  0.0000000000000000  0.0000000000000000
  0.0000000000000000  0.0000000000000000  0.0000000000000000
  0.0000000000000000  0.0000000000000000  0.0000000000000000
  0.0000000000000000  0.0000000000000000  0.0000000000000000
  0.0000000000000000  0.0000000000000000  0.0000000000000000
  0.0000000000000000  0.0000000000000000  0.0000000000000000
  0.0000000000000000  0.0000000000000000  0.0000000000000000
  0.0000000000000000  0.0000000000000000  0.0000000000000000
  0.0000000000000000  0.0000000000000000  0.0000000000000000
  0.0000000000000000  0.0000000000000000  0.0000000000000000
  0.0000000000000000  0.0000000000000000  0.0000000000000000
  0.0000000000000000  0.0000000000000000  0.0000000000000000
  0.0000000000000000  0.0000000000000000  0.0000000000000000
  0.0000000000000000  0.0000000000000000  0.0000000000000000
  0.0000000000000000  0.0000000000000000  0.0000000000000000
