<?xml version="1.0" encoding="ISO-8859-1"?>
<modeling>
 <generator>
  <i name="program" type="string">vasp </i>
  <i name="version" type="string">5.4.1  </i>
  <i name="subversion" type="string">24Jun15 (build Jul 23 2024 06:15:33) complex                          parallel </i>
  <i name="platform" type="string">IFC91_ompi </i>
  <i name="date" type="string">2026 05 05 </i>
  <i name="time" type="string">16:49:03 </i>
 </generator>
 <incar>
  <i type="string" name="SYSTEM"> Li defective graphene MACE training lab</i>
  <i type="int" name="ISTART">     0</i>
  <i type="string" name="PREC">accurate</i>
  <i type="string" name="ALGO"> Normal</i>
  <i type="logical" name="ADDGRID"> T  </i>
  <i type="int" name="ISPIN">     2</i>
  <i type="int" name="ICHARG">     2</i>
  <i type="int" name="NELM">   120</i>
  <i type="int" name="IBRION">    -1</i>
  <i name="EDIFF">      0.00000100</i>
  <i type="int" name="NSW">     0</i>
  <i type="int" name="ISIF">     2</i>
  <i type="int" name="ISYM">     0</i>
  <i name="ENCUT">    520.00000000</i>
  <v name="MAGMOM">      0.10000000      0.10000000      0.10000000      0.10000000      0.10000000      0.10000000      0.10000000      0.10000000      0.10000000      0.10000000      0.10000000      0.10000000      0.10000000      0.10000000      0.10000000      0.10000000      0.10000000      0.10000000      0.10000000      0.10000000
      0.10000000      0.10000000      0.10000000      0.10000000      0.10000000      0.10000000      0.10000000      0.10000000      0.10000000      0.10000000      0.10000000      0.10000000      0.10000000      0.10000000      0.10000000      0.10000000      0.10000000      0.10000000      0.10000000      0.10000000
      0.10000000      0.10000000      0.10000000      0.10000000      0.10000000      0.10000000      0.10000000      0.10000000      0.10000000      0.10000000      1.00000000</v>
  <i type="string" name="LREAL"> Auto</i>
  <i type="int" name="ISMEAR">     0</i>
  <i name="SIGMA">      0.05000000</i>
  <i type="logical" name="LWAVE"> F  </i>
  <i type="logical" name="LCHARG"> F  </i>
  <i type="logical" name="LASPH"> T  </i>
  <v type="int" name="KPOINT_BSE">    -1     0     0     0</v>
  <i type="int" name="NELM">   120</i>
  <i type="logical" name="LASPH"> T  </i>
 </incar>
 <kpoints>
  <generation param="Gamma">
   <v type="int" name="divisions">       3        3        1 </v>
   <v name="usershift">      0.00000000       0.00000000       0.00000000 </v>
   <v name="genvec1">      0.33333333       0.00000000       0.00000000 </v>
   <v name="genvec2">      0.00000000       0.33333333       0.00000000 </v>
   <v name="genvec3">      0.00000000       0.00000000       1.00000000 </v>
   <v name="shift">      0.00000000       0.00000000       0.00000000 </v>
  </generation>
  <varray name="kpointlist" >
   <v>       0.00000000       0.00000000       0.00000000 </v>
   <v>       0.33333333      -0.00000000       0.00000000 </v>
   <v>       0.00000000       0.33333333       0.00000000 </v>
   <v>       0.33333333       0.33333333       0.00000000 </v>
   <v>      -0.33333333       0.33333333       0.00000000 </v>
  </varray>
  <varray name="weights" >
   <v>       0.11111111 </v>
   <v>       0.22222222 </v>
   <v>       0.22222222 </v>
   <v>       0.22222222 </v>
   <v>       0.22222222 </v>
  </varray>
 </kpoints>
 <parameters>
  <separator name="general" >
   <i type="string" name="SYSTEM">Li defective graphene MACE training lab</i>
   <i type="logical" name="LCOMPAT"> F  </i>
  </separator>
  <separator name="electronic" >
   <i type="string" name="PREC">accura</i>
   <i name="ENMAX">    520.00000000</i>
   <i name="ENAUG">    644.87300000</i>
   <i name="EDIFF">      0.00000100</i>
   <i type="int" name="IALGO">    38</i>
   <i type="int" name="IWAVPR">    10</i>
   <i type="int" name="NBANDS">   132</i>
   <i name="NELECT">    203.00000000</i>
   <i type="int" name="TURBO">     0</i>
   <i type="int" name="IRESTART">     0</i>
   <i type="int" name="NREBOOT">     0</i>
   <i type="int" name="NMIN">     0</i>
   <i name="EREF">      0.00000000</i>
   <separator name="electronic smearing" >
    <i type="int" name="ISMEAR">     0</i>
    <i name="SIGMA">      0.05000000</i>
    <i name="KSPACING">      0.50000000</i>
    <i type="logical" name="KGAMMA"> T  </i>
   </separator>
   <separator name="electronic projectors" >
    <i type="logical" name="LREAL"> T  </i>
    <v name="ROPT">     -0.00025000     -0.00025000</v>
    <i type="int" name="LMAXPAW">  -100</i>
    <i type="int" name="LMAXMIX">     2</i>
    <i type="logical" name="NLSPLINE"> F  </i>
   </separator>
   <separator name="electronic startup" >
    <i type="int" name="ISTART">     0</i>
    <i type="int" name="ICHARG">     2</i>
    <i type="int" name="INIWAV">     1</i>
   </separator>
   <separator name="electronic spin" >
    <i type="int" name="ISPIN">     2</i>
    <i type="logical" name="LNONCOLLINEAR"> F  </i>
    <v name="MAGMOM">      0.10000000      0.10000000      0.10000000      0.10000000      0.10000000      0.10000000      0.10000000      0.10000000      0.10000000      0.10000000      0.10000000      0.10000000      0.10000000      0.10000000      0.10000000      0.10000000      0.10000000      0.10000000      0.10000000      0.10000000
      0.10000000      0.10000000      0.10000000      0.10000000      0.10000000      0.10000000      0.10000000      0.10000000      0.10000000      0.10000000      0.10000000      0.10000000      0.10000000      0.10000000      0.10000000      0.10000000      0.10000000      0.10000000      0.10000000      0.10000000
      0.10000000      0.10000000      0.10000000      0.10000000      0.10000000      0.10000000      0.10000000      0.10000000      0.10000000      0.10000000      1.00000000</v>
    <i name="NUPDOWN">     -1.00000000</i>
    <i type="logical" name="LSORBIT"> F  </i>
    <v name="SAXIS">      0.00000000      0.00000000      1.00000000</v>
    <i type="logical" name="LSPIRAL"> F  </i>
    <v name="QSPIRAL">      0.00000000      0.00000000      0.00000000</v>
    <i type="logical" name="LZEROZ"> F  </i>
   </separator>
   <separator name="electronic exchange-correlation" >
    <i type="logical" name="LASPH"> T  </i>
    <i type="logical" name="LMETAGGA"> F  </i>
   </separator>
   <separator name="electronic convergence" >
    <i type="int" name="NELM">   120</i>
    <i type="int" name="NELMDL">    -5</i>
    <i type="int" name="NELMIN">     2</i>
    <i name="ENINI">    520.00000000</i>
    <separator name="electronic convergence detail" >
     <i type="logical" name="LDIAG"> T  </i>
     <i type="logical" name="LSUBROT"> F  </i>
     <i name="WEIMIN">      0.00000000</i>
     <i name="EBREAK">      0.00000000</i>
     <i name="DEPER">      0.30000000</i>
     <i type="int" name="NRMM">     4</i>
     <i name="TIME">      0.40000000</i>
    </separator>
   </separator>
   <separator name="electronic mixer" >
    <i name="AMIX">      0.40000000</i>
    <i name="BMIX">      1.00000000</i>
    <i name="AMIN">      0.10000000</i>
    <i name="AMIX_MAG">      1.60000000</i>
    <i name="BMIX_MAG">      1.00000000</i>
    <separator name="electronic mixer details" >
     <i type="int" name="IMIX">     4</i>
     <i type="logical" name="MIXFIRST"> F  </i>
     <i type="int" name="MAXMIX">   -45</i>
     <i name="WC">    100.00000000</i>
     <i type="int" name="INIMIX">     1</i>
     <i type="int" name="MIXPRE">     1</i>
     <i type="int" name="MREMOVE">     5</i>
    </separator>
   </separator>
   <separator name="electronic dipolcorrection" >
    <i type="logical" name="LDIPOL"> F  </i>
    <i type="logical" name="LMONO"> F  </i>
    <i type="int" name="IDIPOL">     0</i>
    <i name="EPSILON">      1.00000000</i>
    <v name="DIPOL">   -100.00000000   -100.00000000   -100.00000000</v>
    <i name="EFIELD">      0.00000000</i>
   </separator>
  </separator>
  <separator name="grids" >
   <i type="int" name="NGX">    96</i>
   <i type="int" name="NGY">    96</i>
   <i type="int" name="NGZ">   224</i>
   <i type="int" name="NGXF">   192</i>
   <i type="int" name="NGYF">   192</i>
   <i type="int" name="NGZF">   448</i>
   <i type="logical" name="ADDGRID"> T  </i>
  </separator>
  <separator name="ionic" >
   <i type="int" name="NSW">     0</i>
   <i type="int" name="IBRION">    -1</i>
   <i type="int" name="ISIF">     2</i>
   <i name="PSTRESS">      0.00000000</i>
   <i name="EDIFFG">      0.00001000</i>
   <i type="int" name="NFREE">     0</i>
   <i name="POTIM">      0.50000000</i>
   <i name="SMASS">     -3.00000000</i>
   <i name="SCALEE">      1.00000000</i>
  </separator>
  <separator name="ionic md" >
   <i name="TEBEG">      0.00010000</i>
   <i name="TEEND">      0.00010000</i>
   <i type="int" name="NBLOCK">     1</i>
   <i type="int" name="KBLOCK">     1</i>
   <i type="int" name="NPACO">   256</i>
   <i name="APACO">     16.00000000</i>
  </separator>
  <separator name="symmetry" >
   <i type="int" name="ISYM">     0</i>
   <i name="SYMPREC">      0.00001000</i>
  </separator>
  <separator name="dos" >
   <i type="logical" name="LORBIT"> F  </i>
   <v name="RWIGS">     -1.00000000     -1.00000000</v>
   <i type="int" name="NEDOS">   301</i>
   <i name="EMIN">     10.00000000</i>
   <i name="EMAX">    -10.00000000</i>
   <i name="EFERMI">      0.00000000</i>
  </separator>
  <separator name="writing" >
   <i type="int" name="NWRITE">     2</i>
   <i type="logical" name="LWAVE"> F  </i>
   <i type="logical" name="LCHARG"> F  </i>
   <i type="logical" name="LPARD"> F  </i>
   <i type="logical" name="LVTOT"> F  </i>
   <i type="logical" name="LVHAR"> F  </i>
   <i type="logical" name="LELF"> F  </i>
   <i type="logical" name="LOPTICS"> F  </i>
   <v name="STM">      0.00000000      0.00000000      0.00000000      0.00000000      0.00000000      0.00000000      0.00000000</v>
  </separator>
  <separator name="performance" >
   <i type="int" name="NPAR">     4</i>
   <i type="int" name="NSIM">     4</i>
   <i type="int" name="NBLK">    -1</i>
   <i type="logical" name="LPLANE"> T  </i>
   <i type="logical" name="LSCALAPACK"> T  </i>
   <i type="logical" name="LSCAAWARE"> F  </i>
   <i type="logical" name="LSCALU"> F  </i>
   <i type="logical" name="LASYNC"> F  </i>
   <i type="logical" name="LORBITALREAL"> F  </i>
  </separator>
  <separator name="miscellaneous" >
   <i type="int" name="IDIOT">     3</i>
   <i type="logical" name="LMUSIC"> F  </i>
   <v name="POMASS">     12.01100000      7.01000000</v>
   <v name="DARWINR">      0.00000000      0.00000000</v>
   <v name="DARWINV">      1.00000000      1.00000000</v>
   <i type="logical" name="LCORR"> T  </i>
  </separator>
  <i type="logical" name="GGA_COMPAT"> T  </i>
  <i type="logical" name="LBERRY"> F  </i>
  <i type="int" name="ICORELEVEL">     0</i>
  <i type="logical" name="LDAU"> F  </i>
  <i type="int" name="I_CONSTRAINED_M">     0</i>
  <separator name="electronic exchange-correlation" >
   <i type="string" name="GGA">--</i>
   <i type="int" name="VOSKOWN">     0</i>
   <i type="logical" name="LHFCALC"> F  </i>
   <i type="string" name="PRECFOCK"></i>
   <i type="logical" name="LSYMGRAD"> F  </i>
   <i type="logical" name="LHFONE"> F  </i>
   <i type="logical" name="LRHFCALC"> F  </i>
   <i type="logical" name="LTHOMAS"> F  </i>
   <i type="logical" name="LMODELHF"> F  </i>
   <i name="ENCUT4O">     -1.00000000</i>
   <i type="int" name="EXXOEP">     0</i>
   <i type="int" name="FOURORBIT">     0</i>
   <i name="AEXX">      0.00000000</i>
   <i name="HFALPHA">      0.00000000</i>
   <i name="MCALPHA">      0.00000000</i>
   <i name="ALDAX">      1.00000000</i>
   <i name="AGGAX">      1.00000000</i>
   <i name="ALDAC">      1.00000000</i>
   <i name="AGGAC">      1.00000000</i>
   <i type="int" name="NKREDX">     1</i>
   <i type="int" name="NKREDY">     1</i>
   <i type="int" name="NKREDZ">     1</i>
   <i type="logical" name="SHIFTRED"> F  </i>
   <i type="logical" name="ODDONLY"> F  </i>
   <i type="logical" name="EVENONLY"> F  </i>
   <i type="int" name="LMAXFOCK">     0</i>
   <i type="int" name="NMAXFOCKAE">     0</i>
   <i type="logical" name="LFOCKAEDFT"> F  </i>
   <i name="HFSCREEN">      0.00000000</i>
   <i name="HFSCREENC">      0.00000000</i>
   <i type="int" name="NBANDSGWLOW">     0</i>
  </separator>
  <separator name="vdW DFT" >
   <i type="logical" name="LUSE_VDW"> F  </i>
   <i name="Zab_VDW">     -0.84910000</i>
   <i name="PARAM1">      0.12340000</i>
   <i name="PARAM2">      1.00000000</i>
   <i name="PARAM3">      0.00000000</i>
  </separator>
  <separator name="model GW" >
   <i type="int" name="MODEL_GW">     0</i>
   <i name="MODEL_EPS0">     46.24270000</i>
   <i name="MODEL_ALPHA">      1.00000000</i>
  </separator>
  <separator name="linear response parameters" >
   <i type="logical" name="LEPSILON"> F  </i>
   <i type="logical" name="LRPA"> F  </i>
   <i type="logical" name="LNABLA"> F  </i>
   <i type="logical" name="LVEL"> F  </i>
   <i type="int" name="KINTER">     0</i>
   <i name="CSHIFT">      0.10000000</i>
   <i name="OMEGAMAX">     -1.00000000</i>
   <i name="DEG_THRESHOLD">      0.00200000</i>
  </separator>
  <separator name="orbital magnetization" >
   <i type="logical" name="NUCIND"> F  </i>
   <v name="MAGPOS">      0.00000000      0.00000000      0.00000000</v>
   <i type="logical" name="LNICSALL"> T  </i>
   <i type="logical" name="ORBITALMAG"> F  </i>
   <i type="logical" name="LMAGBLOCH"> F  </i>
   <i type="logical" name="LCHIMAG"> F  </i>
   <i type="logical" name="LGAUGE"> T  </i>
   <i type="int" name="MAGATOM">     0</i>
   <v name="MAGDIPOL">      0.00000000      0.00000000      0.00000000</v>
   <v name="AVECCONST">      0.00000000      0.00000000      0.00000000</v>
  </separator>
  <separator name="response functions" >
   <i type="logical" name="LADDER"> F  </i>
   <i type="logical" name="LFXC"> F  </i>
   <i type="logical" name="LHARTREE"> T  </i>
   <i type="int" name="IBSE">     0</i>
   <v type="int" name="KPOINT">    -1     0     0     0</v>
   <i type="logical" name="LTCTE"> F  </i>
   <i type="logical" name="LTETE"> F  </i>
   <i type="logical" name="LTRIPLET"> F  </i>
   <i type="logical" name="LFXCEPS"> F  </i>
   <i type="logical" name="LFXHEG"> F  </i>
   <i type="int" name="NATURALO">     0</i>
   <i type="logical" name="L2ORDER"> F  </i>
   <i type="logical" name="LUSEW"> F  </i>
   <i name="ENCUTGW">     -2.00000000</i>
   <i name="ENCUTGWSOFT">     -2.00000000</i>
   <i name="ENCUTLF">     -1.00000000</i>
   <i type="int" name="LMAXMP2">    -1</i>
   <i name="SCISSOR">      0.00000000</i>
   <i type="int" name="NOMEGA">     0</i>
   <i type="int" name="NOMEGAR">     0</i>
   <i type="int" name="NBANDSGW">    -1</i>
   <i type="int" name="NBANDSO">    -1</i>
   <i type="int" name="NBANDSV">    -1</i>
   <i type="int" name="NELM">   120</i>
   <i type="int" name="NELMHF">     1</i>
   <i type="int" name="DIM">     3</i>
   <i type="int" name="ANTIRES">     0</i>
   <i name="OMEGAMAX">    -30.00000000</i>
   <i name="OMEGAMIN">    -30.00000000</i>
   <i name="OMEGATL">   -200.00000000</i>
   <i type="int" name="OMEGAGRID">     0</i>
   <i name="CSHIFT">     -0.10000000</i>
   <i type="logical" name="SELFENERGY"> F  </i>
   <i type="logical" name="LSPECTRAL"> F  </i>
   <i type="logical" name="LSPECTRALGW"> F  </i>
   <i type="logical" name="LSINGLES"> F  </i>
   <i type="logical" name="LFERMIGW"> F  </i>
   <i type="logical" name="ODDONLYGW"> F  </i>
   <i type="logical" name="EVENONLYGW"> F  </i>
   <i type="int" name="NKREDLFX">     1</i>
   <i type="int" name="NKREDLFY">     1</i>
   <i type="int" name="NKREDLFZ">     1</i>
   <i type="int" name="MAXMEM">  1800</i>
   <i type="int" name="TELESCOPE">     0</i>
   <i type="int" name="TAUPAR">     1</i>
   <i type="int" name="OMEGAPAR">    -1</i>
   <i name="LAMBDA">      1.00000000</i>
  </separator>
  <separator name="External order field" >
   <i name="OFIELD_KAPPA">      0.00000000</i>
   <v name="OFIELD_K">      0.00000000      0.00000000      0.00000000</v>
   <i name="OFIELD_Q6_NEAR">      0.00000000</i>
   <i name="OFIELD_Q6_FAR">      0.00000000</i>
   <i name="OFIELD_A">      0.00000000</i>
  </separator>
 </parameters>
 <atominfo>
  <atoms>      51 </atoms>
  <types>       2 </types>
  <array name="atoms" >
   <dimension dim="1">ion</dimension>
   <field type="string">element</field>
   <field type="int">atomtype</field>
   <set>
    <rc><c>C </c><c>   1</c></rc>
    <rc><c>C </c><c>   1</c></rc>
    <rc><c>C </c><c>   1</c></rc>
    <rc><c>C </c><c>   1</c></rc>
    <rc><c>C </c><c>   1</c></rc>
    <rc><c>C </c><c>   1</c></rc>
    <rc><c>C </c><c>   1</c></rc>
    <rc><c>C </c><c>   1</c></rc>
    <rc><c>C </c><c>   1</c></rc>
    <rc><c>C </c><c>   1</c></rc>
    <rc><c>C </c><c>   1</c></rc>
    <rc><c>C </c><c>   1</c></rc>
    <rc><c>C </c><c>   1</c></rc>
    <rc><c>C </c><c>   1</c></rc>
    <rc><c>C </c><c>   1</c></rc>
    <rc><c>C </c><c>   1</c></rc>
    <rc><c>C </c><c>   1</c></rc>
    <rc><c>C </c><c>   1</c></rc>
    <rc><c>C </c><c>   1</c></rc>
    <rc><c>C </c><c>   1</c></rc>
    <rc><c>C </c><c>   1</c></rc>
    <rc><c>C </c><c>   1</c></rc>
    <rc><c>C </c><c>   1</c></rc>
    <rc><c>C </c><c>   1</c></rc>
    <rc><c>C </c><c>   1</c></rc>
    <rc><c>C </c><c>   1</c></rc>
    <rc><c>C </c><c>   1</c></rc>
    <rc><c>C </c><c>   1</c></rc>
    <rc><c>C </c><c>   1</c></rc>
    <rc><c>C </c><c>   1</c></rc>
    <rc><c>C </c><c>   1</c></rc>
    <rc><c>C </c><c>   1</c></rc>
    <rc><c>C </c><c>   1</c></rc>
    <rc><c>C </c><c>   1</c></rc>
    <rc><c>C </c><c>   1</c></rc>
    <rc><c>C </c><c>   1</c></rc>
    <rc><c>C </c><c>   1</c></rc>
    <rc><c>C </c><c>   1</c></rc>
    <rc><c>C </c><c>   1</c></rc>
    <rc><c>C </c><c>   1</c></rc>
    <rc><c>C </c><c>   1</c></rc>
    <rc><c>C </c><c>   1</c></rc>
    <rc><c>C </c><c>   1</c></rc>
    <rc><c>C </c><c>   1</c></rc>
    <rc><c>C </c><c>   1</c></rc>
    <rc><c>C </c><c>   1</c></rc>
    <rc><c>C </c><c>   1</c></rc>
    <rc><c>C </c><c>   1</c></rc>
    <rc><c>C </c><c>   1</c></rc>
    <rc><c>C </c><c>   1</c></rc>
    <rc><c>Li</c><c>   2</c></rc>
   </set>
  </array>
  <array name="atomtypes" >
   <dimension dim="1">type</dimension>
   <field type="int">atomspertype</field>
   <field type="string">element</field>
   <field>mass</field>
   <field>valence</field>
   <field type="string">pseudopotential</field>
   <set>
    <rc><c>  50</c><c>C </c><c>     12.01100000</c><c>      4.00000000</c><c>  PAW_PBE C 08Apr2002                   </c></rc>
    <rc><c>   1</c><c>Li</c><c>      7.01000000</c><c>      3.00000000</c><c>  PAW_PBE Li_sv 10Sep2004               </c></rc>
   </set>
  </array>
 </atominfo>
 <structure name="initialpos" >
  <crystal>
   <varray name="basis" >
    <v>      12.30000000       0.00000000       0.00000000 </v>
    <v>      -6.15000000      10.65211247       0.00000000 </v>
    <v>       0.00000000       0.00000000      30.00000000 </v>
   </varray>
   <i name="volume">   3930.62950016 </i>
   <varray name="rec_basis" >
    <v>       0.08130081       0.04693905       0.00000000 </v>
    <v>       0.00000000       0.09387809       0.00000000 </v>
    <v>       0.00000000       0.00000000       0.03333333 </v>
   </varray>
  </crystal>
  <varray name="positions" >
   <v>       0.99824632       0.00451485       0.50456974 </v>
   <v>       0.13064214       0.06937547       0.51014723 </v>
   <v>       0.99450334       0.20543693       0.49533941 </v>
   <v>       0.12874344       0.26897822       0.49821997 </v>
   <v>       0.99549924       0.40924387       0.48997498 </v>
   <v>       0.13111623       0.47011518       0.49608251 </v>
   <v>       0.01694627       0.61707021       0.50086202 </v>
   <v>       0.14368459       0.67346735       0.50906859 </v>
   <v>       0.00680056       0.81035110       0.50906906 </v>
   <v>       0.13634663       0.87093284       0.51710703 </v>
   <v>       0.19769422       0.00223603       0.51731135 </v>
   <v>       0.51663516       0.24987308       0.50229483 </v>
   <v>       0.40218667       0.39650253       0.49661258 </v>
   <v>       0.32847798       0.26460571       0.50429262 </v>
   <v>       0.19857260       0.40161433       0.49668863 </v>
   <v>       0.33464895       0.46494607       0.49678961 </v>
   <v>       0.20488481       0.60214560       0.50352156 </v>
   <v>       0.33784857       0.66491353       0.50456968 </v>
   <v>       0.20426646       0.80301336       0.51710687 </v>
   <v>       0.33556953       0.86436090       0.51731135 </v>
   <v>       0.39697042       0.99568090       0.51793013 </v>
   <v>       0.52677657       0.05640753       0.51029899 </v>
   <v>       0.38974075       0.19344334       0.51029902 </v>
   <v>       0.32901416       0.06363699       0.51793012 </v>
   <v>       0.19546749       0.20182835       0.50490773 </v>
   <v>       0.53776641       0.45732263       0.49044788 </v>
   <v>       0.60231162       0.79541019       0.49821990 </v>
   <v>       0.53877040       0.66117011       0.49533946 </v>
   <v>       0.40270914       0.79730880       0.51014714 </v>
   <v>       0.53516185       0.86213429       0.50490773 </v>
   <v>       0.59793910       0.99514473       0.50429256 </v>
   <v>       0.72983580       0.06885333       0.49661244 </v>
   <v>       0.58320626       0.18330190       0.50229480 </v>
   <v>       0.70782687       0.25920486       0.48900840 </v>
   <v>       0.59253813       0.37449369       0.48900842 </v>
   <v>       0.71088039       0.37754721       0.47886008 </v>
   <v>       0.60677497       0.59312172       0.48985965 </v>
   <v>       0.93547874       0.87155144       0.50352185 </v>
   <v>       0.40452511       0.59760148       0.49815080 </v>
   <v>       0.73494768       0.86523935       0.49668863 </v>
   <v>       0.79827934       0.00131561       0.49678948 </v>
   <v>       0.93093470       0.07119166       0.49815081 </v>
   <v>       0.79065586       0.20443305       0.49044784 </v>
   <v>       0.92645497       0.27344147       0.48985966 </v>
   <v>       0.82194826       0.48861487       0.47841955 </v>
   <v>       0.94070656       0.49201793       0.48816656 </v>
   <v>       0.82535155       0.60737341       0.48816659 </v>
   <v>       0.95040365       0.68361294       0.50086218 </v>
   <v>       0.80344850       0.79778282       0.49608286 </v>
   <v>       0.74257744       0.66216589       0.48997508 </v>
   <v>       0.79589768       0.44333852       0.55691839 </v>
  </varray>
 </structure>
 <calculation>
  <scstep>
   <time name="dav">   45.07   45.07</time>
   <time name="total">   47.90   47.91</time>
   <energy>
    <i name="alphaZ">     53.42782116 </i>
    <i name="ewald">  56421.48800546 </i>
    <i name="hartreedc"> -61689.58608541 </i>
    <i name="XCdc">    670.78995855 </i>
    <i name="pawpsdc">   5505.55773403 </i>
    <i name="pawaedc">  -5549.36347127 </i>
    <i name="eentropy">     -0.02765180 </i>
    <i name="bandstr">  -1028.42617968 </i>
    <i name="atom">   7560.21751256 </i>
    <i name="e_fr_energy">   1944.07764360 </i>
    <i name="e_wo_entrp">   1944.10529540 </i>
    <i name="e_0_energy">   1944.09146950 </i>
   </energy>
  </scstep>
  <scstep>
   <time name="dav">   54.32   54.33</time>
   <time name="total">   54.33   54.33</time>
   <energy>
    <i name="e_fr_energy">     42.79489299 </i>
    <i name="e_wo_entrp">     42.79928213 </i>
    <i name="e_0_energy">     42.79708756 </i>
   </energy>
  </scstep>
  <scstep>
   <time name="dav">   47.70   47.70</time>
   <time name="total">   47.70   47.71</time>
   <energy>
    <i name="e_fr_energy">   -462.67678375 </i>
    <i name="e_wo_entrp">   -462.67098568 </i>
    <i name="e_0_energy">   -462.67388471 </i>
   </energy>
  </scstep>
  <scstep>
   <time name="dav">   46.74   46.74</time>
   <time name="total">   46.74   46.74</time>
   <energy>
    <i name="e_fr_energy">   -489.62667605 </i>
    <i name="e_wo_entrp">   -489.62183426 </i>
    <i name="e_0_energy">   -489.62425516 </i>
   </energy>
  </scstep>
  <scstep>
   <time name="dav">   49.33   49.36</time>
   <time name="total">   53.78   53.82</time>
   <energy>
    <i name="e_fr_energy">   -490.53460199 </i>
    <i name="e_wo_entrp">   -490.53003398 </i>
    <i name="e_0_energy">   -490.53231798 </i>
   </energy>
  </scstep>
  <scstep>
   <time name="dav">   42.20   42.20</time>
   <time name="total">   49.55   49.56</time>
   <energy>
    <i name="e_fr_energy">   -465.43421379 </i>
    <i name="e_wo_entrp">   -465.42968663 </i>
    <i name="e_0_energy">   -465.43195021 </i>
   </energy>
  </scstep>
  <scstep>
   <time name="dav">   42.85   42.85</time>
   <time name="total">   50.21   50.22</time>
   <energy>
    <i name="e_fr_energy">   -453.37684771 </i>
    <i name="e_wo_entrp">   -453.37109565 </i>
    <i name="e_0_energy">   -453.37397168 </i>
   </energy>
  </scstep>
  <scstep>
   <time name="dav">   42.18   42.19</time>
   <time name="total">   49.49   49.49</time>
   <energy>
    <i name="e_fr_energy">   -452.75756902 </i>
    <i name="e_wo_entrp">   -452.75193994 </i>
    <i name="e_0_energy">   -452.75475448 </i>
   </energy>
  </scstep>
  <scstep>
   <time name="dav">   47.34   47.34</time>
   <time name="total">   54.69   54.69</time>
   <energy>
    <i name="e_fr_energy">   -453.79982542 </i>
    <i name="e_wo_entrp">   -453.79428277 </i>
    <i name="e_0_energy">   -453.79705409 </i>
   </energy>
  </scstep>
  <scstep>
   <time name="dav">   40.53   40.53</time>
   <time name="total">   47.86   47.87</time>
   <energy>
    <i name="e_fr_energy">   -454.14053457 </i>
    <i name="e_wo_entrp">   -454.13513190 </i>
    <i name="e_0_energy">   -454.13783324 </i>
   </energy>
  </scstep>
  <scstep>
   <time name="dav">   45.32   45.35</time>
   <time name="total">   52.64   52.68</time>
   <energy>
    <i name="e_fr_energy">   -454.45012952 </i>
    <i name="e_wo_entrp">   -454.44481095 </i>
    <i name="e_0_energy">   -454.44747024 </i>
   </energy>
  </scstep>
  <scstep>
   <time name="dav">   40.35   40.35</time>
   <time name="total">   47.71   47.72</time>
   <energy>
    <i name="e_fr_energy">   -455.17371351 </i>
    <i name="e_wo_entrp">   -455.16844866 </i>
    <i name="e_0_energy">   -455.17108109 </i>
   </energy>
  </scstep>
  <scstep>
   <time name="dav">   39.96   39.96</time>
   <time name="total">   47.33   47.34</time>
   <energy>
    <i name="e_fr_energy">   -455.16465416 </i>
    <i name="e_wo_entrp">   -455.15916355 </i>
    <i name="e_0_energy">   -455.16190886 </i>
   </energy>
  </scstep>
  <scstep>
   <time name="dav">   40.74   40.75</time>
   <time name="total">   48.08   48.09</time>
   <energy>
    <i name="e_fr_energy">   -455.79174189 </i>
    <i name="e_wo_entrp">   -455.78600292 </i>
    <i name="e_0_energy">   -455.78887240 </i>
   </energy>
  </scstep>
  <scstep>
   <time name="dav">   41.62   41.62</time>
   <time name="total">   48.99   49.00</time>
   <energy>
    <i name="e_fr_energy">   -456.49158116 </i>
    <i name="e_wo_entrp">   -456.48554772 </i>
    <i name="e_0_energy">   -456.48856444 </i>
   </energy>
  </scstep>
  <scstep>
   <time name="dav">   41.64   41.64</time>
   <time name="total">   48.98   48.98</time>
   <energy>
    <i name="e_fr_energy">   -456.89179843 </i>
    <i name="e_wo_entrp">   -456.88557030 </i>
    <i name="e_0_energy">   -456.88868437 </i>
   </energy>
  </scstep>
  <scstep>
   <time name="dav">   41.06   41.09</time>
   <time name="total">   48.39   48.42</time>
   <energy>
    <i name="e_fr_energy">   -457.22711684 </i>
    <i name="e_wo_entrp">   -457.22071465 </i>
    <i name="e_0_energy">   -457.22391574 </i>
   </energy>
  </scstep>
  <scstep>
   <time name="dav">   41.56   41.56</time>
   <time name="total">   48.85   48.86</time>
   <energy>
    <i name="e_fr_energy">   -457.34048388 </i>
    <i name="e_wo_entrp">   -457.33396177 </i>
    <i name="e_0_energy">   -457.33722282 </i>
   </energy>
  </scstep>
  <scstep>
   <time name="dav">   42.49   42.49</time>
   <time name="total">   49.83   49.84</time>
   <energy>
    <i name="e_fr_energy">   -457.38098313 </i>
    <i name="e_wo_entrp">   -457.37438265 </i>
    <i name="e_0_energy">   -457.37768289 </i>
   </energy>
  </scstep>
  <scstep>
   <time name="dav">   42.26   42.26</time>
   <time name="total">   49.70   49.71</time>
   <energy>
    <i name="e_fr_energy">   -457.39533047 </i>
    <i name="e_wo_entrp">   -457.38864319 </i>
    <i name="e_0_energy">   -457.39198683 </i>
   </energy>
  </scstep>
  <scstep>
   <time name="dav">   41.83   41.84</time>
   <time name="total">   49.18   49.19</time>
   <energy>
    <i name="e_fr_energy">   -457.41145404 </i>
    <i name="e_wo_entrp">   -457.40471337 </i>
    <i name="e_0_energy">   -457.40808371 </i>
   </energy>
  </scstep>
  <scstep>
   <time name="dav">   41.46   41.46</time>
   <time name="total">   48.79   48.80</time>
   <energy>
    <i name="e_fr_energy">   -457.43977836 </i>
    <i name="e_wo_entrp">   -457.43300219 </i>
    <i name="e_0_energy">   -457.43639028 </i>
   </energy>
  </scstep>
  <scstep>
   <time name="dav">   40.67   40.68</time>
   <time name="total">   48.03   48.03</time>
   <energy>
    <i name="e_fr_energy">   -457.45375328 </i>
    <i name="e_wo_entrp">   -457.44696277 </i>
    <i name="e_0_energy">   -457.45035802 </i>
   </energy>
  </scstep>
  <scstep>
   <time name="dav">   37.55   37.55</time>
   <time name="total">   44.90   44.91</time>
   <energy>
    <i name="e_fr_energy">   -457.45805253 </i>
    <i name="e_wo_entrp">   -457.45126165 </i>
    <i name="e_0_energy">   -457.45465709 </i>
   </energy>
  </scstep>
  <scstep>
   <time name="dav">   36.09   36.09</time>
   <time name="total">   43.47   43.48</time>
   <energy>
    <i name="e_fr_energy">   -457.46021459 </i>
    <i name="e_wo_entrp">   -457.45342686 </i>
    <i name="e_0_energy">   -457.45682072 </i>
   </energy>
  </scstep>
  <scstep>
   <time name="dav">   35.98   35.98</time>
   <time name="total">   43.32   43.33</time>
   <energy>
    <i name="e_fr_energy">   -457.46109533 </i>
    <i name="e_wo_entrp">   -457.45431170 </i>
    <i name="e_0_energy">   -457.45770351 </i>
   </energy>
  </scstep>
  <scstep>
   <time name="dav">   34.83   34.83</time>
   <time name="total">   42.22   42.22</time>
   <energy>
    <i name="e_fr_energy">   -457.46149195 </i>
    <i name="e_wo_entrp">   -457.45471273 </i>
    <i name="e_0_energy">   -457.45810234 </i>
   </energy>
  </scstep>
  <scstep>
   <time name="dav">   33.80   33.81</time>
   <time name="total">   41.18   41.18</time>
   <energy>
    <i name="e_fr_energy">   -457.46172107 </i>
    <i name="e_wo_entrp">   -457.45494464 </i>
    <i name="e_0_energy">   -457.45833285 </i>
   </energy>
  </scstep>
  <scstep>
   <time name="dav">   31.71   31.71</time>
   <time name="total">   39.07   39.07</time>
   <energy>
    <i name="e_fr_energy">   -457.46183220 </i>
    <i name="e_wo_entrp">   -457.45505690 </i>
    <i name="e_0_energy">   -457.45844455 </i>
   </energy>
  </scstep>
  <scstep>
   <time name="dav">   31.28   31.29</time>
   <time name="total">   38.65   38.65</time>
   <energy>
    <i name="e_fr_energy">   -457.46190666 </i>
    <i name="e_wo_entrp">   -457.45513241 </i>
    <i name="e_0_energy">   -457.45851954 </i>
   </energy>
  </scstep>
  <scstep>
   <time name="dav">   31.36   31.36</time>
   <time name="total">   38.74   38.74</time>
   <energy>
    <i name="e_fr_energy">   -457.46194592 </i>
    <i name="e_wo_entrp">   -457.45517235 </i>
    <i name="e_0_energy">   -457.45855914 </i>
   </energy>
  </scstep>
  <scstep>
   <time name="dav">   30.91   30.92</time>
   <time name="total">   38.31   38.32</time>
   <energy>
    <i name="e_fr_energy">   -457.46196355 </i>
    <i name="e_wo_entrp">   -457.45519031 </i>
    <i name="e_0_energy">   -457.45857693 </i>
   </energy>
  </scstep>
  <scstep>
   <time name="dav">   31.19   31.19</time>
   <time name="total">   38.60   38.61</time>
   <energy>
    <i name="e_fr_energy">   -457.46197056 </i>
    <i name="e_wo_entrp">   -457.45519733 </i>
    <i name="e_0_energy">   -457.45858395 </i>
   </energy>
  </scstep>
  <scstep>
   <time name="dav">   31.02   31.04</time>
   <time name="total">   38.42   38.45</time>
   <energy>
    <i name="e_fr_energy">   -457.46197289 </i>
    <i name="e_wo_entrp">   -457.45519969 </i>
    <i name="e_0_energy">   -457.45858629 </i>
   </energy>
  </scstep>
  <scstep>
   <time name="dav">   29.97   29.97</time>
   <time name="total">   37.41   37.41</time>
   <energy>
    <i name="e_fr_energy">   -457.46197394 </i>
    <i name="e_wo_entrp">   -457.45520079 </i>
    <i name="e_0_energy">   -457.45858737 </i>
   </energy>
  </scstep>
  <scstep>
   <time name="dav">   29.81   29.82</time>
   <time name="total">   32.72   32.73</time>
   <energy>
    <i name="alphaZ">     53.42782116 </i>
    <i name="ewald">  56421.48800546 </i>
    <i name="hartreedc"> -62660.02540525 </i>
    <i name="XCdc">    700.32022260 </i>
    <i name="pawpsdc">  20707.03364386 </i>
    <i name="pawaedc"> -20757.26911258 </i>
    <i name="eentropy">     -0.00677310 </i>
    <i name="bandstr">  -2482.64788916 </i>
    <i name="atom">   7560.21751256 </i>
    <i name="e_fr_energy">   -457.46197445 </i>
    <i name="e_wo_entrp">   -457.45520135 </i>
    <i name="e_0_energy">   -457.45858790 </i>
   </energy>
  </scstep>
  <structure>
   <crystal>
    <varray name="basis" >
     <v>      12.30000000       0.00000000       0.00000000 </v>
     <v>      -6.15000000      10.65211247       0.00000000 </v>
     <v>       0.00000000       0.00000000      30.00000000 </v>
    </varray>
    <i name="volume">   3930.62950016 </i>
    <varray name="rec_basis" >
     <v>       0.08130081       0.04693905       0.00000000 </v>
     <v>       0.00000000       0.09387809       0.00000000 </v>
     <v>       0.00000000       0.00000000       0.03333333 </v>
    </varray>
   </crystal>
   <varray name="positions" >
    <v>       0.99824632       0.00451485       0.50456974 </v>
    <v>       0.13064214       0.06937547       0.51014723 </v>
    <v>       0.99450334       0.20543693       0.49533941 </v>
    <v>       0.12874344       0.26897822       0.49821997 </v>
    <v>       0.99549924       0.40924387       0.48997498 </v>
    <v>       0.13111623       0.47011518       0.49608251 </v>
    <v>       0.01694627       0.61707021       0.50086202 </v>
    <v>       0.14368459       0.67346735       0.50906859 </v>
    <v>       0.00680056       0.81035110       0.50906906 </v>
    <v>       0.13634663       0.87093284       0.51710703 </v>
    <v>       0.19769422       0.00223603       0.51731135 </v>
    <v>       0.51663516       0.24987308       0.50229483 </v>
    <v>       0.40218667       0.39650253       0.49661258 </v>
    <v>       0.32847798       0.26460571       0.50429262 </v>
    <v>       0.19857260       0.40161433       0.49668863 </v>
    <v>       0.33464895       0.46494607       0.49678961 </v>
    <v>       0.20488481       0.60214560       0.50352156 </v>
    <v>       0.33784857       0.66491353       0.50456968 </v>
    <v>       0.20426646       0.80301336       0.51710687 </v>
    <v>       0.33556953       0.86436090       0.51731135 </v>
    <v>       0.39697042       0.99568090       0.51793013 </v>
    <v>       0.52677657       0.05640753       0.51029899 </v>
    <v>       0.38974075       0.19344334       0.51029902 </v>
    <v>       0.32901416       0.06363699       0.51793012 </v>
    <v>       0.19546749       0.20182835       0.50490773 </v>
    <v>       0.53776641       0.45732263       0.49044788 </v>
    <v>       0.60231162       0.79541019       0.49821990 </v>
    <v>       0.53877040       0.66117011       0.49533946 </v>
    <v>       0.40270914       0.79730880       0.51014714 </v>
    <v>       0.53516185       0.86213429       0.50490773 </v>
    <v>       0.59793910       0.99514473       0.50429256 </v>
    <v>       0.72983580       0.06885333       0.49661244 </v>
    <v>       0.58320626       0.18330190       0.50229480 </v>
    <v>       0.70782687       0.25920486       0.48900840 </v>
    <v>       0.59253813       0.37449369       0.48900842 </v>
    <v>       0.71088039       0.37754721       0.47886008 </v>
    <v>       0.60677497       0.59312172       0.48985965 </v>
    <v>       0.93547874       0.87155144       0.50352185 </v>
    <v>       0.40452511       0.59760148       0.49815080 </v>
    <v>       0.73494768       0.86523935       0.49668863 </v>
    <v>       0.79827934       0.00131561       0.49678948 </v>
    <v>       0.93093470       0.07119166       0.49815081 </v>
    <v>       0.79065586       0.20443305       0.49044784 </v>
    <v>       0.92645497       0.27344147       0.48985966 </v>
    <v>       0.82194826       0.48861487       0.47841955 </v>
    <v>       0.94070656       0.49201793       0.48816656 </v>
    <v>       0.82535155       0.60737341       0.48816659 </v>
    <v>       0.95040365       0.68361294       0.50086218 </v>
    <v>       0.80344850       0.79778282       0.49608286 </v>
    <v>       0.74257744       0.66216589       0.48997508 </v>
    <v>       0.79589768       0.44333852       0.55691839 </v>
   </varray>
  </structure>
  <varray name="forces" >
   <v>      -0.01517444       0.01686959       0.00598927 </v>
   <v>      -0.00906136      -0.01075574       0.00705924 </v>
   <v>       0.00458045      -0.00886715      -0.01062133 </v>
   <v>       0.01608298      -0.01437053       0.00911629 </v>
   <v>       0.03099856      -0.02298102       0.00853876 </v>
   <v>       0.01472530       0.00133923       0.00325663 </v>
   <v>       0.00133605       0.01536846       0.08898949 </v>
   <v>       0.05421874       0.03462982       0.01889225 </v>
   <v>      -0.00166156       0.06313965       0.02015707 </v>
   <v>      -0.00104070      -0.00462077      -0.00212380 </v>
   <v>      -0.00810688       0.00487930       0.00741845 </v>
   <v>       0.00633158       0.08532607      -0.04628255 </v>
   <v>      -0.02511949      -0.00160630       0.00606367 </v>
   <v>       0.00339859       0.00947702       0.00771608 </v>
   <v>       0.00356071       0.01717406      -0.00578586 </v>
   <v>       0.01005924      -0.01640225      -0.00732628 </v>
   <v>       0.00098067       0.01645702      -0.00283577 </v>
   <v>       0.01948287      -0.01055826       0.00596711 </v>
   <v>      -0.00919975       0.00187057      -0.00001028 </v>
   <v>       0.01050386      -0.00498998       0.00621923 </v>
   <v>      -0.01875753      -0.00518532       0.00470806 </v>
   <v>       0.00702469       0.02013382       0.00022791 </v>
   <v>       0.00902975       0.01518546       0.00353650 </v>
   <v>       0.00090338      -0.01364449       0.00318659 </v>
   <v>      -0.00821809      -0.00214111       0.00569086 </v>
   <v>       0.10131708      -0.07515643       0.00050208 </v>
   <v>      -0.01658889       0.00516784       0.00890115 </v>
   <v>      -0.00799622      -0.00215536      -0.01076112 </v>
   <v>      -0.00817762      -0.01012637       0.00734182 </v>
   <v>       0.00560682      -0.00431297       0.00535003 </v>
   <v>       0.00257707      -0.00214391       0.00432880 </v>
   <v>       0.01813715      -0.01900584       0.00483309 </v>
   <v>       0.02456037       0.02143018      -0.00228176 </v>
   <v>       0.03600670      -0.03950288      -0.01314556 </v>
   <v>      -0.07792400      -0.04387579      -0.09316438 </v>
   <v>       0.04071099       0.16132770       0.61582351 </v>
   <v>       0.01360749      -0.00462210      -0.00894038 </v>
   <v>       0.01187046      -0.00355811       0.00262800 </v>
   <v>      -0.02438924       0.01581449       0.00920507 </v>
   <v>       0.01602996       0.00997701      -0.00675880 </v>
   <v>      -0.01749907      -0.00327454      -0.00672597 </v>
   <v>       0.03020500      -0.01529652       0.00973211 </v>
   <v>      -0.07884114       0.01124045      -0.00571579 </v>
   <v>       0.01395091      -0.00395852      -0.00957123 </v>
   <v>      -0.15221769      -0.15438692       0.46845426 </v>
   <v>      -0.02486136      -0.06202561       0.03655891 </v>
   <v>       0.00082964       0.00791080      -0.04510093 </v>
   <v>      -0.05051056      -0.02191192       0.03055762 </v>
   <v>       0.00209766       0.01020824       0.00252650 </v>
   <v>       0.02357955      -0.02363431       0.01230042 </v>
   <v>       0.02104132       0.06014425      -1.15462503 </v>
  </varray>
  <varray name="stress" >
   <v>      -7.59400084      15.04930907       0.03971696 </v>
   <v>      15.04930907       9.77404444       0.08421304 </v>
   <v>       0.03971698       0.08421305      -1.18648017 </v>
  </varray>
  <energy>
   <i name="e_fr_energy">   -457.46197445 </i>
   <i name="e_wo_entrp">   -457.45858790 </i>
   <i name="e_0_energy">     -0.00677310 </i>
  </energy>
  <time name="totalsc"> 1734.97 1735.33</time>
  <eigenvalues>
   <array>
    <dimension dim="1">band</dimension>
    <dimension dim="2">kpoint</dimension>
    <dimension dim="3">spin</dimension>
    <field>eigene</field>
    <field>occ</field>
    <set>
     <set comment="spin 1">
      <set comment="kpoint 1">
       <r>  -52.5720    1.0000 </r>
       <r>  -22.3622    1.0000 </r>
       <r>  -21.7452    1.0000 </r>
       <r>  -21.5454    1.0000 </r>
       <r>  -21.3325    1.0000 </r>
       <r>  -21.3091    1.0000 </r>
       <r>  -21.2392    1.0000 </r>
       <r>  -21.0164    1.0000 </r>
       <r>  -19.9535    1.0000 </r>
       <r>  -19.5782    1.0000 </r>
       <r>  -19.5330    1.0000 </r>
       <r>  -19.4288    1.0000 </r>
       <r>  -19.3537    1.0000 </r>
       <r>  -19.2806    1.0000 </r>
       <r>  -18.7902    1.0000 </r>
       <r>  -18.6507    1.0000 </r>
       <r>  -18.6218    1.0000 </r>
       <r>  -18.5359    1.0000 </r>
       <r>  -18.4858    1.0000 </r>
       <r>  -18.1271    1.0000 </r>
       <r>  -16.6021    1.0000 </r>
       <r>  -16.5546    1.0000 </r>
       <r>  -16.4744    1.0000 </r>
       <r>  -16.3197    1.0000 </r>
       <r>  -16.2532    1.0000 </r>
       <r>  -16.2176    1.0000 </r>
       <r>  -16.0894    1.0000 </r>
       <r>  -15.5530    1.0000 </r>
       <r>  -15.4045    1.0000 </r>
       <r>  -15.3365    1.0000 </r>
       <r>  -15.1632    1.0000 </r>
       <r>  -14.9930    1.0000 </r>
       <r>  -14.3116    1.0000 </r>
       <r>  -14.2708    1.0000 </r>
       <r>  -14.0691    1.0000 </r>
       <r>  -14.0061    1.0000 </r>
       <r>  -13.9259    1.0000 </r>
       <r>  -13.3680    1.0000 </r>
       <r>  -12.1548    1.0000 </r>
       <r>  -11.9792    1.0000 </r>
       <r>  -11.7999    1.0000 </r>
       <r>  -11.7801    1.0000 </r>
       <r>  -11.7055    1.0000 </r>
       <r>  -11.6349    1.0000 </r>
       <r>  -11.6243    1.0000 </r>
       <r>  -11.6111    1.0000 </r>
       <r>  -11.4562    1.0000 </r>
       <r>  -11.4477    1.0000 </r>
       <r>  -11.1258    1.0000 </r>
       <r>  -11.0686    1.0000 </r>
       <r>  -10.6559    1.0000 </r>
       <r>  -10.4841    1.0000 </r>
       <r>  -10.4113    1.0000 </r>
       <r>  -10.2143    1.0000 </r>
       <r>  -10.1630    1.0000 </r>
       <r>  -10.1201    1.0000 </r>
       <r>   -9.8855    1.0000 </r>
       <r>   -9.6332    1.0000 </r>
       <r>   -9.5399    1.0000 </r>
       <r>   -9.3019    1.0000 </r>
       <r>   -9.2849    1.0000 </r>
       <r>   -9.2139    1.0000 </r>
       <r>   -9.1131    1.0000 </r>
       <r>   -9.0731    1.0000 </r>
       <r>   -9.0405    1.0000 </r>
       <r>   -9.0174    1.0000 </r>
       <r>   -9.0117    1.0000 </r>
       <r>   -8.9355    1.0000 </r>
       <r>   -8.8650    1.0000 </r>
       <r>   -8.8479    1.0000 </r>
       <r>   -8.7272    1.0000 </r>
       <r>   -8.6261    1.0000 </r>
       <r>   -8.6187    1.0000 </r>
       <r>   -8.6150    1.0000 </r>
       <r>   -7.9890    1.0000 </r>
       <r>   -7.4777    1.0000 </r>
       <r>   -7.4499    1.0000 </r>
       <r>   -7.3728    1.0000 </r>
       <r>   -7.3138    1.0000 </r>
       <r>   -7.2973    1.0000 </r>
       <r>   -7.2744    1.0000 </r>
       <r>   -7.2404    1.0000 </r>
       <r>   -7.1837    1.0000 </r>
       <r>   -7.0697    1.0000 </r>
       <r>   -6.9906    1.0000 </r>
       <r>   -6.9675    1.0000 </r>
       <r>   -6.9586    1.0000 </r>
       <r>   -6.3624    1.0000 </r>
       <r>   -6.3535    1.0000 </r>
       <r>   -6.2705    1.0000 </r>
       <r>   -6.2000    1.0000 </r>
       <r>   -6.1801    1.0000 </r>
       <r>   -6.1047    1.0000 </r>
       <r>   -5.9621    1.0000 </r>
       <r>   -5.6829    1.0000 </r>
       <r>   -4.3804    1.0000 </r>
       <r>   -4.2734    1.0000 </r>
       <r>   -4.2597    1.0000 </r>
       <r>   -4.2582    1.0000 </r>
       <r>   -4.1440    1.0000 </r>
       <r>   -3.9043    1.0000 </r>
       <r>   -2.7599    1.0000 </r>
       <r>   -1.7308    0.0000 </r>
       <r>   -1.6475    0.0000 </r>
       <r>   -1.5182    0.0000 </r>
       <r>   -1.3604    0.0000 </r>
       <r>   -1.3170    0.0000 </r>
       <r>   -0.9945    0.0000 </r>
       <r>   -0.5727    0.0000 </r>
       <r>    0.1557    0.0000 </r>
       <r>    0.2652    0.0000 </r>
       <r>    0.3411    0.0000 </r>
       <r>    0.3757    0.0000 </r>
       <r>    0.3836    0.0000 </r>
       <r>    0.4323    0.0000 </r>
       <r>    0.5017    0.0000 </r>
       <r>    0.7704    0.0000 </r>
       <r>    0.9611    0.0000 </r>
       <r>    1.0199    0.0000 </r>
       <r>    1.3534    0.0000 </r>
       <r>    1.4248    0.0000 </r>
       <r>    1.4297    0.0000 </r>
       <r>    1.5054    0.0000 </r>
       <r>    1.5322    0.0000 </r>
       <r>    1.6579    0.0000 </r>
       <r>    1.7145    0.0000 </r>
       <r>    1.7278    0.0000 </r>
       <r>    1.8406    0.0000 </r>
       <r>    1.9275    0.0000 </r>
       <r>    2.0630    0.0000 </r>
       <r>    2.0768    0.0000 </r>
       <r>    2.1283    0.0000 </r>
      </set>
      <set comment="kpoint 2">
       <r>  -52.5720    1.0000 </r>
       <r>  -22.2709    1.0000 </r>
       <r>  -22.0067    1.0000 </r>
       <r>  -21.6100    1.0000 </r>
       <r>  -21.4720    1.0000 </r>
       <r>  -21.1103    1.0000 </r>
       <r>  -20.8859    1.0000 </r>
       <r>  -20.5698    1.0000 </r>
       <r>  -20.4398    1.0000 </r>
       <r>  -20.1942    1.0000 </r>
       <r>  -19.7172    1.0000 </r>
       <r>  -19.4488    1.0000 </r>
       <r>  -19.3171    1.0000 </r>
       <r>  -19.1276    1.0000 </r>
       <r>  -18.9883    1.0000 </r>
       <r>  -18.5430    1.0000 </r>
       <r>  -18.4169    1.0000 </r>
       <r>  -17.9608    1.0000 </r>
       <r>  -17.8262    1.0000 </r>
       <r>  -17.4843    1.0000 </r>
       <r>  -17.3686    1.0000 </r>
       <r>  -17.3101    1.0000 </r>
       <r>  -17.0836    1.0000 </r>
       <r>  -16.9495    1.0000 </r>
       <r>  -16.3190    1.0000 </r>
       <r>  -16.1922    1.0000 </r>
       <r>  -15.7735    1.0000 </r>
       <r>  -15.2716    1.0000 </r>
       <r>  -15.2284    1.0000 </r>
       <r>  -14.9906    1.0000 </r>
       <r>  -14.8441    1.0000 </r>
       <r>  -14.7094    1.0000 </r>
       <r>  -14.6138    1.0000 </r>
       <r>  -14.3814    1.0000 </r>
       <r>  -14.0980    1.0000 </r>
       <r>  -13.2978    1.0000 </r>
       <r>  -13.2146    1.0000 </r>
       <r>  -13.1278    1.0000 </r>
       <r>  -12.9983    1.0000 </r>
       <r>  -12.7666    1.0000 </r>
       <r>  -12.5060    1.0000 </r>
       <r>  -12.2837    1.0000 </r>
       <r>  -12.1194    1.0000 </r>
       <r>  -12.0386    1.0000 </r>
       <r>  -11.5190    1.0000 </r>
       <r>  -11.4051    1.0000 </r>
       <r>  -11.2025    1.0000 </r>
       <r>  -10.8936    1.0000 </r>
       <r>  -10.6918    1.0000 </r>
       <r>  -10.6015    1.0000 </r>
       <r>  -10.5652    1.0000 </r>
       <r>  -10.4394    1.0000 </r>
       <r>  -10.3553    1.0000 </r>
       <r>  -10.2478    1.0000 </r>
       <r>  -10.0140    1.0000 </r>
       <r>   -9.9144    1.0000 </r>
       <r>   -9.7578    1.0000 </r>
       <r>   -9.7028    1.0000 </r>
       <r>   -9.6654    1.0000 </r>
       <r>   -9.5929    1.0000 </r>
       <r>   -9.4425    1.0000 </r>
       <r>   -9.3285    1.0000 </r>
       <r>   -9.2578    1.0000 </r>
       <r>   -9.1980    1.0000 </r>
       <r>   -9.1186    1.0000 </r>
       <r>   -9.0448    1.0000 </r>
       <r>   -8.9705    1.0000 </r>
       <r>   -8.9035    1.0000 </r>
       <r>   -8.7692    1.0000 </r>
       <r>   -8.7094    1.0000 </r>
       <r>   -8.4460    1.0000 </r>
       <r>   -8.3875    1.0000 </r>
       <r>   -8.2530    1.0000 </r>
       <r>   -8.2109    1.0000 </r>
       <r>   -8.0848    1.0000 </r>
       <r>   -8.0067    1.0000 </r>
       <r>   -7.9840    1.0000 </r>
       <r>   -7.9149    1.0000 </r>
       <r>   -7.5244    1.0000 </r>
       <r>   -7.4295    1.0000 </r>
       <r>   -7.3087    1.0000 </r>
       <r>   -7.1851    1.0000 </r>
       <r>   -7.0809    1.0000 </r>
       <r>   -7.0091    1.0000 </r>
       <r>   -6.8303    1.0000 </r>
       <r>   -6.7766    1.0000 </r>
       <r>   -6.7642    1.0000 </r>
       <r>   -6.6298    1.0000 </r>
       <r>   -6.3300    1.0000 </r>
       <r>   -6.1282    1.0000 </r>
       <r>   -6.0657    1.0000 </r>
       <r>   -5.9916    1.0000 </r>
       <r>   -5.6710    1.0000 </r>
       <r>   -5.5314    1.0000 </r>
       <r>   -5.2146    1.0000 </r>
       <r>   -5.0011    1.0000 </r>
       <r>   -4.9489    1.0000 </r>
       <r>   -4.7901    1.0000 </r>
       <r>   -4.7064    1.0000 </r>
       <r>   -3.9212    1.0000 </r>
       <r>   -3.6084    1.0000 </r>
       <r>   -2.5910    0.7040 </r>
       <r>   -1.8458    0.0000 </r>
       <r>   -1.5479    0.0000 </r>
       <r>   -1.3637    0.0000 </r>
       <r>   -1.0260    0.0000 </r>
       <r>   -0.9592    0.0000 </r>
       <r>   -0.8089    0.0000 </r>
       <r>   -0.8006    0.0000 </r>
       <r>   -0.4563    0.0000 </r>
       <r>   -0.0735    0.0000 </r>
       <r>    0.1784    0.0000 </r>
       <r>    0.3302    0.0000 </r>
       <r>    0.4409    0.0000 </r>
       <r>    0.5652    0.0000 </r>
       <r>    0.7839    0.0000 </r>
       <r>    0.8504    0.0000 </r>
       <r>    0.9777    0.0000 </r>
       <r>    1.1042    0.0000 </r>
       <r>    1.1790    0.0000 </r>
       <r>    1.3076    0.0000 </r>
       <r>    1.3647    0.0000 </r>
       <r>    1.4761    0.0000 </r>
       <r>    1.5201    0.0000 </r>
       <r>    1.5783    0.0000 </r>
       <r>    1.6090    0.0000 </r>
       <r>    1.6580    0.0000 </r>
       <r>    1.7036    0.0000 </r>
       <r>    1.7908    0.0000 </r>
       <r>    1.8212    0.0000 </r>
       <r>    1.8398    0.0000 </r>
       <r>    2.0052    0.0000 </r>
      </set>
      <set comment="kpoint 3">
       <r>  -52.5720    1.0000 </r>
       <r>  -22.2708    1.0000 </r>
       <r>  -22.0070    1.0000 </r>
       <r>  -21.6102    1.0000 </r>
       <r>  -21.4716    1.0000 </r>
       <r>  -21.1094    1.0000 </r>
       <r>  -20.8870    1.0000 </r>
       <r>  -20.5693    1.0000 </r>
       <r>  -20.4394    1.0000 </r>
       <r>  -20.1956    1.0000 </r>
       <r>  -19.7173    1.0000 </r>
       <r>  -19.4486    1.0000 </r>
       <r>  -19.3159    1.0000 </r>
       <r>  -19.1279    1.0000 </r>
       <r>  -18.9884    1.0000 </r>
       <r>  -18.5416    1.0000 </r>
       <r>  -18.4184    1.0000 </r>
       <r>  -17.9610    1.0000 </r>
       <r>  -17.8262    1.0000 </r>
       <r>  -17.4836    1.0000 </r>
       <r>  -17.3687    1.0000 </r>
       <r>  -17.3112    1.0000 </r>
       <r>  -17.0838    1.0000 </r>
       <r>  -16.9493    1.0000 </r>
       <r>  -16.3188    1.0000 </r>
       <r>  -16.1920    1.0000 </r>
       <r>  -15.7732    1.0000 </r>
       <r>  -15.2721    1.0000 </r>
       <r>  -15.2281    1.0000 </r>
       <r>  -14.9897    1.0000 </r>
       <r>  -14.8438    1.0000 </r>
       <r>  -14.7092    1.0000 </r>
       <r>  -14.6148    1.0000 </r>
       <r>  -14.3821    1.0000 </r>
       <r>  -14.0979    1.0000 </r>
       <r>  -13.2981    1.0000 </r>
       <r>  -13.2137    1.0000 </r>
       <r>  -13.1277    1.0000 </r>
       <r>  -12.9990    1.0000 </r>
       <r>  -12.7667    1.0000 </r>
       <r>  -12.5061    1.0000 </r>
       <r>  -12.2835    1.0000 </r>
       <r>  -12.1196    1.0000 </r>
       <r>  -12.0386    1.0000 </r>
       <r>  -11.5195    1.0000 </r>
       <r>  -11.4040    1.0000 </r>
       <r>  -11.2022    1.0000 </r>
       <r>  -10.8934    1.0000 </r>
       <r>  -10.6926    1.0000 </r>
       <r>  -10.6017    1.0000 </r>
       <r>  -10.5654    1.0000 </r>
       <r>  -10.4392    1.0000 </r>
       <r>  -10.3539    1.0000 </r>
       <r>  -10.2483    1.0000 </r>
       <r>  -10.0144    1.0000 </r>
       <r>   -9.9147    1.0000 </r>
       <r>   -9.7583    1.0000 </r>
       <r>   -9.7031    1.0000 </r>
       <r>   -9.6649    1.0000 </r>
       <r>   -9.5925    1.0000 </r>
       <r>   -9.4423    1.0000 </r>
       <r>   -9.3291    1.0000 </r>
       <r>   -9.2583    1.0000 </r>
       <r>   -9.1977    1.0000 </r>
       <r>   -9.1183    1.0000 </r>
       <r>   -9.0441    1.0000 </r>
       <r>   -8.9704    1.0000 </r>
       <r>   -8.9029    1.0000 </r>
       <r>   -8.7711    1.0000 </r>
       <r>   -8.7095    1.0000 </r>
       <r>   -8.4454    1.0000 </r>
       <r>   -8.3868    1.0000 </r>
       <r>   -8.2528    1.0000 </r>
       <r>   -8.2094    1.0000 </r>
       <r>   -8.0854    1.0000 </r>
       <r>   -8.0084    1.0000 </r>
       <r>   -7.9832    1.0000 </r>
       <r>   -7.9153    1.0000 </r>
       <r>   -7.5242    1.0000 </r>
       <r>   -7.4311    1.0000 </r>
       <r>   -7.3086    1.0000 </r>
       <r>   -7.1848    1.0000 </r>
       <r>   -7.0811    1.0000 </r>
       <r>   -7.0078    1.0000 </r>
       <r>   -6.8300    1.0000 </r>
       <r>   -6.7778    1.0000 </r>
       <r>   -6.7639    1.0000 </r>
       <r>   -6.6302    1.0000 </r>
       <r>   -6.3301    1.0000 </r>
       <r>   -6.1252    1.0000 </r>
       <r>   -6.0656    1.0000 </r>
       <r>   -5.9934    1.0000 </r>
       <r>   -5.6708    1.0000 </r>
       <r>   -5.5319    1.0000 </r>
       <r>   -5.2136    1.0000 </r>
       <r>   -5.0015    1.0000 </r>
       <r>   -4.9488    1.0000 </r>
       <r>   -4.7918    1.0000 </r>
       <r>   -4.7052    1.0000 </r>
       <r>   -3.9235    1.0000 </r>
       <r>   -3.6060    1.0000 </r>
       <r>   -2.5922    0.7149 </r>
       <r>   -1.8453    0.0000 </r>
       <r>   -1.5458    0.0000 </r>
       <r>   -1.3620    0.0000 </r>
       <r>   -1.0288    0.0000 </r>
       <r>   -0.9604    0.0000 </r>
       <r>   -0.8075    0.0000 </r>
       <r>   -0.8034    0.0000 </r>
       <r>   -0.4569    0.0000 </r>
       <r>   -0.0703    0.0000 </r>
       <r>    0.1813    0.0000 </r>
       <r>    0.3297    0.0000 </r>
       <r>    0.4384    0.0000 </r>
       <r>    0.5655    0.0000 </r>
       <r>    0.7797    0.0000 </r>
       <r>    0.8518    0.0000 </r>
       <r>    0.9782    0.0000 </r>
       <r>    1.1056    0.0000 </r>
       <r>    1.1779    0.0000 </r>
       <r>    1.3104    0.0000 </r>
       <r>    1.3650    0.0000 </r>
       <r>    1.4760    0.0000 </r>
       <r>    1.5213    0.0000 </r>
       <r>    1.5794    0.0000 </r>
       <r>    1.6109    0.0000 </r>
       <r>    1.6573    0.0000 </r>
       <r>    1.7005    0.0000 </r>
       <r>    1.7907    0.0000 </r>
       <r>    1.8203    0.0000 </r>
       <r>    1.8400    0.0000 </r>
       <r>    2.0047    0.0000 </r>
      </set>
      <set comment="kpoint 4">
       <r>  -52.5720    1.0000 </r>
       <r>  -22.1955    1.0000 </r>
       <r>  -22.0637    1.0000 </r>
       <r>  -21.8323    1.0000 </r>
       <r>  -21.2315    1.0000 </r>
       <r>  -21.0839    1.0000 </r>
       <r>  -20.9125    1.0000 </r>
       <r>  -20.3941    1.0000 </r>
       <r>  -20.2040    1.0000 </r>
       <r>  -20.1407    1.0000 </r>
       <r>  -20.0649    1.0000 </r>
       <r>  -19.9615    1.0000 </r>
       <r>  -19.7407    1.0000 </r>
       <r>  -18.6144    1.0000 </r>
       <r>  -18.3865    1.0000 </r>
       <r>  -18.3582    1.0000 </r>
       <r>  -18.3000    1.0000 </r>
       <r>  -18.1417    1.0000 </r>
       <r>  -18.0000    1.0000 </r>
       <r>  -17.5047    1.0000 </r>
       <r>  -17.4403    1.0000 </r>
       <r>  -17.4158    1.0000 </r>
       <r>  -16.9317    1.0000 </r>
       <r>  -16.8978    1.0000 </r>
       <r>  -16.7839    1.0000 </r>
       <r>  -16.2736    1.0000 </r>
       <r>  -15.7801    1.0000 </r>
       <r>  -15.6510    1.0000 </r>
       <r>  -15.3073    1.0000 </r>
       <r>  -15.2459    1.0000 </r>
       <r>  -14.3232    1.0000 </r>
       <r>  -14.0922    1.0000 </r>
       <r>  -13.8964    1.0000 </r>
       <r>  -13.8661    1.0000 </r>
       <r>  -13.8264    1.0000 </r>
       <r>  -13.7893    1.0000 </r>
       <r>  -13.6970    1.0000 </r>
       <r>  -13.6383    1.0000 </r>
       <r>  -13.2635    1.0000 </r>
       <r>  -13.0294    1.0000 </r>
       <r>  -12.5381    1.0000 </r>
       <r>  -12.0810    1.0000 </r>
       <r>  -12.0735    1.0000 </r>
       <r>  -11.6884    1.0000 </r>
       <r>  -11.5494    1.0000 </r>
       <r>  -11.5058    1.0000 </r>
       <r>  -11.3446    1.0000 </r>
       <r>  -11.2616    1.0000 </r>
       <r>  -11.0015    1.0000 </r>
       <r>  -10.4381    1.0000 </r>
       <r>  -10.2745    1.0000 </r>
       <r>  -10.2629    1.0000 </r>
       <r>  -10.2539    1.0000 </r>
       <r>  -10.1034    1.0000 </r>
       <r>  -10.0754    1.0000 </r>
       <r>  -10.0731    1.0000 </r>
       <r>   -9.9630    1.0000 </r>
       <r>   -9.9325    1.0000 </r>
       <r>   -9.5272    1.0000 </r>
       <r>   -9.4045    1.0000 </r>
       <r>   -9.3738    1.0000 </r>
       <r>   -9.2329    1.0000 </r>
       <r>   -9.1713    1.0000 </r>
       <r>   -9.1682    1.0000 </r>
       <r>   -9.0690    1.0000 </r>
       <r>   -8.9928    1.0000 </r>
       <r>   -8.8638    1.0000 </r>
       <r>   -8.7422    1.0000 </r>
       <r>   -8.6429    1.0000 </r>
       <r>   -8.5907    1.0000 </r>
       <r>   -8.5750    1.0000 </r>
       <r>   -8.4473    1.0000 </r>
       <r>   -8.3225    1.0000 </r>
       <r>   -8.1941    1.0000 </r>
       <r>   -8.0712    1.0000 </r>
       <r>   -8.0281    1.0000 </r>
       <r>   -7.9825    1.0000 </r>
       <r>   -7.8826    1.0000 </r>
       <r>   -7.8318    1.0000 </r>
       <r>   -7.7835    1.0000 </r>
       <r>   -7.6035    1.0000 </r>
       <r>   -7.3689    1.0000 </r>
       <r>   -7.0986    1.0000 </r>
       <r>   -6.9506    1.0000 </r>
       <r>   -6.8822    1.0000 </r>
       <r>   -6.7156    1.0000 </r>
       <r>   -6.4046    1.0000 </r>
       <r>   -6.3289    1.0000 </r>
       <r>   -6.0967    1.0000 </r>
       <r>   -6.0249    1.0000 </r>
       <r>   -5.9623    1.0000 </r>
       <r>   -5.8745    1.0000 </r>
       <r>   -5.7633    1.0000 </r>
       <r>   -5.6982    1.0000 </r>
       <r>   -5.1323    1.0000 </r>
       <r>   -5.0724    1.0000 </r>
       <r>   -4.9553    1.0000 </r>
       <r>   -4.9167    1.0000 </r>
       <r>   -4.8493    1.0000 </r>
       <r>   -4.5100    1.0000 </r>
       <r>   -2.9072    1.0000 </r>
       <r>   -2.7517    1.0000 </r>
       <r>   -2.3632    0.0000 </r>
       <r>   -1.4119    0.0000 </r>
       <r>   -1.1326    0.0000 </r>
       <r>   -1.0386    0.0000 </r>
       <r>   -0.6710    0.0000 </r>
       <r>   -0.6581    0.0000 </r>
       <r>   -0.5424    0.0000 </r>
       <r>   -0.4681    0.0000 </r>
       <r>    0.0490    0.0000 </r>
       <r>    0.1403    0.0000 </r>
       <r>    0.1793    0.0000 </r>
       <r>    0.1940    0.0000 </r>
       <r>    0.2178    0.0000 </r>
       <r>    0.3108    0.0000 </r>
       <r>    1.0072    0.0000 </r>
       <r>    1.0394    0.0000 </r>
       <r>    1.1182    0.0000 </r>
       <r>    1.1832    0.0000 </r>
       <r>    1.2563    0.0000 </r>
       <r>    1.2806    0.0000 </r>
       <r>    1.2981    0.0000 </r>
       <r>    1.4725    0.0000 </r>
       <r>    1.4798    0.0000 </r>
       <r>    1.4870    0.0000 </r>
       <r>    1.7321    0.0000 </r>
       <r>    1.7912    0.0000 </r>
       <r>    1.8131    0.0000 </r>
       <r>    1.8216    0.0000 </r>
       <r>    1.8779    0.0000 </r>
       <r>    2.0215    0.0000 </r>
      </set>
      <set comment="kpoint 5">
       <r>  -52.5720    1.0000 </r>
       <r>  -22.2965    1.0000 </r>
       <r>  -21.8344    1.0000 </r>
       <r>  -21.7947    1.0000 </r>
       <r>  -21.5203    1.0000 </r>
       <r>  -20.9971    1.0000 </r>
       <r>  -20.8613    1.0000 </r>
       <r>  -20.6366    1.0000 </r>
       <r>  -20.4049    1.0000 </r>
       <r>  -20.1352    1.0000 </r>
       <r>  -19.7150    1.0000 </r>
       <r>  -19.6662    1.0000 </r>
       <r>  -19.2614    1.0000 </r>
       <r>  -19.0897    1.0000 </r>
       <r>  -18.9592    1.0000 </r>
       <r>  -18.5403    1.0000 </r>
       <r>  -18.3732    1.0000 </r>
       <r>  -17.9753    1.0000 </r>
       <r>  -17.8586    1.0000 </r>
       <r>  -17.5410    1.0000 </r>
       <r>  -17.4099    1.0000 </r>
       <r>  -17.1984    1.0000 </r>
       <r>  -17.1322    1.0000 </r>
       <r>  -16.7500    1.0000 </r>
       <r>  -16.3917    1.0000 </r>
       <r>  -16.2571    1.0000 </r>
       <r>  -15.5575    1.0000 </r>
       <r>  -15.4951    1.0000 </r>
       <r>  -15.3811    1.0000 </r>
       <r>  -15.0485    1.0000 </r>
       <r>  -14.8530    1.0000 </r>
       <r>  -14.7781    1.0000 </r>
       <r>  -14.4274    1.0000 </r>
       <r>  -14.3377    1.0000 </r>
       <r>  -14.0928    1.0000 </r>
       <r>  -13.3443    1.0000 </r>
       <r>  -13.1424    1.0000 </r>
       <r>  -12.9153    1.0000 </r>
       <r>  -12.8743    1.0000 </r>
       <r>  -12.8036    1.0000 </r>
       <r>  -12.4988    1.0000 </r>
       <r>  -12.3240    1.0000 </r>
       <r>  -12.2904    1.0000 </r>
       <r>  -12.0062    1.0000 </r>
       <r>  -11.5966    1.0000 </r>
       <r>  -11.5529    1.0000 </r>
       <r>  -11.1306    1.0000 </r>
       <r>  -10.9497    1.0000 </r>
       <r>  -10.7062    1.0000 </r>
       <r>  -10.5449    1.0000 </r>
       <r>  -10.5397    1.0000 </r>
       <r>  -10.4532    1.0000 </r>
       <r>  -10.4112    1.0000 </r>
       <r>  -10.2949    1.0000 </r>
       <r>   -9.9617    1.0000 </r>
       <r>   -9.8354    1.0000 </r>
       <r>   -9.8186    1.0000 </r>
       <r>   -9.7440    1.0000 </r>
       <r>   -9.6152    1.0000 </r>
       <r>   -9.5547    1.0000 </r>
       <r>   -9.5243    1.0000 </r>
       <r>   -9.4332    1.0000 </r>
       <r>   -9.3207    1.0000 </r>
       <r>   -9.2687    1.0000 </r>
       <r>   -9.1983    1.0000 </r>
       <r>   -8.9252    1.0000 </r>
       <r>   -8.8671    1.0000 </r>
       <r>   -8.8137    1.0000 </r>
       <r>   -8.7661    1.0000 </r>
       <r>   -8.4847    1.0000 </r>
       <r>   -8.3583    1.0000 </r>
       <r>   -8.3087    1.0000 </r>
       <r>   -8.2326    1.0000 </r>
       <r>   -8.1869    1.0000 </r>
       <r>   -8.0839    1.0000 </r>
       <r>   -7.9814    1.0000 </r>
       <r>   -7.8854    1.0000 </r>
       <r>   -7.7669    1.0000 </r>
       <r>   -7.7560    1.0000 </r>
       <r>   -7.4900    1.0000 </r>
       <r>   -7.4346    1.0000 </r>
       <r>   -7.2601    1.0000 </r>
       <r>   -7.2478    1.0000 </r>
       <r>   -7.1068    1.0000 </r>
       <r>   -6.9893    1.0000 </r>
       <r>   -6.7243    1.0000 </r>
       <r>   -6.6516    1.0000 </r>
       <r>   -6.4822    1.0000 </r>
       <r>   -6.4486    1.0000 </r>
       <r>   -6.1101    1.0000 </r>
       <r>   -6.0149    1.0000 </r>
       <r>   -5.9378    1.0000 </r>
       <r>   -5.5999    1.0000 </r>
       <r>   -5.5532    1.0000 </r>
       <r>   -5.3972    1.0000 </r>
       <r>   -4.9916    1.0000 </r>
       <r>   -4.8720    1.0000 </r>
       <r>   -4.8324    1.0000 </r>
       <r>   -4.4650    1.0000 </r>
       <r>   -3.9549    1.0000 </r>
       <r>   -3.7909    1.0000 </r>
       <r>   -2.4577    0.0006 </r>
       <r>   -1.8311    0.0000 </r>
       <r>   -1.6784    0.0000 </r>
       <r>   -1.4208    0.0000 </r>
       <r>   -0.9562    0.0000 </r>
       <r>   -0.8369    0.0000 </r>
       <r>   -0.8124    0.0000 </r>
       <r>   -0.7213    0.0000 </r>
       <r>   -0.6510    0.0000 </r>
       <r>   -0.0608    0.0000 </r>
       <r>    0.1995    0.0000 </r>
       <r>    0.3228    0.0000 </r>
       <r>    0.5072    0.0000 </r>
       <r>    0.5628    0.0000 </r>
       <r>    0.7887    0.0000 </r>
       <r>    0.8303    0.0000 </r>
       <r>    0.9009    0.0000 </r>
       <r>    1.0958    0.0000 </r>
       <r>    1.1909    0.0000 </r>
       <r>    1.2511    0.0000 </r>
       <r>    1.3543    0.0000 </r>
       <r>    1.4764    0.0000 </r>
       <r>    1.5055    0.0000 </r>
       <r>    1.5761    0.0000 </r>
       <r>    1.6301    0.0000 </r>
       <r>    1.6704    0.0000 </r>
       <r>    1.7742    0.0000 </r>
       <r>    1.8224    0.0000 </r>
       <r>    1.8245    0.0000 </r>
       <r>    1.9277    0.0000 </r>
       <r>    2.0019    0.0000 </r>
      </set>
     </set>
     <set comment="spin 2">
      <set comment="kpoint 1">
       <r>  -52.5718    1.0000 </r>
       <r>  -22.3511    1.0000 </r>
       <r>  -21.7328    1.0000 </r>
       <r>  -21.5294    1.0000 </r>
       <r>  -21.3282    1.0000 </r>
       <r>  -21.3044    1.0000 </r>
       <r>  -21.2355    1.0000 </r>
       <r>  -21.0114    1.0000 </r>
       <r>  -19.9409    1.0000 </r>
       <r>  -19.5663    1.0000 </r>
       <r>  -19.5297    1.0000 </r>
       <r>  -19.4231    1.0000 </r>
       <r>  -19.3448    1.0000 </r>
       <r>  -19.2774    1.0000 </r>
       <r>  -18.7860    1.0000 </r>
       <r>  -18.6435    1.0000 </r>
       <r>  -18.6175    1.0000 </r>
       <r>  -18.5266    1.0000 </r>
       <r>  -18.4782    1.0000 </r>
       <r>  -18.1212    1.0000 </r>
       <r>  -16.5894    1.0000 </r>
       <r>  -16.5491    1.0000 </r>
       <r>  -16.4710    1.0000 </r>
       <r>  -16.3099    1.0000 </r>
       <r>  -16.2506    1.0000 </r>
       <r>  -16.2138    1.0000 </r>
       <r>  -16.0731    1.0000 </r>
       <r>  -15.5497    1.0000 </r>
       <r>  -15.3977    1.0000 </r>
       <r>  -15.3321    1.0000 </r>
       <r>  -15.1603    1.0000 </r>
       <r>  -14.9878    1.0000 </r>
       <r>  -14.3054    1.0000 </r>
       <r>  -14.2618    1.0000 </r>
       <r>  -14.0639    1.0000 </r>
       <r>  -14.0026    1.0000 </r>
       <r>  -13.9225    1.0000 </r>
       <r>  -13.3609    1.0000 </r>
       <r>  -12.1473    1.0000 </r>
       <r>  -11.9653    1.0000 </r>
       <r>  -11.7951    1.0000 </r>
       <r>  -11.7764    1.0000 </r>
       <r>  -11.7006    1.0000 </r>
       <r>  -11.6312    1.0000 </r>
       <r>  -11.6213    1.0000 </r>
       <r>  -11.6035    1.0000 </r>
       <r>  -11.4521    1.0000 </r>
       <r>  -11.4439    1.0000 </r>
       <r>  -11.1228    1.0000 </r>
       <r>  -11.0591    1.0000 </r>
       <r>  -10.6506    1.0000 </r>
       <r>  -10.4617    1.0000 </r>
       <r>  -10.4055    1.0000 </r>
       <r>  -10.2111    1.0000 </r>
       <r>  -10.1600    1.0000 </r>
       <r>  -10.1144    1.0000 </r>
       <r>   -9.8826    1.0000 </r>
       <r>   -9.6090    1.0000 </r>
       <r>   -9.5075    1.0000 </r>
       <r>   -9.2860    1.0000 </r>
       <r>   -9.2747    1.0000 </r>
       <r>   -9.2053    1.0000 </r>
       <r>   -9.1078    1.0000 </r>
       <r>   -9.0617    1.0000 </r>
       <r>   -9.0378    1.0000 </r>
       <r>   -9.0150    1.0000 </r>
       <r>   -9.0086    1.0000 </r>
       <r>   -8.9327    1.0000 </r>
       <r>   -8.8603    1.0000 </r>
       <r>   -8.8432    1.0000 </r>
       <r>   -8.7240    1.0000 </r>
       <r>   -8.6198    1.0000 </r>
       <r>   -8.6130    1.0000 </r>
       <r>   -8.6101    1.0000 </r>
       <r>   -7.9849    1.0000 </r>
       <r>   -7.4534    1.0000 </r>
       <r>   -7.4245    1.0000 </r>
       <r>   -7.3714    1.0000 </r>
       <r>   -7.3062    1.0000 </r>
       <r>   -7.2858    1.0000 </r>
       <r>   -7.2519    1.0000 </r>
       <r>   -7.2377    1.0000 </r>
       <r>   -7.1768    1.0000 </r>
       <r>   -7.0473    1.0000 </r>
       <r>   -6.9855    1.0000 </r>
       <r>   -6.9598    1.0000 </r>
       <r>   -6.9492    1.0000 </r>
       <r>   -6.3463    1.0000 </r>
       <r>   -6.3437    1.0000 </r>
       <r>   -6.2591    1.0000 </r>
       <r>   -6.1804    1.0000 </r>
       <r>   -6.1616    1.0000 </r>
       <r>   -6.1005    1.0000 </r>
       <r>   -5.9490    1.0000 </r>
       <r>   -5.6774    1.0000 </r>
       <r>   -4.3648    1.0000 </r>
       <r>   -4.2544    1.0000 </r>
       <r>   -4.2440    1.0000 </r>
       <r>   -4.2227    1.0000 </r>
       <r>   -4.1398    1.0000 </r>
       <r>   -3.8922    1.0000 </r>
       <r>   -2.6855    0.9993 </r>
       <r>   -1.7154    0.0000 </r>
       <r>   -1.6230    0.0000 </r>
       <r>   -1.5127    0.0000 </r>
       <r>   -1.3485    0.0000 </r>
       <r>   -1.3058    0.0000 </r>
       <r>   -0.9773    0.0000 </r>
       <r>   -0.5486    0.0000 </r>
       <r>    0.1770    0.0000 </r>
       <r>    0.2805    0.0000 </r>
       <r>    0.3504    0.0000 </r>
       <r>    0.3854    0.0000 </r>
       <r>    0.3927    0.0000 </r>
       <r>    0.4421    0.0000 </r>
       <r>    0.5067    0.0000 </r>
       <r>    0.7850    0.0000 </r>
       <r>    0.9721    0.0000 </r>
       <r>    1.0361    0.0000 </r>
       <r>    1.3763    0.0000 </r>
       <r>    1.4280    0.0000 </r>
       <r>    1.4331    0.0000 </r>
       <r>    1.5214    0.0000 </r>
       <r>    1.5352    0.0000 </r>
       <r>    1.6745    0.0000 </r>
       <r>    1.7343    0.0000 </r>
       <r>    1.7532    0.0000 </r>
       <r>    1.8551    0.0000 </r>
       <r>    1.9435    0.0000 </r>
       <r>    2.0791    0.0000 </r>
       <r>    2.0922    0.0000 </r>
       <r>    2.1792    0.0000 </r>
      </set>
      <set comment="kpoint 2">
       <r>  -52.5718    1.0000 </r>
       <r>  -22.2596    1.0000 </r>
       <r>  -21.9936    1.0000 </r>
       <r>  -21.6041    1.0000 </r>
       <r>  -21.4669    1.0000 </r>
       <r>  -21.0984    1.0000 </r>
       <r>  -20.8807    1.0000 </r>
       <r>  -20.5653    1.0000 </r>
       <r>  -20.4270    1.0000 </r>
       <r>  -20.1887    1.0000 </r>
       <r>  -19.7116    1.0000 </r>
       <r>  -19.4425    1.0000 </r>
       <r>  -19.3120    1.0000 </r>
       <r>  -19.1212    1.0000 </r>
       <r>  -18.9803    1.0000 </r>
       <r>  -18.5314    1.0000 </r>
       <r>  -18.4125    1.0000 </r>
       <r>  -17.9556    1.0000 </r>
       <r>  -17.8206    1.0000 </r>
       <r>  -17.4704    1.0000 </r>
       <r>  -17.3639    1.0000 </r>
       <r>  -17.3039    1.0000 </r>
       <r>  -17.0779    1.0000 </r>
       <r>  -16.9437    1.0000 </r>
       <r>  -16.3134    1.0000 </r>
       <r>  -16.1873    1.0000 </r>
       <r>  -15.7615    1.0000 </r>
       <r>  -15.2673    1.0000 </r>
       <r>  -15.2244    1.0000 </r>
       <r>  -14.9843    1.0000 </r>
       <r>  -14.8388    1.0000 </r>
       <r>  -14.7049    1.0000 </r>
       <r>  -14.6078    1.0000 </r>
       <r>  -14.3763    1.0000 </r>
       <r>  -14.0915    1.0000 </r>
       <r>  -13.2918    1.0000 </r>
       <r>  -13.2006    1.0000 </r>
       <r>  -13.1229    1.0000 </r>
       <r>  -12.9936    1.0000 </r>
       <r>  -12.7627    1.0000 </r>
       <r>  -12.5021    1.0000 </r>
       <r>  -12.2776    1.0000 </r>
       <r>  -12.1148    1.0000 </r>
       <r>  -12.0324    1.0000 </r>
       <r>  -11.5139    1.0000 </r>
       <r>  -11.4022    1.0000 </r>
       <r>  -11.1993    1.0000 </r>
       <r>  -10.8891    1.0000 </r>
       <r>  -10.6852    1.0000 </r>
       <r>  -10.5950    1.0000 </r>
       <r>  -10.5610    1.0000 </r>
       <r>  -10.4263    1.0000 </r>
       <r>  -10.3346    1.0000 </r>
       <r>  -10.2432    1.0000 </r>
       <r>   -9.9906    1.0000 </r>
       <r>   -9.9106    1.0000 </r>
       <r>   -9.7530    1.0000 </r>
       <r>   -9.6953    1.0000 </r>
       <r>   -9.6594    1.0000 </r>
       <r>   -9.5797    1.0000 </r>
       <r>   -9.4338    1.0000 </r>
       <r>   -9.3250    1.0000 </r>
       <r>   -9.2523    1.0000 </r>
       <r>   -9.1936    1.0000 </r>
       <r>   -9.1143    1.0000 </r>
       <r>   -9.0393    1.0000 </r>
       <r>   -8.9597    1.0000 </r>
       <r>   -8.8855    1.0000 </r>
       <r>   -8.7575    1.0000 </r>
       <r>   -8.7060    1.0000 </r>
       <r>   -8.4353    1.0000 </r>
       <r>   -8.3817    1.0000 </r>
       <r>   -8.2491    1.0000 </r>
       <r>   -8.1830    1.0000 </r>
       <r>   -8.0767    1.0000 </r>
       <r>   -7.9972    1.0000 </r>
       <r>   -7.9793    1.0000 </r>
       <r>   -7.9101    1.0000 </r>
       <r>   -7.5130    1.0000 </r>
       <r>   -7.4194    1.0000 </r>
       <r>   -7.2982    1.0000 </r>
       <r>   -7.1782    1.0000 </r>
       <r>   -7.0692    1.0000 </r>
       <r>   -6.9979    1.0000 </r>
       <r>   -6.8208    1.0000 </r>
       <r>   -6.7620    1.0000 </r>
       <r>   -6.7592    1.0000 </r>
       <r>   -6.6139    1.0000 </r>
       <r>   -6.3272    1.0000 </r>
       <r>   -6.0996    1.0000 </r>
       <r>   -6.0601    1.0000 </r>
       <r>   -5.9814    1.0000 </r>
       <r>   -5.6564    1.0000 </r>
       <r>   -5.5190    1.0000 </r>
       <r>   -5.1975    1.0000 </r>
       <r>   -4.9736    1.0000 </r>
       <r>   -4.9302    1.0000 </r>
       <r>   -4.7838    1.0000 </r>
       <r>   -4.6869    1.0000 </r>
       <r>   -3.9042    1.0000 </r>
       <r>   -3.5969    1.0000 </r>
       <r>   -2.5098    0.0390 </r>
       <r>   -1.8260    0.0000 </r>
       <r>   -1.5318    0.0000 </r>
       <r>   -1.3524    0.0000 </r>
       <r>   -1.0110    0.0000 </r>
       <r>   -0.9542    0.0000 </r>
       <r>   -0.7971    0.0000 </r>
       <r>   -0.7879    0.0000 </r>
       <r>   -0.4396    0.0000 </r>
       <r>   -0.0610    0.0000 </r>
       <r>    0.1858    0.0000 </r>
       <r>    0.3389    0.0000 </r>
       <r>    0.4548    0.0000 </r>
       <r>    0.5912    0.0000 </r>
       <r>    0.7900    0.0000 </r>
       <r>    0.8684    0.0000 </r>
       <r>    0.9971    0.0000 </r>
       <r>    1.1118    0.0000 </r>
       <r>    1.1935    0.0000 </r>
       <r>    1.3222    0.0000 </r>
       <r>    1.3809    0.0000 </r>
       <r>    1.4972    0.0000 </r>
       <r>    1.5415    0.0000 </r>
       <r>    1.5929    0.0000 </r>
       <r>    1.6190    0.0000 </r>
       <r>    1.6722    0.0000 </r>
       <r>    1.7168    0.0000 </r>
       <r>    1.8045    0.0000 </r>
       <r>    1.8371    0.0000 </r>
       <r>    1.8526    0.0000 </r>
       <r>    2.0234    0.0000 </r>
      </set>
      <set comment="kpoint 3">
       <r>  -52.5718    1.0000 </r>
       <r>  -22.2595    1.0000 </r>
       <r>  -21.9940    1.0000 </r>
       <r>  -21.6042    1.0000 </r>
       <r>  -21.4664    1.0000 </r>
       <r>  -21.0975    1.0000 </r>
       <r>  -20.8818    1.0000 </r>
       <r>  -20.5647    1.0000 </r>
       <r>  -20.4266    1.0000 </r>
       <r>  -20.1901    1.0000 </r>
       <r>  -19.7116    1.0000 </r>
       <r>  -19.4423    1.0000 </r>
       <r>  -19.3108    1.0000 </r>
       <r>  -19.1215    1.0000 </r>
       <r>  -18.9804    1.0000 </r>
       <r>  -18.5300    1.0000 </r>
       <r>  -18.4139    1.0000 </r>
       <r>  -17.9557    1.0000 </r>
       <r>  -17.8207    1.0000 </r>
       <r>  -17.4698    1.0000 </r>
       <r>  -17.3640    1.0000 </r>
       <r>  -17.3049    1.0000 </r>
       <r>  -17.0781    1.0000 </r>
       <r>  -16.9435    1.0000 </r>
       <r>  -16.3132    1.0000 </r>
       <r>  -16.1871    1.0000 </r>
       <r>  -15.7612    1.0000 </r>
       <r>  -15.2677    1.0000 </r>
       <r>  -15.2241    1.0000 </r>
       <r>  -14.9834    1.0000 </r>
       <r>  -14.8385    1.0000 </r>
       <r>  -14.7047    1.0000 </r>
       <r>  -14.6087    1.0000 </r>
       <r>  -14.3770    1.0000 </r>
       <r>  -14.0914    1.0000 </r>
       <r>  -13.2922    1.0000 </r>
       <r>  -13.1997    1.0000 </r>
       <r>  -13.1228    1.0000 </r>
       <r>  -12.9943    1.0000 </r>
       <r>  -12.7629    1.0000 </r>
       <r>  -12.5022    1.0000 </r>
       <r>  -12.2774    1.0000 </r>
       <r>  -12.1149    1.0000 </r>
       <r>  -12.0324    1.0000 </r>
       <r>  -11.5144    1.0000 </r>
       <r>  -11.4012    1.0000 </r>
       <r>  -11.1990    1.0000 </r>
       <r>  -10.8888    1.0000 </r>
       <r>  -10.6860    1.0000 </r>
       <r>  -10.5952    1.0000 </r>
       <r>  -10.5613    1.0000 </r>
       <r>  -10.4259    1.0000 </r>
       <r>  -10.3334    1.0000 </r>
       <r>  -10.2436    1.0000 </r>
       <r>   -9.9911    1.0000 </r>
       <r>   -9.9110    1.0000 </r>
       <r>   -9.7535    1.0000 </r>
       <r>   -9.6956    1.0000 </r>
       <r>   -9.6589    1.0000 </r>
       <r>   -9.5792    1.0000 </r>
       <r>   -9.4336    1.0000 </r>
       <r>   -9.3256    1.0000 </r>
       <r>   -9.2528    1.0000 </r>
       <r>   -9.1934    1.0000 </r>
       <r>   -9.1140    1.0000 </r>
       <r>   -9.0385    1.0000 </r>
       <r>   -8.9598    1.0000 </r>
       <r>   -8.8848    1.0000 </r>
       <r>   -8.7594    1.0000 </r>
       <r>   -8.7061    1.0000 </r>
       <r>   -8.4347    1.0000 </r>
       <r>   -8.3811    1.0000 </r>
       <r>   -8.2488    1.0000 </r>
       <r>   -8.1817    1.0000 </r>
       <r>   -8.0773    1.0000 </r>
       <r>   -7.9988    1.0000 </r>
       <r>   -7.9787    1.0000 </r>
       <r>   -7.9104    1.0000 </r>
       <r>   -7.5128    1.0000 </r>
       <r>   -7.4209    1.0000 </r>
       <r>   -7.2982    1.0000 </r>
       <r>   -7.1778    1.0000 </r>
       <r>   -7.0692    1.0000 </r>
       <r>   -6.9966    1.0000 </r>
       <r>   -6.8204    1.0000 </r>
       <r>   -6.7642    1.0000 </r>
       <r>   -6.7580    1.0000 </r>
       <r>   -6.6143    1.0000 </r>
       <r>   -6.3273    1.0000 </r>
       <r>   -6.0971    1.0000 </r>
       <r>   -6.0596    1.0000 </r>
       <r>   -5.9832    1.0000 </r>
       <r>   -5.6560    1.0000 </r>
       <r>   -5.5196    1.0000 </r>
       <r>   -5.1967    1.0000 </r>
       <r>   -4.9745    1.0000 </r>
       <r>   -4.9293    1.0000 </r>
       <r>   -4.7855    1.0000 </r>
       <r>   -4.6859    1.0000 </r>
       <r>   -3.9066    1.0000 </r>
       <r>   -3.5945    1.0000 </r>
       <r>   -2.5109    0.0418 </r>
       <r>   -1.8255    0.0000 </r>
       <r>   -1.5296    0.0000 </r>
       <r>   -1.3508    0.0000 </r>
       <r>   -1.0136    0.0000 </r>
       <r>   -0.9554    0.0000 </r>
       <r>   -0.7956    0.0000 </r>
       <r>   -0.7911    0.0000 </r>
       <r>   -0.4401    0.0000 </r>
       <r>   -0.0579    0.0000 </r>
       <r>    0.1886    0.0000 </r>
       <r>    0.3385    0.0000 </r>
       <r>    0.4524    0.0000 </r>
       <r>    0.5919    0.0000 </r>
       <r>    0.7861    0.0000 </r>
       <r>    0.8692    0.0000 </r>
       <r>    0.9974    0.0000 </r>
       <r>    1.1133    0.0000 </r>
       <r>    1.1925    0.0000 </r>
       <r>    1.3248    0.0000 </r>
       <r>    1.3814    0.0000 </r>
       <r>    1.4973    0.0000 </r>
       <r>    1.5427    0.0000 </r>
       <r>    1.5943    0.0000 </r>
       <r>    1.6205    0.0000 </r>
       <r>    1.6711    0.0000 </r>
       <r>    1.7141    0.0000 </r>
       <r>    1.8043    0.0000 </r>
       <r>    1.8362    0.0000 </r>
       <r>    1.8529    0.0000 </r>
       <r>    2.0275    0.0000 </r>
      </set>
      <set comment="kpoint 4">
       <r>  -52.5718    1.0000 </r>
       <r>  -22.1822    1.0000 </r>
       <r>  -22.0519    1.0000 </r>
       <r>  -21.8288    1.0000 </r>
       <r>  -21.2226    1.0000 </r>
       <r>  -21.0739    1.0000 </r>
       <r>  -20.9066    1.0000 </r>
       <r>  -20.3857    1.0000 </r>
       <r>  -20.1932    1.0000 </r>
       <r>  -20.1371    1.0000 </r>
       <r>  -20.0583    1.0000 </r>
       <r>  -19.9572    1.0000 </r>
       <r>  -19.7348    1.0000 </r>
       <r>  -18.6037    1.0000 </r>
       <r>  -18.3841    1.0000 </r>
       <r>  -18.3451    1.0000 </r>
       <r>  -18.2919    1.0000 </r>
       <r>  -18.1383    1.0000 </r>
       <r>  -17.9949    1.0000 </r>
       <r>  -17.4989    1.0000 </r>
       <r>  -17.4281    1.0000 </r>
       <r>  -17.4135    1.0000 </r>
       <r>  -16.9272    1.0000 </r>
       <r>  -16.8918    1.0000 </r>
       <r>  -16.7763    1.0000 </r>
       <r>  -16.2612    1.0000 </r>
       <r>  -15.7769    1.0000 </r>
       <r>  -15.6472    1.0000 </r>
       <r>  -15.3004    1.0000 </r>
       <r>  -15.2411    1.0000 </r>
       <r>  -14.3162    1.0000 </r>
       <r>  -14.0829    1.0000 </r>
       <r>  -13.8913    1.0000 </r>
       <r>  -13.8606    1.0000 </r>
       <r>  -13.8203    1.0000 </r>
       <r>  -13.7861    1.0000 </r>
       <r>  -13.6916    1.0000 </r>
       <r>  -13.6307    1.0000 </r>
       <r>  -13.2599    1.0000 </r>
       <r>  -13.0206    1.0000 </r>
       <r>  -12.5316    1.0000 </r>
       <r>  -12.0786    1.0000 </r>
       <r>  -12.0687    1.0000 </r>
       <r>  -11.6831    1.0000 </r>
       <r>  -11.5425    1.0000 </r>
       <r>  -11.5019    1.0000 </r>
       <r>  -11.3399    1.0000 </r>
       <r>  -11.2560    1.0000 </r>
       <r>  -10.9961    1.0000 </r>
       <r>  -10.4221    1.0000 </r>
       <r>  -10.2687    1.0000 </r>
       <r>  -10.2603    1.0000 </r>
       <r>  -10.2261    1.0000 </r>
       <r>  -10.0991    1.0000 </r>
       <r>  -10.0709    1.0000 </r>
       <r>  -10.0558    1.0000 </r>
       <r>   -9.9590    1.0000 </r>
       <r>   -9.9262    1.0000 </r>
       <r>   -9.5240    1.0000 </r>
       <r>   -9.3983    1.0000 </r>
       <r>   -9.3674    1.0000 </r>
       <r>   -9.2289    1.0000 </r>
       <r>   -9.1662    1.0000 </r>
       <r>   -9.1625    1.0000 </r>
       <r>   -9.0555    1.0000 </r>
       <r>   -8.9688    1.0000 </r>
       <r>   -8.8520    1.0000 </r>
       <r>   -8.7375    1.0000 </r>
       <r>   -8.6391    1.0000 </r>
       <r>   -8.5843    1.0000 </r>
       <r>   -8.5722    1.0000 </r>
       <r>   -8.4416    1.0000 </r>
       <r>   -8.3179    1.0000 </r>
       <r>   -8.1887    1.0000 </r>
       <r>   -8.0521    1.0000 </r>
       <r>   -8.0233    1.0000 </r>
       <r>   -7.9505    1.0000 </r>
       <r>   -7.8739    1.0000 </r>
       <r>   -7.8190    1.0000 </r>
       <r>   -7.7725    1.0000 </r>
       <r>   -7.5908    1.0000 </r>
       <r>   -7.3613    1.0000 </r>
       <r>   -7.0916    1.0000 </r>
       <r>   -6.9489    1.0000 </r>
       <r>   -6.8761    1.0000 </r>
       <r>   -6.7116    1.0000 </r>
       <r>   -6.3987    1.0000 </r>
       <r>   -6.3262    1.0000 </r>
       <r>   -6.0743    1.0000 </r>
       <r>   -5.9891    1.0000 </r>
       <r>   -5.9557    1.0000 </r>
       <r>   -5.8564    1.0000 </r>
       <r>   -5.7567    1.0000 </r>
       <r>   -5.6838    1.0000 </r>
       <r>   -5.1230    1.0000 </r>
       <r>   -5.0422    1.0000 </r>
       <r>   -4.9332    1.0000 </r>
       <r>   -4.9012    1.0000 </r>
       <r>   -4.8433    1.0000 </r>
       <r>   -4.4944    1.0000 </r>
       <r>   -2.8626    1.0000 </r>
       <r>   -2.7382    1.0000 </r>
       <r>   -2.3077    0.0000 </r>
       <r>   -1.3994    0.0000 </r>
       <r>   -1.1184    0.0000 </r>
       <r>   -1.0362    0.0000 </r>
       <r>   -0.6533    0.0000 </r>
       <r>   -0.6469    0.0000 </r>
       <r>   -0.5195    0.0000 </r>
       <r>   -0.4492    0.0000 </r>
       <r>    0.0621    0.0000 </r>
       <r>    0.1571    0.0000 </r>
       <r>    0.1934    0.0000 </r>
       <r>    0.2011    0.0000 </r>
       <r>    0.2259    0.0000 </r>
       <r>    0.3178    0.0000 </r>
       <r>    1.0177    0.0000 </r>
       <r>    1.0533    0.0000 </r>
       <r>    1.1269    0.0000 </r>
       <r>    1.1957    0.0000 </r>
       <r>    1.2738    0.0000 </r>
       <r>    1.2928    0.0000 </r>
       <r>    1.3102    0.0000 </r>
       <r>    1.4880    0.0000 </r>
       <r>    1.4943    0.0000 </r>
       <r>    1.5018    0.0000 </r>
       <r>    1.7675    0.0000 </r>
       <r>    1.8186    0.0000 </r>
       <r>    1.8349    0.0000 </r>
       <r>    1.8460    0.0000 </r>
       <r>    1.8966    0.0000 </r>
       <r>    2.0371    0.0000 </r>
      </set>
      <set comment="kpoint 5">
       <r>  -52.5718    1.0000 </r>
       <r>  -22.2840    1.0000 </r>
       <r>  -21.8288    1.0000 </r>
       <r>  -21.7841    1.0000 </r>
       <r>  -21.5081    1.0000 </r>
       <r>  -20.9917    1.0000 </r>
       <r>  -20.8557    1.0000 </r>
       <r>  -20.6300    1.0000 </r>
       <r>  -20.3978    1.0000 </r>
       <r>  -20.1295    1.0000 </r>
       <r>  -19.7057    1.0000 </r>
       <r>  -19.6594    1.0000 </r>
       <r>  -19.2487    1.0000 </r>
       <r>  -19.0852    1.0000 </r>
       <r>  -18.9528    1.0000 </r>
       <r>  -18.5351    1.0000 </r>
       <r>  -18.3685    1.0000 </r>
       <r>  -17.9684    1.0000 </r>
       <r>  -17.8497    1.0000 </r>
       <r>  -17.5360    1.0000 </r>
       <r>  -17.4045    1.0000 </r>
       <r>  -17.1925    1.0000 </r>
       <r>  -17.1258    1.0000 </r>
       <r>  -16.7418    1.0000 </r>
       <r>  -16.3858    1.0000 </r>
       <r>  -16.2450    1.0000 </r>
       <r>  -15.5476    1.0000 </r>
       <r>  -15.4910    1.0000 </r>
       <r>  -15.3772    1.0000 </r>
       <r>  -15.0395    1.0000 </r>
       <r>  -14.8513    1.0000 </r>
       <r>  -14.7747    1.0000 </r>
       <r>  -14.4214    1.0000 </r>
       <r>  -14.3324    1.0000 </r>
       <r>  -14.0857    1.0000 </r>
       <r>  -13.3371    1.0000 </r>
       <r>  -13.1364    1.0000 </r>
       <r>  -12.9110    1.0000 </r>
       <r>  -12.8695    1.0000 </r>
       <r>  -12.7983    1.0000 </r>
       <r>  -12.4957    1.0000 </r>
       <r>  -12.3183    1.0000 </r>
       <r>  -12.2863    1.0000 </r>
       <r>  -12.0001    1.0000 </r>
       <r>  -11.5894    1.0000 </r>
       <r>  -11.5373    1.0000 </r>
       <r>  -11.1280    1.0000 </r>
       <r>  -10.9455    1.0000 </r>
       <r>  -10.7012    1.0000 </r>
       <r>  -10.5395    1.0000 </r>
       <r>  -10.5347    1.0000 </r>
       <r>  -10.4502    1.0000 </r>
       <r>  -10.3846    1.0000 </r>
       <r>  -10.2909    1.0000 </r>
       <r>   -9.9496    1.0000 </r>
       <r>   -9.8277    1.0000 </r>
       <r>   -9.8120    1.0000 </r>
       <r>   -9.7324    1.0000 </r>
       <r>   -9.6061    1.0000 </r>
       <r>   -9.5499    1.0000 </r>
       <r>   -9.5005    1.0000 </r>
       <r>   -9.4300    1.0000 </r>
       <r>   -9.3186    1.0000 </r>
       <r>   -9.2659    1.0000 </r>
       <r>   -9.1956    1.0000 </r>
       <r>   -8.9199    1.0000 </r>
       <r>   -8.8559    1.0000 </r>
       <r>   -8.8086    1.0000 </r>
       <r>   -8.7492    1.0000 </r>
       <r>   -8.4688    1.0000 </r>
       <r>   -8.3523    1.0000 </r>
       <r>   -8.3046    1.0000 </r>
       <r>   -8.2270    1.0000 </r>
       <r>   -8.1767    1.0000 </r>
       <r>   -8.0751    1.0000 </r>
       <r>   -7.9657    1.0000 </r>
       <r>   -7.8784    1.0000 </r>
       <r>   -7.7632    1.0000 </r>
       <r>   -7.7487    1.0000 </r>
       <r>   -7.4866    1.0000 </r>
       <r>   -7.4176    1.0000 </r>
       <r>   -7.2459    1.0000 </r>
       <r>   -7.2333    1.0000 </r>
       <r>   -7.1012    1.0000 </r>
       <r>   -6.9591    1.0000 </r>
       <r>   -6.7140    1.0000 </r>
       <r>   -6.6368    1.0000 </r>
       <r>   -6.4799    1.0000 </r>
       <r>   -6.4447    1.0000 </r>
       <r>   -6.0968    1.0000 </r>
       <r>   -5.9994    1.0000 </r>
       <r>   -5.9335    1.0000 </r>
       <r>   -5.5786    1.0000 </r>
       <r>   -5.5381    1.0000 </r>
       <r>   -5.3838    1.0000 </r>
       <r>   -4.9761    1.0000 </r>
       <r>   -4.8583    1.0000 </r>
       <r>   -4.8185    1.0000 </r>
       <r>   -4.4461    1.0000 </r>
       <r>   -3.9258    1.0000 </r>
       <r>   -3.7716    1.0000 </r>
       <r>   -2.3907    0.0000 </r>
       <r>   -1.8050    0.0000 </r>
       <r>   -1.6731    0.0000 </r>
       <r>   -1.4086    0.0000 </r>
       <r>   -0.9367    0.0000 </r>
       <r>   -0.8229    0.0000 </r>
       <r>   -0.8012    0.0000 </r>
       <r>   -0.7104    0.0000 </r>
       <r>   -0.6363    0.0000 </r>
       <r>   -0.0448    0.0000 </r>
       <r>    0.2050    0.0000 </r>
       <r>    0.3342    0.0000 </r>
       <r>    0.5260    0.0000 </r>
       <r>    0.5782    0.0000 </r>
       <r>    0.7945    0.0000 </r>
       <r>    0.8451    0.0000 </r>
       <r>    0.9154    0.0000 </r>
       <r>    1.1037    0.0000 </r>
       <r>    1.2041    0.0000 </r>
       <r>    1.2623    0.0000 </r>
       <r>    1.3671    0.0000 </r>
       <r>    1.4970    0.0000 </r>
       <r>    1.5285    0.0000 </r>
       <r>    1.5916    0.0000 </r>
       <r>    1.6369    0.0000 </r>
       <r>    1.6870    0.0000 </r>
       <r>    1.7864    0.0000 </r>
       <r>    1.8358    0.0000 </r>
       <r>    1.8408    0.0000 </r>
       <r>    1.9445    0.0000 </r>
       <r>    2.0363    0.0000 </r>
      </set>
     </set>
    </set>
   </array>
  </eigenvalues>
  <separator name="orbital magnetization" >
   <v name="MAGDIPOLOUT">      0.00000000      0.00000000      0.00000000</v>
  </separator>
  <dos>
   <i name="efermi">     -2.57207701 </i>
   <total>
    <array>
     <dimension dim="1">gridpoints</dimension>
     <dimension dim="2">spin</dimension>
     <field>energy</field>
     <field>total</field>
     <field>integrated</field>
     <set>
      <set comment="spin 1">
       <r>   -55.3096     0.0000     0.0000 </r>
       <r>   -55.1088     0.0000     0.0000 </r>
       <r>   -54.9081     0.0000     0.0000 </r>
       <r>   -54.7073     0.0000     0.0000 </r>
       <r>   -54.5066     0.0000     0.0000 </r>
       <r>   -54.3058     0.0000     0.0000 </r>
       <r>   -54.1051     0.0000     0.0000 </r>
       <r>   -53.9043     0.0000     0.0000 </r>
       <r>   -53.7036     0.0000     0.0000 </r>
       <r>   -53.5028     0.0000     0.0000 </r>
       <r>   -53.3020     0.0000     0.0000 </r>
       <r>   -53.1013     0.0000     0.0000 </r>
       <r>   -52.9005     0.0000     0.0000 </r>
       <r>   -52.6998     0.0008     0.0002 </r>
       <r>   -52.4990     4.8835     0.9805 </r>
       <r>   -52.2983     0.0970     1.0000 </r>
       <r>   -52.0975     0.0000     1.0000 </r>
       <r>   -51.8968     0.0000     1.0000 </r>
       <r>   -51.6960     0.0000     1.0000 </r>
       <r>   -51.4953     0.0000     1.0000 </r>
       <r>   -51.2945     0.0000     1.0000 </r>
       <r>   -51.0937     0.0000     1.0000 </r>
       <r>   -50.8930     0.0000     1.0000 </r>
       <r>   -50.6922     0.0000     1.0000 </r>
       <r>   -50.4915     0.0000     1.0000 </r>
       <r>   -50.2907     0.0000     1.0000 </r>
       <r>   -50.0900     0.0000     1.0000 </r>
       <r>   -49.8892     0.0000     1.0000 </r>
       <r>   -49.6885     0.0000     1.0000 </r>
       <r>   -49.4877     0.0000     1.0000 </r>
       <r>   -49.2870     0.0000     1.0000 </r>
       <r>   -49.0862     0.0000     1.0000 </r>
       <r>   -48.8854     0.0000     1.0000 </r>
       <r>   -48.6847     0.0000     1.0000 </r>
       <r>   -48.4839     0.0000     1.0000 </r>
       <r>   -48.2832     0.0000     1.0000 </r>
       <r>   -48.0824     0.0000     1.0000 </r>
       <r>   -47.8817     0.0000     1.0000 </r>
       <r>   -47.6809     0.0000     1.0000 </r>
       <r>   -47.4802     0.0000     1.0000 </r>
       <r>   -47.2794     0.0000     1.0000 </r>
       <r>   -47.0787     0.0000     1.0000 </r>
       <r>   -46.8779     0.0000     1.0000 </r>
       <r>   -46.6771     0.0000     1.0000 </r>
       <r>   -46.4764     0.0000     1.0000 </r>
       <r>   -46.2756     0.0000     1.0000 </r>
       <r>   -46.0749     0.0000     1.0000 </r>
       <r>   -45.8741     0.0000     1.0000 </r>
       <r>   -45.6734     0.0000     1.0000 </r>
       <r>   -45.4726     0.0000     1.0000 </r>
       <r>   -45.2719     0.0000     1.0000 </r>
       <r>   -45.0711     0.0000     1.0000 </r>
       <r>   -44.8704     0.0000     1.0000 </r>
       <r>   -44.6696     0.0000     1.0000 </r>
       <r>   -44.4688     0.0000     1.0000 </r>
       <r>   -44.2681     0.0000     1.0000 </r>
       <r>   -44.0673     0.0000     1.0000 </r>
       <r>   -43.8666     0.0000     1.0000 </r>
       <r>   -43.6658     0.0000     1.0000 </r>
       <r>   -43.4651     0.0000     1.0000 </r>
       <r>   -43.2643     0.0000     1.0000 </r>
       <r>   -43.0636     0.0000     1.0000 </r>
       <r>   -42.8628     0.0000     1.0000 </r>
       <r>   -42.6621     0.0000     1.0000 </r>
       <r>   -42.4613     0.0000     1.0000 </r>
       <r>   -42.2605     0.0000     1.0000 </r>
       <r>   -42.0598     0.0000     1.0000 </r>
       <r>   -41.8590     0.0000     1.0000 </r>
       <r>   -41.6583     0.0000     1.0000 </r>
       <r>   -41.4575     0.0000     1.0000 </r>
       <r>   -41.2568     0.0000     1.0000 </r>
       <r>   -41.0560     0.0000     1.0000 </r>
       <r>   -40.8553     0.0000     1.0000 </r>
       <r>   -40.6545     0.0000     1.0000 </r>
       <r>   -40.4537     0.0000     1.0000 </r>
       <r>   -40.2530     0.0000     1.0000 </r>
       <r>   -40.0522     0.0000     1.0000 </r>
       <r>   -39.8515     0.0000     1.0000 </r>
       <r>   -39.6507     0.0000     1.0000 </r>
       <r>   -39.4500     0.0000     1.0000 </r>
       <r>   -39.2492     0.0000     1.0000 </r>
       <r>   -39.0485     0.0000     1.0000 </r>
       <r>   -38.8477     0.0000     1.0000 </r>
       <r>   -38.6470     0.0000     1.0000 </r>
       <r>   -38.4462     0.0000     1.0000 </r>
       <r>   -38.2454     0.0000     1.0000 </r>
       <r>   -38.0447     0.0000     1.0000 </r>
       <r>   -37.8439     0.0000     1.0000 </r>
       <r>   -37.6432     0.0000     1.0000 </r>
       <r>   -37.4424     0.0000     1.0000 </r>
       <r>   -37.2417     0.0000     1.0000 </r>
       <r>   -37.0409     0.0000     1.0000 </r>
       <r>   -36.8402     0.0000     1.0000 </r>
       <r>   -36.6394     0.0000     1.0000 </r>
       <r>   -36.4387     0.0000     1.0000 </r>
       <r>   -36.2379     0.0000     1.0000 </r>
       <r>   -36.0371     0.0000     1.0000 </r>
       <r>   -35.8364     0.0000     1.0000 </r>
       <r>   -35.6356     0.0000     1.0000 </r>
       <r>   -35.4349     0.0000     1.0000 </r>
       <r>   -35.2341     0.0000     1.0000 </r>
       <r>   -35.0334     0.0000     1.0000 </r>
       <r>   -34.8326     0.0000     1.0000 </r>
       <r>   -34.6319     0.0000     1.0000 </r>
       <r>   -34.4311     0.0000     1.0000 </r>
       <r>   -34.2304     0.0000     1.0000 </r>
       <r>   -34.0296     0.0000     1.0000 </r>
       <r>   -33.8288     0.0000     1.0000 </r>
       <r>   -33.6281     0.0000     1.0000 </r>
       <r>   -33.4273     0.0000     1.0000 </r>
       <r>   -33.2266     0.0000     1.0000 </r>
       <r>   -33.0258     0.0000     1.0000 </r>
       <r>   -32.8251     0.0000     1.0000 </r>
       <r>   -32.6243     0.0000     1.0000 </r>
       <r>   -32.4236     0.0000     1.0000 </r>
       <r>   -32.2228     0.0000     1.0000 </r>
       <r>   -32.0221     0.0000     1.0000 </r>
       <r>   -31.8213     0.0000     1.0000 </r>
       <r>   -31.6205     0.0000     1.0000 </r>
       <r>   -31.4198     0.0000     1.0000 </r>
       <r>   -31.2190     0.0000     1.0000 </r>
       <r>   -31.0183     0.0000     1.0000 </r>
       <r>   -30.8175     0.0000     1.0000 </r>
       <r>   -30.6168     0.0000     1.0000 </r>
       <r>   -30.4160     0.0000     1.0000 </r>
       <r>   -30.2153     0.0000     1.0000 </r>
       <r>   -30.0145     0.0000     1.0000 </r>
       <r>   -29.8138     0.0000     1.0000 </r>
       <r>   -29.6130     0.0000     1.0000 </r>
       <r>   -29.4122     0.0000     1.0000 </r>
       <r>   -29.2115     0.0000     1.0000 </r>
       <r>   -29.0107     0.0000     1.0000 </r>
       <r>   -28.8100     0.0000     1.0000 </r>
       <r>   -28.6092     0.0000     1.0000 </r>
       <r>   -28.4085     0.0000     1.0000 </r>
       <r>   -28.2077     0.0000     1.0000 </r>
       <r>   -28.0070     0.0000     1.0000 </r>
       <r>   -27.8062     0.0000     1.0000 </r>
       <r>   -27.6054     0.0000     1.0000 </r>
       <r>   -27.4047     0.0000     1.0000 </r>
       <r>   -27.2039     0.0000     1.0000 </r>
       <r>   -27.0032     0.0000     1.0000 </r>
       <r>   -26.8024     0.0000     1.0000 </r>
       <r>   -26.6017     0.0000     1.0000 </r>
       <r>   -26.4009     0.0000     1.0000 </r>
       <r>   -26.2002     0.0000     1.0000 </r>
       <r>   -25.9994     0.0000     1.0000 </r>
       <r>   -25.7987     0.0000     1.0000 </r>
       <r>   -25.5979     0.0000     1.0000 </r>
       <r>   -25.3971     0.0000     1.0000 </r>
       <r>   -25.1964     0.0000     1.0000 </r>
       <r>   -24.9956     0.0000     1.0000 </r>
       <r>   -24.7949     0.0000     1.0000 </r>
       <r>   -24.5941     0.0000     1.0000 </r>
       <r>   -24.3934     0.0000     1.0000 </r>
       <r>   -24.1926     0.0000     1.0000 </r>
       <r>   -23.9919     0.0000     1.0000 </r>
       <r>   -23.7911     0.0000     1.0000 </r>
       <r>   -23.5904     0.0000     1.0000 </r>
       <r>   -23.3896     0.0000     1.0000 </r>
       <r>   -23.1888     0.0000     1.0000 </r>
       <r>   -22.9881     0.0000     1.0000 </r>
       <r>   -22.7873     0.0000     1.0000 </r>
       <r>   -22.5866     0.0000     1.0000 </r>
       <r>   -22.3858     0.1470     1.0295 </r>
       <r>   -22.1851     4.3918     1.9112 </r>
       <r>   -21.9843     3.1698     2.5475 </r>
       <r>   -21.7836     3.3987     3.2298 </r>
       <r>   -21.5828     2.9202     3.8161 </r>
       <r>   -21.3821     4.2800     4.6753 </r>
       <r>   -21.1813     2.6612     5.2096 </r>
       <r>   -20.9805     4.6411     6.1413 </r>
       <r>   -20.7798     4.8162     7.1082 </r>
       <r>   -20.5790     1.9366     7.4970 </r>
       <r>   -20.3783     5.1226     8.5254 </r>
       <r>   -20.1775     3.3762     9.2031 </r>
       <r>   -19.9768     4.4720    10.1009 </r>
       <r>   -19.7760     1.4886    10.3998 </r>
       <r>   -19.5753     5.5581    11.5156 </r>
       <r>   -19.3745     3.7143    12.2612 </r>
       <r>   -19.1738     4.4483    13.1543 </r>
       <r>   -18.9730     4.9697    14.1519 </r>
       <r>   -18.7722     1.8412    14.5216 </r>
       <r>   -18.5715     2.9626    15.1163 </r>
       <r>   -18.3707     7.6113    16.6443 </r>
       <r>   -18.1700     3.1756    17.2818 </r>
       <r>   -17.9692     3.7885    18.0424 </r>
       <r>   -17.7685     5.2039    19.0871 </r>
       <r>   -17.5677     0.4296    19.1734 </r>
       <r>   -17.3670     8.4716    20.8741 </r>
       <r>   -17.1662     4.5085    21.7792 </r>
       <r>   -16.9655     4.2501    22.6324 </r>
       <r>   -16.7647     4.6475    23.5654 </r>
       <r>   -16.5639     1.7558    23.9179 </r>
       <r>   -16.3632     2.1378    24.3471 </r>
       <r>   -16.1624     7.7593    25.9048 </r>
       <r>   -15.9617     1.0277    26.1111 </r>
       <r>   -15.7609     2.1940    26.5515 </r>
       <r>   -15.5602     3.0167    27.1572 </r>
       <r>   -15.3594     3.5261    27.8650 </r>
       <r>   -15.1587     7.5565    29.3820 </r>
       <r>   -14.9579     3.6937    30.1236 </r>
       <r>   -14.7571     4.7890    31.0850 </r>
       <r>   -14.5564     4.4457    31.9775 </r>
       <r>   -14.3556     3.5004    32.6802 </r>
       <r>   -14.1549     3.4621    33.3752 </r>
       <r>   -13.9541     5.4675    34.4729 </r>
       <r>   -13.7534     4.7080    35.4180 </r>
       <r>   -13.5526     2.3370    35.8872 </r>
       <r>   -13.3519     0.9903    36.0860 </r>
       <r>   -13.1511     7.1383    37.5190 </r>
       <r>   -12.9504     5.7073    38.6648 </r>
       <r>   -12.7496     4.7767    39.6237 </r>
       <r>   -12.5488     1.5255    39.9300 </r>
       <r>   -12.3481     4.0765    40.7484 </r>
       <r>   -12.1473     4.8771    41.7275 </r>
       <r>   -11.9466     7.8392    43.3012 </r>
       <r>   -11.7458     1.2686    43.5559 </r>
       <r>   -11.5451     6.2435    44.8093 </r>
       <r>   -11.3443     7.5059    46.3162 </r>
       <r>   -11.1436     4.4275    47.2050 </r>
       <r>   -10.9428     3.6187    47.9315 </r>
       <r>   -10.7421     2.9066    48.5150 </r>
       <r>   -10.5413     8.4784    50.2171 </r>
       <r>   -10.3405     9.9056    52.2057 </r>
       <r>   -10.1398     8.6284    53.9379 </r>
       <r>    -9.9390     8.5072    55.6457 </r>
       <r>    -9.7383     8.2193    57.2958 </r>
       <r>    -9.5375    10.7722    59.4583 </r>
       <r>    -9.3368     8.9378    61.2526 </r>
       <r>    -9.1360    14.0575    64.0748 </r>
       <r>    -8.9353    12.0056    66.4849 </r>
       <r>    -8.7345    11.7163    68.8370 </r>
       <r>    -8.5338     7.9123    70.4254 </r>
       <r>    -8.3330     8.1653    72.0647 </r>
       <r>    -8.1322     9.8401    74.0401 </r>
       <r>    -7.9315    13.0498    76.6599 </r>
       <r>    -7.7307     7.8264    78.2311 </r>
       <r>    -7.5300     2.7583    78.7849 </r>
       <r>    -7.3292     9.0364    80.5990 </r>
       <r>    -7.1285     9.2285    82.4516 </r>
       <r>    -6.9277    10.0415    84.4675 </r>
       <r>    -6.7270     8.6437    86.2028 </r>
       <r>    -6.5262     5.2082    87.2483 </r>
       <r>    -6.3255     5.9357    88.4400 </r>
       <r>    -6.1247     5.3384    89.5117 </r>
       <r>    -5.9239    11.8016    91.8809 </r>
       <r>    -5.7232     3.1557    92.5144 </r>
       <r>    -5.5224     6.8454    93.8887 </r>
       <r>    -5.3217     2.1995    94.3302 </r>
       <r>    -5.1209     3.0079    94.9341 </r>
       <r>    -4.9202     8.0281    96.5458 </r>
       <r>    -4.7194     7.4165    98.0347 </r>
       <r>    -4.5187     2.0060    98.4374 </r>
       <r>    -4.3179     2.3383    98.9068 </r>
       <r>    -4.1172     2.0009    99.3085 </r>
       <r>    -3.9164     2.5356    99.8175 </r>
       <r>    -3.7156     2.5533   100.3301 </r>
       <r>    -3.5149     2.2198   100.7758 </r>
       <r>    -3.3141     0.0100   100.7778 </r>
       <r>    -3.1134     0.0000   100.7778 </r>
       <r>    -2.9126     0.4866   100.8755 </r>
       <r>    -2.7119     2.0891   101.2949 </r>
       <r>    -2.5111     2.4527   101.7872 </r>
       <r>    -2.3104     2.0918   102.2072 </r>
       <r>    -2.1096     0.0749   102.2222 </r>
       <r>    -1.9089     0.0967   102.2416 </r>
       <r>    -1.7081     3.8791   103.0204 </r>
       <r>    -1.5073     3.8359   103.7905 </r>
       <r>    -1.3066     5.6511   104.9250 </r>
       <r>    -1.1058     1.2936   105.1847 </r>
       <r>    -0.9051     7.2064   106.6314 </r>
       <r>    -0.7043     7.9338   108.2241 </r>
       <r>    -0.5036     5.1862   109.2653 </r>
       <r>    -0.3028     3.1063   109.8889 </r>
       <r>    -0.1021     0.5704   110.0034 </r>
       <r>     0.0987     3.9741   110.8012 </r>
       <r>     0.2995     9.8352   112.7757 </r>
       <r>     0.5002     8.4964   114.4814 </r>
       <r>     0.7010     4.2895   115.3425 </r>
       <r>     0.9017     7.5811   116.8645 </r>
       <r>     1.1025     8.2599   118.5227 </r>
       <r>     1.3032    11.4521   120.8217 </r>
       <r>     1.5040    13.7430   123.5807 </r>
       <r>     1.7047    16.1840   126.8297 </r>
       <r>     1.9055    18.0686   130.4571 </r>
       <r>     2.1062     7.0907   131.8806 </r>
       <r>     2.3070     0.5949   132.0000 </r>
       <r>     2.5078     0.0000   132.0000 </r>
       <r>     2.7085     0.0000   132.0000 </r>
       <r>     2.9093     0.0000   132.0000 </r>
       <r>     3.1100     0.0000   132.0000 </r>
       <r>     3.3108     0.0000   132.0000 </r>
       <r>     3.5115     0.0000   132.0000 </r>
       <r>     3.7123     0.0000   132.0000 </r>
       <r>     3.9130     0.0000   132.0000 </r>
       <r>     4.1138     0.0000   132.0000 </r>
       <r>     4.3145     0.0000   132.0000 </r>
       <r>     4.5153     0.0000   132.0000 </r>
       <r>     4.7161     0.0000   132.0000 </r>
       <r>     4.9168     0.0000   132.0000 </r>
      </set>
      <set comment="spin 2">
       <r>   -55.3096     0.0000     0.0000 </r>
       <r>   -55.1088     0.0000     0.0000 </r>
       <r>   -54.9081     0.0000     0.0000 </r>
       <r>   -54.7073     0.0000     0.0000 </r>
       <r>   -54.5066     0.0000     0.0000 </r>
       <r>   -54.3058     0.0000     0.0000 </r>
       <r>   -54.1051     0.0000     0.0000 </r>
       <r>   -53.9043     0.0000     0.0000 </r>
       <r>   -53.7036     0.0000     0.0000 </r>
       <r>   -53.5028     0.0000     0.0000 </r>
       <r>   -53.3020     0.0000     0.0000 </r>
       <r>   -53.1013     0.0000     0.0000 </r>
       <r>   -52.9005     0.0000     0.0000 </r>
       <r>   -52.6998     0.0007     0.0001 </r>
       <r>   -52.4990     4.8821     0.9803 </r>
       <r>   -52.2983     0.0983     1.0000 </r>
       <r>   -52.0975     0.0000     1.0000 </r>
       <r>   -51.8968     0.0000     1.0000 </r>
       <r>   -51.6960     0.0000     1.0000 </r>
       <r>   -51.4953     0.0000     1.0000 </r>
       <r>   -51.2945     0.0000     1.0000 </r>
       <r>   -51.0937     0.0000     1.0000 </r>
       <r>   -50.8930     0.0000     1.0000 </r>
       <r>   -50.6922     0.0000     1.0000 </r>
       <r>   -50.4915     0.0000     1.0000 </r>
       <r>   -50.2907     0.0000     1.0000 </r>
       <r>   -50.0900     0.0000     1.0000 </r>
       <r>   -49.8892     0.0000     1.0000 </r>
       <r>   -49.6885     0.0000     1.0000 </r>
       <r>   -49.4877     0.0000     1.0000 </r>
       <r>   -49.2870     0.0000     1.0000 </r>
       <r>   -49.0862     0.0000     1.0000 </r>
       <r>   -48.8854     0.0000     1.0000 </r>
       <r>   -48.6847     0.0000     1.0000 </r>
       <r>   -48.4839     0.0000     1.0000 </r>
       <r>   -48.2832     0.0000     1.0000 </r>
       <r>   -48.0824     0.0000     1.0000 </r>
       <r>   -47.8817     0.0000     1.0000 </r>
       <r>   -47.6809     0.0000     1.0000 </r>
       <r>   -47.4802     0.0000     1.0000 </r>
       <r>   -47.2794     0.0000     1.0000 </r>
       <r>   -47.0787     0.0000     1.0000 </r>
       <r>   -46.8779     0.0000     1.0000 </r>
       <r>   -46.6771     0.0000     1.0000 </r>
       <r>   -46.4764     0.0000     1.0000 </r>
       <r>   -46.2756     0.0000     1.0000 </r>
       <r>   -46.0749     0.0000     1.0000 </r>
       <r>   -45.8741     0.0000     1.0000 </r>
       <r>   -45.6734     0.0000     1.0000 </r>
       <r>   -45.4726     0.0000     1.0000 </r>
       <r>   -45.2719     0.0000     1.0000 </r>
       <r>   -45.0711     0.0000     1.0000 </r>
       <r>   -44.8704     0.0000     1.0000 </r>
       <r>   -44.6696     0.0000     1.0000 </r>
       <r>   -44.4688     0.0000     1.0000 </r>
       <r>   -44.2681     0.0000     1.0000 </r>
       <r>   -44.0673     0.0000     1.0000 </r>
       <r>   -43.8666     0.0000     1.0000 </r>
       <r>   -43.6658     0.0000     1.0000 </r>
       <r>   -43.4651     0.0000     1.0000 </r>
       <r>   -43.2643     0.0000     1.0000 </r>
       <r>   -43.0636     0.0000     1.0000 </r>
       <r>   -42.8628     0.0000     1.0000 </r>
       <r>   -42.6621     0.0000     1.0000 </r>
       <r>   -42.4613     0.0000     1.0000 </r>
       <r>   -42.2605     0.0000     1.0000 </r>
       <r>   -42.0598     0.0000     1.0000 </r>
       <r>   -41.8590     0.0000     1.0000 </r>
       <r>   -41.6583     0.0000     1.0000 </r>
       <r>   -41.4575     0.0000     1.0000 </r>
       <r>   -41.2568     0.0000     1.0000 </r>
       <r>   -41.0560     0.0000     1.0000 </r>
       <r>   -40.8553     0.0000     1.0000 </r>
       <r>   -40.6545     0.0000     1.0000 </r>
       <r>   -40.4537     0.0000     1.0000 </r>
       <r>   -40.2530     0.0000     1.0000 </r>
       <r>   -40.0522     0.0000     1.0000 </r>
       <r>   -39.8515     0.0000     1.0000 </r>
       <r>   -39.6507     0.0000     1.0000 </r>
       <r>   -39.4500     0.0000     1.0000 </r>
       <r>   -39.2492     0.0000     1.0000 </r>
       <r>   -39.0485     0.0000     1.0000 </r>
       <r>   -38.8477     0.0000     1.0000 </r>
       <r>   -38.6470     0.0000     1.0000 </r>
       <r>   -38.4462     0.0000     1.0000 </r>
       <r>   -38.2454     0.0000     1.0000 </r>
       <r>   -38.0447     0.0000     1.0000 </r>
       <r>   -37.8439     0.0000     1.0000 </r>
       <r>   -37.6432     0.0000     1.0000 </r>
       <r>   -37.4424     0.0000     1.0000 </r>
       <r>   -37.2417     0.0000     1.0000 </r>
       <r>   -37.0409     0.0000     1.0000 </r>
       <r>   -36.8402     0.0000     1.0000 </r>
       <r>   -36.6394     0.0000     1.0000 </r>
       <r>   -36.4387     0.0000     1.0000 </r>
       <r>   -36.2379     0.0000     1.0000 </r>
       <r>   -36.0371     0.0000     1.0000 </r>
       <r>   -35.8364     0.0000     1.0000 </r>
       <r>   -35.6356     0.0000     1.0000 </r>
       <r>   -35.4349     0.0000     1.0000 </r>
       <r>   -35.2341     0.0000     1.0000 </r>
       <r>   -35.0334     0.0000     1.0000 </r>
       <r>   -34.8326     0.0000     1.0000 </r>
       <r>   -34.6319     0.0000     1.0000 </r>
       <r>   -34.4311     0.0000     1.0000 </r>
       <r>   -34.2304     0.0000     1.0000 </r>
       <r>   -34.0296     0.0000     1.0000 </r>
       <r>   -33.8288     0.0000     1.0000 </r>
       <r>   -33.6281     0.0000     1.0000 </r>
       <r>   -33.4273     0.0000     1.0000 </r>
       <r>   -33.2266     0.0000     1.0000 </r>
       <r>   -33.0258     0.0000     1.0000 </r>
       <r>   -32.8251     0.0000     1.0000 </r>
       <r>   -32.6243     0.0000     1.0000 </r>
       <r>   -32.4236     0.0000     1.0000 </r>
       <r>   -32.2228     0.0000     1.0000 </r>
       <r>   -32.0221     0.0000     1.0000 </r>
       <r>   -31.8213     0.0000     1.0000 </r>
       <r>   -31.6205     0.0000     1.0000 </r>
       <r>   -31.4198     0.0000     1.0000 </r>
       <r>   -31.2190     0.0000     1.0000 </r>
       <r>   -31.0183     0.0000     1.0000 </r>
       <r>   -30.8175     0.0000     1.0000 </r>
       <r>   -30.6168     0.0000     1.0000 </r>
       <r>   -30.4160     0.0000     1.0000 </r>
       <r>   -30.2153     0.0000     1.0000 </r>
       <r>   -30.0145     0.0000     1.0000 </r>
       <r>   -29.8138     0.0000     1.0000 </r>
       <r>   -29.6130     0.0000     1.0000 </r>
       <r>   -29.4122     0.0000     1.0000 </r>
       <r>   -29.2115     0.0000     1.0000 </r>
       <r>   -29.0107     0.0000     1.0000 </r>
       <r>   -28.8100     0.0000     1.0000 </r>
       <r>   -28.6092     0.0000     1.0000 </r>
       <r>   -28.4085     0.0000     1.0000 </r>
       <r>   -28.2077     0.0000     1.0000 </r>
       <r>   -28.0070     0.0000     1.0000 </r>
       <r>   -27.8062     0.0000     1.0000 </r>
       <r>   -27.6054     0.0000     1.0000 </r>
       <r>   -27.4047     0.0000     1.0000 </r>
       <r>   -27.2039     0.0000     1.0000 </r>
       <r>   -27.0032     0.0000     1.0000 </r>
       <r>   -26.8024     0.0000     1.0000 </r>
       <r>   -26.6017     0.0000     1.0000 </r>
       <r>   -26.4009     0.0000     1.0000 </r>
       <r>   -26.2002     0.0000     1.0000 </r>
       <r>   -25.9994     0.0000     1.0000 </r>
       <r>   -25.7987     0.0000     1.0000 </r>
       <r>   -25.5979     0.0000     1.0000 </r>
       <r>   -25.3971     0.0000     1.0000 </r>
       <r>   -25.1964     0.0000     1.0000 </r>
       <r>   -24.9956     0.0000     1.0000 </r>
       <r>   -24.7949     0.0000     1.0000 </r>
       <r>   -24.5941     0.0000     1.0000 </r>
       <r>   -24.3934     0.0000     1.0000 </r>
       <r>   -24.1926     0.0000     1.0000 </r>
       <r>   -23.9919     0.0000     1.0000 </r>
       <r>   -23.7911     0.0000     1.0000 </r>
       <r>   -23.5904     0.0000     1.0000 </r>
       <r>   -23.3896     0.0000     1.0000 </r>
       <r>   -23.1888     0.0000     1.0000 </r>
       <r>   -22.9881     0.0000     1.0000 </r>
       <r>   -22.7873     0.0000     1.0000 </r>
       <r>   -22.5866     0.0000     1.0000 </r>
       <r>   -22.3858     0.0928     1.0186 </r>
       <r>   -22.1851     4.2579     1.8734 </r>
       <r>   -21.9843     3.0479     2.4853 </r>
       <r>   -21.7836     3.4968     3.1873 </r>
       <r>   -21.5828     2.9470     3.7789 </r>
       <r>   -21.3821     4.4464     4.6716 </r>
       <r>   -21.1813     2.5957     5.1927 </r>
       <r>   -20.9805     4.6262     6.1214 </r>
       <r>   -20.7798     4.9078     7.1066 </r>
       <r>   -20.5790     1.8121     7.4704 </r>
       <r>   -20.3783     4.9870     8.4716 </r>
       <r>   -20.1775     3.3500     9.1441 </r>
       <r>   -19.9768     4.6582    10.0793 </r>
       <r>   -19.7760     1.5023    10.3809 </r>
       <r>   -19.5753     5.5647    11.4980 </r>
       <r>   -19.3745     3.6949    12.2398 </r>
       <r>   -19.1738     4.4806    13.1393 </r>
       <r>   -18.9730     4.7822    14.0993 </r>
       <r>   -18.7722     2.0795    14.5168 </r>
       <r>   -18.5715     2.6434    15.0475 </r>
       <r>   -18.3707     7.6658    16.5864 </r>
       <r>   -18.1700     3.4180    17.2726 </r>
       <r>   -17.9692     3.5765    17.9906 </r>
       <r>   -17.7685     5.4148    19.0776 </r>
       <r>   -17.5677     0.4060    19.1591 </r>
       <r>   -17.3670     8.3124    20.8279 </r>
       <r>   -17.1662     4.6331    21.7580 </r>
       <r>   -16.9655     4.1871    22.5986 </r>
       <r>   -16.7647     4.6419    23.5305 </r>
       <r>   -16.5639     1.8441    23.9007 </r>
       <r>   -16.3632     2.0800    24.3182 </r>
       <r>   -16.1624     7.7874    25.8816 </r>
       <r>   -15.9617     1.1428    26.1110 </r>
       <r>   -15.7609     1.8646    26.4854 </r>
       <r>   -15.5602     3.1956    27.1269 </r>
       <r>   -15.3594     3.5633    27.8422 </r>
       <r>   -15.1587     7.6309    29.3742 </r>
       <r>   -14.9579     3.5922    30.0953 </r>
       <r>   -14.7571     4.8430    31.0676 </r>
       <r>   -14.5564     4.4867    31.9683 </r>
       <r>   -14.3556     3.3063    32.6321 </r>
       <r>   -14.1549     3.6268    33.3602 </r>
       <r>   -13.9541     5.5021    34.4647 </r>
       <r>   -13.7534     4.6953    35.4073 </r>
       <r>   -13.5526     2.3835    35.8858 </r>
       <r>   -13.3519     0.8276    36.0520 </r>
       <r>   -13.1511     7.0437    37.4661 </r>
       <r>   -12.9504     5.8727    38.6450 </r>
       <r>   -12.7496     4.7642    39.6015 </r>
       <r>   -12.5488     1.5049    39.9036 </r>
       <r>   -12.3481     4.1174    40.7302 </r>
       <r>   -12.1473     4.8282    41.6995 </r>
       <r>   -11.9466     7.8841    43.2822 </r>
       <r>   -11.7458     1.3071    43.5447 </r>
       <r>   -11.5451     5.8529    44.7196 </r>
       <r>   -11.3443     7.8723    46.3001 </r>
       <r>   -11.1436     4.4356    47.1905 </r>
       <r>   -10.9428     3.5803    47.9093 </r>
       <r>   -10.7421     2.9278    48.4971 </r>
       <r>   -10.5413     8.2783    50.1590 </r>
       <r>   -10.3405     9.5282    52.0718 </r>
       <r>   -10.1398     9.1771    53.9141 </r>
       <r>    -9.9390     8.1759    55.5555 </r>
       <r>    -9.7383     8.2903    57.2198 </r>
       <r>    -9.5375    10.4884    59.3254 </r>
       <r>    -9.3368     9.3419    61.2008 </r>
       <r>    -9.1360    14.0296    64.0173 </r>
       <r>    -8.9353    11.6203    66.3502 </r>
       <r>    -8.7345    11.8651    68.7321 </r>
       <r>    -8.5338     8.3181    70.4020 </r>
       <r>    -8.3330     8.0656    72.0213 </r>
       <r>    -8.1322     9.7055    73.9697 </r>
       <r>    -7.9315    12.8004    76.5394 </r>
       <r>    -7.7307     8.2608    78.1978 </r>
       <r>    -7.5300     2.5651    78.7128 </r>
       <r>    -7.3292     8.9878    80.5171 </r>
       <r>    -7.1285     9.3359    82.3913 </r>
       <r>    -6.9277    10.0168    84.4023 </r>
       <r>    -6.7270     8.5231    86.1133 </r>
       <r>    -6.5262     5.6257    87.2427 </r>
       <r>    -6.3255     5.7146    88.3899 </r>
       <r>    -6.1247     4.5183    89.2970 </r>
       <r>    -5.9239    12.5590    91.8183 </r>
       <r>    -5.7232     3.1940    92.4595 </r>
       <r>    -5.5224     6.6161    93.7877 </r>
       <r>    -5.3217     2.6746    94.3246 </r>
       <r>    -5.1209     2.8159    94.8899 </r>
       <r>    -4.9202     7.2184    96.3391 </r>
       <r>    -4.7194     8.0323    97.9516 </r>
       <r>    -4.5187     2.1968    98.3926 </r>
       <r>    -4.3179     2.4529    98.8850 </r>
       <r>    -4.1172     2.0876    99.3041 </r>
       <r>    -3.9164     1.7873    99.6629 </r>
       <r>    -3.7156     3.2772   100.3208 </r>
       <r>    -3.5149     2.2514   100.7728 </r>
       <r>    -3.3141     0.0247   100.7778 </r>
       <r>    -3.1134     0.0000   100.7778 </r>
       <r>    -2.9126     0.0869   100.7952 </r>
       <r>    -2.7119     2.0000   101.1967 </r>
       <r>    -2.5111     1.7681   101.5517 </r>
       <r>    -2.3104     2.7409   102.1020 </r>
       <r>    -2.1096     0.5991   102.2222 </r>
       <r>    -1.9089     0.0227   102.2268 </r>
       <r>    -1.7081     3.7983   102.9893 </r>
       <r>    -1.5073     3.6778   103.7276 </r>
       <r>    -1.3066     5.7593   104.8838 </r>
       <r>    -1.1058     1.3216   105.1492 </r>
       <r>    -0.9051     7.1791   106.5904 </r>
       <r>    -0.7043     7.7893   108.1541 </r>
       <r>    -0.5036     5.0507   109.1681 </r>
       <r>    -0.3028     3.5903   109.8889 </r>
       <r>    -0.1021     0.3115   109.9514 </r>
       <r>     0.0987     4.0338   110.7612 </r>
       <r>     0.2995     9.6014   112.6887 </r>
       <r>     0.5002     8.4758   114.3903 </r>
       <r>     0.7010     4.7198   115.3378 </r>
       <r>     0.9017     7.1275   116.7687 </r>
       <r>     1.1025     8.2522   118.4254 </r>
       <r>     1.3032    10.9940   120.6325 </r>
       <r>     1.5040    12.6887   123.1798 </r>
       <r>     1.7047    16.9901   126.5906 </r>
       <r>     1.9055    18.5783   130.3203 </r>
       <r>     2.1062     7.4310   131.8121 </r>
       <r>     2.3070     0.9358   132.0000 </r>
       <r>     2.5078     0.0001   132.0000 </r>
       <r>     2.7085     0.0000   132.0000 </r>
       <r>     2.9093     0.0000   132.0000 </r>
       <r>     3.1100     0.0000   132.0000 </r>
       <r>     3.3108     0.0000   132.0000 </r>
       <r>     3.5115     0.0000   132.0000 </r>
       <r>     3.7123     0.0000   132.0000 </r>
       <r>     3.9130     0.0000   132.0000 </r>
       <r>     4.1138     0.0000   132.0000 </r>
       <r>     4.3145     0.0000   132.0000 </r>
       <r>     4.5153     0.0000   132.0000 </r>
       <r>     4.7161     0.0000   132.0000 </r>
       <r>     4.9168     0.0000   132.0000 </r>
      </set>
     </set>
    </array>
   </total>
  </dos>
 </calculation>
 <structure name="finalpos" >
  <crystal>
   <varray name="basis" >
    <v>      12.30000000       0.00000000       0.00000000 </v>
    <v>      -6.15000000      10.65211247       0.00000000 </v>
    <v>       0.00000000       0.00000000      30.00000000 </v>
   </varray>
   <i name="volume">   3930.62950016 </i>
   <varray name="rec_basis" >
    <v>       0.08130081       0.04693905       0.00000000 </v>
    <v>       0.00000000       0.09387809       0.00000000 </v>
    <v>       0.00000000       0.00000000       0.03333333 </v>
   </varray>
  </crystal>
  <varray name="positions" >
   <v>       0.99824632       0.00451485       0.50456974 </v>
   <v>       0.13064214       0.06937547       0.51014723 </v>
   <v>       0.99450334       0.20543693       0.49533941 </v>
   <v>       0.12874344       0.26897822       0.49821997 </v>
   <v>       0.99549924       0.40924387       0.48997498 </v>
   <v>       0.13111623       0.47011518       0.49608251 </v>
   <v>       0.01694627       0.61707021       0.50086202 </v>
   <v>       0.14368459       0.67346735       0.50906859 </v>
   <v>       0.00680056       0.81035110       0.50906906 </v>
   <v>       0.13634663       0.87093284       0.51710703 </v>
   <v>       0.19769422       0.00223603       0.51731135 </v>
   <v>       0.51663516       0.24987308       0.50229483 </v>
   <v>       0.40218667       0.39650253       0.49661258 </v>
   <v>       0.32847798       0.26460571       0.50429262 </v>
   <v>       0.19857260       0.40161433       0.49668863 </v>
   <v>       0.33464895       0.46494607       0.49678961 </v>
   <v>       0.20488481       0.60214560       0.50352156 </v>
   <v>       0.33784857       0.66491353       0.50456968 </v>
   <v>       0.20426646       0.80301336       0.51710687 </v>
   <v>       0.33556953       0.86436090       0.51731135 </v>
   <v>       0.39697042       0.99568090       0.51793013 </v>
   <v>       0.52677657       0.05640753       0.51029899 </v>
   <v>       0.38974075       0.19344334       0.51029902 </v>
   <v>       0.32901416       0.06363699       0.51793012 </v>
   <v>       0.19546749       0.20182835       0.50490773 </v>
   <v>       0.53776641       0.45732263       0.49044788 </v>
   <v>       0.60231162       0.79541019       0.49821990 </v>
   <v>       0.53877040       0.66117011       0.49533946 </v>
   <v>       0.40270914       0.79730880       0.51014714 </v>
   <v>       0.53516185       0.86213429       0.50490773 </v>
   <v>       0.59793910       0.99514473       0.50429256 </v>
   <v>       0.72983580       0.06885333       0.49661244 </v>
   <v>       0.58320626       0.18330190       0.50229480 </v>
   <v>       0.70782687       0.25920486       0.48900840 </v>
   <v>       0.59253813       0.37449369       0.48900842 </v>
   <v>       0.71088039       0.37754721       0.47886008 </v>
   <v>       0.60677497       0.59312172       0.48985965 </v>
   <v>       0.93547874       0.87155144       0.50352185 </v>
   <v>       0.40452511       0.59760148       0.49815080 </v>
   <v>       0.73494768       0.86523935       0.49668863 </v>
   <v>       0.79827934       0.00131561       0.49678948 </v>
   <v>       0.93093470       0.07119166       0.49815081 </v>
   <v>       0.79065586       0.20443305       0.49044784 </v>
   <v>       0.92645497       0.27344147       0.48985966 </v>
   <v>       0.82194826       0.48861487       0.47841955 </v>
   <v>       0.94070656       0.49201793       0.48816656 </v>
   <v>       0.82535155       0.60737341       0.48816659 </v>
   <v>       0.95040365       0.68361294       0.50086218 </v>
   <v>       0.80344850       0.79778282       0.49608286 </v>
   <v>       0.74257744       0.66216589       0.48997508 </v>
   <v>       0.79589768       0.44333852       0.55691839 </v>
  </varray>
 </structure>
</modeling>
