   55   55    1    2
  0.7146599E+02  0.1230000E-08  0.1230000E-08  0.3000000E-08  0.5000000E-15
  1.000000000000000E-004
  CAR 
 Li defective graphene MACE training lab 
    219      5    140
 
  0.0000000E+00  0.0000000E+00  0.0000000E+00  0.1111111E+00
    1      -51.237702    -51.237603   1.000000   1.000000
    2      -22.096500    -22.096468   1.000000   1.000000
    3      -21.163751    -21.163735   1.000000   1.000000
    4      -21.161595    -21.161576   1.000000   1.000000
    5      -21.160558    -21.160548   1.000000   1.000000
    6      -21.153076    -21.153054   1.000000   1.000000
    7      -21.151154    -21.151083   1.000000   1.000000
    8      -21.116800    -21.116741   1.000000   1.000000
    9      -19.309250    -19.309236   1.000000   1.000000
   10      -19.308156    -19.308109   1.000000   1.000000
   11      -19.305560    -19.305526   1.000000   1.000000
   12      -19.293560    -19.293542   1.000000   1.000000
   13      -19.292111    -19.292062   1.000000   1.000000
   14      -19.284279    -19.284245   1.000000   1.000000
   15      -18.411180    -18.411140   1.000000   1.000000
   16      -18.397947    -18.397923   1.000000   1.000000
   17      -18.397041    -18.397006   1.000000   1.000000
   18      -18.391905    -18.391886   1.000000   1.000000
   19      -18.390756    -18.390702   1.000000   1.000000
   20      -18.388649    -18.388619   1.000000   1.000000
   21      -16.227787    -16.227766   1.000000   1.000000
   22      -16.222266    -16.222246   1.000000   1.000000
   23      -16.216273    -16.216238   1.000000   1.000000
   24      -16.215957    -16.215901   1.000000   1.000000
   25      -16.199675    -16.199652   1.000000   1.000000
   26      -16.198462    -16.198399   1.000000   1.000000
   27      -15.249520    -15.249500   1.000000   1.000000
   28      -15.248785    -15.248752   1.000000   1.000000
   29      -15.237530    -15.237498   1.000000   1.000000
   30      -15.236794    -15.236770   1.000000   1.000000
   31      -15.235780    -15.235751   1.000000   1.000000
   32      -15.223161    -15.223138   1.000000   1.000000
   33      -13.883361    -13.883332   1.000000   1.000000
   34      -13.882002    -13.881975   1.000000   1.000000
   35      -13.881904    -13.881878   1.000000   1.000000
   36      -13.873203    -13.873168   1.000000   1.000000
   37      -13.872807    -13.872783   1.000000   1.000000
   38      -13.867685    -13.867655   1.000000   1.000000
   39      -13.162345    -13.046298   1.000000   1.000000
   40      -11.492473    -11.492444   1.000000   1.000000
   41      -11.474895    -11.474885   1.000000   1.000000
   42      -11.473921    -11.473889   1.000000   1.000000
   43      -11.473581    -11.473540   1.000000   1.000000
   44      -11.467269    -11.467242   1.000000   1.000000
   45      -11.466807    -11.466778   1.000000   1.000000
   46      -11.398097    -11.398080   1.000000   1.000000
   47      -11.397789    -11.397761   1.000000   1.000000
   48      -11.393885    -11.393864   1.000000   1.000000
   49      -11.393589    -11.393563   1.000000   1.000000
   50      -11.384581    -11.384556   1.000000   1.000000
   51      -11.379573    -11.379547   1.000000   1.000000
   52      -10.186547    -10.185569   1.000000   1.000000
   53      -10.029120    -10.019529   1.000000   1.000000
   54      -10.019547    -10.019022   1.000000   1.000000
   55      -10.019046    -10.012512   1.000000   1.000000
   56      -10.012523    -10.011392   1.000000   1.000000
   57      -10.011414    -10.006755   1.000000   1.000000
   58      -10.006775     -9.996421   1.000000   1.000000
   59       -9.996441     -9.693625   1.000000   1.000000
   60       -9.080302     -9.080218   1.000000   1.000000
   61       -9.071639     -9.071617   1.000000   1.000000
   62       -9.068635     -9.068622   1.000000   1.000000
   63       -9.067011     -9.066911   1.000000   1.000000
   64       -9.059113     -9.058942   1.000000   1.000000
   65       -9.036974     -9.036237   1.000000   1.000000
   66       -8.737216     -8.737205   1.000000   1.000000
   67       -8.736153     -8.736143   1.000000   1.000000
   68       -8.735616     -8.735602   1.000000   1.000000
   69       -8.717650     -8.717620   1.000000   1.000000
   70       -8.717482     -8.717456   1.000000   1.000000
   71       -8.703411     -8.703381   1.000000   1.000000
   72       -8.668397     -8.668379   1.000000   1.000000
   73       -8.668088     -8.668071   1.000000   1.000000
   74       -8.667231     -8.667207   1.000000   1.000000
   75       -8.663033     -8.663004   1.000000   1.000000
   76       -8.661486     -8.661453   1.000000   1.000000
   77       -8.658707     -8.658669   1.000000   1.000000
   78       -8.561918     -8.553781   1.000000   1.000000
   79       -7.071071     -7.071045   1.000000   1.000000
   80       -7.061249     -7.061236   1.000000   1.000000
   81       -7.054913     -7.054889   1.000000   1.000000
   82       -7.053568     -7.053551   1.000000   1.000000
   83       -7.051580     -7.051552   1.000000   1.000000
   84       -7.050598     -7.050579   1.000000   1.000000
   85       -6.932624     -6.932066   1.000000   1.000000
   86       -6.928445     -6.928349   1.000000   1.000000
   87       -6.925460     -6.925406   1.000000   1.000000
   88       -6.919323     -6.918879   1.000000   1.000000
   89       -6.915935     -6.915641   1.000000   1.000000
   90       -6.912137     -6.912052   1.000000   1.000000
   91       -6.390695     -6.120721   1.000000   1.000000
   92       -6.031645     -6.031036   1.000000   1.000000
   93       -6.023123     -6.022991   1.000000   1.000000
   94       -6.020593     -6.019955   1.000000   1.000000
   95       -6.018916     -6.018281   1.000000   1.000000
   96       -6.015430     -6.014914   1.000000   1.000000
   97       -6.012346     -6.005005   1.000000   1.000000
   98       -5.558388     -5.558368   1.000000   1.000000
   99       -5.557429     -5.557407   1.000000   1.000000
  100       -5.023323     -4.763926   1.000000   1.000000
  101       -4.537628     -4.466466   1.000000   1.000000
  102       -4.485603     -4.421532   1.000000   1.000000
  103       -4.034800     -4.034749   1.000000   1.000000
  104       -4.032199     -4.032094   1.000000   1.000000
  105       -4.027117     -4.026938   1.000000   1.000000
  106       -4.026366     -4.026236   1.000000   1.000000
  107       -4.018925     -4.018685   1.000000   1.000000
  108       -4.017320     -4.017032   1.000000   1.000000
  109       -3.494899     -3.355745   1.000000   1.000000
  110       -2.595690     -1.769364   0.988814   0.000000
  111       -1.781277     -1.755619   0.000000   0.000000
  112       -1.290932     -1.235444   0.000000   0.000000
  113       -1.217732     -1.217564   0.000000   0.000000
  114       -1.215709     -1.215610   0.000000   0.000000
  115       -1.213429     -1.212961   0.000000   0.000000
  116       -1.210054     -1.209315   0.000000   0.000000
  117       -1.208358     -1.207190   0.000000   0.000000
  118       -1.188288     -1.135490   0.000000   0.000000
  119       -0.913335     -0.870184   0.000000   0.000000
  120       -0.214402      0.178792   0.000000   0.000000
  121        0.282999      0.411754   0.000000   0.000000
  122        0.362592      0.507260   0.000000   0.000000
  123        0.650396      0.652076   0.000000   0.000000
  124        0.655200      0.659602   0.000000   0.000000
  125        0.659409      0.660404   0.000000   0.000000
  126        0.659611      0.660713   0.000000   0.000000
  127        0.662086      0.663275   0.000000   0.000000
  128        0.663826      0.666214   0.000000   0.000000
  129        0.703216      0.732775   0.000000   0.000000
  130        0.893589      0.938767   0.000000   0.000000
  131        0.937847      0.975963   0.000000   0.000000
  132        1.308575      1.358209   0.000000   0.000000
  133        1.351945      1.429317   0.000000   0.000000
  134        1.480251      1.525968   0.000000   0.000000
  135        1.616872      1.667484   0.000000   0.000000
  136        1.714091      1.747575   0.000000   0.000000
  137        1.776236      1.839439   0.000000   0.000000
  138        1.837692      1.888640   0.000000   0.000000
  139        1.868133      1.913140   0.000000   0.000000
  140        1.953577      2.009828   0.000000   0.000000
 
  0.3333333E+00 -0.5551115E-16  0.0000000E+00  0.2222222E+00
    1      -51.237702    -51.237603   1.000000   1.000000
    2      -21.991186    -21.991155   1.000000   1.000000
    3      -21.675287    -21.675255   1.000000   1.000000
    4      -21.365664    -21.365620   1.000000   1.000000
    5      -21.354729    -21.354706   1.000000   1.000000
    6      -20.740178    -20.740134   1.000000   1.000000
    7      -20.729521    -20.729500   1.000000   1.000000
    8      -20.423134    -20.423099   1.000000   1.000000
    9      -20.120442    -20.120398   1.000000   1.000000
   10      -20.109458    -20.109436   1.000000   1.000000
   11      -19.499901    -19.499867   1.000000   1.000000
   12      -19.199147    -19.199120   1.000000   1.000000
   13      -19.195585    -19.195549   1.000000   1.000000
   14      -18.895620    -18.895591   1.000000   1.000000
   15      -18.891960    -18.891921   1.000000   1.000000
   16      -18.305154    -18.305111   1.000000   1.000000
   17      -18.293626    -18.293604   1.000000   1.000000
   18      -17.721615    -17.721586   1.000000   1.000000
   19      -17.717509    -17.717470   1.000000   1.000000
   20      -17.189293    -17.189261   1.000000   1.000000
   21      -17.156271    -17.156228   1.000000   1.000000
   22      -17.144042    -17.144018   1.000000   1.000000
   23      -16.912458    -16.912428   1.000000   1.000000
   24      -16.908191    -16.908150   1.000000   1.000000
   25      -16.096403    -16.096376   1.000000   1.000000
   26      -16.094717    -16.094676   1.000000   1.000000
   27      -15.394323    -15.394295   1.000000   1.000000
   28      -15.143277    -15.143248   1.000000   1.000000
   29      -15.141858    -15.141832   1.000000   1.000000
   30      -14.617006    -14.616980   1.000000   1.000000
   31      -14.614246    -14.614218   1.000000   1.000000
   32      -14.594860    -14.594833   1.000000   1.000000
   33      -14.590586    -14.590548   1.000000   1.000000
   34      -14.197647    -14.197607   1.000000   1.000000
   35      -14.185492    -14.185469   1.000000   1.000000
   36      -13.162346    -13.046302   1.000000   1.000000
   37      -12.993030    -12.993000   1.000000   1.000000
   38      -12.991792    -12.991764   1.000000   1.000000
   39      -12.766418    -12.766380   1.000000   1.000000
   40      -12.755059    -12.755035   1.000000   1.000000
   41      -12.505871    -12.505853   1.000000   1.000000
   42      -12.503770    -12.503748   1.000000   1.000000
   43      -12.172557    -12.172528   1.000000   1.000000
   44      -12.055208    -12.055179   1.000000   1.000000
   45      -12.053954    -12.053927   1.000000   1.000000
   46      -11.260791    -11.260774   1.000000   1.000000
   47      -11.259060    -11.259037   1.000000   1.000000
   48      -10.833909    -10.833892   1.000000   1.000000
   49      -10.831430    -10.831406   1.000000   1.000000
   50      -10.461964    -10.461935   1.000000   1.000000
   51      -10.457012    -10.456984   1.000000   1.000000
   52      -10.402583    -10.402555   1.000000   1.000000
   53      -10.178146    -10.178127   1.000000   1.000000
   54      -10.174513    -10.174490   1.000000   1.000000
   55      -10.065811    -10.059652   1.000000   1.000000
   56      -10.024156     -9.705714   1.000000   1.000000
   57       -9.681778     -9.669700   1.000000   1.000000
   58       -9.548491     -9.548465   1.000000   1.000000
   59       -9.545430     -9.545403   1.000000   1.000000
   60       -9.508617     -9.508599   1.000000   1.000000
   61       -9.507438     -9.507412   1.000000   1.000000
   62       -9.311424     -9.311122   1.000000   1.000000
   63       -9.308224     -9.308000   1.000000   1.000000
   64       -9.198673     -9.198655   1.000000   1.000000
   65       -9.195315     -9.195292   1.000000   1.000000
   66       -8.932005     -8.931986   1.000000   1.000000
   67       -8.884714     -8.884695   1.000000   1.000000
   68       -8.881804     -8.881780   1.000000   1.000000
   69       -8.837498     -8.837474   1.000000   1.000000
   70       -8.828857     -8.828839   1.000000   1.000000
   71       -8.615959     -8.612060   1.000000   1.000000
   72       -8.576346     -8.576276   1.000000   1.000000
   73       -8.528857     -8.524523   1.000000   1.000000
   74       -8.319253     -8.319233   1.000000   1.000000
   75       -8.211879     -8.211680   1.000000   1.000000
   76       -7.962784     -7.962763   1.000000   1.000000
   77       -7.959852     -7.959825   1.000000   1.000000
   78       -7.856616     -7.856532   1.000000   1.000000
   79       -7.848767     -7.848607   1.000000   1.000000
   80       -7.746065     -7.746045   1.000000   1.000000
   81       -7.722599     -7.722575   1.000000   1.000000
   82       -7.712931     -7.712914   1.000000   1.000000
   83       -7.172669     -7.172441   1.000000   1.000000
   84       -7.113116     -7.113089   1.000000   1.000000
   85       -6.962249     -6.962224   1.000000   1.000000
   86       -6.954803     -6.954785   1.000000   1.000000
   87       -6.820268     -6.820055   1.000000   1.000000
   88       -6.816067     -6.815835   1.000000   1.000000
   89       -6.514416     -6.513218   1.000000   1.000000
   90       -6.509436     -6.508690   1.000000   1.000000
   91       -6.387233     -6.348808   1.000000   1.000000
   92       -6.348827     -6.110282   1.000000   1.000000
   93       -5.982987     -5.982964   1.000000   1.000000
   94       -5.825925     -5.825704   1.000000   1.000000
   95       -5.820086     -5.819122   1.000000   1.000000
   96       -5.781932     -5.781910   1.000000   1.000000
   97       -5.389922     -5.389772   1.000000   1.000000
   98       -5.385042     -5.384785   1.000000   1.000000
   99       -5.058096     -5.057919   1.000000   1.000000
  100       -5.023388     -4.765122   1.000000   1.000000
  101       -4.689251     -4.688422   1.000000   1.000000
  102       -4.685896     -4.685631   1.000000   1.000000
  103       -4.679541     -4.677509   1.000000   1.000000
  104       -4.676676     -4.675828   1.000000   1.000000
  105       -4.532533     -4.459491   1.000000   1.000000
  106       -4.478119     -4.418224   1.000000   1.000000
  107       -3.606796     -3.606575   1.000000   1.000000
  108       -3.605743     -3.605557   1.000000   1.000000
  109       -3.497462     -3.358621   1.000000   1.000000
  110       -2.594952     -1.768207   0.988186   0.000000
  111       -1.780872     -1.755097   0.000000   0.000000
  112       -1.466785     -1.466678   0.000000   0.000000
  113       -1.465052     -1.464836   0.000000   0.000000
  114       -1.272578     -1.164012   0.000000   0.000000
  115       -0.906789     -0.863987   0.000000   0.000000
  116       -0.751584     -0.750804   0.000000   0.000000
  117       -0.749126     -0.748978   0.000000   0.000000
  118       -0.626699     -0.625191   0.000000   0.000000
  119       -0.470440     -0.470045   0.000000   0.000000
  120       -0.468945     -0.468014   0.000000   0.000000
  121       -0.218221     -0.113487   0.000000   0.000000
  122       -0.109613     -0.109269   0.000000   0.000000
  123       -0.106385      0.174145   0.000000   0.000000
  124        0.232224      0.395244   0.000000   0.000000
  125        0.393143      0.512601   0.000000   0.000000
  126        0.829686      0.857604   0.000000   0.000000
  127        0.926849      0.927107   0.000000   0.000000
  128        0.928396      0.928518   0.000000   0.000000
  129        0.978892      1.028596   0.000000   0.000000
  130        1.066331      1.113649   0.000000   0.000000
  131        1.182813      1.227624   0.000000   0.000000
  132        1.322111      1.375210   0.000000   0.000000
  133        1.380197      1.411774   0.000000   0.000000
  134        1.417923      1.461868   0.000000   0.000000
  135        1.464449      1.465736   0.000000   0.000000
  136        1.468872      1.477667   0.000000   0.000000
  137        1.590995      1.629362   0.000000   0.000000
  138        1.645125      1.690855   0.000000   0.000000
  139        1.664885      1.701298   0.000000   0.000000
  140        1.721880      1.773322   0.000000   0.000000
 
  0.0000000E+00  0.3333333E+00  0.0000000E+00  0.2222222E+00
    1      -51.237702    -51.237603   1.000000   1.000000
    2      -21.991184    -21.991153   1.000000   1.000000
    3      -21.675277    -21.675244   1.000000   1.000000
    4      -21.366333    -21.366299   1.000000   1.000000
    5      -21.354068    -21.354035   1.000000   1.000000
    6      -20.740829    -20.740794   1.000000   1.000000
    7      -20.728850    -20.728819   1.000000   1.000000
    8      -20.423137    -20.423102   1.000000   1.000000
    9      -20.121101    -20.121067   1.000000   1.000000
   10      -20.108800    -20.108769   1.000000   1.000000
   11      -19.499901    -19.499868   1.000000   1.000000
   12      -19.199034    -19.199006   1.000000   1.000000
   13      -19.195741    -19.195706   1.000000   1.000000
   14      -18.895492    -18.895462   1.000000   1.000000
   15      -18.892115    -18.892077   1.000000   1.000000
   16      -18.305766    -18.305732   1.000000   1.000000
   17      -18.292956    -18.292925   1.000000   1.000000
   18      -17.721502    -17.721472   1.000000   1.000000
   19      -17.717708    -17.717670   1.000000   1.000000
   20      -17.189128    -17.189095   1.000000   1.000000
   21      -17.156830    -17.156797   1.000000   1.000000
   22      -17.143250    -17.143216   1.000000   1.000000
   23      -16.912319    -16.912287   1.000000   1.000000
   24      -16.908462    -16.908423   1.000000   1.000000
   25      -16.096315    -16.096281   1.000000   1.000000
   26      -16.095207    -16.095173   1.000000   1.000000
   27      -15.394616    -15.394588   1.000000   1.000000
   28      -15.143155    -15.143128   1.000000   1.000000
   29      -15.141745    -15.141717   1.000000   1.000000
   30      -14.616972    -14.616947   1.000000   1.000000
   31      -14.614124    -14.614096   1.000000   1.000000
   32      -14.594479    -14.594451   1.000000   1.000000
   33      -14.590232    -14.590193   1.000000   1.000000
   34      -14.198364    -14.198333   1.000000   1.000000
   35      -14.185287    -14.185258   1.000000   1.000000
   36      -13.162346    -13.046302   1.000000   1.000000
   37      -12.992908    -12.992879   1.000000   1.000000
   38      -12.991639    -12.991607   1.000000   1.000000
   39      -12.767050    -12.767019   1.000000   1.000000
   40      -12.754886    -12.754856   1.000000   1.000000
   41      -12.506056    -12.506038   1.000000   1.000000
   42      -12.503995    -12.503974   1.000000   1.000000
   43      -12.172713    -12.172684   1.000000   1.000000
   44      -12.054932    -12.054903   1.000000   1.000000
   45      -12.053708    -12.053679   1.000000   1.000000
   46      -11.260340    -11.260318   1.000000   1.000000
   47      -11.259257    -11.259237   1.000000   1.000000
   48      -10.833390    -10.833369   1.000000   1.000000
   49      -10.831455    -10.831434   1.000000   1.000000
   50      -10.461980    -10.461952   1.000000   1.000000
   51      -10.457292    -10.457264   1.000000   1.000000
   52      -10.402724    -10.402697   1.000000   1.000000
   53      -10.178059    -10.178040   1.000000   1.000000
   54      -10.174641    -10.174617   1.000000   1.000000
   55      -10.065456    -10.059710   1.000000   1.000000
   56      -10.024602     -9.704100   1.000000   1.000000
   57       -9.682176     -9.671928   1.000000   1.000000
   58       -9.548146     -9.548120   1.000000   1.000000
   59       -9.545566     -9.545540   1.000000   1.000000
   60       -9.508864     -9.508842   1.000000   1.000000
   61       -9.507921     -9.507900   1.000000   1.000000
   62       -9.316354     -9.316222   1.000000   1.000000
   63       -9.302455     -9.301865   1.000000   1.000000
   64       -9.198561     -9.198543   1.000000   1.000000
   65       -9.195492     -9.195469   1.000000   1.000000
   66       -8.931912     -8.931892   1.000000   1.000000
   67       -8.884687     -8.884667   1.000000   1.000000
   68       -8.882232     -8.882211   1.000000   1.000000
   69       -8.837396     -8.837374   1.000000   1.000000
   70       -8.828568     -8.828547   1.000000   1.000000
   71       -8.619541     -8.615910   1.000000   1.000000
   72       -8.571272     -8.571082   1.000000   1.000000
   73       -8.531235     -8.526763   1.000000   1.000000
   74       -8.319072     -8.319052   1.000000   1.000000
   75       -8.211492     -8.211293   1.000000   1.000000
   76       -7.961813     -7.961788   1.000000   1.000000
   77       -7.959861     -7.959836   1.000000   1.000000
   78       -7.857879     -7.857754   1.000000   1.000000
   79       -7.847369     -7.847244   1.000000   1.000000
   80       -7.745763     -7.745743   1.000000   1.000000
   81       -7.722675     -7.722654   1.000000   1.000000
   82       -7.712873     -7.712853   1.000000   1.000000
   83       -7.171717     -7.171508   1.000000   1.000000
   84       -7.114371     -7.114348   1.000000   1.000000
   85       -6.962960     -6.962939   1.000000   1.000000
   86       -6.955323     -6.955302   1.000000   1.000000
   87       -6.820100     -6.819794   1.000000   1.000000
   88       -6.816225     -6.816059   1.000000   1.000000
   89       -6.514719     -6.512913   1.000000   1.000000
   90       -6.509842     -6.509338   1.000000   1.000000
   91       -6.386543     -6.348313   1.000000   1.000000
   92       -6.348333     -6.109838   1.000000   1.000000
   93       -5.983560     -5.983538   1.000000   1.000000
   94       -5.828210     -5.827817   1.000000   1.000000
   95       -5.817814     -5.817123   1.000000   1.000000
   96       -5.781469     -5.781447   1.000000   1.000000
   97       -5.388643     -5.388482   1.000000   1.000000
   98       -5.386441     -5.386213   1.000000   1.000000
   99       -5.058486     -5.057917   1.000000   1.000000
  100       -5.023025     -4.766291   1.000000   1.000000
  101       -4.691653     -4.689180   1.000000   1.000000
  102       -4.686307     -4.686056   1.000000   1.000000
  103       -4.681450     -4.679750   1.000000   1.000000
  104       -4.671269     -4.670721   1.000000   1.000000
  105       -4.533463     -4.458685   1.000000   1.000000
  106       -4.477073     -4.418815   1.000000   1.000000
  107       -3.607828     -3.607106   1.000000   1.000000
  108       -3.606198     -3.606042   1.000000   1.000000
  109       -3.496281     -3.357910   1.000000   1.000000
  110       -2.596090     -1.770201   0.989142   0.000000
  111       -1.780256     -1.754496   0.000000   0.000000
  112       -1.467663     -1.466659   0.000000   0.000000
  113       -1.465617     -1.465398   0.000000   0.000000
  114       -1.270026     -1.162310   0.000000   0.000000
  115       -0.907188     -0.864756   0.000000   0.000000
  116       -0.750660     -0.750097   0.000000   0.000000
  117       -0.747278     -0.746348   0.000000   0.000000
  118       -0.629981     -0.628895   0.000000   0.000000
  119       -0.472606     -0.472139   0.000000   0.000000
  120       -0.468656     -0.468321   0.000000   0.000000
  121       -0.214043     -0.111999   0.000000   0.000000
  122       -0.110959     -0.108712   0.000000   0.000000
  123       -0.102900      0.184922   0.000000   0.000000
  124        0.256593      0.384744   0.000000   0.000000
  125        0.370396      0.526789   0.000000   0.000000
  126        0.794775      0.827770   0.000000   0.000000
  127        0.926326      0.926695   0.000000   0.000000
  128        0.928014      0.928176   0.000000   0.000000
  129        0.967284      1.016748   0.000000   0.000000
  130        1.073432      1.111101   0.000000   0.000000
  131        1.207268      1.257342   0.000000   0.000000
  132        1.315664      1.362823   0.000000   0.000000
  133        1.397902      1.450315   0.000000   0.000000
  134        1.463854      1.467277   0.000000   0.000000
  135        1.468368      1.470094   0.000000   0.000000
  136        1.504117      1.549331   0.000000   0.000000
  137        1.584048      1.628452   0.000000   0.000000
  138        1.613112      1.651617   0.000000   0.000000
  139        1.681644      1.710525   0.000000   0.000000
  140        1.748767      1.807941   0.000000   0.000000
 
  0.3333333E+00  0.3333333E+00  0.0000000E+00  0.2222222E+00
    1      -51.237704    -51.237605   1.000000   1.000000
    2      -21.790364    -21.790343   1.000000   1.000000
    3      -21.787477    -21.787458   1.000000   1.000000
    4      -21.762831    -21.762774   1.000000   1.000000
    5      -20.843633    -20.843608   1.000000   1.000000
    6      -20.842820    -20.842777   1.000000   1.000000
    7      -20.829846    -20.829814   1.000000   1.000000
    8      -19.922463    -19.922442   1.000000   1.000000
    9      -19.916912    -19.916895   1.000000   1.000000
   10      -19.916518    -19.916494   1.000000   1.000000
   11      -19.904226    -19.904200   1.000000   1.000000
   12      -19.903205    -19.903140   1.000000   1.000000
   13      -19.890459    -19.890414   1.000000   1.000000
   14      -18.116650    -18.116627   1.000000   1.000000
   15      -18.110480    -18.110462   1.000000   1.000000
   16      -18.109980    -18.109962   1.000000   1.000000
   17      -18.095086    -18.095035   1.000000   1.000000
   18      -18.094441    -18.094394   1.000000   1.000000
   19      -18.090616    -18.090575   1.000000   1.000000
   20      -17.240861    -17.240827   1.000000   1.000000
   21      -17.239642    -17.239604   1.000000   1.000000
   22      -17.235713    -17.235688   1.000000   1.000000
   23      -16.761665    -16.761626   1.000000   1.000000
   24      -16.750494    -16.750466   1.000000   1.000000
   25      -16.749667    -16.749620   1.000000   1.000000
   26      -15.736239    -15.736215   1.000000   1.000000
   27      -15.735616    -15.735590   1.000000   1.000000
   28      -15.728504    -15.728479   1.000000   1.000000
   29      -15.137388    -15.137355   1.000000   1.000000
   30      -15.136897    -15.136860   1.000000   1.000000
   31      -13.683596    -13.683561   1.000000   1.000000
   32      -13.676231    -13.676209   1.000000   1.000000
   33      -13.675687    -13.675667   1.000000   1.000000
   34      -13.665635    -13.665607   1.000000   1.000000
   35      -13.664518    -13.664487   1.000000   1.000000
   36      -13.663351    -13.663314   1.000000   1.000000
   37      -13.555540    -13.555520   1.000000   1.000000
   38      -13.535219    -13.535182   1.000000   1.000000
   39      -13.534118    -13.534076   1.000000   1.000000
   40      -13.162345    -13.126991   1.000000   1.000000
   41      -13.127004    -13.046294   1.000000   1.000000
   42      -11.972841    -11.972826   1.000000   1.000000
   43      -11.970384    -11.970371   1.000000   1.000000
   44      -11.944975    -11.944945   1.000000   1.000000
   45      -11.274617    -11.274595   1.000000   1.000000
   46      -11.274016    -11.273993   1.000000   1.000000
   47      -11.273093    -11.273058   1.000000   1.000000
   48      -11.265861    -11.265841   1.000000   1.000000
   49      -11.264451    -11.264422   1.000000   1.000000
   50      -11.263381    -11.263342   1.000000   1.000000
   51      -10.032789     -9.966598   1.000000   1.000000
   52       -9.966611     -9.965770   1.000000   1.000000
   53       -9.965779     -9.964876   1.000000   1.000000
   54       -9.964890     -9.949687   1.000000   1.000000
   55       -9.949711     -9.948940   1.000000   1.000000
   56       -9.948973     -9.927320   1.000000   1.000000
   57       -9.927353     -9.816655   1.000000   1.000000
   58       -9.816322     -9.812933   1.000000   1.000000
   59       -9.812681     -9.800102   1.000000   1.000000
   60       -9.791039     -9.686051   1.000000   1.000000
   61       -9.305822     -9.305803   1.000000   1.000000
   62       -9.305579     -9.305559   1.000000   1.000000
   63       -9.296620     -9.296599   1.000000   1.000000
   64       -9.065136     -9.065108   1.000000   1.000000
   65       -9.061105     -9.061083   1.000000   1.000000
   66       -9.060266     -9.060235   1.000000   1.000000
   67       -8.718193     -8.717345   1.000000   1.000000
   68       -8.696360     -8.696253   1.000000   1.000000
   69       -8.689030     -8.688805   1.000000   1.000000
   70       -8.554238     -8.546908   1.000000   1.000000
   71       -8.389349     -8.389332   1.000000   1.000000
   72       -8.384849     -8.384831   1.000000   1.000000
   73       -8.383507     -8.383480   1.000000   1.000000
   74       -8.375374     -8.375360   1.000000   1.000000
   75       -8.374975     -8.374952   1.000000   1.000000
   76       -8.372762     -8.372735   1.000000   1.000000
   77       -7.926195     -7.926176   1.000000   1.000000
   78       -7.924725     -7.924701   1.000000   1.000000
   79       -7.924243     -7.924224   1.000000   1.000000
   80       -7.633642     -7.633580   1.000000   1.000000
   81       -7.630373     -7.630326   1.000000   1.000000
   82       -7.629317     -7.629226   1.000000   1.000000
   83       -7.620494     -7.620256   1.000000   1.000000
   84       -7.617975     -7.617797   1.000000   1.000000
   85       -7.608620     -7.608500   1.000000   1.000000
   86       -6.713456     -6.713432   1.000000   1.000000
   87       -6.711501     -6.711474   1.000000   1.000000
   88       -6.703591     -6.703572   1.000000   1.000000
   89       -6.390682     -6.240731   1.000000   1.000000
   90       -6.240742     -6.225468   1.000000   1.000000
   91       -6.225493     -6.222430   1.000000   1.000000
   92       -6.222455     -6.111582   1.000000   1.000000
   93       -5.677642     -5.677507   1.000000   1.000000
   94       -5.672528     -5.672416   1.000000   1.000000
   95       -5.671252     -5.671181   1.000000   1.000000
   96       -5.662862     -5.662602   1.000000   1.000000
   97       -5.660441     -5.659995   1.000000   1.000000
   98       -5.658412     -5.657732   1.000000   1.000000
   99       -5.023783     -4.802554   1.000000   1.000000
  100       -4.801054     -4.794573   1.000000   1.000000
  101       -4.794215     -4.791477   1.000000   1.000000
  102       -4.791515     -4.763801   1.000000   1.000000
  103       -4.697181     -4.695590   1.000000   1.000000
  104       -4.695482     -4.694566   1.000000   1.000000
  105       -4.691310     -4.689432   1.000000   1.000000
  106       -4.532241     -4.457605   1.000000   1.000000
  107       -4.476445     -4.418187   1.000000   1.000000
  108       -3.497869     -3.358854   1.000000   1.000000
  109       -2.595274     -2.516260   0.988463   0.514908
  110       -2.516234     -2.515960   0.514608   0.511523
  111       -2.515905     -1.768285   0.510900   0.000000
  112       -1.780260     -1.754452   0.000000   0.000000
  113       -1.273531     -1.165726   0.000000   0.000000
  114       -0.903815     -0.864556   0.000000   0.000000
  115       -0.863930     -0.861340   0.000000   0.000000
  116       -0.860914     -0.858651   0.000000   0.000000
  117       -0.853239     -0.851902   0.000000   0.000000
  118       -0.329598     -0.329402   0.000000   0.000000
  119       -0.322541     -0.322105   0.000000   0.000000
  120       -0.321195     -0.320939   0.000000   0.000000
  121       -0.213395      0.180181   0.000000   0.000000
  122        0.239406      0.391875   0.000000   0.000000
  123        0.367522      0.471643   0.000000   0.000000
  124        0.493246      0.494187   0.000000   0.000000
  125        0.494122      0.496576   0.000000   0.000000
  126        0.498195      0.498555   0.000000   0.000000
  127        0.499675      0.500829   0.000000   0.000000
  128        0.500702      0.504570   0.000000   0.000000
  129        0.505686      0.513038   0.000000   0.000000
  130        0.911441      0.964078   0.000000   0.000000
  131        1.049571      1.090219   0.000000   0.000000
  132        1.085746      1.113529   0.000000   0.000000
  133        1.142622      1.186506   0.000000   0.000000
  134        1.280033      1.332913   0.000000   0.000000
  135        1.327663      1.356073   0.000000   0.000000
  136        1.346207      1.387479   0.000000   0.000000
  137        1.491104      1.537930   0.000000   0.000000
  138        1.552682      1.601614   0.000000   0.000000
  139        1.642222      1.680976   0.000000   0.000000
  140        1.751343      1.811914   0.000000   0.000000
 
 -0.3333333E+00  0.3333333E+00  0.0000000E+00  0.2222222E+00
    1      -51.237702    -51.237603   1.000000   1.000000
    2      -21.991184    -21.991152   1.000000   1.000000
    3      -21.675290    -21.675259   1.000000   1.000000
    4      -21.366707    -21.366689   1.000000   1.000000
    5      -21.353648    -21.353598   1.000000   1.000000
    6      -20.741258    -20.741239   1.000000   1.000000
    7      -20.728430    -20.728384   1.000000   1.000000
    8      -20.423174    -20.423140   1.000000   1.000000
    9      -20.121531    -20.121513   1.000000   1.000000
   10      -20.108393    -20.108347   1.000000   1.000000
   11      -19.499954    -19.499920   1.000000   1.000000
   12      -19.199013    -19.198972   1.000000   1.000000
   13      -19.195638    -19.195614   1.000000   1.000000
   14      -18.895484    -18.895441   1.000000   1.000000
   15      -18.892024    -18.891999   1.000000   1.000000
   16      -18.306267    -18.306248   1.000000   1.000000
   17      -18.292578    -18.292532   1.000000   1.000000
   18      -17.721517    -17.721474   1.000000   1.000000
   19      -17.717610    -17.717585   1.000000   1.000000
   20      -17.189216    -17.189183   1.000000   1.000000
   21      -17.157359    -17.157340   1.000000   1.000000
   22      -17.143039    -17.142990   1.000000   1.000000
   23      -16.912343    -16.912297   1.000000   1.000000
   24      -16.908328    -16.908303   1.000000   1.000000
   25      -16.096267    -16.096226   1.000000   1.000000
   26      -16.094929    -16.094903   1.000000   1.000000
   27      -15.394632    -15.394606   1.000000   1.000000
   28      -15.143129    -15.143103   1.000000   1.000000
   29      -15.141653    -15.141622   1.000000   1.000000
   30      -14.616938    -14.616911   1.000000   1.000000
   31      -14.614055    -14.614024   1.000000   1.000000
   32      -14.594685    -14.594647   1.000000   1.000000
   33      -14.590332    -14.590304   1.000000   1.000000
   34      -14.198746    -14.198730   1.000000   1.000000
   35      -14.184952    -14.184909   1.000000   1.000000
   36      -13.162347    -13.046302   1.000000   1.000000
   37      -12.992866    -12.992838   1.000000   1.000000
   38      -12.991650    -12.991618   1.000000   1.000000
   39      -12.767382    -12.767365   1.000000   1.000000
   40      -12.754631    -12.754589   1.000000   1.000000
   41      -12.506028    -12.506005   1.000000   1.000000
   42      -12.504027    -12.504012   1.000000   1.000000
   43      -12.172886    -12.172859   1.000000   1.000000
   44      -12.054937    -12.054909   1.000000   1.000000
   45      -12.053749    -12.053717   1.000000   1.000000
   46      -11.260450    -11.260425   1.000000   1.000000
   47      -11.258774    -11.258754   1.000000   1.000000
   48      -10.833595    -10.833570   1.000000   1.000000
   49      -10.831062    -10.831044   1.000000   1.000000
   50      -10.461925    -10.461902   1.000000   1.000000
   51      -10.457076    -10.457045   1.000000   1.000000
   52      -10.403025    -10.402998   1.000000   1.000000
   53      -10.178243    -10.178218   1.000000   1.000000
   54      -10.174754    -10.174736   1.000000   1.000000
   55      -10.064973    -10.059517   1.000000   1.000000
   56      -10.024896     -9.702731   1.000000   1.000000
   57       -9.682332     -9.673566   1.000000   1.000000
   58       -9.548184     -9.548158   1.000000   1.000000
   59       -9.545370     -9.545342   1.000000   1.000000
   60       -9.508767     -9.508741   1.000000   1.000000
   61       -9.507909     -9.507892   1.000000   1.000000
   62       -9.316116     -9.316099   1.000000   1.000000
   63       -9.302572     -9.301752   1.000000   1.000000
   64       -9.198809     -9.198786   1.000000   1.000000
   65       -9.195632     -9.195616   1.000000   1.000000
   66       -8.931577     -8.931556   1.000000   1.000000
   67       -8.884851     -8.884827   1.000000   1.000000
   68       -8.882179     -8.882162   1.000000   1.000000
   69       -8.837934     -8.837915   1.000000   1.000000
   70       -8.828397     -8.828372   1.000000   1.000000
   71       -8.619302     -8.615693   1.000000   1.000000
   72       -8.572014     -8.571673   1.000000   1.000000
   73       -8.531111     -8.526736   1.000000   1.000000
   74       -8.318760     -8.318738   1.000000   1.000000
   75       -8.211072     -8.210924   1.000000   1.000000
   76       -7.961970     -7.961942   1.000000   1.000000
   77       -7.959633     -7.959610   1.000000   1.000000
   78       -7.858021     -7.857917   1.000000   1.000000
   79       -7.847259     -7.847141   1.000000   1.000000
   80       -7.745545     -7.745524   1.000000   1.000000
   81       -7.723113     -7.723097   1.000000   1.000000
   82       -7.712584     -7.712558   1.000000   1.000000
   83       -7.172136     -7.172064   1.000000   1.000000
   84       -7.113539     -7.113515   1.000000   1.000000
   85       -6.962954     -6.962942   1.000000   1.000000
   86       -6.955180     -6.955153   1.000000   1.000000
   87       -6.820121     -6.819664   1.000000   1.000000
   88       -6.817742     -6.817177   1.000000   1.000000
   89       -6.516689     -6.512884   1.000000   1.000000
   90       -6.511514     -6.510531   1.000000   1.000000
   91       -6.382008     -6.348172   1.000000   1.000000
   92       -6.348191     -6.107806   1.000000   1.000000
   93       -5.983754     -5.983733   1.000000   1.000000
   94       -5.827986     -5.827571   1.000000   1.000000
   95       -5.818762     -5.818520   1.000000   1.000000
   96       -5.781142     -5.781118   1.000000   1.000000
   97       -5.388857     -5.388663   1.000000   1.000000
   98       -5.385860     -5.385650   1.000000   1.000000
   99       -5.059308     -5.058352   1.000000   1.000000
  100       -5.022937     -4.766878   1.000000   1.000000
  101       -4.691632     -4.689734   1.000000   1.000000
  102       -4.685389     -4.685103   1.000000   1.000000
  103       -4.680690     -4.678726   1.000000   1.000000
  104       -4.673342     -4.671978   1.000000   1.000000
  105       -4.532563     -4.458153   1.000000   1.000000
  106       -4.477368     -4.418982   1.000000   1.000000
  107       -3.608637     -3.607440   1.000000   1.000000
  108       -3.606383     -3.606201   1.000000   1.000000
  109       -3.493677     -3.355545   1.000000   1.000000
  110       -2.594587     -1.767485   0.987864   0.000000
  111       -1.780411     -1.754598   0.000000   0.000000
  112       -1.468218     -1.467286   0.000000   0.000000
  113       -1.465386     -1.465170   0.000000   0.000000
  114       -1.268374     -1.160555   0.000000   0.000000
  115       -0.906552     -0.863563   0.000000   0.000000
  116       -0.751846     -0.750920   0.000000   0.000000
  117       -0.746768     -0.746083   0.000000   0.000000
  118       -0.628407     -0.628081   0.000000   0.000000
  119       -0.472267     -0.471625   0.000000   0.000000
  120       -0.468686     -0.468505   0.000000   0.000000
  121       -0.221224     -0.113817   0.000000   0.000000
  122       -0.108318     -0.107751   0.000000   0.000000
  123       -0.103181      0.189875   0.000000   0.000000
  124        0.261739      0.419218   0.000000   0.000000
  125        0.368341      0.468688   0.000000   0.000000
  126        0.758539      0.804235   0.000000   0.000000
  127        0.926017      0.926213   0.000000   0.000000
  128        0.928613      0.928757   0.000000   0.000000
  129        0.950359      0.998372   0.000000   0.000000
  130        1.066239      1.097948   0.000000   0.000000
  131        1.153942      1.213227   0.000000   0.000000
  132        1.342885      1.386207   0.000000   0.000000
  133        1.413317      1.441141   0.000000   0.000000
  134        1.464358      1.464769   0.000000   0.000000
  135        1.467518      1.468017   0.000000   0.000000
  136        1.524340      1.570727   0.000000   0.000000
  137        1.578472      1.621265   0.000000   0.000000
  138        1.647741      1.696332   0.000000   0.000000
  139        1.700477      1.736169   0.000000   0.000000
  140        1.736964      1.790598   0.000000   0.000000
