  49  49   0   0
  0.8021693E+02  0.1230000E-08  0.1230000E-08  0.3000000E-08  0.5000000E-15
  1.000000000000000E-004
  CAR 
 Li defective graphene MACE training lab 
      4.77008981    -53.83798018  301     -3.06297229      1.00000000
    -53.838  0.0000E+00  0.0000E+00  0.0000E+00  0.0000E+00
    -53.643  0.0000E+00  0.0000E+00  0.0000E+00  0.0000E+00
    -53.447  0.0000E+00  0.0000E+00  0.0000E+00  0.0000E+00
    -53.252  0.0000E+00  0.0000E+00  0.0000E+00  0.0000E+00
    -53.057  0.0000E+00  0.0000E+00  0.0000E+00  0.0000E+00
    -52.861  0.0000E+00  0.0000E+00  0.0000E+00  0.0000E+00
    -52.666  0.0000E+00  0.0000E+00  0.0000E+00  0.0000E+00
    -52.470  0.0000E+00  0.0000E+00  0.0000E+00  0.0000E+00
    -52.275  0.0000E+00  0.0000E+00  0.0000E+00  0.0000E+00
    -52.080  0.0000E+00  0.0000E+00  0.0000E+00  0.0000E+00
    -51.884  0.0000E+00  0.0000E+00  0.0000E+00  0.0000E+00
    -51.689  0.0000E+00  0.0000E+00  0.0000E+00  0.0000E+00
    -51.494  0.0000E+00  0.0000E+00  0.0000E+00  0.0000E+00
    -51.298  0.1120E-02  0.1120E-02  0.2188E-03  0.2188E-03
    -51.103  0.5004E+01  0.5004E+01  0.9777E+00  0.9777E+00
    -50.908  0.1139E+00  0.1139E+00  0.1000E+01  0.1000E+01
    -50.712  0.0000E+00  0.0000E+00  0.1000E+01  0.1000E+01
    -50.517  0.0000E+00  0.0000E+00  0.1000E+01  0.1000E+01
    -50.321  0.0000E+00  0.0000E+00  0.1000E+01  0.1000E+01
    -50.126  0.0000E+00  0.0000E+00  0.1000E+01  0.1000E+01
    -49.931  0.0000E+00  0.0000E+00  0.1000E+01  0.1000E+01
    -49.735  0.0000E+00  0.0000E+00  0.1000E+01  0.1000E+01
    -49.540  0.0000E+00  0.0000E+00  0.1000E+01  0.1000E+01
    -49.345  0.0000E+00  0.0000E+00  0.1000E+01  0.1000E+01
    -49.149  0.0000E+00  0.0000E+00  0.1000E+01  0.1000E+01
    -48.954  0.0000E+00  0.0000E+00  0.1000E+01  0.1000E+01
    -48.759  0.0000E+00  0.0000E+00  0.1000E+01  0.1000E+01
    -48.563  0.0000E+00  0.0000E+00  0.1000E+01  0.1000E+01
    -48.368  0.0000E+00  0.0000E+00  0.1000E+01  0.1000E+01
    -48.173  0.0000E+00  0.0000E+00  0.1000E+01  0.1000E+01
    -47.977  0.0000E+00  0.0000E+00  0.1000E+01  0.1000E+01
    -47.782  0.0000E+00  0.0000E+00  0.1000E+01  0.1000E+01
    -47.586  0.0000E+00  0.0000E+00  0.1000E+01  0.1000E+01
    -47.391  0.0000E+00  0.0000E+00  0.1000E+01  0.1000E+01
    -47.196  0.0000E+00  0.0000E+00  0.1000E+01  0.1000E+01
    -47.000  0.0000E+00  0.0000E+00  0.1000E+01  0.1000E+01
    -46.805  0.0000E+00  0.0000E+00  0.1000E+01  0.1000E+01
    -46.610  0.0000E+00  0.0000E+00  0.1000E+01  0.1000E+01
    -46.414  0.0000E+00  0.0000E+00  0.1000E+01  0.1000E+01
    -46.219  0.0000E+00  0.0000E+00  0.1000E+01  0.1000E+01
    -46.024  0.0000E+00  0.0000E+00  0.1000E+01  0.1000E+01
    -45.828  0.0000E+00  0.0000E+00  0.1000E+01  0.1000E+01
    -45.633  0.0000E+00  0.0000E+00  0.1000E+01  0.1000E+01
    -45.437  0.0000E+00  0.0000E+00  0.1000E+01  0.1000E+01
    -45.242  0.0000E+00  0.0000E+00  0.1000E+01  0.1000E+01
    -45.047  0.0000E+00  0.0000E+00  0.1000E+01  0.1000E+01
    -44.851  0.0000E+00  0.0000E+00  0.1000E+01  0.1000E+01
    -44.656  0.0000E+00  0.0000E+00  0.1000E+01  0.1000E+01
    -44.461  0.0000E+00  0.0000E+00  0.1000E+01  0.1000E+01
    -44.265  0.0000E+00  0.0000E+00  0.1000E+01  0.1000E+01
    -44.070  0.0000E+00  0.0000E+00  0.1000E+01  0.1000E+01
    -43.875  0.0000E+00  0.0000E+00  0.1000E+01  0.1000E+01
    -43.679  0.0000E+00  0.0000E+00  0.1000E+01  0.1000E+01
    -43.484  0.0000E+00  0.0000E+00  0.1000E+01  0.1000E+01
    -43.289  0.0000E+00  0.0000E+00  0.1000E+01  0.1000E+01
    -43.093  0.0000E+00  0.0000E+00  0.1000E+01  0.1000E+01
    -42.898  0.0000E+00  0.0000E+00  0.1000E+01  0.1000E+01
    -42.702  0.0000E+00  0.0000E+00  0.1000E+01  0.1000E+01
    -42.507  0.0000E+00  0.0000E+00  0.1000E+01  0.1000E+01
    -42.312  0.0000E+00  0.0000E+00  0.1000E+01  0.1000E+01
    -42.116  0.0000E+00  0.0000E+00  0.1000E+01  0.1000E+01
    -41.921  0.0000E+00  0.0000E+00  0.1000E+01  0.1000E+01
    -41.726  0.0000E+00  0.0000E+00  0.1000E+01  0.1000E+01
    -41.530  0.0000E+00  0.0000E+00  0.1000E+01  0.1000E+01
    -41.335  0.0000E+00  0.0000E+00  0.1000E+01  0.1000E+01
    -41.140  0.0000E+00  0.0000E+00  0.1000E+01  0.1000E+01
    -40.944  0.0000E+00  0.0000E+00  0.1000E+01  0.1000E+01
    -40.749  0.0000E+00  0.0000E+00  0.1000E+01  0.1000E+01
    -40.553  0.0000E+00  0.0000E+00  0.1000E+01  0.1000E+01
    -40.358  0.0000E+00  0.0000E+00  0.1000E+01  0.1000E+01
    -40.163  0.0000E+00  0.0000E+00  0.1000E+01  0.1000E+01
    -39.967  0.0000E+00  0.0000E+00  0.1000E+01  0.1000E+01
    -39.772  0.0000E+00  0.0000E+00  0.1000E+01  0.1000E+01
    -39.577  0.0000E+00  0.0000E+00  0.1000E+01  0.1000E+01
    -39.381  0.0000E+00  0.0000E+00  0.1000E+01  0.1000E+01
    -39.186  0.0000E+00  0.0000E+00  0.1000E+01  0.1000E+01
    -38.991  0.0000E+00  0.0000E+00  0.1000E+01  0.1000E+01
    -38.795  0.0000E+00  0.0000E+00  0.1000E+01  0.1000E+01
    -38.600  0.0000E+00  0.0000E+00  0.1000E+01  0.1000E+01
    -38.405  0.0000E+00  0.0000E+00  0.1000E+01  0.1000E+01
    -38.209  0.0000E+00  0.0000E+00  0.1000E+01  0.1000E+01
    -38.014  0.0000E+00  0.0000E+00  0.1000E+01  0.1000E+01
    -37.818  0.0000E+00  0.0000E+00  0.1000E+01  0.1000E+01
    -37.623  0.0000E+00  0.0000E+00  0.1000E+01  0.1000E+01
    -37.428  0.0000E+00  0.0000E+00  0.1000E+01  0.1000E+01
    -37.232  0.0000E+00  0.0000E+00  0.1000E+01  0.1000E+01
    -37.037  0.0000E+00  0.0000E+00  0.1000E+01  0.1000E+01
    -36.842  0.0000E+00  0.0000E+00  0.1000E+01  0.1000E+01
    -36.646  0.0000E+00  0.0000E+00  0.1000E+01  0.1000E+01
    -36.451  0.0000E+00  0.0000E+00  0.1000E+01  0.1000E+01
    -36.256  0.0000E+00  0.0000E+00  0.1000E+01  0.1000E+01
    -36.060  0.0000E+00  0.0000E+00  0.1000E+01  0.1000E+01
    -35.865  0.0000E+00  0.0000E+00  0.1000E+01  0.1000E+01
    -35.669  0.0000E+00  0.0000E+00  0.1000E+01  0.1000E+01
    -35.474  0.0000E+00  0.0000E+00  0.1000E+01  0.1000E+01
    -35.279  0.0000E+00  0.0000E+00  0.1000E+01  0.1000E+01
    -35.083  0.0000E+00  0.0000E+00  0.1000E+01  0.1000E+01
    -34.888  0.0000E+00  0.0000E+00  0.1000E+01  0.1000E+01
    -34.693  0.0000E+00  0.0000E+00  0.1000E+01  0.1000E+01
    -34.497  0.0000E+00  0.0000E+00  0.1000E+01  0.1000E+01
    -34.302  0.0000E+00  0.0000E+00  0.1000E+01  0.1000E+01
    -34.107  0.0000E+00  0.0000E+00  0.1000E+01  0.1000E+01
    -33.911  0.0000E+00  0.0000E+00  0.1000E+01  0.1000E+01
    -33.716  0.0000E+00  0.0000E+00  0.1000E+01  0.1000E+01
    -33.521  0.0000E+00  0.0000E+00  0.1000E+01  0.1000E+01
    -33.325  0.0000E+00  0.0000E+00  0.1000E+01  0.1000E+01
    -33.130  0.0000E+00  0.0000E+00  0.1000E+01  0.1000E+01
    -32.934  0.0000E+00  0.0000E+00  0.1000E+01  0.1000E+01
    -32.739  0.0000E+00  0.0000E+00  0.1000E+01  0.1000E+01
    -32.544  0.0000E+00  0.0000E+00  0.1000E+01  0.1000E+01
    -32.348  0.0000E+00  0.0000E+00  0.1000E+01  0.1000E+01
    -32.153  0.0000E+00  0.0000E+00  0.1000E+01  0.1000E+01
    -31.958  0.0000E+00  0.0000E+00  0.1000E+01  0.1000E+01
    -31.762  0.0000E+00  0.0000E+00  0.1000E+01  0.1000E+01
    -31.567  0.0000E+00  0.0000E+00  0.1000E+01  0.1000E+01
    -31.372  0.0000E+00  0.0000E+00  0.1000E+01  0.1000E+01
    -31.176  0.0000E+00  0.0000E+00  0.1000E+01  0.1000E+01
    -30.981  0.0000E+00  0.0000E+00  0.1000E+01  0.1000E+01
    -30.785  0.0000E+00  0.0000E+00  0.1000E+01  0.1000E+01
    -30.590  0.0000E+00  0.0000E+00  0.1000E+01  0.1000E+01
    -30.395  0.0000E+00  0.0000E+00  0.1000E+01  0.1000E+01
    -30.199  0.0000E+00  0.0000E+00  0.1000E+01  0.1000E+01
    -30.004  0.0000E+00  0.0000E+00  0.1000E+01  0.1000E+01
    -29.809  0.0000E+00  0.0000E+00  0.1000E+01  0.1000E+01
    -29.613  0.0000E+00  0.0000E+00  0.1000E+01  0.1000E+01
    -29.418  0.0000E+00  0.0000E+00  0.1000E+01  0.1000E+01
    -29.223  0.0000E+00  0.0000E+00  0.1000E+01  0.1000E+01
    -29.027  0.0000E+00  0.0000E+00  0.1000E+01  0.1000E+01
    -28.832  0.0000E+00  0.0000E+00  0.1000E+01  0.1000E+01
    -28.637  0.0000E+00  0.0000E+00  0.1000E+01  0.1000E+01
    -28.441  0.0000E+00  0.0000E+00  0.1000E+01  0.1000E+01
    -28.246  0.0000E+00  0.0000E+00  0.1000E+01  0.1000E+01
    -28.050  0.0000E+00  0.0000E+00  0.1000E+01  0.1000E+01
    -27.855  0.0000E+00  0.0000E+00  0.1000E+01  0.1000E+01
    -27.660  0.0000E+00  0.0000E+00  0.1000E+01  0.1000E+01
    -27.464  0.0000E+00  0.0000E+00  0.1000E+01  0.1000E+01
    -27.269  0.0000E+00  0.0000E+00  0.1000E+01  0.1000E+01
    -27.074  0.0000E+00  0.0000E+00  0.1000E+01  0.1000E+01
    -26.878  0.0000E+00  0.0000E+00  0.1000E+01  0.1000E+01
    -26.683  0.0000E+00  0.0000E+00  0.1000E+01  0.1000E+01
    -26.488  0.0000E+00  0.0000E+00  0.1000E+01  0.1000E+01
    -26.292  0.0000E+00  0.0000E+00  0.1000E+01  0.1000E+01
    -26.097  0.0000E+00  0.0000E+00  0.1000E+01  0.1000E+01
    -25.901  0.0000E+00  0.0000E+00  0.1000E+01  0.1000E+01
    -25.706  0.0000E+00  0.0000E+00  0.1000E+01  0.1000E+01
    -25.511  0.0000E+00  0.0000E+00  0.1000E+01  0.1000E+01
    -25.315  0.0000E+00  0.0000E+00  0.1000E+01  0.1000E+01
    -25.120  0.0000E+00  0.0000E+00  0.1000E+01  0.1000E+01
    -24.925  0.0000E+00  0.0000E+00  0.1000E+01  0.1000E+01
    -24.729  0.0000E+00  0.0000E+00  0.1000E+01  0.1000E+01
    -24.534  0.0000E+00  0.0000E+00  0.1000E+01  0.1000E+01
    -24.339  0.0000E+00  0.0000E+00  0.1000E+01  0.1000E+01
    -24.143  0.0000E+00  0.0000E+00  0.1000E+01  0.1000E+01
    -23.948  0.0000E+00  0.0000E+00  0.1000E+01  0.1000E+01
    -23.753  0.0000E+00  0.0000E+00  0.1000E+01  0.1000E+01
    -23.557  0.0000E+00  0.0000E+00  0.1000E+01  0.1000E+01
    -23.362  0.0000E+00  0.0000E+00  0.1000E+01  0.1000E+01
    -23.166  0.0000E+00  0.0000E+00  0.1000E+01  0.1000E+01
    -22.971  0.0000E+00  0.0000E+00  0.1000E+01  0.1000E+01
    -22.776  0.0000E+00  0.0000E+00  0.1000E+01  0.1000E+01
    -22.580  0.2574E-11  0.2574E-11  0.1000E+01  0.1000E+01
    -22.385  0.5880E-01  0.5881E-01  0.1011E+01  0.1011E+01
    -22.190  0.4467E+01  0.4467E+01  0.1884E+01  0.1884E+01
    -21.994  0.1747E+01  0.1747E+01  0.2225E+01  0.2225E+01
    -21.799  0.2551E+01  0.2551E+01  0.2724E+01  0.2724E+01
    -21.604  0.4097E+01  0.4097E+01  0.3524E+01  0.3524E+01
    -21.408  0.3986E+01  0.3986E+01  0.4303E+01  0.4303E+01
    -21.213  0.3005E+01  0.3005E+01  0.4890E+01  0.4890E+01
    -21.017  0.4371E+01  0.4371E+01  0.5744E+01  0.5744E+01
    -20.822  0.3347E+01  0.3347E+01  0.6397E+01  0.6397E+01
    -20.627  0.3671E+01  0.3671E+01  0.7115E+01  0.7115E+01
    -20.431  0.3433E+01  0.3433E+01  0.7785E+01  0.7785E+01
    -20.236  0.3560E+01  0.3560E+01  0.8481E+01  0.8481E+01
    -20.041  0.6145E+01  0.6145E+01  0.9681E+01  0.9681E+01
    -19.845  0.2670E+01  0.2670E+01  0.1020E+02  0.1020E+02
    -19.650  0.1880E+01  0.1880E+01  0.1057E+02  0.1057E+02
    -19.455  0.4454E+01  0.4454E+01  0.1144E+02  0.1144E+02
    -19.259  0.6047E+01  0.6047E+01  0.1262E+02  0.1262E+02
    -19.064  0.3016E+01  0.3016E+01  0.1321E+02  0.1321E+02
    -18.868  0.4044E+01  0.4044E+01  0.1400E+02  0.1400E+02
    -18.673  0.2763E+01  0.2763E+01  0.1454E+02  0.1454E+02
    -18.478  0.4565E+01  0.4565E+01  0.1543E+02  0.1543E+02
    -18.282  0.6638E+01  0.6638E+01  0.1673E+02  0.1673E+02
    -18.087  0.2525E+01  0.2525E+01  0.1722E+02  0.1722E+02
    -17.892  0.1869E+01  0.1869E+01  0.1759E+02  0.1759E+02
    -17.696  0.5299E+01  0.5299E+01  0.1862E+02  0.1862E+02
    -17.501  0.3935E+01  0.3935E+01  0.1939E+02  0.1939E+02
    -17.306  0.5405E+01  0.5405E+01  0.2045E+02  0.2045E+02
    -17.110  0.5322E+01  0.5322E+01  0.2149E+02  0.2149E+02
    -16.915  0.5014E+01  0.5014E+01  0.2247E+02  0.2247E+02
    -16.720  0.1114E+01  0.1114E+01  0.2268E+02  0.2268E+02
    -16.524  0.2857E+01  0.2857E+01  0.2324E+02  0.2324E+02
    -16.329  0.4313E+01  0.4313E+01  0.2409E+02  0.2409E+02
    -16.133  0.2087E+01  0.2087E+01  0.2449E+02  0.2449E+02
    -15.938  0.2935E+01  0.2935E+01  0.2507E+02  0.2507E+02
    -15.743  0.5455E+01  0.5455E+01  0.2613E+02  0.2613E+02
    -15.547  0.1418E+01  0.1418E+01  0.2641E+02  0.2641E+02
    -15.352  0.4333E+01  0.4333E+01  0.2726E+02  0.2726E+02
    -15.157  0.6432E+01  0.6432E+01  0.2851E+02  0.2851E+02
    -14.961  0.3354E+01  0.3354E+01  0.2917E+02  0.2917E+02
    -14.766  0.5619E+01  0.5619E+01  0.3026E+02  0.3026E+02
    -14.571  0.2988E+01  0.2988E+01  0.3085E+02  0.3085E+02
    -14.375  0.3856E+01  0.3856E+01  0.3160E+02  0.3160E+02
    -14.180  0.3916E+01  0.3916E+01  0.3237E+02  0.3237E+02
    -13.984  0.5529E+01  0.5529E+01  0.3345E+02  0.3345E+02
    -13.789  0.2292E+01  0.2291E+01  0.3389E+02  0.3389E+02
    -13.594  0.5186E+01  0.5186E+01  0.3491E+02  0.3491E+02
    -13.398  0.3883E+01  0.3883E+01  0.3567E+02  0.3567E+02
    -13.203  0.7435E-03  0.7435E-03  0.3567E+02  0.3567E+02
    -13.008  0.4469E+01  0.4469E+01  0.3654E+02  0.3654E+02
    -12.812  0.6026E+01  0.6026E+01  0.3772E+02  0.3772E+02
    -12.617  0.7211E+01  0.7211E+01  0.3913E+02  0.3913E+02
    -12.422  0.2038E+01  0.2038E+01  0.3952E+02  0.3952E+02
    -12.226  0.4443E+01  0.4443E+01  0.4039E+02  0.4039E+02
    -12.031  0.3334E+01  0.3334E+01  0.4104E+02  0.4104E+02
    -11.836  0.5140E+01  0.5140E+01  0.4205E+02  0.4205E+02
    -11.640  0.4421E+01  0.4421E+01  0.4291E+02  0.4291E+02
    -11.445  0.5594E+01  0.5594E+01  0.4400E+02  0.4400E+02
    -11.249  0.5046E+01  0.5046E+01  0.4499E+02  0.4499E+02
    -11.054  0.7125E+01  0.7125E+01  0.4638E+02  0.4638E+02
    -10.859  0.2459E+01  0.2459E+01  0.4686E+02  0.4686E+02
    -10.663  0.5310E+01  0.5310E+01  0.4790E+02  0.4790E+02
    -10.468  0.6494E+01  0.6494E+01  0.4917E+02  0.4917E+02
    -10.273  0.1050E+02  0.1050E+02  0.5122E+02  0.5122E+02
    -10.077  0.8355E+01  0.8355E+01  0.5285E+02  0.5285E+02
     -9.882  0.1045E+02  0.1045E+02  0.5489E+02  0.5489E+02
     -9.687  0.6882E+01  0.6882E+01  0.5624E+02  0.5624E+02
     -9.491  0.9492E+01  0.9492E+01  0.5809E+02  0.5809E+02
     -9.296  0.8392E+01  0.8392E+01  0.5973E+02  0.5973E+02
     -9.100  0.1118E+02  0.1118E+02  0.6192E+02  0.6192E+02
     -8.905  0.1308E+02  0.1308E+02  0.6447E+02  0.6447E+02
     -8.710  0.1177E+02  0.1177E+02  0.6677E+02  0.6677E+02
     -8.514  0.9438E+01  0.9438E+01  0.6861E+02  0.6861E+02
     -8.319  0.7733E+01  0.7733E+01  0.7012E+02  0.7012E+02
     -8.124  0.8224E+01  0.8224E+01  0.7173E+02  0.7173E+02
     -7.928  0.1377E+02  0.1377E+02  0.7442E+02  0.7442E+02
     -7.733  0.9092E+01  0.9092E+01  0.7620E+02  0.7620E+02
     -7.538  0.3469E+01  0.3469E+01  0.7687E+02  0.7687E+02
     -7.342  0.7767E+01  0.7767E+01  0.7839E+02  0.7839E+02
     -7.147  0.1100E+02  0.1100E+02  0.8054E+02  0.8054E+02
     -6.952  0.7377E+01  0.7377E+01  0.8198E+02  0.8198E+02
     -6.756  0.8658E+01  0.8658E+01  0.8367E+02  0.8367E+02
     -6.561  0.5369E+01  0.5369E+01  0.8472E+02  0.8472E+02
     -6.365  0.6524E+01  0.6524E+01  0.8599E+02  0.8599E+02
     -6.170  0.5552E+01  0.5552E+01  0.8708E+02  0.8708E+02
     -5.975  0.8765E+01  0.8765E+01  0.8879E+02  0.8879E+02
     -5.779  0.2253E+01  0.2253E+01  0.8923E+02  0.8923E+02
     -5.584  0.5021E+01  0.5021E+01  0.9021E+02  0.9021E+02
     -5.389  0.4786E+01  0.4786E+01  0.9115E+02  0.9115E+02
     -5.193  0.3330E+01  0.3330E+01  0.9180E+02  0.9180E+02
     -4.998  0.6063E+01  0.6063E+01  0.9298E+02  0.9298E+02
     -4.803  0.5782E+01  0.5782E+01  0.9411E+02  0.9411E+02
     -4.607  0.3955E+01  0.3955E+01  0.9488E+02  0.9488E+02
     -4.412  0.7061E+00  0.7061E+00  0.9502E+02  0.9502E+02
     -4.216  0.2231E+01  0.2231E+01  0.9546E+02  0.9546E+02
     -4.021  0.2839E+01  0.2839E+01  0.9601E+02  0.9601E+02
     -3.826  0.1641E+01  0.1641E+01  0.9633E+02  0.9633E+02
     -3.630  0.3168E+01  0.3168E+01  0.9695E+02  0.9695E+02
     -3.435  0.2417E+00  0.2417E+00  0.9700E+02  0.9700E+02
     -3.240  0.1818E-01  0.1818E-01  0.9700E+02  0.9700E+02
     -3.044  0.2720E+01  0.2720E+01  0.9753E+02  0.9753E+02
     -2.849  0.8807E+00  0.8807E+00  0.9771E+02  0.9771E+02
     -2.654  0.4799E+00  0.4799E+00  0.9780E+02  0.9780E+02
     -2.458  0.1951E+01  0.1951E+01  0.9818E+02  0.9818E+02
     -2.263  0.2067E+00  0.2067E+00  0.9822E+02  0.9822E+02
     -2.068  0.1194E-08  0.1194E-08  0.9822E+02  0.9822E+02
     -1.872  0.4598E+00  0.4598E+00  0.9831E+02  0.9831E+02
     -1.677  0.6192E+01  0.6192E+01  0.9952E+02  0.9952E+02
     -1.481  0.1847E+01  0.1847E+01  0.9988E+02  0.9988E+02
     -1.286  0.1470E+01  0.1470E+01  0.1002E+03  0.1002E+03
     -1.091  0.7892E+01  0.7892E+01  0.1017E+03  0.1017E+03
     -0.895  0.8498E+01  0.8499E+01  0.1034E+03  0.1034E+03
     -0.700  0.6264E+01  0.6264E+01  0.1046E+03  0.1046E+03
     -0.505  0.3564E+01  0.3564E+01  0.1053E+03  0.1053E+03
     -0.309  0.6110E+01  0.6110E+01  0.1065E+03  0.1065E+03
     -0.114  0.2567E+01  0.2567E+01  0.1070E+03  0.1070E+03
      0.081  0.5200E+01  0.5200E+01  0.1080E+03  0.1080E+03
      0.277  0.5998E+01  0.5997E+01  0.1092E+03  0.1092E+03
      0.472  0.7648E+01  0.7639E+01  0.1107E+03  0.1107E+03
      0.668  0.4957E+01  0.4962E+01  0.1116E+03  0.1116E+03
      0.863  0.1023E+02  0.1017E+02  0.1136E+03  0.1136E+03
      1.058  0.1063E+02  0.1055E+02  0.1157E+03  0.1157E+03
      1.254  0.1311E+02  0.1280E+02  0.1183E+03  0.1182E+03
      1.449  0.1352E+02  0.1351E+02  0.1209E+03  0.1208E+03
      1.644  0.1279E+02  0.1287E+02  0.1234E+03  0.1233E+03
      1.840  0.1641E+02  0.1532E+02  0.1266E+03  0.1263E+03
      2.035  0.5775E+01  0.7428E+01  0.1277E+03  0.1278E+03
      2.230  0.1300E+01  0.1111E+01  0.1280E+03  0.1280E+03
      2.426  0.5072E-04  0.1245E-03  0.1280E+03  0.1280E+03
      2.621  0.0000E+00  0.0000E+00  0.1280E+03  0.1280E+03
      2.816  0.0000E+00  0.0000E+00  0.1280E+03  0.1280E+03
      3.012  0.0000E+00  0.0000E+00  0.1280E+03  0.1280E+03
      3.207  0.0000E+00  0.0000E+00  0.1280E+03  0.1280E+03
      3.403  0.0000E+00  0.0000E+00  0.1280E+03  0.1280E+03
      3.598  0.0000E+00  0.0000E+00  0.1280E+03  0.1280E+03
      3.793  0.0000E+00  0.0000E+00  0.1280E+03  0.1280E+03
      3.989  0.0000E+00  0.0000E+00  0.1280E+03  0.1280E+03
      4.184  0.0000E+00  0.0000E+00  0.1280E+03  0.1280E+03
      4.379  0.0000E+00  0.0000E+00  0.1280E+03  0.1280E+03
      4.575  0.0000E+00  0.0000E+00  0.1280E+03  0.1280E+03
      4.770  0.0000E+00  0.0000E+00  0.1280E+03  0.1280E+03
