       N       E                     dE             d eps       ncg     rms          rms(c)
DAV:   1     0.184582281479E+04    0.18458E+04   -0.64244E+04  3144   0.105E+03
DAV:   2     0.450770443047E+02   -0.18007E+04   -0.16546E+04  3960   0.230E+02
DAV:   3    -0.438453576768E+03   -0.48353E+03   -0.47983E+03  3344   0.127E+02
DAV:   4    -0.465086843393E+03   -0.26633E+02   -0.26319E+02  3344   0.387E+01
DAV:   5    -0.466197038010E+03   -0.11102E+01   -0.10995E+01  4176   0.649E+00    0.315E+01
DAV:   6    -0.443519885669E+03    0.22677E+02   -0.22740E+01  2872   0.126E+01    0.182E+01
DAV:   7    -0.432481198725E+03    0.11039E+02   -0.15240E+01  3008   0.966E+00    0.978E+00
DAV:   8    -0.432028510048E+03    0.45269E+00   -0.40597E+00  2984   0.462E+00    0.371E+00
DAV:   9    -0.433229487567E+03   -0.12010E+01   -0.57586E-01  3440   0.206E+00    0.158E+00
DAV:  10    -0.433722795737E+03   -0.49331E+00   -0.16951E-01  2888   0.107E+00    0.100E+00
DAV:  11    -0.434126266299E+03   -0.40347E+00   -0.53459E-02  3136   0.531E-01    0.834E-01
DAV:  12    -0.434900115124E+03   -0.77385E+00   -0.15819E-01  2792   0.707E-01    0.618E-01
DAV:  13    -0.435026539305E+03   -0.12642E+00   -0.10702E-01  2760   0.575E-01    0.457E-01
DAV:  14    -0.435411476904E+03   -0.38494E+00   -0.61770E-02  2832   0.441E-01    0.308E-01
DAV:  15    -0.436150881068E+03   -0.73940E+00   -0.34930E-02  2816   0.276E-01    0.207E-01
DAV:  16    -0.436544054229E+03   -0.39317E+00   -0.74035E-03  2928   0.168E-01    0.154E-01
DAV:  17    -0.436869832902E+03   -0.32578E+00   -0.62739E-03  2760   0.155E-01    0.104E-01
DAV:  18    -0.436991094128E+03   -0.12126E+00   -0.25448E-03  2792   0.989E-02    0.769E-02
DAV:  19    -0.437037704694E+03   -0.46611E-01   -0.13578E-03  2880   0.717E-02    0.554E-02
DAV:  20    -0.437051115320E+03   -0.13411E-01   -0.62596E-04  2792   0.535E-02    0.393E-02
DAV:  21    -0.437062104250E+03   -0.10989E-01   -0.21120E-04  2904   0.383E-02    0.282E-02
DAV:  22    -0.437087598475E+03   -0.25494E-01   -0.97399E-05  2776   0.317E-02    0.174E-02
DAV:  23    -0.437109214862E+03   -0.21616E-01   -0.48329E-05  2872   0.244E-02    0.988E-03
DAV:  24    -0.437113718968E+03   -0.45041E-02   -0.24483E-05  2504   0.174E-02    0.688E-03
DAV:  25    -0.437116635486E+03   -0.29165E-02   -0.44499E-05  2464   0.171E-02    0.390E-03
DAV:  26    -0.437117644845E+03   -0.10094E-02   -0.20691E-05  2336   0.144E-02    0.248E-03
DAV:  27    -0.437118037744E+03   -0.39290E-03   -0.48976E-06  2184   0.772E-03    0.155E-03
DAV:  28    -0.437118273966E+03   -0.23622E-03   -0.21742E-06  2200   0.457E-03    0.119E-03
DAV:  29    -0.437118392163E+03   -0.11820E-03   -0.90722E-07  2176   0.251E-03    0.680E-04
DAV:  30    -0.437118451546E+03   -0.59383E-04   -0.34558E-07  1872   0.151E-03    0.455E-04
DAV:  31    -0.437118494957E+03   -0.43411E-04   -0.23636E-07  1880   0.100E-03    0.354E-04
DAV:  32    -0.437118510641E+03   -0.15684E-04   -0.62730E-08  1896   0.639E-04    0.183E-04
DAV:  33    -0.437118515879E+03   -0.52381E-05   -0.11382E-08  1976   0.422E-04    0.148E-04
DAV:  34    -0.437118518669E+03   -0.27897E-05    0.58887E-09  1840   0.254E-04    0.131E-04
DAV:  35    -0.437118519819E+03   -0.11504E-05    0.15118E-08  1904   0.158E-04    0.117E-04
DAV:  36    -0.437118520279E+03   -0.45989E-06    0.17560E-08  1872   0.940E-05
   1 F= -.43711852E+03 E0= -.43711528E+03  d E =-.648405E-02  mag=     0.0000
