<?xml version="1.0" encoding="ISO-8859-1"?>
<modeling>
 <generator>
  <i name="program" type="string">vasp </i>
  <i name="version" type="string">5.4.1  </i>
  <i name="subversion" type="string">24Jun15 (build Jul 23 2024 06:15:33) complex                          parallel </i>
  <i name="platform" type="string">IFC91_ompi </i>
  <i name="date" type="string">2026 05 05 </i>
  <i name="time" type="string">14:58:12 </i>
 </generator>
 <incar>
  <i type="string" name="SYSTEM"> Li defective graphene MACE training lab</i>
  <i type="int" name="ISTART">     0</i>
  <i type="string" name="PREC">accurate</i>
  <i type="string" name="ALGO"> Normal</i>
  <i type="logical" name="ADDGRID"> T  </i>
  <i type="int" name="ISPIN">     2</i>
  <i type="int" name="ICHARG">     2</i>
  <i type="int" name="NELM">   120</i>
  <i type="int" name="IBRION">    -1</i>
  <i name="EDIFF">      0.00000100</i>
  <i type="int" name="NSW">     0</i>
  <i type="int" name="ISIF">     2</i>
  <i type="int" name="ISYM">     0</i>
  <i name="ENCUT">    520.00000000</i>
  <v name="MAGMOM">      0.10000000      0.10000000      0.10000000      0.10000000      0.10000000      0.10000000      0.10000000      0.10000000      0.10000000      0.10000000      0.10000000      0.10000000      0.10000000      0.10000000      0.10000000      0.10000000      0.10000000      0.10000000      0.10000000      0.10000000
      0.10000000      0.10000000      0.10000000      0.10000000      0.10000000      0.10000000      0.10000000      0.10000000      0.10000000      0.10000000      0.10000000      0.10000000      0.10000000      0.10000000      0.10000000      0.10000000      0.10000000      0.10000000      0.10000000      0.10000000
      0.10000000      0.10000000      0.10000000      0.10000000      0.10000000      0.10000000      0.10000000      0.10000000      1.00000000</v>
  <i type="string" name="LREAL"> Auto</i>
  <i type="int" name="ISMEAR">     0</i>
  <i name="SIGMA">      0.05000000</i>
  <i type="logical" name="LWAVE"> F  </i>
  <i type="logical" name="LCHARG"> F  </i>
  <i type="logical" name="LASPH"> T  </i>
  <v type="int" name="KPOINT_BSE">    -1     0     0     0</v>
  <i type="int" name="NELM">   120</i>
  <i type="logical" name="LASPH"> T  </i>
 </incar>
 <kpoints>
  <generation param="Gamma">
   <v type="int" name="divisions">       3        3        1 </v>
   <v name="usershift">      0.00000000       0.00000000       0.00000000 </v>
   <v name="genvec1">      0.33333333       0.00000000       0.00000000 </v>
   <v name="genvec2">      0.00000000       0.33333333       0.00000000 </v>
   <v name="genvec3">      0.00000000       0.00000000       1.00000000 </v>
   <v name="shift">      0.00000000       0.00000000       0.00000000 </v>
  </generation>
  <varray name="kpointlist" >
   <v>       0.00000000       0.00000000       0.00000000 </v>
   <v>       0.33333333      -0.00000000       0.00000000 </v>
   <v>       0.00000000       0.33333333       0.00000000 </v>
   <v>       0.33333333       0.33333333       0.00000000 </v>
   <v>      -0.33333333       0.33333333       0.00000000 </v>
  </varray>
  <varray name="weights" >
   <v>       0.11111111 </v>
   <v>       0.22222222 </v>
   <v>       0.22222222 </v>
   <v>       0.22222222 </v>
   <v>       0.22222222 </v>
  </varray>
 </kpoints>
 <parameters>
  <separator name="general" >
   <i type="string" name="SYSTEM">Li defective graphene MACE training lab</i>
   <i type="logical" name="LCOMPAT"> F  </i>
  </separator>
  <separator name="electronic" >
   <i type="string" name="PREC">accura</i>
   <i name="ENMAX">    520.00000000</i>
   <i name="ENAUG">    644.87300000</i>
   <i name="EDIFF">      0.00000100</i>
   <i type="int" name="IALGO">    38</i>
   <i type="int" name="IWAVPR">    10</i>
   <i type="int" name="NBANDS">   128</i>
   <i name="NELECT">    195.00000000</i>
   <i type="int" name="TURBO">     0</i>
   <i type="int" name="IRESTART">     0</i>
   <i type="int" name="NREBOOT">     0</i>
   <i type="int" name="NMIN">     0</i>
   <i name="EREF">      0.00000000</i>
   <separator name="electronic smearing" >
    <i type="int" name="ISMEAR">     0</i>
    <i name="SIGMA">      0.05000000</i>
    <i name="KSPACING">      0.50000000</i>
    <i type="logical" name="KGAMMA"> T  </i>
   </separator>
   <separator name="electronic projectors" >
    <i type="logical" name="LREAL"> T  </i>
    <v name="ROPT">     -0.00025000     -0.00025000</v>
    <i type="int" name="LMAXPAW">  -100</i>
    <i type="int" name="LMAXMIX">     2</i>
    <i type="logical" name="NLSPLINE"> F  </i>
   </separator>
   <separator name="electronic startup" >
    <i type="int" name="ISTART">     0</i>
    <i type="int" name="ICHARG">     2</i>
    <i type="int" name="INIWAV">     1</i>
   </separator>
   <separator name="electronic spin" >
    <i type="int" name="ISPIN">     2</i>
    <i type="logical" name="LNONCOLLINEAR"> F  </i>
    <v name="MAGMOM">      0.10000000      0.10000000      0.10000000      0.10000000      0.10000000      0.10000000      0.10000000      0.10000000      0.10000000      0.10000000      0.10000000      0.10000000      0.10000000      0.10000000      0.10000000      0.10000000      0.10000000      0.10000000      0.10000000      0.10000000
      0.10000000      0.10000000      0.10000000      0.10000000      0.10000000      0.10000000      0.10000000      0.10000000      0.10000000      0.10000000      0.10000000      0.10000000      0.10000000      0.10000000      0.10000000      0.10000000      0.10000000      0.10000000      0.10000000      0.10000000
      0.10000000      0.10000000      0.10000000      0.10000000      0.10000000      0.10000000      0.10000000      0.10000000      1.00000000</v>
    <i name="NUPDOWN">     -1.00000000</i>
    <i type="logical" name="LSORBIT"> F  </i>
    <v name="SAXIS">      0.00000000      0.00000000      1.00000000</v>
    <i type="logical" name="LSPIRAL"> F  </i>
    <v name="QSPIRAL">      0.00000000      0.00000000      0.00000000</v>
    <i type="logical" name="LZEROZ"> F  </i>
   </separator>
   <separator name="electronic exchange-correlation" >
    <i type="logical" name="LASPH"> T  </i>
    <i type="logical" name="LMETAGGA"> F  </i>
   </separator>
   <separator name="electronic convergence" >
    <i type="int" name="NELM">   120</i>
    <i type="int" name="NELMDL">    -5</i>
    <i type="int" name="NELMIN">     2</i>
    <i name="ENINI">    520.00000000</i>
    <separator name="electronic convergence detail" >
     <i type="logical" name="LDIAG"> T  </i>
     <i type="logical" name="LSUBROT"> F  </i>
     <i name="WEIMIN">      0.00000000</i>
     <i name="EBREAK">      0.00000000</i>
     <i name="DEPER">      0.30000000</i>
     <i type="int" name="NRMM">     4</i>
     <i name="TIME">      0.40000000</i>
    </separator>
   </separator>
   <separator name="electronic mixer" >
    <i name="AMIX">      0.40000000</i>
    <i name="BMIX">      1.00000000</i>
    <i name="AMIN">      0.10000000</i>
    <i name="AMIX_MAG">      1.60000000</i>
    <i name="BMIX_MAG">      1.00000000</i>
    <separator name="electronic mixer details" >
     <i type="int" name="IMIX">     4</i>
     <i type="logical" name="MIXFIRST"> F  </i>
     <i type="int" name="MAXMIX">   -45</i>
     <i name="WC">    100.00000000</i>
     <i type="int" name="INIMIX">     1</i>
     <i type="int" name="MIXPRE">     1</i>
     <i type="int" name="MREMOVE">     5</i>
    </separator>
   </separator>
   <separator name="electronic dipolcorrection" >
    <i type="logical" name="LDIPOL"> F  </i>
    <i type="logical" name="LMONO"> F  </i>
    <i type="int" name="IDIPOL">     0</i>
    <i name="EPSILON">      1.00000000</i>
    <v name="DIPOL">   -100.00000000   -100.00000000   -100.00000000</v>
    <i name="EFIELD">      0.00000000</i>
   </separator>
  </separator>
  <separator name="grids" >
   <i type="int" name="NGX">    96</i>
   <i type="int" name="NGY">    96</i>
   <i type="int" name="NGZ">   224</i>
   <i type="int" name="NGXF">   192</i>
   <i type="int" name="NGYF">   192</i>
   <i type="int" name="NGZF">   448</i>
   <i type="logical" name="ADDGRID"> T  </i>
  </separator>
  <separator name="ionic" >
   <i type="int" name="NSW">     0</i>
   <i type="int" name="IBRION">    -1</i>
   <i type="int" name="ISIF">     2</i>
   <i name="PSTRESS">      0.00000000</i>
   <i name="EDIFFG">      0.00001000</i>
   <i type="int" name="NFREE">     0</i>
   <i name="POTIM">      0.50000000</i>
   <i name="SMASS">     -3.00000000</i>
   <i name="SCALEE">      1.00000000</i>
  </separator>
  <separator name="ionic md" >
   <i name="TEBEG">      0.00010000</i>
   <i name="TEEND">      0.00010000</i>
   <i type="int" name="NBLOCK">     1</i>
   <i type="int" name="KBLOCK">     1</i>
   <i type="int" name="NPACO">   256</i>
   <i name="APACO">     16.00000000</i>
  </separator>
  <separator name="symmetry" >
   <i type="int" name="ISYM">     0</i>
   <i name="SYMPREC">      0.00001000</i>
  </separator>
  <separator name="dos" >
   <i type="logical" name="LORBIT"> F  </i>
   <v name="RWIGS">     -1.00000000     -1.00000000</v>
   <i type="int" name="NEDOS">   301</i>
   <i name="EMIN">     10.00000000</i>
   <i name="EMAX">    -10.00000000</i>
   <i name="EFERMI">      0.00000000</i>
  </separator>
  <separator name="writing" >
   <i type="int" name="NWRITE">     2</i>
   <i type="logical" name="LWAVE"> F  </i>
   <i type="logical" name="LCHARG"> F  </i>
   <i type="logical" name="LPARD"> F  </i>
   <i type="logical" name="LVTOT"> F  </i>
   <i type="logical" name="LVHAR"> F  </i>
   <i type="logical" name="LELF"> F  </i>
   <i type="logical" name="LOPTICS"> F  </i>
   <v name="STM">      0.00000000      0.00000000      0.00000000      0.00000000      0.00000000      0.00000000      0.00000000</v>
  </separator>
  <separator name="performance" >
   <i type="int" name="NPAR">     4</i>
   <i type="int" name="NSIM">     4</i>
   <i type="int" name="NBLK">    -1</i>
   <i type="logical" name="LPLANE"> T  </i>
   <i type="logical" name="LSCALAPACK"> T  </i>
   <i type="logical" name="LSCAAWARE"> F  </i>
   <i type="logical" name="LSCALU"> F  </i>
   <i type="logical" name="LASYNC"> F  </i>
   <i type="logical" name="LORBITALREAL"> F  </i>
  </separator>
  <separator name="miscellaneous" >
   <i type="int" name="IDIOT">     3</i>
   <i type="logical" name="LMUSIC"> F  </i>
   <v name="POMASS">     12.01100000      7.01000000</v>
   <v name="DARWINR">      0.00000000      0.00000000</v>
   <v name="DARWINV">      1.00000000      1.00000000</v>
   <i type="logical" name="LCORR"> T  </i>
  </separator>
  <i type="logical" name="GGA_COMPAT"> T  </i>
  <i type="logical" name="LBERRY"> F  </i>
  <i type="int" name="ICORELEVEL">     0</i>
  <i type="logical" name="LDAU"> F  </i>
  <i type="int" name="I_CONSTRAINED_M">     0</i>
  <separator name="electronic exchange-correlation" >
   <i type="string" name="GGA">--</i>
   <i type="int" name="VOSKOWN">     0</i>
   <i type="logical" name="LHFCALC"> F  </i>
   <i type="string" name="PRECFOCK"></i>
   <i type="logical" name="LSYMGRAD"> F  </i>
   <i type="logical" name="LHFONE"> F  </i>
   <i type="logical" name="LRHFCALC"> F  </i>
   <i type="logical" name="LTHOMAS"> F  </i>
   <i type="logical" name="LMODELHF"> F  </i>
   <i name="ENCUT4O">     -1.00000000</i>
   <i type="int" name="EXXOEP">     0</i>
   <i type="int" name="FOURORBIT">     0</i>
   <i name="AEXX">      0.00000000</i>
   <i name="HFALPHA">      0.00000000</i>
   <i name="MCALPHA">      0.00000000</i>
   <i name="ALDAX">      1.00000000</i>
   <i name="AGGAX">      1.00000000</i>
   <i name="ALDAC">      1.00000000</i>
   <i name="AGGAC">      1.00000000</i>
   <i type="int" name="NKREDX">     1</i>
   <i type="int" name="NKREDY">     1</i>
   <i type="int" name="NKREDZ">     1</i>
   <i type="logical" name="SHIFTRED"> F  </i>
   <i type="logical" name="ODDONLY"> F  </i>
   <i type="logical" name="EVENONLY"> F  </i>
   <i type="int" name="LMAXFOCK">     0</i>
   <i type="int" name="NMAXFOCKAE">     0</i>
   <i type="logical" name="LFOCKAEDFT"> F  </i>
   <i name="HFSCREEN">      0.00000000</i>
   <i name="HFSCREENC">      0.00000000</i>
   <i type="int" name="NBANDSGWLOW">     0</i>
  </separator>
  <separator name="vdW DFT" >
   <i type="logical" name="LUSE_VDW"> F  </i>
   <i name="Zab_VDW">     -0.84910000</i>
   <i name="PARAM1">      0.12340000</i>
   <i name="PARAM2">      1.00000000</i>
   <i name="PARAM3">      0.00000000</i>
  </separator>
  <separator name="model GW" >
   <i type="int" name="MODEL_GW">     0</i>
   <i name="MODEL_EPS0">     48.13015714</i>
   <i name="MODEL_ALPHA">      1.00000000</i>
  </separator>
  <separator name="linear response parameters" >
   <i type="logical" name="LEPSILON"> F  </i>
   <i type="logical" name="LRPA"> F  </i>
   <i type="logical" name="LNABLA"> F  </i>
   <i type="logical" name="LVEL"> F  </i>
   <i type="int" name="KINTER">     0</i>
   <i name="CSHIFT">      0.10000000</i>
   <i name="OMEGAMAX">     -1.00000000</i>
   <i name="DEG_THRESHOLD">      0.00200000</i>
  </separator>
  <separator name="orbital magnetization" >
   <i type="logical" name="NUCIND"> F  </i>
   <v name="MAGPOS">      0.00000000      0.00000000      0.00000000</v>
   <i type="logical" name="LNICSALL"> T  </i>
   <i type="logical" name="ORBITALMAG"> F  </i>
   <i type="logical" name="LMAGBLOCH"> F  </i>
   <i type="logical" name="LCHIMAG"> F  </i>
   <i type="logical" name="LGAUGE"> T  </i>
   <i type="int" name="MAGATOM">     0</i>
   <v name="MAGDIPOL">      0.00000000      0.00000000      0.00000000</v>
   <v name="AVECCONST">      0.00000000      0.00000000      0.00000000</v>
  </separator>
  <separator name="response functions" >
   <i type="logical" name="LADDER"> F  </i>
   <i type="logical" name="LFXC"> F  </i>
   <i type="logical" name="LHARTREE"> T  </i>
   <i type="int" name="IBSE">     0</i>
   <v type="int" name="KPOINT">    -1     0     0     0</v>
   <i type="logical" name="LTCTE"> F  </i>
   <i type="logical" name="LTETE"> F  </i>
   <i type="logical" name="LTRIPLET"> F  </i>
   <i type="logical" name="LFXCEPS"> F  </i>
   <i type="logical" name="LFXHEG"> F  </i>
   <i type="int" name="NATURALO">     0</i>
   <i type="logical" name="L2ORDER"> F  </i>
   <i type="logical" name="LUSEW"> F  </i>
   <i name="ENCUTGW">     -2.00000000</i>
   <i name="ENCUTGWSOFT">     -2.00000000</i>
   <i name="ENCUTLF">     -1.00000000</i>
   <i type="int" name="LMAXMP2">    -1</i>
   <i name="SCISSOR">      0.00000000</i>
   <i type="int" name="NOMEGA">     0</i>
   <i type="int" name="NOMEGAR">     0</i>
   <i type="int" name="NBANDSGW">    -1</i>
   <i type="int" name="NBANDSO">    -1</i>
   <i type="int" name="NBANDSV">    -1</i>
   <i type="int" name="NELM">   120</i>
   <i type="int" name="NELMHF">     1</i>
   <i type="int" name="DIM">     3</i>
   <i type="int" name="ANTIRES">     0</i>
   <i name="OMEGAMAX">    -30.00000000</i>
   <i name="OMEGAMIN">    -30.00000000</i>
   <i name="OMEGATL">   -200.00000000</i>
   <i type="int" name="OMEGAGRID">     0</i>
   <i name="CSHIFT">     -0.10000000</i>
   <i type="logical" name="SELFENERGY"> F  </i>
   <i type="logical" name="LSPECTRAL"> F  </i>
   <i type="logical" name="LSPECTRALGW"> F  </i>
   <i type="logical" name="LSINGLES"> F  </i>
   <i type="logical" name="LFERMIGW"> F  </i>
   <i type="logical" name="ODDONLYGW"> F  </i>
   <i type="logical" name="EVENONLYGW"> F  </i>
   <i type="int" name="NKREDLFX">     1</i>
   <i type="int" name="NKREDLFY">     1</i>
   <i type="int" name="NKREDLFZ">     1</i>
   <i type="int" name="MAXMEM">  1800</i>
   <i type="int" name="TELESCOPE">     0</i>
   <i type="int" name="TAUPAR">     1</i>
   <i type="int" name="OMEGAPAR">    -1</i>
   <i name="LAMBDA">      1.00000000</i>
  </separator>
  <separator name="External order field" >
   <i name="OFIELD_KAPPA">      0.00000000</i>
   <v name="OFIELD_K">      0.00000000      0.00000000      0.00000000</v>
   <i name="OFIELD_Q6_NEAR">      0.00000000</i>
   <i name="OFIELD_Q6_FAR">      0.00000000</i>
   <i name="OFIELD_A">      0.00000000</i>
  </separator>
 </parameters>
 <atominfo>
  <atoms>      49 </atoms>
  <types>       2 </types>
  <array name="atoms" >
   <dimension dim="1">ion</dimension>
   <field type="string">element</field>
   <field type="int">atomtype</field>
   <set>
    <rc><c>C </c><c>   1</c></rc>
    <rc><c>C </c><c>   1</c></rc>
    <rc><c>C </c><c>   1</c></rc>
    <rc><c>C </c><c>   1</c></rc>
    <rc><c>C </c><c>   1</c></rc>
    <rc><c>C </c><c>   1</c></rc>
    <rc><c>C </c><c>   1</c></rc>
    <rc><c>C </c><c>   1</c></rc>
    <rc><c>C </c><c>   1</c></rc>
    <rc><c>C </c><c>   1</c></rc>
    <rc><c>C </c><c>   1</c></rc>
    <rc><c>C </c><c>   1</c></rc>
    <rc><c>C </c><c>   1</c></rc>
    <rc><c>C </c><c>   1</c></rc>
    <rc><c>C </c><c>   1</c></rc>
    <rc><c>C </c><c>   1</c></rc>
    <rc><c>C </c><c>   1</c></rc>
    <rc><c>C </c><c>   1</c></rc>
    <rc><c>C </c><c>   1</c></rc>
    <rc><c>C </c><c>   1</c></rc>
    <rc><c>C </c><c>   1</c></rc>
    <rc><c>C </c><c>   1</c></rc>
    <rc><c>C </c><c>   1</c></rc>
    <rc><c>C </c><c>   1</c></rc>
    <rc><c>C </c><c>   1</c></rc>
    <rc><c>C </c><c>   1</c></rc>
    <rc><c>C </c><c>   1</c></rc>
    <rc><c>C </c><c>   1</c></rc>
    <rc><c>C </c><c>   1</c></rc>
    <rc><c>C </c><c>   1</c></rc>
    <rc><c>C </c><c>   1</c></rc>
    <rc><c>C </c><c>   1</c></rc>
    <rc><c>C </c><c>   1</c></rc>
    <rc><c>C </c><c>   1</c></rc>
    <rc><c>C </c><c>   1</c></rc>
    <rc><c>C </c><c>   1</c></rc>
    <rc><c>C </c><c>   1</c></rc>
    <rc><c>C </c><c>   1</c></rc>
    <rc><c>C </c><c>   1</c></rc>
    <rc><c>C </c><c>   1</c></rc>
    <rc><c>C </c><c>   1</c></rc>
    <rc><c>C </c><c>   1</c></rc>
    <rc><c>C </c><c>   1</c></rc>
    <rc><c>C </c><c>   1</c></rc>
    <rc><c>C </c><c>   1</c></rc>
    <rc><c>C </c><c>   1</c></rc>
    <rc><c>C </c><c>   1</c></rc>
    <rc><c>C </c><c>   1</c></rc>
    <rc><c>Li</c><c>   2</c></rc>
   </set>
  </array>
  <array name="atomtypes" >
   <dimension dim="1">type</dimension>
   <field type="int">atomspertype</field>
   <field type="string">element</field>
   <field>mass</field>
   <field>valence</field>
   <field type="string">pseudopotential</field>
   <set>
    <rc><c>  48</c><c>C </c><c>     12.01100000</c><c>      4.00000000</c><c>  PAW_PBE C 08Apr2002                   </c></rc>
    <rc><c>   1</c><c>Li</c><c>      7.01000000</c><c>      3.00000000</c><c>  PAW_PBE Li_sv 10Sep2004               </c></rc>
   </set>
  </array>
 </atominfo>
 <structure name="initialpos" >
  <crystal>
   <varray name="basis" >
    <v>      12.30000000       0.00000000       0.00000000 </v>
    <v>      -6.15000000      10.65211247       0.00000000 </v>
    <v>       0.00000000       0.00000000      30.00000000 </v>
   </varray>
   <i name="volume">   3930.62950016 </i>
   <varray name="rec_basis" >
    <v>       0.08130081       0.04693905       0.00000000 </v>
    <v>       0.00000000       0.09387809       0.00000000 </v>
    <v>       0.00000000       0.00000000       0.03333333 </v>
   </varray>
  </crystal>
  <varray name="positions" >
   <v>       0.00069168       0.99541666       0.49998612 </v>
   <v>       0.13570752       0.06529461       0.50002869 </v>
   <v>       0.00528682       0.19571106       0.50058609 </v>
   <v>       0.13833518       0.26560218       0.50057170 </v>
   <v>       0.99712702       0.39177707       0.50100754 </v>
   <v>       0.13026968       0.46391674       0.50087604 </v>
   <v>       0.97526623       0.57616636       0.49974051 </v>
   <v>       0.11731876       0.65556017       0.50025836 </v>
   <v>       0.98729726       0.78579945       0.49978844 </v>
   <v>       0.12617716       0.86034230       0.49990407 </v>
   <v>       0.20174420       0.99935984       0.49996315 </v>
   <v>       0.34076841       0.07491797       0.49997416 </v>
   <v>       0.20564900       0.20029985       0.50029029 </v>
   <v>       0.34065624       0.27207656       0.50022199 </v>
   <v>       0.19984457       0.39937158       0.50071372 </v>
   <v>       0.33279713       0.46984879       0.50056375 </v>
   <v>       0.19199209       0.59719431       0.50058322 </v>
   <v>       0.32697969       0.66894440       0.50043978 </v>
   <v>       0.19196150       0.79444851       0.50008107 </v>
   <v>       0.33098870       0.87000208       0.50010093 </v>
   <v>       0.40655756       0.00904940       0.49998696 </v>
   <v>       0.54540405       0.08366039       0.49998134 </v>
   <v>       0.41537712       0.21379237       0.49993588 </v>
   <v>       0.55744946       0.29324157       0.49946986 </v>
   <v>       0.40242993       0.40537510       0.50047012 </v>
   <v>       0.53559216       0.47761928       0.50044748 </v>
   <v>       0.39430443       0.60365582       0.50046434 </v>
   <v>       0.52736225       0.67361877       0.50026175 </v>
   <v>       0.39695450       0.80397139       0.50018869 </v>
   <v>       0.53196727       0.87397152       0.50011628 </v>
   <v>       0.60374810       0.00898380       0.50016676 </v>
   <v>       0.73705382       0.07076953       0.50050530 </v>
   <v>       0.62488765       0.22578393       0.49959691 </v>
   <v>       0.76599571       0.29127341       0.50025991 </v>
   <v>       0.62301774       0.43445421       0.49988325 </v>
   <v>       0.59240615       0.60866974       0.50023153 </v>
   <v>       0.72347200       0.66559306       0.50021997 </v>
   <v>       0.59727190       0.80667286       0.50014313 </v>
   <v>       0.73106729       0.86823424       0.50012855 </v>
   <v>       0.80156259       0.00117311       0.50027601 </v>
   <v>       0.93536716       0.06268160       0.50025728 </v>
   <v>       0.80924606       0.20391568       0.50083025 </v>
   <v>       0.94027672       0.26072818       0.50083145 </v>
   <v>       0.90975834       0.43503138       0.50036590 </v>
   <v>       0.76676574       0.57827823       0.49975349 </v>
   <v>       0.90787378       0.64372456       0.49943208 </v>
   <v>       0.79564026       0.79872732       0.50011285 </v>
   <v>       0.92892615       0.86046430       0.49989995 </v>
   <v>       0.70664400       0.49444431       0.55687285 </v>
  </varray>
 </structure>
 <calculation>
  <scstep>
   <time name="dav">   43.54   43.57</time>
   <time name="total">   46.36   46.39</time>
   <energy>
    <i name="alphaZ">     49.28462660 </i>
    <i name="ewald">  52402.53606013 </i>
    <i name="hartreedc"> -57488.13685129 </i>
    <i name="XCdc">    641.37504321 </i>
    <i name="pawpsdc">   5288.51619703 </i>
    <i name="pawaedc">  -5331.18329077 </i>
    <i name="eentropy">     -0.02598716 </i>
    <i name="bandstr">   -982.46270889 </i>
    <i name="atom">   7265.91972593 </i>
    <i name="e_fr_energy">   1845.82281479 </i>
    <i name="e_wo_entrp">   1845.84880196 </i>
    <i name="e_0_energy">   1845.83580837 </i>
   </energy>
  </scstep>
  <scstep>
   <time name="dav">   52.57   52.57</time>
   <time name="total">   52.57   52.58</time>
   <energy>
    <i name="e_fr_energy">     45.07704430 </i>
    <i name="e_wo_entrp">     45.08010551 </i>
    <i name="e_0_energy">     45.07857491 </i>
   </energy>
  </scstep>
  <scstep>
   <time name="dav">   45.96   45.96</time>
   <time name="total">   45.96   45.96</time>
   <energy>
    <i name="e_fr_energy">   -438.45357677 </i>
    <i name="e_wo_entrp">   -438.45030257 </i>
    <i name="e_0_energy">   -438.45193967 </i>
   </energy>
  </scstep>
  <scstep>
   <time name="dav">   46.31   46.31</time>
   <time name="total">   46.31   46.32</time>
   <energy>
    <i name="e_fr_energy">   -465.08684339 </i>
    <i name="e_wo_entrp">   -465.08172923 </i>
    <i name="e_0_energy">   -465.08428631 </i>
   </energy>
  </scstep>
  <scstep>
   <time name="dav">   55.03   55.03</time>
   <time name="total">   59.43   59.43</time>
   <energy>
    <i name="e_fr_energy">   -466.19703801 </i>
    <i name="e_wo_entrp">   -466.19190429 </i>
    <i name="e_0_energy">   -466.19447115 </i>
   </energy>
  </scstep>
  <scstep>
   <time name="dav">   40.62   40.62</time>
   <time name="total">   47.73   47.74</time>
   <energy>
    <i name="e_fr_energy">   -443.51988567 </i>
    <i name="e_wo_entrp">   -443.51368405 </i>
    <i name="e_0_energy">   -443.51678486 </i>
   </energy>
  </scstep>
  <scstep>
   <time name="dav">   41.93   41.93</time>
   <time name="total">   48.94   48.95</time>
   <energy>
    <i name="e_fr_energy">   -432.48119872 </i>
    <i name="e_wo_entrp">   -432.47603511 </i>
    <i name="e_0_energy">   -432.47861692 </i>
   </energy>
  </scstep>
  <scstep>
   <time name="dav">   41.53   41.53</time>
   <time name="total">   48.53   48.54</time>
   <energy>
    <i name="e_fr_energy">   -432.02851005 </i>
    <i name="e_wo_entrp">   -432.02345653 </i>
    <i name="e_0_energy">   -432.02598329 </i>
   </energy>
  </scstep>
  <scstep>
   <time name="dav">   46.48   46.49</time>
   <time name="total">   53.44   53.45</time>
   <energy>
    <i name="e_fr_energy">   -433.22948757 </i>
    <i name="e_wo_entrp">   -433.22440834 </i>
    <i name="e_0_energy">   -433.22694795 </i>
   </energy>
  </scstep>
  <scstep>
   <time name="dav">   40.32   40.32</time>
   <time name="total">   47.45   47.46</time>
   <energy>
    <i name="e_fr_energy">   -433.72279574 </i>
    <i name="e_wo_entrp">   -433.71764026 </i>
    <i name="e_0_energy">   -433.72021800 </i>
   </energy>
  </scstep>
  <scstep>
   <time name="dav">   42.99   43.01</time>
   <time name="total">   50.17   50.20</time>
   <energy>
    <i name="e_fr_energy">   -434.12626630 </i>
    <i name="e_wo_entrp">   -434.12105474 </i>
    <i name="e_0_energy">   -434.12366052 </i>
   </energy>
  </scstep>
  <scstep>
   <time name="dav">   39.29   39.30</time>
   <time name="total">   46.44   46.45</time>
   <energy>
    <i name="e_fr_energy">   -434.90011512 </i>
    <i name="e_wo_entrp">   -434.89469604 </i>
    <i name="e_0_energy">   -434.89740558 </i>
   </energy>
  </scstep>
  <scstep>
   <time name="dav">   38.88   38.90</time>
   <time name="total">   46.04   46.08</time>
   <energy>
    <i name="e_fr_energy">   -435.02653931 </i>
    <i name="e_wo_entrp">   -435.02072732 </i>
    <i name="e_0_energy">   -435.02363331 </i>
   </energy>
  </scstep>
  <scstep>
   <time name="dav">   39.62   39.63</time>
   <time name="total">   46.78   46.78</time>
   <energy>
    <i name="e_fr_energy">   -435.41147690 </i>
    <i name="e_wo_entrp">   -435.40530366 </i>
    <i name="e_0_energy">   -435.40839028 </i>
   </energy>
  </scstep>
  <scstep>
   <time name="dav">   39.48   39.50</time>
   <time name="total">   46.67   46.69</time>
   <energy>
    <i name="e_fr_energy">   -436.15088107 </i>
    <i name="e_wo_entrp">   -436.14450389 </i>
    <i name="e_0_energy">   -436.14769248 </i>
   </energy>
  </scstep>
  <scstep>
   <time name="dav">   40.72   40.73</time>
   <time name="total">   47.89   47.91</time>
   <energy>
    <i name="e_fr_energy">   -436.54405423 </i>
    <i name="e_wo_entrp">   -436.53761562 </i>
    <i name="e_0_energy">   -436.54083492 </i>
   </energy>
  </scstep>
  <scstep>
   <time name="dav">   38.85   38.87</time>
   <time name="total">   46.03   46.06</time>
   <energy>
    <i name="e_fr_energy">   -436.86983290 </i>
    <i name="e_wo_entrp">   -436.86336386 </i>
    <i name="e_0_energy">   -436.86659838 </i>
   </energy>
  </scstep>
  <scstep>
   <time name="dav">   39.21   39.24</time>
   <time name="total">   46.38   46.41</time>
   <energy>
    <i name="e_fr_energy">   -436.99109413 </i>
    <i name="e_wo_entrp">   -436.98461519 </i>
    <i name="e_0_energy">   -436.98785466 </i>
   </energy>
  </scstep>
  <scstep>
   <time name="dav">   40.17   40.19</time>
   <time name="total">   47.36   47.39</time>
   <energy>
    <i name="e_fr_energy">   -437.03770469 </i>
    <i name="e_wo_entrp">   -437.03122244 </i>
    <i name="e_0_energy">   -437.03446357 </i>
   </energy>
  </scstep>
  <scstep>
   <time name="dav">   39.23   39.25</time>
   <time name="total">   46.42   46.44</time>
   <energy>
    <i name="e_fr_energy">   -437.05111532 </i>
    <i name="e_wo_entrp">   -437.04463183 </i>
    <i name="e_0_energy">   -437.04787357 </i>
   </energy>
  </scstep>
  <scstep>
   <time name="dav">   40.45   40.45</time>
   <time name="total">   47.64   47.64</time>
   <energy>
    <i name="e_fr_energy">   -437.06210425 </i>
    <i name="e_wo_entrp">   -437.05562040 </i>
    <i name="e_0_energy">   -437.05886232 </i>
   </energy>
  </scstep>
  <scstep>
   <time name="dav">   39.07   39.07</time>
   <time name="total">   46.25   46.26</time>
   <energy>
    <i name="e_fr_energy">   -437.08759848 </i>
    <i name="e_wo_entrp">   -437.08111445 </i>
    <i name="e_0_energy">   -437.08435646 </i>
   </energy>
  </scstep>
  <scstep>
   <time name="dav">   40.10   40.11</time>
   <time name="total">   47.26   47.28</time>
   <energy>
    <i name="e_fr_energy">   -437.10921486 </i>
    <i name="e_wo_entrp">   -437.10273081 </i>
    <i name="e_0_energy">   -437.10597283 </i>
   </energy>
  </scstep>
  <scstep>
   <time name="dav">   36.20   36.20</time>
   <time name="total">   43.79   43.79</time>
   <energy>
    <i name="e_fr_energy">   -437.11371897 </i>
    <i name="e_wo_entrp">   -437.10723492 </i>
    <i name="e_0_energy">   -437.11047694 </i>
   </energy>
  </scstep>
  <scstep>
   <time name="dav">   35.73   35.75</time>
   <time name="total">   42.93   42.96</time>
   <energy>
    <i name="e_fr_energy">   -437.11663549 </i>
    <i name="e_wo_entrp">   -437.11015145 </i>
    <i name="e_0_energy">   -437.11339347 </i>
   </energy>
  </scstep>
  <scstep>
   <time name="dav">   34.29   34.29</time>
   <time name="total">   41.51   41.53</time>
   <energy>
    <i name="e_fr_energy">   -437.11764485 </i>
    <i name="e_wo_entrp">   -437.11116081 </i>
    <i name="e_0_energy">   -437.11440283 </i>
   </energy>
  </scstep>
  <scstep>
   <time name="dav">   32.62   32.64</time>
   <time name="total">   39.85   39.88</time>
   <energy>
    <i name="e_fr_energy">   -437.11803774 </i>
    <i name="e_wo_entrp">   -437.11155369 </i>
    <i name="e_0_energy">   -437.11479572 </i>
   </energy>
  </scstep>
  <scstep>
   <time name="dav">   32.88   32.89</time>
   <time name="total">   40.11   40.13</time>
   <energy>
    <i name="e_fr_energy">   -437.11827397 </i>
    <i name="e_wo_entrp">   -437.11178990 </i>
    <i name="e_0_energy">   -437.11503194 </i>
   </energy>
  </scstep>
  <scstep>
   <time name="dav">   32.61   32.63</time>
   <time name="total">   39.84   39.87</time>
   <energy>
    <i name="e_fr_energy">   -437.11839216 </i>
    <i name="e_wo_entrp">   -437.11190810 </i>
    <i name="e_0_energy">   -437.11515013 </i>
   </energy>
  </scstep>
  <scstep>
   <time name="dav">   29.31   29.31</time>
   <time name="total">   36.54   36.56</time>
   <energy>
    <i name="e_fr_energy">   -437.11845155 </i>
    <i name="e_wo_entrp">   -437.11196749 </i>
    <i name="e_0_energy">   -437.11520952 </i>
   </energy>
  </scstep>
  <scstep>
   <time name="dav">   29.39   29.39</time>
   <time name="total">   36.63   36.64</time>
   <energy>
    <i name="e_fr_energy">   -437.11849496 </i>
    <i name="e_wo_entrp">   -437.11201091 </i>
    <i name="e_0_energy">   -437.11525293 </i>
   </energy>
  </scstep>
  <scstep>
   <time name="dav">   29.56   29.56</time>
   <time name="total">   36.81   36.81</time>
   <energy>
    <i name="e_fr_energy">   -437.11851064 </i>
    <i name="e_wo_entrp">   -437.11202659 </i>
    <i name="e_0_energy">   -437.11526861 </i>
   </energy>
  </scstep>
  <scstep>
   <time name="dav">   30.41   30.41</time>
   <time name="total">   37.65   37.66</time>
   <energy>
    <i name="e_fr_energy">   -437.11851588 </i>
    <i name="e_wo_entrp">   -437.11203182 </i>
    <i name="e_0_energy">   -437.11527385 </i>
   </energy>
  </scstep>
  <scstep>
   <time name="dav">   28.89   28.89</time>
   <time name="total">   36.12   36.13</time>
   <energy>
    <i name="e_fr_energy">   -437.11851867 </i>
    <i name="e_wo_entrp">   -437.11203461 </i>
    <i name="e_0_energy">   -437.11527664 </i>
   </energy>
  </scstep>
  <scstep>
   <time name="dav">   29.62   29.62</time>
   <time name="total">   36.88   36.88</time>
   <energy>
    <i name="e_fr_energy">   -437.11851982 </i>
    <i name="e_wo_entrp">   -437.11203576 </i>
    <i name="e_0_energy">   -437.11527779 </i>
   </energy>
  </scstep>
  <scstep>
   <time name="dav">   29.25   29.26</time>
   <time name="total">   32.14   32.14</time>
   <energy>
    <i name="alphaZ">     49.28462660 </i>
    <i name="ewald">  52402.53606013 </i>
    <i name="hartreedc"> -58374.91687303 </i>
    <i name="XCdc">    668.78523708 </i>
    <i name="pawpsdc">  19120.18220412 </i>
    <i name="pawaedc"> -19168.29404296 </i>
    <i name="eentropy">     -0.00648405 </i>
    <i name="bandstr">  -2400.60897410 </i>
    <i name="atom">   7265.91972593 </i>
    <i name="e_fr_energy">   -437.11852028 </i>
    <i name="e_wo_entrp">   -437.11203622 </i>
    <i name="e_0_energy">   -437.11527825 </i>
   </energy>
  </scstep>
  <structure>
   <crystal>
    <varray name="basis" >
     <v>      12.30000000       0.00000000       0.00000000 </v>
     <v>      -6.15000000      10.65211247       0.00000000 </v>
     <v>       0.00000000       0.00000000      30.00000000 </v>
    </varray>
    <i name="volume">   3930.62950016 </i>
    <varray name="rec_basis" >
     <v>       0.08130081       0.04693905       0.00000000 </v>
     <v>       0.00000000       0.09387809       0.00000000 </v>
     <v>       0.00000000       0.00000000       0.03333333 </v>
    </varray>
   </crystal>
   <varray name="positions" >
    <v>       0.00069168       0.99541666       0.49998612 </v>
    <v>       0.13570752       0.06529461       0.50002869 </v>
    <v>       0.00528682       0.19571106       0.50058609 </v>
    <v>       0.13833518       0.26560218       0.50057170 </v>
    <v>       0.99712702       0.39177707       0.50100754 </v>
    <v>       0.13026968       0.46391674       0.50087604 </v>
    <v>       0.97526623       0.57616636       0.49974051 </v>
    <v>       0.11731876       0.65556017       0.50025836 </v>
    <v>       0.98729726       0.78579945       0.49978844 </v>
    <v>       0.12617716       0.86034230       0.49990407 </v>
    <v>       0.20174420       0.99935984       0.49996315 </v>
    <v>       0.34076841       0.07491797       0.49997416 </v>
    <v>       0.20564900       0.20029985       0.50029029 </v>
    <v>       0.34065624       0.27207656       0.50022199 </v>
    <v>       0.19984457       0.39937158       0.50071372 </v>
    <v>       0.33279713       0.46984879       0.50056375 </v>
    <v>       0.19199209       0.59719431       0.50058322 </v>
    <v>       0.32697969       0.66894440       0.50043978 </v>
    <v>       0.19196150       0.79444851       0.50008107 </v>
    <v>       0.33098870       0.87000208       0.50010093 </v>
    <v>       0.40655756       0.00904940       0.49998696 </v>
    <v>       0.54540405       0.08366039       0.49998134 </v>
    <v>       0.41537712       0.21379237       0.49993588 </v>
    <v>       0.55744946       0.29324157       0.49946986 </v>
    <v>       0.40242993       0.40537510       0.50047012 </v>
    <v>       0.53559216       0.47761928       0.50044748 </v>
    <v>       0.39430443       0.60365582       0.50046434 </v>
    <v>       0.52736225       0.67361877       0.50026175 </v>
    <v>       0.39695450       0.80397139       0.50018869 </v>
    <v>       0.53196727       0.87397152       0.50011628 </v>
    <v>       0.60374810       0.00898380       0.50016676 </v>
    <v>       0.73705382       0.07076953       0.50050530 </v>
    <v>       0.62488765       0.22578393       0.49959691 </v>
    <v>       0.76599571       0.29127341       0.50025991 </v>
    <v>       0.62301774       0.43445421       0.49988325 </v>
    <v>       0.59240615       0.60866974       0.50023153 </v>
    <v>       0.72347200       0.66559306       0.50021997 </v>
    <v>       0.59727190       0.80667286       0.50014313 </v>
    <v>       0.73106729       0.86823424       0.50012855 </v>
    <v>       0.80156259       0.00117311       0.50027601 </v>
    <v>       0.93536716       0.06268160       0.50025728 </v>
    <v>       0.80924606       0.20391568       0.50083025 </v>
    <v>       0.94027672       0.26072818       0.50083145 </v>
    <v>       0.90975834       0.43503138       0.50036590 </v>
    <v>       0.76676574       0.57827823       0.49975349 </v>
    <v>       0.90787378       0.64372456       0.49943208 </v>
    <v>       0.79564026       0.79872732       0.50011285 </v>
    <v>       0.92892615       0.86046430       0.49989995 </v>
    <v>       0.70664400       0.49444431       0.55687285 </v>
   </varray>
  </structure>
  <varray name="forces" >
   <v>      -0.03267800       0.00558388       0.00859359 </v>
   <v>       0.03661221      -0.02244341       0.00205484 </v>
   <v>      -0.15185846       0.09202585       0.01077399 </v>
   <v>       0.04468697       0.04649034       0.00234159 </v>
   <v>      -0.12673716       0.21545221      -0.04463434 </v>
   <v>      -0.01442445      -0.00086627      -0.00943426 </v>
   <v>      -0.00768727      -0.29854373       0.06822324 </v>
   <v>      -0.01788809       0.02096599      -0.05162389 </v>
   <v>       0.00332062      -0.10923713      -0.00174776 </v>
   <v>       0.02913087       0.01711601      -0.00013597 </v>
   <v>      -0.02350447       0.00879129      -0.00412203 </v>
   <v>      -0.00354691      -0.04485019      -0.01461788 </v>
   <v>      -0.02097948       0.02998932      -0.01452308 </v>
   <v>      -0.04128875       0.02741826      -0.00359465 </v>
   <v>       0.00562792      -0.01222104       0.00197918 </v>
   <v>       0.03735547      -0.01214536       0.00121700 </v>
   <v>      -0.00606004       0.00285797      -0.00084872 </v>
   <v>       0.01167399       0.01501276       0.00072154 </v>
   <v>       0.01128403      -0.01298078      -0.00766778 </v>
   <v>      -0.02310951       0.01029171       0.00640247 </v>
   <v>       0.01781166      -0.00887682      -0.00788047 </v>
   <v>      -0.01777382       0.00799206      -0.03277105 </v>
   <v>       0.08843712       0.04670002      -0.00363963 </v>
   <v>       0.10871707      -0.20580260       0.02102329 </v>
   <v>      -0.14552149      -0.05547677       0.05886077 </v>
   <v>      -0.07525359       0.05249890      -0.02575868 </v>
   <v>       0.02998460       0.03466840      -0.00718833 </v>
   <v>      -0.11705463       0.07259145       0.01521977 </v>
   <v>       0.02360239      -0.01873343       0.00162966 </v>
   <v>      -0.00710936      -0.01307346       0.01016392 </v>
   <v>      -0.00113543       0.00715473       0.00768808 </v>
   <v>      -0.00048849       0.01293628      -0.01781177 </v>
   <v>       0.25507936       0.15440630       0.07324937 </v>
   <v>      -0.04601034       0.15603265       0.00835674 </v>
   <v>      -0.03041981      -0.29323279      -0.80517416 </v>
   <v>      -0.07639959       0.04608471       0.04072483 </v>
   <v>      -0.07798475       0.03449408      -0.02442375 </v>
   <v>      -0.01089439      -0.04231019       0.00639705 </v>
   <v>       0.03412304      -0.02295190       0.00400031 </v>
   <v>       0.02159731      -0.00092629      -0.00273142 </v>
   <v>      -0.01371311      -0.06382431       0.00598456 </v>
   <v>      -0.24851775       0.00699160      -0.05346937 </v>
   <v>       0.15271034      -0.08516470       0.06001610 </v>
   <v>      -0.15754614      -0.03184712       0.00946474 </v>
   <v>       0.22821408       0.15054350      -0.78355839 </v>
   <v>       0.23194901       0.00515612       0.01593011 </v>
   <v>      -0.01936310       0.14690770       0.04897059 </v>
   <v>      -0.03678101       0.01569959      -0.00526277 </v>
   <v>       0.17981137      -0.08734537       1.43263281 </v>
  </varray>
  <varray name="stress" >
   <v>      -1.16482068     -16.18210425       0.10620102 </v>
   <v>     -16.18210427     -19.80218673      -0.05513402 </v>
   <v>       0.10620065      -0.05513380       0.89986206 </v>
  </varray>
  <energy>
   <i name="e_fr_energy">   -437.11852028 </i>
   <i name="e_wo_entrp">   -437.11527825 </i>
   <i name="e_0_energy">     -0.00648405 </i>
  </energy>
  <time name="totalsc"> 1686.42 1686.96</time>
  <eigenvalues>
   <array>
    <dimension dim="1">band</dimension>
    <dimension dim="2">kpoint</dimension>
    <dimension dim="3">spin</dimension>
    <field>eigene</field>
    <field>occ</field>
    <set>
     <set comment="spin 1">
      <set comment="kpoint 1">
       <r>  -51.1740    1.0000 </r>
       <r>  -22.3392    1.0000 </r>
       <r>  -21.6647    1.0000 </r>
       <r>  -21.4742    1.0000 </r>
       <r>  -21.3851    1.0000 </r>
       <r>  -21.2778    1.0000 </r>
       <r>  -21.1129    1.0000 </r>
       <r>  -20.8536    1.0000 </r>
       <r>  -19.6702    1.0000 </r>
       <r>  -19.5193    1.0000 </r>
       <r>  -19.4931    1.0000 </r>
       <r>  -19.3981    1.0000 </r>
       <r>  -19.3721    1.0000 </r>
       <r>  -19.1252    1.0000 </r>
       <r>  -18.7964    1.0000 </r>
       <r>  -18.6433    1.0000 </r>
       <r>  -18.5519    1.0000 </r>
       <r>  -18.4654    1.0000 </r>
       <r>  -18.2873    1.0000 </r>
       <r>  -17.6902    1.0000 </r>
       <r>  -16.5300    1.0000 </r>
       <r>  -16.4839    1.0000 </r>
       <r>  -16.4157    1.0000 </r>
       <r>  -16.1826    1.0000 </r>
       <r>  -16.0822    1.0000 </r>
       <r>  -15.9385    1.0000 </r>
       <r>  -15.5176    1.0000 </r>
       <r>  -15.4788    1.0000 </r>
       <r>  -15.2875    1.0000 </r>
       <r>  -15.1192    1.0000 </r>
       <r>  -15.0400    1.0000 </r>
       <r>  -14.5791    1.0000 </r>
       <r>  -14.1483    1.0000 </r>
       <r>  -14.0843    1.0000 </r>
       <r>  -13.9646    1.0000 </r>
       <r>  -13.6927    1.0000 </r>
       <r>  -13.5142    1.0000 </r>
       <r>  -12.7007    1.0000 </r>
       <r>  -11.7880    1.0000 </r>
       <r>  -11.6989    1.0000 </r>
       <r>  -11.6959    1.0000 </r>
       <r>  -11.6218    1.0000 </r>
       <r>  -11.5940    1.0000 </r>
       <r>  -11.5139    1.0000 </r>
       <r>  -11.4787    1.0000 </r>
       <r>  -11.3516    1.0000 </r>
       <r>  -11.1713    1.0000 </r>
       <r>  -11.1219    1.0000 </r>
       <r>  -10.7269    1.0000 </r>
       <r>  -10.5597    1.0000 </r>
       <r>  -10.4534    1.0000 </r>
       <r>  -10.1955    1.0000 </r>
       <r>  -10.0729    1.0000 </r>
       <r>  -10.0706    1.0000 </r>
       <r>  -10.0145    1.0000 </r>
       <r>   -9.9127    1.0000 </r>
       <r>   -9.5941    1.0000 </r>
       <r>   -9.4280    1.0000 </r>
       <r>   -9.4177    1.0000 </r>
       <r>   -9.3446    1.0000 </r>
       <r>   -9.2464    1.0000 </r>
       <r>   -9.1643    1.0000 </r>
       <r>   -9.0472    1.0000 </r>
       <r>   -8.9901    1.0000 </r>
       <r>   -8.9382    1.0000 </r>
       <r>   -8.8652    1.0000 </r>
       <r>   -8.8491    1.0000 </r>
       <r>   -8.7369    1.0000 </r>
       <r>   -8.7126    1.0000 </r>
       <r>   -8.6565    1.0000 </r>
       <r>   -8.6131    1.0000 </r>
       <r>   -8.2538    1.0000 </r>
       <r>   -7.9549    1.0000 </r>
       <r>   -7.7762    1.0000 </r>
       <r>   -7.4585    1.0000 </r>
       <r>   -7.3429    1.0000 </r>
       <r>   -7.3081    1.0000 </r>
       <r>   -7.2611    1.0000 </r>
       <r>   -7.2330    1.0000 </r>
       <r>   -7.2050    1.0000 </r>
       <r>   -7.1667    1.0000 </r>
       <r>   -7.0992    1.0000 </r>
       <r>   -7.0916    1.0000 </r>
       <r>   -6.8976    1.0000 </r>
       <r>   -6.4811    1.0000 </r>
       <r>   -6.4253    1.0000 </r>
       <r>   -6.3656    1.0000 </r>
       <r>   -6.3038    1.0000 </r>
       <r>   -6.2208    1.0000 </r>
       <r>   -6.0588    1.0000 </r>
       <r>   -5.9788    1.0000 </r>
       <r>   -5.5455    1.0000 </r>
       <r>   -4.4951    1.0000 </r>
       <r>   -4.3573    1.0000 </r>
       <r>   -4.2485    1.0000 </r>
       <r>   -4.1698    1.0000 </r>
       <r>   -3.9329    1.0000 </r>
       <r>   -3.1741    0.9992 </r>
       <r>   -1.8597    0.0000 </r>
       <r>   -1.7203    0.0000 </r>
       <r>   -1.5375    0.0000 </r>
       <r>   -1.3688    0.0000 </r>
       <r>   -1.2219    0.0000 </r>
       <r>   -0.8771    0.0000 </r>
       <r>   -0.7112    0.0000 </r>
       <r>   -0.1571    0.0000 </r>
       <r>    0.0871    0.0000 </r>
       <r>    0.1713    0.0000 </r>
       <r>    0.2783    0.0000 </r>
       <r>    0.4745    0.0000 </r>
       <r>    0.5379    0.0000 </r>
       <r>    0.6598    0.0000 </r>
       <r>    0.6918    0.0000 </r>
       <r>    0.8160    0.0000 </r>
       <r>    0.8768    0.0000 </r>
       <r>    1.0170    0.0000 </r>
       <r>    1.0495    0.0000 </r>
       <r>    1.1905    0.0000 </r>
       <r>    1.3422    0.0000 </r>
       <r>    1.3940    0.0000 </r>
       <r>    1.4045    0.0000 </r>
       <r>    1.4643    0.0000 </r>
       <r>    1.5300    0.0000 </r>
       <r>    1.8063    0.0000 </r>
       <r>    1.8860    0.0000 </r>
       <r>    2.0258    0.0000 </r>
       <r>    2.0884    0.0000 </r>
       <r>    2.0944    0.0000 </r>
      </set>
      <set comment="kpoint 2">
       <r>  -51.1740    1.0000 </r>
       <r>  -22.2502    1.0000 </r>
       <r>  -21.9633    1.0000 </r>
       <r>  -21.5707    1.0000 </r>
       <r>  -21.3675    1.0000 </r>
       <r>  -21.0350    1.0000 </r>
       <r>  -20.7785    1.0000 </r>
       <r>  -20.5268    1.0000 </r>
       <r>  -20.3591    1.0000 </r>
       <r>  -20.1011    1.0000 </r>
       <r>  -19.6565    1.0000 </r>
       <r>  -19.3374    1.0000 </r>
       <r>  -19.2244    1.0000 </r>
       <r>  -19.0327    1.0000 </r>
       <r>  -18.7215    1.0000 </r>
       <r>  -18.5670    1.0000 </r>
       <r>  -18.3201    1.0000 </r>
       <r>  -17.8610    1.0000 </r>
       <r>  -17.6870    1.0000 </r>
       <r>  -17.4587    1.0000 </r>
       <r>  -17.4285    1.0000 </r>
       <r>  -17.1439    1.0000 </r>
       <r>  -16.9336    1.0000 </r>
       <r>  -16.4868    1.0000 </r>
       <r>  -16.0901    1.0000 </r>
       <r>  -15.7755    1.0000 </r>
       <r>  -15.3838    1.0000 </r>
       <r>  -15.2361    1.0000 </r>
       <r>  -15.1511    1.0000 </r>
       <r>  -14.8756    1.0000 </r>
       <r>  -14.8087    1.0000 </r>
       <r>  -14.5030    1.0000 </r>
       <r>  -14.3328    1.0000 </r>
       <r>  -14.0453    1.0000 </r>
       <r>  -13.5939    1.0000 </r>
       <r>  -13.0440    1.0000 </r>
       <r>  -12.9742    1.0000 </r>
       <r>  -12.7721    1.0000 </r>
       <r>  -12.6717    1.0000 </r>
       <r>  -12.6533    1.0000 </r>
       <r>  -12.3688    1.0000 </r>
       <r>  -12.0411    1.0000 </r>
       <r>  -11.8647    1.0000 </r>
       <r>  -11.3956    1.0000 </r>
       <r>  -11.2639    1.0000 </r>
       <r>  -11.0912    1.0000 </r>
       <r>  -10.8463    1.0000 </r>
       <r>  -10.7312    1.0000 </r>
       <r>  -10.5343    1.0000 </r>
       <r>  -10.4187    1.0000 </r>
       <r>  -10.3463    1.0000 </r>
       <r>  -10.3051    1.0000 </r>
       <r>  -10.1468    1.0000 </r>
       <r>  -10.0015    1.0000 </r>
       <r>   -9.9861    1.0000 </r>
       <r>   -9.7739    1.0000 </r>
       <r>   -9.5922    1.0000 </r>
       <r>   -9.5397    1.0000 </r>
       <r>   -9.4296    1.0000 </r>
       <r>   -9.3870    1.0000 </r>
       <r>   -9.2760    1.0000 </r>
       <r>   -9.1868    1.0000 </r>
       <r>   -9.1267    1.0000 </r>
       <r>   -8.9428    1.0000 </r>
       <r>   -8.9150    1.0000 </r>
       <r>   -8.8465    1.0000 </r>
       <r>   -8.7077    1.0000 </r>
       <r>   -8.6784    1.0000 </r>
       <r>   -8.4556    1.0000 </r>
       <r>   -8.3907    1.0000 </r>
       <r>   -8.2331    1.0000 </r>
       <r>   -8.1942    1.0000 </r>
       <r>   -8.0221    1.0000 </r>
       <r>   -8.0081    1.0000 </r>
       <r>   -7.9469    1.0000 </r>
       <r>   -7.8276    1.0000 </r>
       <r>   -7.6523    1.0000 </r>
       <r>   -7.4170    1.0000 </r>
       <r>   -7.3707    1.0000 </r>
       <r>   -7.2093    1.0000 </r>
       <r>   -7.0911    1.0000 </r>
       <r>   -6.9636    1.0000 </r>
       <r>   -6.8290    1.0000 </r>
       <r>   -6.7640    1.0000 </r>
       <r>   -6.5729    1.0000 </r>
       <r>   -6.5596    1.0000 </r>
       <r>   -6.2191    1.0000 </r>
       <r>   -6.1742    1.0000 </r>
       <r>   -6.0202    1.0000 </r>
       <r>   -5.6413    1.0000 </r>
       <r>   -5.4765    1.0000 </r>
       <r>   -5.3418    1.0000 </r>
       <r>   -5.0963    1.0000 </r>
       <r>   -4.9170    1.0000 </r>
       <r>   -4.7529    1.0000 </r>
       <r>   -4.1594    1.0000 </r>
       <r>   -3.7203    1.0000 </r>
       <r>   -3.1040    0.8769 </r>
       <r>   -1.8287    0.0000 </r>
       <r>   -1.7521    0.0000 </r>
       <r>   -1.1055    0.0000 </r>
       <r>   -1.0591    0.0000 </r>
       <r>   -0.9784    0.0000 </r>
       <r>   -0.8952    0.0000 </r>
       <r>   -0.7993    0.0000 </r>
       <r>   -0.5087    0.0000 </r>
       <r>   -0.3503    0.0000 </r>
       <r>   -0.0899    0.0000 </r>
       <r>    0.1601    0.0000 </r>
       <r>    0.3782    0.0000 </r>
       <r>    0.6025    0.0000 </r>
       <r>    0.6904    0.0000 </r>
       <r>    0.7824    0.0000 </r>
       <r>    0.8623    0.0000 </r>
       <r>    0.9558    0.0000 </r>
       <r>    0.9876    0.0000 </r>
       <r>    1.0901    0.0000 </r>
       <r>    1.1282    0.0000 </r>
       <r>    1.2569    0.0000 </r>
       <r>    1.3501    0.0000 </r>
       <r>    1.3896    0.0000 </r>
       <r>    1.5208    0.0000 </r>
       <r>    1.5529    0.0000 </r>
       <r>    1.6730    0.0000 </r>
       <r>    1.6818    0.0000 </r>
       <r>    1.8016    0.0000 </r>
       <r>    1.8309    0.0000 </r>
       <r>    1.8414    0.0000 </r>
      </set>
      <set comment="kpoint 3">
       <r>  -51.1740    1.0000 </r>
       <r>  -22.2502    1.0000 </r>
       <r>  -21.9632    1.0000 </r>
       <r>  -21.5707    1.0000 </r>
       <r>  -21.3675    1.0000 </r>
       <r>  -21.0352    1.0000 </r>
       <r>  -20.7781    1.0000 </r>
       <r>  -20.5271    1.0000 </r>
       <r>  -20.3592    1.0000 </r>
       <r>  -20.1007    1.0000 </r>
       <r>  -19.6564    1.0000 </r>
       <r>  -19.3374    1.0000 </r>
       <r>  -19.2245    1.0000 </r>
       <r>  -19.0325    1.0000 </r>
       <r>  -18.7220    1.0000 </r>
       <r>  -18.5675    1.0000 </r>
       <r>  -18.3195    1.0000 </r>
       <r>  -17.8611    1.0000 </r>
       <r>  -17.6875    1.0000 </r>
       <r>  -17.4575    1.0000 </r>
       <r>  -17.4293    1.0000 </r>
       <r>  -17.1437    1.0000 </r>
       <r>  -16.9332    1.0000 </r>
       <r>  -16.4865    1.0000 </r>
       <r>  -16.0903    1.0000 </r>
       <r>  -15.7757    1.0000 </r>
       <r>  -15.3839    1.0000 </r>
       <r>  -15.2359    1.0000 </r>
       <r>  -15.1519    1.0000 </r>
       <r>  -14.8758    1.0000 </r>
       <r>  -14.8085    1.0000 </r>
       <r>  -14.5026    1.0000 </r>
       <r>  -14.3334    1.0000 </r>
       <r>  -14.0446    1.0000 </r>
       <r>  -13.5940    1.0000 </r>
       <r>  -13.0444    1.0000 </r>
       <r>  -12.9742    1.0000 </r>
       <r>  -12.7718    1.0000 </r>
       <r>  -12.6709    1.0000 </r>
       <r>  -12.6531    1.0000 </r>
       <r>  -12.3692    1.0000 </r>
       <r>  -12.0399    1.0000 </r>
       <r>  -11.8649    1.0000 </r>
       <r>  -11.3962    1.0000 </r>
       <r>  -11.2642    1.0000 </r>
       <r>  -11.0920    1.0000 </r>
       <r>  -10.8461    1.0000 </r>
       <r>  -10.7325    1.0000 </r>
       <r>  -10.5341    1.0000 </r>
       <r>  -10.4183    1.0000 </r>
       <r>  -10.3467    1.0000 </r>
       <r>  -10.3046    1.0000 </r>
       <r>  -10.1462    1.0000 </r>
       <r>  -10.0021    1.0000 </r>
       <r>   -9.9857    1.0000 </r>
       <r>   -9.7745    1.0000 </r>
       <r>   -9.5927    1.0000 </r>
       <r>   -9.5387    1.0000 </r>
       <r>   -9.4291    1.0000 </r>
       <r>   -9.3869    1.0000 </r>
       <r>   -9.2750    1.0000 </r>
       <r>   -9.1868    1.0000 </r>
       <r>   -9.1266    1.0000 </r>
       <r>   -8.9429    1.0000 </r>
       <r>   -8.9145    1.0000 </r>
       <r>   -8.8473    1.0000 </r>
       <r>   -8.7079    1.0000 </r>
       <r>   -8.6780    1.0000 </r>
       <r>   -8.4558    1.0000 </r>
       <r>   -8.3908    1.0000 </r>
       <r>   -8.2341    1.0000 </r>
       <r>   -8.1947    1.0000 </r>
       <r>   -8.0224    1.0000 </r>
       <r>   -8.0089    1.0000 </r>
       <r>   -7.9465    1.0000 </r>
       <r>   -7.8274    1.0000 </r>
       <r>   -7.6525    1.0000 </r>
       <r>   -7.4163    1.0000 </r>
       <r>   -7.3701    1.0000 </r>
       <r>   -7.2083    1.0000 </r>
       <r>   -7.0909    1.0000 </r>
       <r>   -6.9636    1.0000 </r>
       <r>   -6.8297    1.0000 </r>
       <r>   -6.7641    1.0000 </r>
       <r>   -6.5728    1.0000 </r>
       <r>   -6.5591    1.0000 </r>
       <r>   -6.2197    1.0000 </r>
       <r>   -6.1748    1.0000 </r>
       <r>   -6.0197    1.0000 </r>
       <r>   -5.6414    1.0000 </r>
       <r>   -5.4768    1.0000 </r>
       <r>   -5.3413    1.0000 </r>
       <r>   -5.0970    1.0000 </r>
       <r>   -4.9165    1.0000 </r>
       <r>   -4.7527    1.0000 </r>
       <r>   -4.1600    1.0000 </r>
       <r>   -3.7198    1.0000 </r>
       <r>   -3.1034    0.8735 </r>
       <r>   -1.8293    0.0000 </r>
       <r>   -1.7522    0.0000 </r>
       <r>   -1.1061    0.0000 </r>
       <r>   -1.0598    0.0000 </r>
       <r>   -0.9773    0.0000 </r>
       <r>   -0.8949    0.0000 </r>
       <r>   -0.8001    0.0000 </r>
       <r>   -0.5080    0.0000 </r>
       <r>   -0.3506    0.0000 </r>
       <r>   -0.0899    0.0000 </r>
       <r>    0.1600    0.0000 </r>
       <r>    0.3781    0.0000 </r>
       <r>    0.6043    0.0000 </r>
       <r>    0.6902    0.0000 </r>
       <r>    0.7815    0.0000 </r>
       <r>    0.8628    0.0000 </r>
       <r>    0.9555    0.0000 </r>
       <r>    0.9883    0.0000 </r>
       <r>    1.0893    0.0000 </r>
       <r>    1.1281    0.0000 </r>
       <r>    1.2578    0.0000 </r>
       <r>    1.3500    0.0000 </r>
       <r>    1.3894    0.0000 </r>
       <r>    1.5207    0.0000 </r>
       <r>    1.5528    0.0000 </r>
       <r>    1.6728    0.0000 </r>
       <r>    1.6821    0.0000 </r>
       <r>    1.8010    0.0000 </r>
       <r>    1.8310    0.0000 </r>
       <r>    1.8414    0.0000 </r>
      </set>
      <set comment="kpoint 4">
       <r>  -51.1740    1.0000 </r>
       <r>  -22.1957    1.0000 </r>
       <r>  -22.0064    1.0000 </r>
       <r>  -21.7503    1.0000 </r>
       <r>  -21.1398    1.0000 </r>
       <r>  -21.0812    1.0000 </r>
       <r>  -20.7498    1.0000 </r>
       <r>  -20.3200    1.0000 </r>
       <r>  -20.1621    1.0000 </r>
       <r>  -20.0743    1.0000 </r>
       <r>  -20.0337    1.0000 </r>
       <r>  -19.8935    1.0000 </r>
       <r>  -19.4683    1.0000 </r>
       <r>  -18.5022    1.0000 </r>
       <r>  -18.3454    1.0000 </r>
       <r>  -18.3161    1.0000 </r>
       <r>  -18.2439    1.0000 </r>
       <r>  -17.9795    1.0000 </r>
       <r>  -17.7983    1.0000 </r>
       <r>  -17.5922    1.0000 </r>
       <r>  -17.3545    1.0000 </r>
       <r>  -17.2083    1.0000 </r>
       <r>  -16.9335    1.0000 </r>
       <r>  -16.5846    1.0000 </r>
       <r>  -16.2812    1.0000 </r>
       <r>  -15.8777    1.0000 </r>
       <r>  -15.8028    1.0000 </r>
       <r>  -15.5683    1.0000 </r>
       <r>  -14.9844    1.0000 </r>
       <r>  -14.7896    1.0000 </r>
       <r>  -14.0248    1.0000 </r>
       <r>  -13.9898    1.0000 </r>
       <r>  -13.9150    1.0000 </r>
       <r>  -13.7187    1.0000 </r>
       <r>  -13.6877    1.0000 </r>
       <r>  -13.6250    1.0000 </r>
       <r>  -13.5233    1.0000 </r>
       <r>  -13.0762    1.0000 </r>
       <r>  -12.9100    1.0000 </r>
       <r>  -12.2456    1.0000 </r>
       <r>  -12.1698    1.0000 </r>
       <r>  -12.0289    1.0000 </r>
       <r>  -11.8193    1.0000 </r>
       <r>  -11.5652    1.0000 </r>
       <r>  -11.5224    1.0000 </r>
       <r>  -11.2012    1.0000 </r>
       <r>  -11.1735    1.0000 </r>
       <r>  -10.6207    1.0000 </r>
       <r>  -10.5512    1.0000 </r>
       <r>  -10.3157    1.0000 </r>
       <r>  -10.2507    1.0000 </r>
       <r>  -10.0992    1.0000 </r>
       <r>  -10.0668    1.0000 </r>
       <r>  -10.0572    1.0000 </r>
       <r>   -9.9388    1.0000 </r>
       <r>   -9.8585    1.0000 </r>
       <r>   -9.8338    1.0000 </r>
       <r>   -9.6529    1.0000 </r>
       <r>   -9.2819    1.0000 </r>
       <r>   -9.1887    1.0000 </r>
       <r>   -9.1192    1.0000 </r>
       <r>   -9.0804    1.0000 </r>
       <r>   -9.0425    1.0000 </r>
       <r>   -8.9838    1.0000 </r>
       <r>   -8.7336    1.0000 </r>
       <r>   -8.6920    1.0000 </r>
       <r>   -8.6808    1.0000 </r>
       <r>   -8.5394    1.0000 </r>
       <r>   -8.5182    1.0000 </r>
       <r>   -8.4081    1.0000 </r>
       <r>   -8.2702    1.0000 </r>
       <r>   -8.1415    1.0000 </r>
       <r>   -8.0650    1.0000 </r>
       <r>   -8.0232    1.0000 </r>
       <r>   -7.9618    1.0000 </r>
       <r>   -7.8671    1.0000 </r>
       <r>   -7.8279    1.0000 </r>
       <r>   -7.7987    1.0000 </r>
       <r>   -7.4606    1.0000 </r>
       <r>   -7.3762    1.0000 </r>
       <r>   -7.2628    1.0000 </r>
       <r>   -6.9083    1.0000 </r>
       <r>   -6.8105    1.0000 </r>
       <r>   -6.7615    1.0000 </r>
       <r>   -6.4750    1.0000 </r>
       <r>   -6.1659    1.0000 </r>
       <r>   -6.0701    1.0000 </r>
       <r>   -6.0094    1.0000 </r>
       <r>   -5.9205    1.0000 </r>
       <r>   -5.6427    1.0000 </r>
       <r>   -5.5873    1.0000 </r>
       <r>   -5.2130    1.0000 </r>
       <r>   -5.1817    1.0000 </r>
       <r>   -5.0375    1.0000 </r>
       <r>   -4.8299    1.0000 </r>
       <r>   -4.6811    1.0000 </r>
       <r>   -3.6600    1.0000 </r>
       <r>   -2.6089    0.0000 </r>
       <r>   -2.4904    0.0000 </r>
       <r>   -1.2978    0.0000 </r>
       <r>   -1.2440    0.0000 </r>
       <r>   -1.1870    0.0000 </r>
       <r>   -0.8808    0.0000 </r>
       <r>   -0.6885    0.0000 </r>
       <r>   -0.5519    0.0000 </r>
       <r>   -0.4468    0.0000 </r>
       <r>   -0.2167    0.0000 </r>
       <r>   -0.0115    0.0000 </r>
       <r>    0.0148    0.0000 </r>
       <r>    0.2163    0.0000 </r>
       <r>    0.3273    0.0000 </r>
       <r>    0.4255    0.0000 </r>
       <r>    0.4493    0.0000 </r>
       <r>    0.8081    0.0000 </r>
       <r>    0.8743    0.0000 </r>
       <r>    1.1394    0.0000 </r>
       <r>    1.1975    0.0000 </r>
       <r>    1.2361    0.0000 </r>
       <r>    1.2497    0.0000 </r>
       <r>    1.2815    0.0000 </r>
       <r>    1.3570    0.0000 </r>
       <r>    1.4617    0.0000 </r>
       <r>    1.5033    0.0000 </r>
       <r>    1.5130    0.0000 </r>
       <r>    1.7740    0.0000 </r>
       <r>    1.7783    0.0000 </r>
       <r>    1.7918    0.0000 </r>
       <r>    1.9141    0.0000 </r>
      </set>
      <set comment="kpoint 5">
       <r>  -51.1740    1.0000 </r>
       <r>  -22.2868    1.0000 </r>
       <r>  -21.7655    1.0000 </r>
       <r>  -21.6559    1.0000 </r>
       <r>  -21.5575    1.0000 </r>
       <r>  -20.9159    1.0000 </r>
       <r>  -20.8357    1.0000 </r>
       <r>  -20.5465    1.0000 </r>
       <r>  -20.2001    1.0000 </r>
       <r>  -20.0319    1.0000 </r>
       <r>  -19.5955    1.0000 </r>
       <r>  -19.4239    1.0000 </r>
       <r>  -19.4236    1.0000 </r>
       <r>  -19.0170    1.0000 </r>
       <r>  -18.9564    1.0000 </r>
       <r>  -18.4111    1.0000 </r>
       <r>  -18.2702    1.0000 </r>
       <r>  -17.8690    1.0000 </r>
       <r>  -17.6768    1.0000 </r>
       <r>  -17.2482    1.0000 </r>
       <r>  -17.2445    1.0000 </r>
       <r>  -17.0448    1.0000 </r>
       <r>  -17.0202    1.0000 </r>
       <r>  -16.6696    1.0000 </r>
       <r>  -16.3582    1.0000 </r>
       <r>  -15.8247    1.0000 </r>
       <r>  -15.4516    1.0000 </r>
       <r>  -15.2198    1.0000 </r>
       <r>  -15.2036    1.0000 </r>
       <r>  -14.7326    1.0000 </r>
       <r>  -14.6350    1.0000 </r>
       <r>  -14.4166    1.0000 </r>
       <r>  -14.3293    1.0000 </r>
       <r>  -14.1849    1.0000 </r>
       <r>  -13.5695    1.0000 </r>
       <r>  -13.0518    1.0000 </r>
       <r>  -12.9318    1.0000 </r>
       <r>  -12.8820    1.0000 </r>
       <r>  -12.6170    1.0000 </r>
       <r>  -12.4277    1.0000 </r>
       <r>  -12.3852    1.0000 </r>
       <r>  -11.9221    1.0000 </r>
       <r>  -11.8128    1.0000 </r>
       <r>  -11.6344    1.0000 </r>
       <r>  -11.4412    1.0000 </r>
       <r>  -11.1795    1.0000 </r>
       <r>  -10.9811    1.0000 </r>
       <r>  -10.8229    1.0000 </r>
       <r>  -10.5518    1.0000 </r>
       <r>  -10.3749    1.0000 </r>
       <r>  -10.3442    1.0000 </r>
       <r>  -10.2482    1.0000 </r>
       <r>  -10.1499    1.0000 </r>
       <r>   -9.9000    1.0000 </r>
       <r>   -9.8427    1.0000 </r>
       <r>   -9.7161    1.0000 </r>
       <r>   -9.6378    1.0000 </r>
       <r>   -9.6134    1.0000 </r>
       <r>   -9.5653    1.0000 </r>
       <r>   -9.3380    1.0000 </r>
       <r>   -9.2007    1.0000 </r>
       <r>   -9.0414    1.0000 </r>
       <r>   -8.9828    1.0000 </r>
       <r>   -8.9779    1.0000 </r>
       <r>   -8.9169    1.0000 </r>
       <r>   -8.7903    1.0000 </r>
       <r>   -8.7896    1.0000 </r>
       <r>   -8.7284    1.0000 </r>
       <r>   -8.5519    1.0000 </r>
       <r>   -8.3981    1.0000 </r>
       <r>   -8.1944    1.0000 </r>
       <r>   -8.0739    1.0000 </r>
       <r>   -8.0533    1.0000 </r>
       <r>   -8.0256    1.0000 </r>
       <r>   -7.9059    1.0000 </r>
       <r>   -7.7926    1.0000 </r>
       <r>   -7.5845    1.0000 </r>
       <r>   -7.3450    1.0000 </r>
       <r>   -7.2242    1.0000 </r>
       <r>   -7.1646    1.0000 </r>
       <r>   -7.1461    1.0000 </r>
       <r>   -7.1431    1.0000 </r>
       <r>   -7.1346    1.0000 </r>
       <r>   -6.7985    1.0000 </r>
       <r>   -6.6478    1.0000 </r>
       <r>   -6.4440    1.0000 </r>
       <r>   -6.3884    1.0000 </r>
       <r>   -6.0730    1.0000 </r>
       <r>   -5.9838    1.0000 </r>
       <r>   -5.7186    1.0000 </r>
       <r>   -5.4785    1.0000 </r>
       <r>   -5.0937    1.0000 </r>
       <r>   -5.0015    1.0000 </r>
       <r>   -4.8390    1.0000 </r>
       <r>   -4.8229    1.0000 </r>
       <r>   -4.3614    1.0000 </r>
       <r>   -3.9651    1.0000 </r>
       <r>   -2.8656    0.0000 </r>
       <r>   -1.7241    0.0000 </r>
       <r>   -1.6083    0.0000 </r>
       <r>   -1.1816    0.0000 </r>
       <r>   -1.1717    0.0000 </r>
       <r>   -1.0918    0.0000 </r>
       <r>   -0.9555    0.0000 </r>
       <r>   -0.8710    0.0000 </r>
       <r>   -0.4828    0.0000 </r>
       <r>   -0.3601    0.0000 </r>
       <r>    0.0525    0.0000 </r>
       <r>    0.1679    0.0000 </r>
       <r>    0.3585    0.0000 </r>
       <r>    0.4616    0.0000 </r>
       <r>    0.7898    0.0000 </r>
       <r>    0.8078    0.0000 </r>
       <r>    0.9567    0.0000 </r>
       <r>    0.9796    0.0000 </r>
       <r>    1.1035    0.0000 </r>
       <r>    1.1954    0.0000 </r>
       <r>    1.2291    0.0000 </r>
       <r>    1.2804    0.0000 </r>
       <r>    1.3864    0.0000 </r>
       <r>    1.4842    0.0000 </r>
       <r>    1.5532    0.0000 </r>
       <r>    1.5886    0.0000 </r>
       <r>    1.6735    0.0000 </r>
       <r>    1.7195    0.0000 </r>
       <r>    1.7808    0.0000 </r>
       <r>    1.8303    0.0000 </r>
       <r>    1.8372    0.0000 </r>
      </set>
     </set>
     <set comment="spin 2">
      <set comment="kpoint 1">
       <r>  -51.1740    1.0000 </r>
       <r>  -22.3392    1.0000 </r>
       <r>  -21.6647    1.0000 </r>
       <r>  -21.4742    1.0000 </r>
       <r>  -21.3851    1.0000 </r>
       <r>  -21.2778    1.0000 </r>
       <r>  -21.1129    1.0000 </r>
       <r>  -20.8536    1.0000 </r>
       <r>  -19.6702    1.0000 </r>
       <r>  -19.5193    1.0000 </r>
       <r>  -19.4931    1.0000 </r>
       <r>  -19.3981    1.0000 </r>
       <r>  -19.3721    1.0000 </r>
       <r>  -19.1252    1.0000 </r>
       <r>  -18.7964    1.0000 </r>
       <r>  -18.6433    1.0000 </r>
       <r>  -18.5519    1.0000 </r>
       <r>  -18.4654    1.0000 </r>
       <r>  -18.2873    1.0000 </r>
       <r>  -17.6902    1.0000 </r>
       <r>  -16.5300    1.0000 </r>
       <r>  -16.4839    1.0000 </r>
       <r>  -16.4157    1.0000 </r>
       <r>  -16.1826    1.0000 </r>
       <r>  -16.0822    1.0000 </r>
       <r>  -15.9385    1.0000 </r>
       <r>  -15.5176    1.0000 </r>
       <r>  -15.4788    1.0000 </r>
       <r>  -15.2875    1.0000 </r>
       <r>  -15.1192    1.0000 </r>
       <r>  -15.0400    1.0000 </r>
       <r>  -14.5791    1.0000 </r>
       <r>  -14.1483    1.0000 </r>
       <r>  -14.0843    1.0000 </r>
       <r>  -13.9646    1.0000 </r>
       <r>  -13.6927    1.0000 </r>
       <r>  -13.5142    1.0000 </r>
       <r>  -12.7007    1.0000 </r>
       <r>  -11.7880    1.0000 </r>
       <r>  -11.6989    1.0000 </r>
       <r>  -11.6959    1.0000 </r>
       <r>  -11.6218    1.0000 </r>
       <r>  -11.5940    1.0000 </r>
       <r>  -11.5139    1.0000 </r>
       <r>  -11.4787    1.0000 </r>
       <r>  -11.3516    1.0000 </r>
       <r>  -11.1713    1.0000 </r>
       <r>  -11.1219    1.0000 </r>
       <r>  -10.7269    1.0000 </r>
       <r>  -10.5597    1.0000 </r>
       <r>  -10.4534    1.0000 </r>
       <r>  -10.1955    1.0000 </r>
       <r>  -10.0729    1.0000 </r>
       <r>  -10.0706    1.0000 </r>
       <r>  -10.0145    1.0000 </r>
       <r>   -9.9127    1.0000 </r>
       <r>   -9.5941    1.0000 </r>
       <r>   -9.4280    1.0000 </r>
       <r>   -9.4177    1.0000 </r>
       <r>   -9.3446    1.0000 </r>
       <r>   -9.2464    1.0000 </r>
       <r>   -9.1643    1.0000 </r>
       <r>   -9.0472    1.0000 </r>
       <r>   -8.9901    1.0000 </r>
       <r>   -8.9382    1.0000 </r>
       <r>   -8.8652    1.0000 </r>
       <r>   -8.8491    1.0000 </r>
       <r>   -8.7369    1.0000 </r>
       <r>   -8.7126    1.0000 </r>
       <r>   -8.6565    1.0000 </r>
       <r>   -8.6131    1.0000 </r>
       <r>   -8.2538    1.0000 </r>
       <r>   -7.9549    1.0000 </r>
       <r>   -7.7762    1.0000 </r>
       <r>   -7.4585    1.0000 </r>
       <r>   -7.3429    1.0000 </r>
       <r>   -7.3081    1.0000 </r>
       <r>   -7.2611    1.0000 </r>
       <r>   -7.2330    1.0000 </r>
       <r>   -7.2050    1.0000 </r>
       <r>   -7.1667    1.0000 </r>
       <r>   -7.0992    1.0000 </r>
       <r>   -7.0916    1.0000 </r>
       <r>   -6.8976    1.0000 </r>
       <r>   -6.4811    1.0000 </r>
       <r>   -6.4253    1.0000 </r>
       <r>   -6.3656    1.0000 </r>
       <r>   -6.3038    1.0000 </r>
       <r>   -6.2208    1.0000 </r>
       <r>   -6.0588    1.0000 </r>
       <r>   -5.9788    1.0000 </r>
       <r>   -5.5455    1.0000 </r>
       <r>   -4.4951    1.0000 </r>
       <r>   -4.3573    1.0000 </r>
       <r>   -4.2485    1.0000 </r>
       <r>   -4.1698    1.0000 </r>
       <r>   -3.9329    1.0000 </r>
       <r>   -3.1741    0.9992 </r>
       <r>   -1.8597    0.0000 </r>
       <r>   -1.7203    0.0000 </r>
       <r>   -1.5375    0.0000 </r>
       <r>   -1.3688    0.0000 </r>
       <r>   -1.2219    0.0000 </r>
       <r>   -0.8771    0.0000 </r>
       <r>   -0.7112    0.0000 </r>
       <r>   -0.1571    0.0000 </r>
       <r>    0.0871    0.0000 </r>
       <r>    0.1713    0.0000 </r>
       <r>    0.2783    0.0000 </r>
       <r>    0.4752    0.0000 </r>
       <r>    0.5379    0.0000 </r>
       <r>    0.6600    0.0000 </r>
       <r>    0.6920    0.0000 </r>
       <r>    0.8278    0.0000 </r>
       <r>    0.8769    0.0000 </r>
       <r>    1.0312    0.0000 </r>
       <r>    1.0496    0.0000 </r>
       <r>    1.1906    0.0000 </r>
       <r>    1.3620    0.0000 </r>
       <r>    1.3945    0.0000 </r>
       <r>    1.4049    0.0000 </r>
       <r>    1.4649    0.0000 </r>
       <r>    1.5459    0.0000 </r>
       <r>    1.8063    0.0000 </r>
       <r>    1.8861    0.0000 </r>
       <r>    2.0280    0.0000 </r>
       <r>    2.0399    0.0000 </r>
       <r>    2.1061    0.0000 </r>
      </set>
      <set comment="kpoint 2">
       <r>  -51.1740    1.0000 </r>
       <r>  -22.2502    1.0000 </r>
       <r>  -21.9633    1.0000 </r>
       <r>  -21.5707    1.0000 </r>
       <r>  -21.3675    1.0000 </r>
       <r>  -21.0350    1.0000 </r>
       <r>  -20.7785    1.0000 </r>
       <r>  -20.5268    1.0000 </r>
       <r>  -20.3591    1.0000 </r>
       <r>  -20.1011    1.0000 </r>
       <r>  -19.6565    1.0000 </r>
       <r>  -19.3374    1.0000 </r>
       <r>  -19.2244    1.0000 </r>
       <r>  -19.0327    1.0000 </r>
       <r>  -18.7215    1.0000 </r>
       <r>  -18.5670    1.0000 </r>
       <r>  -18.3201    1.0000 </r>
       <r>  -17.8610    1.0000 </r>
       <r>  -17.6870    1.0000 </r>
       <r>  -17.4587    1.0000 </r>
       <r>  -17.4285    1.0000 </r>
       <r>  -17.1439    1.0000 </r>
       <r>  -16.9336    1.0000 </r>
       <r>  -16.4868    1.0000 </r>
       <r>  -16.0901    1.0000 </r>
       <r>  -15.7755    1.0000 </r>
       <r>  -15.3838    1.0000 </r>
       <r>  -15.2361    1.0000 </r>
       <r>  -15.1511    1.0000 </r>
       <r>  -14.8756    1.0000 </r>
       <r>  -14.8087    1.0000 </r>
       <r>  -14.5030    1.0000 </r>
       <r>  -14.3328    1.0000 </r>
       <r>  -14.0453    1.0000 </r>
       <r>  -13.5939    1.0000 </r>
       <r>  -13.0440    1.0000 </r>
       <r>  -12.9742    1.0000 </r>
       <r>  -12.7721    1.0000 </r>
       <r>  -12.6717    1.0000 </r>
       <r>  -12.6533    1.0000 </r>
       <r>  -12.3688    1.0000 </r>
       <r>  -12.0411    1.0000 </r>
       <r>  -11.8647    1.0000 </r>
       <r>  -11.3956    1.0000 </r>
       <r>  -11.2639    1.0000 </r>
       <r>  -11.0912    1.0000 </r>
       <r>  -10.8463    1.0000 </r>
       <r>  -10.7312    1.0000 </r>
       <r>  -10.5343    1.0000 </r>
       <r>  -10.4187    1.0000 </r>
       <r>  -10.3463    1.0000 </r>
       <r>  -10.3051    1.0000 </r>
       <r>  -10.1468    1.0000 </r>
       <r>  -10.0015    1.0000 </r>
       <r>   -9.9861    1.0000 </r>
       <r>   -9.7739    1.0000 </r>
       <r>   -9.5922    1.0000 </r>
       <r>   -9.5397    1.0000 </r>
       <r>   -9.4296    1.0000 </r>
       <r>   -9.3870    1.0000 </r>
       <r>   -9.2760    1.0000 </r>
       <r>   -9.1868    1.0000 </r>
       <r>   -9.1267    1.0000 </r>
       <r>   -8.9428    1.0000 </r>
       <r>   -8.9150    1.0000 </r>
       <r>   -8.8465    1.0000 </r>
       <r>   -8.7077    1.0000 </r>
       <r>   -8.6784    1.0000 </r>
       <r>   -8.4556    1.0000 </r>
       <r>   -8.3907    1.0000 </r>
       <r>   -8.2331    1.0000 </r>
       <r>   -8.1942    1.0000 </r>
       <r>   -8.0221    1.0000 </r>
       <r>   -8.0081    1.0000 </r>
       <r>   -7.9469    1.0000 </r>
       <r>   -7.8276    1.0000 </r>
       <r>   -7.6523    1.0000 </r>
       <r>   -7.4170    1.0000 </r>
       <r>   -7.3707    1.0000 </r>
       <r>   -7.2093    1.0000 </r>
       <r>   -7.0911    1.0000 </r>
       <r>   -6.9636    1.0000 </r>
       <r>   -6.8290    1.0000 </r>
       <r>   -6.7640    1.0000 </r>
       <r>   -6.5729    1.0000 </r>
       <r>   -6.5596    1.0000 </r>
       <r>   -6.2191    1.0000 </r>
       <r>   -6.1742    1.0000 </r>
       <r>   -6.0202    1.0000 </r>
       <r>   -5.6413    1.0000 </r>
       <r>   -5.4765    1.0000 </r>
       <r>   -5.3418    1.0000 </r>
       <r>   -5.0963    1.0000 </r>
       <r>   -4.9170    1.0000 </r>
       <r>   -4.7529    1.0000 </r>
       <r>   -4.1594    1.0000 </r>
       <r>   -3.7203    1.0000 </r>
       <r>   -3.1040    0.8769 </r>
       <r>   -1.8287    0.0000 </r>
       <r>   -1.7521    0.0000 </r>
       <r>   -1.1055    0.0000 </r>
       <r>   -1.0591    0.0000 </r>
       <r>   -0.9784    0.0000 </r>
       <r>   -0.8952    0.0000 </r>
       <r>   -0.7993    0.0000 </r>
       <r>   -0.5087    0.0000 </r>
       <r>   -0.3503    0.0000 </r>
       <r>   -0.0899    0.0000 </r>
       <r>    0.1601    0.0000 </r>
       <r>    0.3787    0.0000 </r>
       <r>    0.6025    0.0000 </r>
       <r>    0.6905    0.0000 </r>
       <r>    0.7826    0.0000 </r>
       <r>    0.8626    0.0000 </r>
       <r>    0.9658    0.0000 </r>
       <r>    0.9887    0.0000 </r>
       <r>    1.0903    0.0000 </r>
       <r>    1.1396    0.0000 </r>
       <r>    1.2580    0.0000 </r>
       <r>    1.3587    0.0000 </r>
       <r>    1.3987    0.0000 </r>
       <r>    1.5341    0.0000 </r>
       <r>    1.5670    0.0000 </r>
       <r>    1.6784    0.0000 </r>
       <r>    1.6923    0.0000 </r>
       <r>    1.8110    0.0000 </r>
       <r>    1.8434    0.0000 </r>
       <r>    1.8539    0.0000 </r>
      </set>
      <set comment="kpoint 3">
       <r>  -51.1740    1.0000 </r>
       <r>  -22.2502    1.0000 </r>
       <r>  -21.9632    1.0000 </r>
       <r>  -21.5707    1.0000 </r>
       <r>  -21.3675    1.0000 </r>
       <r>  -21.0352    1.0000 </r>
       <r>  -20.7781    1.0000 </r>
       <r>  -20.5271    1.0000 </r>
       <r>  -20.3592    1.0000 </r>
       <r>  -20.1007    1.0000 </r>
       <r>  -19.6564    1.0000 </r>
       <r>  -19.3374    1.0000 </r>
       <r>  -19.2245    1.0000 </r>
       <r>  -19.0325    1.0000 </r>
       <r>  -18.7220    1.0000 </r>
       <r>  -18.5675    1.0000 </r>
       <r>  -18.3195    1.0000 </r>
       <r>  -17.8611    1.0000 </r>
       <r>  -17.6875    1.0000 </r>
       <r>  -17.4575    1.0000 </r>
       <r>  -17.4293    1.0000 </r>
       <r>  -17.1437    1.0000 </r>
       <r>  -16.9332    1.0000 </r>
       <r>  -16.4865    1.0000 </r>
       <r>  -16.0903    1.0000 </r>
       <r>  -15.7757    1.0000 </r>
       <r>  -15.3839    1.0000 </r>
       <r>  -15.2359    1.0000 </r>
       <r>  -15.1519    1.0000 </r>
       <r>  -14.8758    1.0000 </r>
       <r>  -14.8085    1.0000 </r>
       <r>  -14.5026    1.0000 </r>
       <r>  -14.3334    1.0000 </r>
       <r>  -14.0446    1.0000 </r>
       <r>  -13.5940    1.0000 </r>
       <r>  -13.0444    1.0000 </r>
       <r>  -12.9742    1.0000 </r>
       <r>  -12.7718    1.0000 </r>
       <r>  -12.6709    1.0000 </r>
       <r>  -12.6531    1.0000 </r>
       <r>  -12.3692    1.0000 </r>
       <r>  -12.0399    1.0000 </r>
       <r>  -11.8649    1.0000 </r>
       <r>  -11.3962    1.0000 </r>
       <r>  -11.2642    1.0000 </r>
       <r>  -11.0920    1.0000 </r>
       <r>  -10.8461    1.0000 </r>
       <r>  -10.7325    1.0000 </r>
       <r>  -10.5341    1.0000 </r>
       <r>  -10.4183    1.0000 </r>
       <r>  -10.3467    1.0000 </r>
       <r>  -10.3046    1.0000 </r>
       <r>  -10.1462    1.0000 </r>
       <r>  -10.0021    1.0000 </r>
       <r>   -9.9857    1.0000 </r>
       <r>   -9.7745    1.0000 </r>
       <r>   -9.5927    1.0000 </r>
       <r>   -9.5387    1.0000 </r>
       <r>   -9.4291    1.0000 </r>
       <r>   -9.3869    1.0000 </r>
       <r>   -9.2750    1.0000 </r>
       <r>   -9.1868    1.0000 </r>
       <r>   -9.1266    1.0000 </r>
       <r>   -8.9429    1.0000 </r>
       <r>   -8.9145    1.0000 </r>
       <r>   -8.8473    1.0000 </r>
       <r>   -8.7079    1.0000 </r>
       <r>   -8.6780    1.0000 </r>
       <r>   -8.4558    1.0000 </r>
       <r>   -8.3908    1.0000 </r>
       <r>   -8.2341    1.0000 </r>
       <r>   -8.1947    1.0000 </r>
       <r>   -8.0224    1.0000 </r>
       <r>   -8.0089    1.0000 </r>
       <r>   -7.9465    1.0000 </r>
       <r>   -7.8274    1.0000 </r>
       <r>   -7.6525    1.0000 </r>
       <r>   -7.4163    1.0000 </r>
       <r>   -7.3701    1.0000 </r>
       <r>   -7.2083    1.0000 </r>
       <r>   -7.0909    1.0000 </r>
       <r>   -6.9636    1.0000 </r>
       <r>   -6.8297    1.0000 </r>
       <r>   -6.7641    1.0000 </r>
       <r>   -6.5728    1.0000 </r>
       <r>   -6.5591    1.0000 </r>
       <r>   -6.2197    1.0000 </r>
       <r>   -6.1748    1.0000 </r>
       <r>   -6.0197    1.0000 </r>
       <r>   -5.6414    1.0000 </r>
       <r>   -5.4768    1.0000 </r>
       <r>   -5.3413    1.0000 </r>
       <r>   -5.0970    1.0000 </r>
       <r>   -4.9165    1.0000 </r>
       <r>   -4.7527    1.0000 </r>
       <r>   -4.1600    1.0000 </r>
       <r>   -3.7198    1.0000 </r>
       <r>   -3.1034    0.8735 </r>
       <r>   -1.8293    0.0000 </r>
       <r>   -1.7522    0.0000 </r>
       <r>   -1.1061    0.0000 </r>
       <r>   -1.0598    0.0000 </r>
       <r>   -0.9773    0.0000 </r>
       <r>   -0.8949    0.0000 </r>
       <r>   -0.8001    0.0000 </r>
       <r>   -0.5080    0.0000 </r>
       <r>   -0.3506    0.0000 </r>
       <r>   -0.0899    0.0000 </r>
       <r>    0.1600    0.0000 </r>
       <r>    0.3785    0.0000 </r>
       <r>    0.6043    0.0000 </r>
       <r>    0.6903    0.0000 </r>
       <r>    0.7817    0.0000 </r>
       <r>    0.8632    0.0000 </r>
       <r>    0.9655    0.0000 </r>
       <r>    0.9893    0.0000 </r>
       <r>    1.0896    0.0000 </r>
       <r>    1.1395    0.0000 </r>
       <r>    1.2590    0.0000 </r>
       <r>    1.3586    0.0000 </r>
       <r>    1.3986    0.0000 </r>
       <r>    1.5341    0.0000 </r>
       <r>    1.5669    0.0000 </r>
       <r>    1.6782    0.0000 </r>
       <r>    1.6926    0.0000 </r>
       <r>    1.8104    0.0000 </r>
       <r>    1.8435    0.0000 </r>
       <r>    1.8540    0.0000 </r>
      </set>
      <set comment="kpoint 4">
       <r>  -51.1740    1.0000 </r>
       <r>  -22.1957    1.0000 </r>
       <r>  -22.0064    1.0000 </r>
       <r>  -21.7503    1.0000 </r>
       <r>  -21.1398    1.0000 </r>
       <r>  -21.0812    1.0000 </r>
       <r>  -20.7498    1.0000 </r>
       <r>  -20.3200    1.0000 </r>
       <r>  -20.1621    1.0000 </r>
       <r>  -20.0743    1.0000 </r>
       <r>  -20.0337    1.0000 </r>
       <r>  -19.8935    1.0000 </r>
       <r>  -19.4683    1.0000 </r>
       <r>  -18.5022    1.0000 </r>
       <r>  -18.3454    1.0000 </r>
       <r>  -18.3161    1.0000 </r>
       <r>  -18.2439    1.0000 </r>
       <r>  -17.9795    1.0000 </r>
       <r>  -17.7983    1.0000 </r>
       <r>  -17.5922    1.0000 </r>
       <r>  -17.3545    1.0000 </r>
       <r>  -17.2083    1.0000 </r>
       <r>  -16.9335    1.0000 </r>
       <r>  -16.5846    1.0000 </r>
       <r>  -16.2812    1.0000 </r>
       <r>  -15.8777    1.0000 </r>
       <r>  -15.8028    1.0000 </r>
       <r>  -15.5683    1.0000 </r>
       <r>  -14.9844    1.0000 </r>
       <r>  -14.7896    1.0000 </r>
       <r>  -14.0248    1.0000 </r>
       <r>  -13.9898    1.0000 </r>
       <r>  -13.9150    1.0000 </r>
       <r>  -13.7187    1.0000 </r>
       <r>  -13.6877    1.0000 </r>
       <r>  -13.6250    1.0000 </r>
       <r>  -13.5233    1.0000 </r>
       <r>  -13.0762    1.0000 </r>
       <r>  -12.9100    1.0000 </r>
       <r>  -12.2456    1.0000 </r>
       <r>  -12.1698    1.0000 </r>
       <r>  -12.0289    1.0000 </r>
       <r>  -11.8193    1.0000 </r>
       <r>  -11.5652    1.0000 </r>
       <r>  -11.5224    1.0000 </r>
       <r>  -11.2012    1.0000 </r>
       <r>  -11.1735    1.0000 </r>
       <r>  -10.6207    1.0000 </r>
       <r>  -10.5512    1.0000 </r>
       <r>  -10.3157    1.0000 </r>
       <r>  -10.2507    1.0000 </r>
       <r>  -10.0992    1.0000 </r>
       <r>  -10.0668    1.0000 </r>
       <r>  -10.0572    1.0000 </r>
       <r>   -9.9388    1.0000 </r>
       <r>   -9.8585    1.0000 </r>
       <r>   -9.8338    1.0000 </r>
       <r>   -9.6529    1.0000 </r>
       <r>   -9.2819    1.0000 </r>
       <r>   -9.1887    1.0000 </r>
       <r>   -9.1192    1.0000 </r>
       <r>   -9.0804    1.0000 </r>
       <r>   -9.0425    1.0000 </r>
       <r>   -8.9838    1.0000 </r>
       <r>   -8.7336    1.0000 </r>
       <r>   -8.6920    1.0000 </r>
       <r>   -8.6808    1.0000 </r>
       <r>   -8.5394    1.0000 </r>
       <r>   -8.5182    1.0000 </r>
       <r>   -8.4081    1.0000 </r>
       <r>   -8.2702    1.0000 </r>
       <r>   -8.1415    1.0000 </r>
       <r>   -8.0650    1.0000 </r>
       <r>   -8.0232    1.0000 </r>
       <r>   -7.9618    1.0000 </r>
       <r>   -7.8671    1.0000 </r>
       <r>   -7.8279    1.0000 </r>
       <r>   -7.7987    1.0000 </r>
       <r>   -7.4606    1.0000 </r>
       <r>   -7.3762    1.0000 </r>
       <r>   -7.2628    1.0000 </r>
       <r>   -6.9083    1.0000 </r>
       <r>   -6.8105    1.0000 </r>
       <r>   -6.7615    1.0000 </r>
       <r>   -6.4750    1.0000 </r>
       <r>   -6.1659    1.0000 </r>
       <r>   -6.0701    1.0000 </r>
       <r>   -6.0094    1.0000 </r>
       <r>   -5.9205    1.0000 </r>
       <r>   -5.6427    1.0000 </r>
       <r>   -5.5873    1.0000 </r>
       <r>   -5.2130    1.0000 </r>
       <r>   -5.1817    1.0000 </r>
       <r>   -5.0375    1.0000 </r>
       <r>   -4.8299    1.0000 </r>
       <r>   -4.6811    1.0000 </r>
       <r>   -3.6600    1.0000 </r>
       <r>   -2.6089    0.0000 </r>
       <r>   -2.4904    0.0000 </r>
       <r>   -1.2978    0.0000 </r>
       <r>   -1.2440    0.0000 </r>
       <r>   -1.1870    0.0000 </r>
       <r>   -0.8808    0.0000 </r>
       <r>   -0.6885    0.0000 </r>
       <r>   -0.5519    0.0000 </r>
       <r>   -0.4468    0.0000 </r>
       <r>   -0.2167    0.0000 </r>
       <r>   -0.0115    0.0000 </r>
       <r>    0.0148    0.0000 </r>
       <r>    0.2163    0.0000 </r>
       <r>    0.3274    0.0000 </r>
       <r>    0.4257    0.0000 </r>
       <r>    0.4497    0.0000 </r>
       <r>    0.8082    0.0000 </r>
       <r>    0.8743    0.0000 </r>
       <r>    1.1404    0.0000 </r>
       <r>    1.1984    0.0000 </r>
       <r>    1.2500    0.0000 </r>
       <r>    1.2564    0.0000 </r>
       <r>    1.2933    0.0000 </r>
       <r>    1.3684    0.0000 </r>
       <r>    1.4749    0.0000 </r>
       <r>    1.5126    0.0000 </r>
       <r>    1.5267    0.0000 </r>
       <r>    1.7929    0.0000 </r>
       <r>    1.7999    0.0000 </r>
       <r>    1.8072    0.0000 </r>
       <r>    1.9220    0.0000 </r>
      </set>
      <set comment="kpoint 5">
       <r>  -51.1740    1.0000 </r>
       <r>  -22.2868    1.0000 </r>
       <r>  -21.7655    1.0000 </r>
       <r>  -21.6559    1.0000 </r>
       <r>  -21.5575    1.0000 </r>
       <r>  -20.9159    1.0000 </r>
       <r>  -20.8357    1.0000 </r>
       <r>  -20.5465    1.0000 </r>
       <r>  -20.2001    1.0000 </r>
       <r>  -20.0319    1.0000 </r>
       <r>  -19.5955    1.0000 </r>
       <r>  -19.4239    1.0000 </r>
       <r>  -19.4236    1.0000 </r>
       <r>  -19.0170    1.0000 </r>
       <r>  -18.9564    1.0000 </r>
       <r>  -18.4111    1.0000 </r>
       <r>  -18.2702    1.0000 </r>
       <r>  -17.8690    1.0000 </r>
       <r>  -17.6768    1.0000 </r>
       <r>  -17.2482    1.0000 </r>
       <r>  -17.2445    1.0000 </r>
       <r>  -17.0448    1.0000 </r>
       <r>  -17.0202    1.0000 </r>
       <r>  -16.6696    1.0000 </r>
       <r>  -16.3582    1.0000 </r>
       <r>  -15.8247    1.0000 </r>
       <r>  -15.4516    1.0000 </r>
       <r>  -15.2198    1.0000 </r>
       <r>  -15.2036    1.0000 </r>
       <r>  -14.7326    1.0000 </r>
       <r>  -14.6350    1.0000 </r>
       <r>  -14.4166    1.0000 </r>
       <r>  -14.3293    1.0000 </r>
       <r>  -14.1849    1.0000 </r>
       <r>  -13.5695    1.0000 </r>
       <r>  -13.0518    1.0000 </r>
       <r>  -12.9318    1.0000 </r>
       <r>  -12.8820    1.0000 </r>
       <r>  -12.6170    1.0000 </r>
       <r>  -12.4277    1.0000 </r>
       <r>  -12.3852    1.0000 </r>
       <r>  -11.9221    1.0000 </r>
       <r>  -11.8128    1.0000 </r>
       <r>  -11.6344    1.0000 </r>
       <r>  -11.4412    1.0000 </r>
       <r>  -11.1795    1.0000 </r>
       <r>  -10.9811    1.0000 </r>
       <r>  -10.8229    1.0000 </r>
       <r>  -10.5518    1.0000 </r>
       <r>  -10.3749    1.0000 </r>
       <r>  -10.3442    1.0000 </r>
       <r>  -10.2482    1.0000 </r>
       <r>  -10.1499    1.0000 </r>
       <r>   -9.9000    1.0000 </r>
       <r>   -9.8427    1.0000 </r>
       <r>   -9.7161    1.0000 </r>
       <r>   -9.6378    1.0000 </r>
       <r>   -9.6134    1.0000 </r>
       <r>   -9.5653    1.0000 </r>
       <r>   -9.3380    1.0000 </r>
       <r>   -9.2007    1.0000 </r>
       <r>   -9.0414    1.0000 </r>
       <r>   -8.9828    1.0000 </r>
       <r>   -8.9779    1.0000 </r>
       <r>   -8.9169    1.0000 </r>
       <r>   -8.7903    1.0000 </r>
       <r>   -8.7896    1.0000 </r>
       <r>   -8.7284    1.0000 </r>
       <r>   -8.5519    1.0000 </r>
       <r>   -8.3981    1.0000 </r>
       <r>   -8.1944    1.0000 </r>
       <r>   -8.0739    1.0000 </r>
       <r>   -8.0533    1.0000 </r>
       <r>   -8.0256    1.0000 </r>
       <r>   -7.9059    1.0000 </r>
       <r>   -7.7926    1.0000 </r>
       <r>   -7.5845    1.0000 </r>
       <r>   -7.3450    1.0000 </r>
       <r>   -7.2242    1.0000 </r>
       <r>   -7.1646    1.0000 </r>
       <r>   -7.1461    1.0000 </r>
       <r>   -7.1431    1.0000 </r>
       <r>   -7.1346    1.0000 </r>
       <r>   -6.7985    1.0000 </r>
       <r>   -6.6478    1.0000 </r>
       <r>   -6.4440    1.0000 </r>
       <r>   -6.3884    1.0000 </r>
       <r>   -6.0730    1.0000 </r>
       <r>   -5.9838    1.0000 </r>
       <r>   -5.7186    1.0000 </r>
       <r>   -5.4785    1.0000 </r>
       <r>   -5.0937    1.0000 </r>
       <r>   -5.0015    1.0000 </r>
       <r>   -4.8390    1.0000 </r>
       <r>   -4.8229    1.0000 </r>
       <r>   -4.3614    1.0000 </r>
       <r>   -3.9651    1.0000 </r>
       <r>   -2.8656    0.0000 </r>
       <r>   -1.7241    0.0000 </r>
       <r>   -1.6083    0.0000 </r>
       <r>   -1.1816    0.0000 </r>
       <r>   -1.1717    0.0000 </r>
       <r>   -1.0918    0.0000 </r>
       <r>   -0.9555    0.0000 </r>
       <r>   -0.8710    0.0000 </r>
       <r>   -0.4828    0.0000 </r>
       <r>   -0.3601    0.0000 </r>
       <r>    0.0525    0.0000 </r>
       <r>    0.1680    0.0000 </r>
       <r>    0.3588    0.0000 </r>
       <r>    0.4616    0.0000 </r>
       <r>    0.7899    0.0000 </r>
       <r>    0.8084    0.0000 </r>
       <r>    0.9677    0.0000 </r>
       <r>    0.9796    0.0000 </r>
       <r>    1.1110    0.0000 </r>
       <r>    1.2005    0.0000 </r>
       <r>    1.2291    0.0000 </r>
       <r>    1.2852    0.0000 </r>
       <r>    1.3956    0.0000 </r>
       <r>    1.4998    0.0000 </r>
       <r>    1.5675    0.0000 </r>
       <r>    1.5896    0.0000 </r>
       <r>    1.6890    0.0000 </r>
       <r>    1.7199    0.0000 </r>
       <r>    1.7901    0.0000 </r>
       <r>    1.8445    0.0000 </r>
       <r>    1.8515    0.0000 </r>
      </set>
     </set>
    </set>
   </array>
  </eigenvalues>
  <separator name="orbital magnetization" >
   <v name="MAGDIPOLOUT">      0.00000000      0.00000000      0.00000000</v>
  </separator>
  <dos>
   <i name="efermi">     -3.06297229 </i>
   <total>
    <array>
     <dimension dim="1">gridpoints</dimension>
     <dimension dim="2">spin</dimension>
     <field>energy</field>
     <field>total</field>
     <field>integrated</field>
     <set>
      <set comment="spin 1">
       <r>   -53.8380     0.0000     0.0000 </r>
       <r>   -53.6426     0.0000     0.0000 </r>
       <r>   -53.4473     0.0000     0.0000 </r>
       <r>   -53.2519     0.0000     0.0000 </r>
       <r>   -53.0565     0.0000     0.0000 </r>
       <r>   -52.8612     0.0000     0.0000 </r>
       <r>   -52.6658     0.0000     0.0000 </r>
       <r>   -52.4705     0.0000     0.0000 </r>
       <r>   -52.2751     0.0000     0.0000 </r>
       <r>   -52.0797     0.0000     0.0000 </r>
       <r>   -51.8844     0.0000     0.0000 </r>
       <r>   -51.6890     0.0000     0.0000 </r>
       <r>   -51.4937     0.0000     0.0000 </r>
       <r>   -51.2983     0.0011     0.0002 </r>
       <r>   -51.1029     5.0037     0.9777 </r>
       <r>   -50.9076     0.1139     1.0000 </r>
       <r>   -50.7122     0.0000     1.0000 </r>
       <r>   -50.5169     0.0000     1.0000 </r>
       <r>   -50.3215     0.0000     1.0000 </r>
       <r>   -50.1261     0.0000     1.0000 </r>
       <r>   -49.9308     0.0000     1.0000 </r>
       <r>   -49.7354     0.0000     1.0000 </r>
       <r>   -49.5401     0.0000     1.0000 </r>
       <r>   -49.3447     0.0000     1.0000 </r>
       <r>   -49.1493     0.0000     1.0000 </r>
       <r>   -48.9540     0.0000     1.0000 </r>
       <r>   -48.7586     0.0000     1.0000 </r>
       <r>   -48.5633     0.0000     1.0000 </r>
       <r>   -48.3679     0.0000     1.0000 </r>
       <r>   -48.1725     0.0000     1.0000 </r>
       <r>   -47.9772     0.0000     1.0000 </r>
       <r>   -47.7818     0.0000     1.0000 </r>
       <r>   -47.5865     0.0000     1.0000 </r>
       <r>   -47.3911     0.0000     1.0000 </r>
       <r>   -47.1957     0.0000     1.0000 </r>
       <r>   -47.0004     0.0000     1.0000 </r>
       <r>   -46.8050     0.0000     1.0000 </r>
       <r>   -46.6097     0.0000     1.0000 </r>
       <r>   -46.4143     0.0000     1.0000 </r>
       <r>   -46.2189     0.0000     1.0000 </r>
       <r>   -46.0236     0.0000     1.0000 </r>
       <r>   -45.8282     0.0000     1.0000 </r>
       <r>   -45.6329     0.0000     1.0000 </r>
       <r>   -45.4375     0.0000     1.0000 </r>
       <r>   -45.2421     0.0000     1.0000 </r>
       <r>   -45.0468     0.0000     1.0000 </r>
       <r>   -44.8514     0.0000     1.0000 </r>
       <r>   -44.6560     0.0000     1.0000 </r>
       <r>   -44.4607     0.0000     1.0000 </r>
       <r>   -44.2653     0.0000     1.0000 </r>
       <r>   -44.0700     0.0000     1.0000 </r>
       <r>   -43.8746     0.0000     1.0000 </r>
       <r>   -43.6792     0.0000     1.0000 </r>
       <r>   -43.4839     0.0000     1.0000 </r>
       <r>   -43.2885     0.0000     1.0000 </r>
       <r>   -43.0932     0.0000     1.0000 </r>
       <r>   -42.8978     0.0000     1.0000 </r>
       <r>   -42.7024     0.0000     1.0000 </r>
       <r>   -42.5071     0.0000     1.0000 </r>
       <r>   -42.3117     0.0000     1.0000 </r>
       <r>   -42.1164     0.0000     1.0000 </r>
       <r>   -41.9210     0.0000     1.0000 </r>
       <r>   -41.7256     0.0000     1.0000 </r>
       <r>   -41.5303     0.0000     1.0000 </r>
       <r>   -41.3349     0.0000     1.0000 </r>
       <r>   -41.1396     0.0000     1.0000 </r>
       <r>   -40.9442     0.0000     1.0000 </r>
       <r>   -40.7488     0.0000     1.0000 </r>
       <r>   -40.5535     0.0000     1.0000 </r>
       <r>   -40.3581     0.0000     1.0000 </r>
       <r>   -40.1628     0.0000     1.0000 </r>
       <r>   -39.9674     0.0000     1.0000 </r>
       <r>   -39.7720     0.0000     1.0000 </r>
       <r>   -39.5767     0.0000     1.0000 </r>
       <r>   -39.3813     0.0000     1.0000 </r>
       <r>   -39.1860     0.0000     1.0000 </r>
       <r>   -38.9906     0.0000     1.0000 </r>
       <r>   -38.7952     0.0000     1.0000 </r>
       <r>   -38.5999     0.0000     1.0000 </r>
       <r>   -38.4045     0.0000     1.0000 </r>
       <r>   -38.2092     0.0000     1.0000 </r>
       <r>   -38.0138     0.0000     1.0000 </r>
       <r>   -37.8184     0.0000     1.0000 </r>
       <r>   -37.6231     0.0000     1.0000 </r>
       <r>   -37.4277     0.0000     1.0000 </r>
       <r>   -37.2324     0.0000     1.0000 </r>
       <r>   -37.0370     0.0000     1.0000 </r>
       <r>   -36.8416     0.0000     1.0000 </r>
       <r>   -36.6463     0.0000     1.0000 </r>
       <r>   -36.4509     0.0000     1.0000 </r>
       <r>   -36.2556     0.0000     1.0000 </r>
       <r>   -36.0602     0.0000     1.0000 </r>
       <r>   -35.8648     0.0000     1.0000 </r>
       <r>   -35.6695     0.0000     1.0000 </r>
       <r>   -35.4741     0.0000     1.0000 </r>
       <r>   -35.2788     0.0000     1.0000 </r>
       <r>   -35.0834     0.0000     1.0000 </r>
       <r>   -34.8880     0.0000     1.0000 </r>
       <r>   -34.6927     0.0000     1.0000 </r>
       <r>   -34.4973     0.0000     1.0000 </r>
       <r>   -34.3020     0.0000     1.0000 </r>
       <r>   -34.1066     0.0000     1.0000 </r>
       <r>   -33.9112     0.0000     1.0000 </r>
       <r>   -33.7159     0.0000     1.0000 </r>
       <r>   -33.5205     0.0000     1.0000 </r>
       <r>   -33.3252     0.0000     1.0000 </r>
       <r>   -33.1298     0.0000     1.0000 </r>
       <r>   -32.9344     0.0000     1.0000 </r>
       <r>   -32.7391     0.0000     1.0000 </r>
       <r>   -32.5437     0.0000     1.0000 </r>
       <r>   -32.3484     0.0000     1.0000 </r>
       <r>   -32.1530     0.0000     1.0000 </r>
       <r>   -31.9576     0.0000     1.0000 </r>
       <r>   -31.7623     0.0000     1.0000 </r>
       <r>   -31.5669     0.0000     1.0000 </r>
       <r>   -31.3716     0.0000     1.0000 </r>
       <r>   -31.1762     0.0000     1.0000 </r>
       <r>   -30.9808     0.0000     1.0000 </r>
       <r>   -30.7855     0.0000     1.0000 </r>
       <r>   -30.5901     0.0000     1.0000 </r>
       <r>   -30.3948     0.0000     1.0000 </r>
       <r>   -30.1994     0.0000     1.0000 </r>
       <r>   -30.0040     0.0000     1.0000 </r>
       <r>   -29.8087     0.0000     1.0000 </r>
       <r>   -29.6133     0.0000     1.0000 </r>
       <r>   -29.4180     0.0000     1.0000 </r>
       <r>   -29.2226     0.0000     1.0000 </r>
       <r>   -29.0272     0.0000     1.0000 </r>
       <r>   -28.8319     0.0000     1.0000 </r>
       <r>   -28.6365     0.0000     1.0000 </r>
       <r>   -28.4411     0.0000     1.0000 </r>
       <r>   -28.2458     0.0000     1.0000 </r>
       <r>   -28.0504     0.0000     1.0000 </r>
       <r>   -27.8551     0.0000     1.0000 </r>
       <r>   -27.6597     0.0000     1.0000 </r>
       <r>   -27.4643     0.0000     1.0000 </r>
       <r>   -27.2690     0.0000     1.0000 </r>
       <r>   -27.0736     0.0000     1.0000 </r>
       <r>   -26.8783     0.0000     1.0000 </r>
       <r>   -26.6829     0.0000     1.0000 </r>
       <r>   -26.4875     0.0000     1.0000 </r>
       <r>   -26.2922     0.0000     1.0000 </r>
       <r>   -26.0968     0.0000     1.0000 </r>
       <r>   -25.9015     0.0000     1.0000 </r>
       <r>   -25.7061     0.0000     1.0000 </r>
       <r>   -25.5107     0.0000     1.0000 </r>
       <r>   -25.3154     0.0000     1.0000 </r>
       <r>   -25.1200     0.0000     1.0000 </r>
       <r>   -24.9247     0.0000     1.0000 </r>
       <r>   -24.7293     0.0000     1.0000 </r>
       <r>   -24.5339     0.0000     1.0000 </r>
       <r>   -24.3386     0.0000     1.0000 </r>
       <r>   -24.1432     0.0000     1.0000 </r>
       <r>   -23.9479     0.0000     1.0000 </r>
       <r>   -23.7525     0.0000     1.0000 </r>
       <r>   -23.5571     0.0000     1.0000 </r>
       <r>   -23.3618     0.0000     1.0000 </r>
       <r>   -23.1664     0.0000     1.0000 </r>
       <r>   -22.9711     0.0000     1.0000 </r>
       <r>   -22.7757     0.0000     1.0000 </r>
       <r>   -22.5803     0.0000     1.0000 </r>
       <r>   -22.3850     0.0588     1.0115 </r>
       <r>   -22.1896     4.4670     1.8842 </r>
       <r>   -21.9943     1.7467     2.2254 </r>
       <r>   -21.7989     2.5508     2.7237 </r>
       <r>   -21.6035     4.0975     3.5242 </r>
       <r>   -21.4082     3.9857     4.3028 </r>
       <r>   -21.2128     3.0045     4.8898 </r>
       <r>   -21.0175     4.3706     5.7436 </r>
       <r>   -20.8221     3.3467     6.3975 </r>
       <r>   -20.6267     3.6714     7.1147 </r>
       <r>   -20.4314     3.4333     7.7854 </r>
       <r>   -20.2360     3.5601     8.4809 </r>
       <r>   -20.0407     6.1446     9.6813 </r>
       <r>   -19.8453     2.6704    10.2030 </r>
       <r>   -19.6499     1.8797    10.5702 </r>
       <r>   -19.4546     4.4543    11.4404 </r>
       <r>   -19.2592     6.0469    12.6218 </r>
       <r>   -19.0639     3.0158    13.2109 </r>
       <r>   -18.8685     4.0436    14.0009 </r>
       <r>   -18.6731     2.7632    14.5407 </r>
       <r>   -18.4778     4.5649    15.4325 </r>
       <r>   -18.2824     6.6378    16.7293 </r>
       <r>   -18.0871     2.5246    17.2225 </r>
       <r>   -17.8917     1.8690    17.5876 </r>
       <r>   -17.6963     5.2991    18.6228 </r>
       <r>   -17.5010     3.9348    19.3915 </r>
       <r>   -17.3056     5.4049    20.4474 </r>
       <r>   -17.1103     5.3217    21.4871 </r>
       <r>   -16.9149     5.0135    22.4666 </r>
       <r>   -16.7195     1.1144    22.6843 </r>
       <r>   -16.5242     2.8575    23.2425 </r>
       <r>   -16.3288     4.3126    24.0850 </r>
       <r>   -16.1335     2.0866    24.4926 </r>
       <r>   -15.9381     2.9350    25.0660 </r>
       <r>   -15.7427     5.4547    26.1317 </r>
       <r>   -15.5474     1.4182    26.4087 </r>
       <r>   -15.3520     4.3330    27.2552 </r>
       <r>   -15.1567     6.4322    28.5118 </r>
       <r>   -14.9613     3.3542    29.1671 </r>
       <r>   -14.7659     5.6191    30.2648 </r>
       <r>   -14.5706     2.9883    30.8486 </r>
       <r>   -14.3752     3.8562    31.6020 </r>
       <r>   -14.1799     3.9160    32.3670 </r>
       <r>   -13.9845     5.5290    33.4472 </r>
       <r>   -13.7891     2.2915    33.8948 </r>
       <r>   -13.5938     5.1864    34.9080 </r>
       <r>   -13.3984     3.8827    35.6666 </r>
       <r>   -13.2031     0.0007    35.6667 </r>
       <r>   -13.0077     4.4687    36.5397 </r>
       <r>   -12.8123     6.0261    37.7170 </r>
       <r>   -12.6170     7.2108    39.1257 </r>
       <r>   -12.4216     2.0375    39.5237 </r>
       <r>   -12.2263     4.4428    40.3917 </r>
       <r>   -12.0309     3.3336    41.0429 </r>
       <r>   -11.8355     5.1404    42.0472 </r>
       <r>   -11.6402     4.4206    42.9108 </r>
       <r>   -11.4448     5.5939    44.0036 </r>
       <r>   -11.2494     5.0456    44.9893 </r>
       <r>   -11.0541     7.1253    46.3813 </r>
       <r>   -10.8587     2.4593    46.8618 </r>
       <r>   -10.6634     5.3096    47.8991 </r>
       <r>   -10.4680     6.4939    49.1677 </r>
       <r>   -10.2726    10.4990    51.2188 </r>
       <r>   -10.0773     8.3547    52.8510 </r>
       <r>    -9.8819    10.4526    54.8930 </r>
       <r>    -9.6866     6.8818    56.2374 </r>
       <r>    -9.4912     9.4919    58.0918 </r>
       <r>    -9.2958     8.3922    59.7313 </r>
       <r>    -9.1005    11.1786    61.9151 </r>
       <r>    -8.9051    13.0782    64.4701 </r>
       <r>    -8.7098    11.7668    66.7688 </r>
       <r>    -8.5144     9.4377    68.6126 </r>
       <r>    -8.3190     7.7329    70.1233 </r>
       <r>    -8.1237     8.2236    71.7299 </r>
       <r>    -7.9283    13.7658    74.4192 </r>
       <r>    -7.7330     9.0918    76.1953 </r>
       <r>    -7.5376     3.4687    76.8730 </r>
       <r>    -7.3422     7.7675    78.3904 </r>
       <r>    -7.1469    10.9968    80.5388 </r>
       <r>    -6.9515     7.3769    81.9799 </r>
       <r>    -6.7562     8.6581    83.6714 </r>
       <r>    -6.5608     5.3688    84.7202 </r>
       <r>    -6.3654     6.5241    85.9948 </r>
       <r>    -6.1701     5.5517    87.0793 </r>
       <r>    -5.9747     8.7648    88.7916 </r>
       <r>    -5.7794     2.2528    89.2317 </r>
       <r>    -5.5840     5.0211    90.2127 </r>
       <r>    -5.3886     4.7858    91.1476 </r>
       <r>    -5.1933     3.3300    91.7982 </r>
       <r>    -4.9979     6.0630    92.9826 </r>
       <r>    -4.8026     5.7820    94.1122 </r>
       <r>    -4.6072     3.9551    94.8849 </r>
       <r>    -4.4118     0.7061    95.0228 </r>
       <r>    -4.2165     2.2307    95.4586 </r>
       <r>    -4.0211     2.8388    96.0132 </r>
       <r>    -3.8258     1.6410    96.3338 </r>
       <r>    -3.6304     3.1684    96.9528 </r>
       <r>    -3.4350     0.2417    97.0000 </r>
       <r>    -3.2397     0.0182    97.0036 </r>
       <r>    -3.0443     2.7195    97.5348 </r>
       <r>    -2.8490     0.8807    97.7069 </r>
       <r>    -2.6536     0.4799    97.8007 </r>
       <r>    -2.4582     1.9512    98.1818 </r>
       <r>    -2.2629     0.2067    98.2222 </r>
       <r>    -2.0675     0.0000    98.2222 </r>
       <r>    -1.8722     0.4598    98.3121 </r>
       <r>    -1.6768     6.1923    99.5218 </r>
       <r>    -1.4814     1.8472    99.8827 </r>
       <r>    -1.2861     1.4697   100.1698 </r>
       <r>    -1.0907     7.8919   101.7115 </r>
       <r>    -0.8954     8.4985   103.3718 </r>
       <r>    -0.7000     6.2638   104.5955 </r>
       <r>    -0.5046     3.5641   105.2918 </r>
       <r>    -0.3093     6.1105   106.4855 </r>
       <r>    -0.1139     2.5673   106.9871 </r>
       <r>     0.0814     5.2004   108.0030 </r>
       <r>     0.2768     5.9980   109.1748 </r>
       <r>     0.4722     7.6479   110.6689 </r>
       <r>     0.6675     4.9568   111.6373 </r>
       <r>     0.8629    10.2297   113.6358 </r>
       <r>     1.0582    10.6295   115.7123 </r>
       <r>     1.2536    13.1096   118.2734 </r>
       <r>     1.4490    13.5151   120.9137 </r>
       <r>     1.6443    12.7895   123.4123 </r>
       <r>     1.8397    16.4082   126.6178 </r>
       <r>     2.0350     5.7753   127.7460 </r>
       <r>     2.2304     1.2999   128.0000 </r>
       <r>     2.4258     0.0001   128.0000 </r>
       <r>     2.6211     0.0000   128.0000 </r>
       <r>     2.8165     0.0000   128.0000 </r>
       <r>     3.0118     0.0000   128.0000 </r>
       <r>     3.2072     0.0000   128.0000 </r>
       <r>     3.4026     0.0000   128.0000 </r>
       <r>     3.5979     0.0000   128.0000 </r>
       <r>     3.7933     0.0000   128.0000 </r>
       <r>     3.9886     0.0000   128.0000 </r>
       <r>     4.1840     0.0000   128.0000 </r>
       <r>     4.3794     0.0000   128.0000 </r>
       <r>     4.5747     0.0000   128.0000 </r>
       <r>     4.7701     0.0000   128.0000 </r>
      </set>
      <set comment="spin 2">
       <r>   -53.8380     0.0000     0.0000 </r>
       <r>   -53.6426     0.0000     0.0000 </r>
       <r>   -53.4473     0.0000     0.0000 </r>
       <r>   -53.2519     0.0000     0.0000 </r>
       <r>   -53.0565     0.0000     0.0000 </r>
       <r>   -52.8612     0.0000     0.0000 </r>
       <r>   -52.6658     0.0000     0.0000 </r>
       <r>   -52.4705     0.0000     0.0000 </r>
       <r>   -52.2751     0.0000     0.0000 </r>
       <r>   -52.0797     0.0000     0.0000 </r>
       <r>   -51.8844     0.0000     0.0000 </r>
       <r>   -51.6890     0.0000     0.0000 </r>
       <r>   -51.4937     0.0000     0.0000 </r>
       <r>   -51.2983     0.0011     0.0002 </r>
       <r>   -51.1029     5.0037     0.9777 </r>
       <r>   -50.9076     0.1139     1.0000 </r>
       <r>   -50.7122     0.0000     1.0000 </r>
       <r>   -50.5169     0.0000     1.0000 </r>
       <r>   -50.3215     0.0000     1.0000 </r>
       <r>   -50.1261     0.0000     1.0000 </r>
       <r>   -49.9308     0.0000     1.0000 </r>
       <r>   -49.7354     0.0000     1.0000 </r>
       <r>   -49.5401     0.0000     1.0000 </r>
       <r>   -49.3447     0.0000     1.0000 </r>
       <r>   -49.1493     0.0000     1.0000 </r>
       <r>   -48.9540     0.0000     1.0000 </r>
       <r>   -48.7586     0.0000     1.0000 </r>
       <r>   -48.5633     0.0000     1.0000 </r>
       <r>   -48.3679     0.0000     1.0000 </r>
       <r>   -48.1725     0.0000     1.0000 </r>
       <r>   -47.9772     0.0000     1.0000 </r>
       <r>   -47.7818     0.0000     1.0000 </r>
       <r>   -47.5865     0.0000     1.0000 </r>
       <r>   -47.3911     0.0000     1.0000 </r>
       <r>   -47.1957     0.0000     1.0000 </r>
       <r>   -47.0004     0.0000     1.0000 </r>
       <r>   -46.8050     0.0000     1.0000 </r>
       <r>   -46.6097     0.0000     1.0000 </r>
       <r>   -46.4143     0.0000     1.0000 </r>
       <r>   -46.2189     0.0000     1.0000 </r>
       <r>   -46.0236     0.0000     1.0000 </r>
       <r>   -45.8282     0.0000     1.0000 </r>
       <r>   -45.6329     0.0000     1.0000 </r>
       <r>   -45.4375     0.0000     1.0000 </r>
       <r>   -45.2421     0.0000     1.0000 </r>
       <r>   -45.0468     0.0000     1.0000 </r>
       <r>   -44.8514     0.0000     1.0000 </r>
       <r>   -44.6560     0.0000     1.0000 </r>
       <r>   -44.4607     0.0000     1.0000 </r>
       <r>   -44.2653     0.0000     1.0000 </r>
       <r>   -44.0700     0.0000     1.0000 </r>
       <r>   -43.8746     0.0000     1.0000 </r>
       <r>   -43.6792     0.0000     1.0000 </r>
       <r>   -43.4839     0.0000     1.0000 </r>
       <r>   -43.2885     0.0000     1.0000 </r>
       <r>   -43.0932     0.0000     1.0000 </r>
       <r>   -42.8978     0.0000     1.0000 </r>
       <r>   -42.7024     0.0000     1.0000 </r>
       <r>   -42.5071     0.0000     1.0000 </r>
       <r>   -42.3117     0.0000     1.0000 </r>
       <r>   -42.1164     0.0000     1.0000 </r>
       <r>   -41.9210     0.0000     1.0000 </r>
       <r>   -41.7256     0.0000     1.0000 </r>
       <r>   -41.5303     0.0000     1.0000 </r>
       <r>   -41.3349     0.0000     1.0000 </r>
       <r>   -41.1396     0.0000     1.0000 </r>
       <r>   -40.9442     0.0000     1.0000 </r>
       <r>   -40.7488     0.0000     1.0000 </r>
       <r>   -40.5535     0.0000     1.0000 </r>
       <r>   -40.3581     0.0000     1.0000 </r>
       <r>   -40.1628     0.0000     1.0000 </r>
       <r>   -39.9674     0.0000     1.0000 </r>
       <r>   -39.7720     0.0000     1.0000 </r>
       <r>   -39.5767     0.0000     1.0000 </r>
       <r>   -39.3813     0.0000     1.0000 </r>
       <r>   -39.1860     0.0000     1.0000 </r>
       <r>   -38.9906     0.0000     1.0000 </r>
       <r>   -38.7952     0.0000     1.0000 </r>
       <r>   -38.5999     0.0000     1.0000 </r>
       <r>   -38.4045     0.0000     1.0000 </r>
       <r>   -38.2092     0.0000     1.0000 </r>
       <r>   -38.0138     0.0000     1.0000 </r>
       <r>   -37.8184     0.0000     1.0000 </r>
       <r>   -37.6231     0.0000     1.0000 </r>
       <r>   -37.4277     0.0000     1.0000 </r>
       <r>   -37.2324     0.0000     1.0000 </r>
       <r>   -37.0370     0.0000     1.0000 </r>
       <r>   -36.8416     0.0000     1.0000 </r>
       <r>   -36.6463     0.0000     1.0000 </r>
       <r>   -36.4509     0.0000     1.0000 </r>
       <r>   -36.2556     0.0000     1.0000 </r>
       <r>   -36.0602     0.0000     1.0000 </r>
       <r>   -35.8648     0.0000     1.0000 </r>
       <r>   -35.6695     0.0000     1.0000 </r>
       <r>   -35.4741     0.0000     1.0000 </r>
       <r>   -35.2788     0.0000     1.0000 </r>
       <r>   -35.0834     0.0000     1.0000 </r>
       <r>   -34.8880     0.0000     1.0000 </r>
       <r>   -34.6927     0.0000     1.0000 </r>
       <r>   -34.4973     0.0000     1.0000 </r>
       <r>   -34.3020     0.0000     1.0000 </r>
       <r>   -34.1066     0.0000     1.0000 </r>
       <r>   -33.9112     0.0000     1.0000 </r>
       <r>   -33.7159     0.0000     1.0000 </r>
       <r>   -33.5205     0.0000     1.0000 </r>
       <r>   -33.3252     0.0000     1.0000 </r>
       <r>   -33.1298     0.0000     1.0000 </r>
       <r>   -32.9344     0.0000     1.0000 </r>
       <r>   -32.7391     0.0000     1.0000 </r>
       <r>   -32.5437     0.0000     1.0000 </r>
       <r>   -32.3484     0.0000     1.0000 </r>
       <r>   -32.1530     0.0000     1.0000 </r>
       <r>   -31.9576     0.0000     1.0000 </r>
       <r>   -31.7623     0.0000     1.0000 </r>
       <r>   -31.5669     0.0000     1.0000 </r>
       <r>   -31.3716     0.0000     1.0000 </r>
       <r>   -31.1762     0.0000     1.0000 </r>
       <r>   -30.9808     0.0000     1.0000 </r>
       <r>   -30.7855     0.0000     1.0000 </r>
       <r>   -30.5901     0.0000     1.0000 </r>
       <r>   -30.3948     0.0000     1.0000 </r>
       <r>   -30.1994     0.0000     1.0000 </r>
       <r>   -30.0040     0.0000     1.0000 </r>
       <r>   -29.8087     0.0000     1.0000 </r>
       <r>   -29.6133     0.0000     1.0000 </r>
       <r>   -29.4180     0.0000     1.0000 </r>
       <r>   -29.2226     0.0000     1.0000 </r>
       <r>   -29.0272     0.0000     1.0000 </r>
       <r>   -28.8319     0.0000     1.0000 </r>
       <r>   -28.6365     0.0000     1.0000 </r>
       <r>   -28.4411     0.0000     1.0000 </r>
       <r>   -28.2458     0.0000     1.0000 </r>
       <r>   -28.0504     0.0000     1.0000 </r>
       <r>   -27.8551     0.0000     1.0000 </r>
       <r>   -27.6597     0.0000     1.0000 </r>
       <r>   -27.4643     0.0000     1.0000 </r>
       <r>   -27.2690     0.0000     1.0000 </r>
       <r>   -27.0736     0.0000     1.0000 </r>
       <r>   -26.8783     0.0000     1.0000 </r>
       <r>   -26.6829     0.0000     1.0000 </r>
       <r>   -26.4875     0.0000     1.0000 </r>
       <r>   -26.2922     0.0000     1.0000 </r>
       <r>   -26.0968     0.0000     1.0000 </r>
       <r>   -25.9015     0.0000     1.0000 </r>
       <r>   -25.7061     0.0000     1.0000 </r>
       <r>   -25.5107     0.0000     1.0000 </r>
       <r>   -25.3154     0.0000     1.0000 </r>
       <r>   -25.1200     0.0000     1.0000 </r>
       <r>   -24.9247     0.0000     1.0000 </r>
       <r>   -24.7293     0.0000     1.0000 </r>
       <r>   -24.5339     0.0000     1.0000 </r>
       <r>   -24.3386     0.0000     1.0000 </r>
       <r>   -24.1432     0.0000     1.0000 </r>
       <r>   -23.9479     0.0000     1.0000 </r>
       <r>   -23.7525     0.0000     1.0000 </r>
       <r>   -23.5571     0.0000     1.0000 </r>
       <r>   -23.3618     0.0000     1.0000 </r>
       <r>   -23.1664     0.0000     1.0000 </r>
       <r>   -22.9711     0.0000     1.0000 </r>
       <r>   -22.7757     0.0000     1.0000 </r>
       <r>   -22.5803     0.0000     1.0000 </r>
       <r>   -22.3850     0.0588     1.0115 </r>
       <r>   -22.1896     4.4670     1.8842 </r>
       <r>   -21.9943     1.7467     2.2254 </r>
       <r>   -21.7989     2.5508     2.7237 </r>
       <r>   -21.6035     4.0975     3.5242 </r>
       <r>   -21.4082     3.9857     4.3028 </r>
       <r>   -21.2128     3.0045     4.8898 </r>
       <r>   -21.0175     4.3706     5.7436 </r>
       <r>   -20.8221     3.3467     6.3975 </r>
       <r>   -20.6267     3.6714     7.1147 </r>
       <r>   -20.4314     3.4333     7.7854 </r>
       <r>   -20.2360     3.5601     8.4809 </r>
       <r>   -20.0407     6.1446     9.6813 </r>
       <r>   -19.8453     2.6704    10.2030 </r>
       <r>   -19.6499     1.8797    10.5702 </r>
       <r>   -19.4546     4.4543    11.4404 </r>
       <r>   -19.2592     6.0469    12.6218 </r>
       <r>   -19.0639     3.0158    13.2109 </r>
       <r>   -18.8685     4.0436    14.0009 </r>
       <r>   -18.6731     2.7633    14.5407 </r>
       <r>   -18.4778     4.5649    15.4325 </r>
       <r>   -18.2824     6.6378    16.7293 </r>
       <r>   -18.0871     2.5246    17.2225 </r>
       <r>   -17.8917     1.8690    17.5876 </r>
       <r>   -17.6963     5.2991    18.6228 </r>
       <r>   -17.5010     3.9348    19.3916 </r>
       <r>   -17.3056     5.4049    20.4474 </r>
       <r>   -17.1103     5.3217    21.4871 </r>
       <r>   -16.9149     5.0135    22.4666 </r>
       <r>   -16.7195     1.1143    22.6843 </r>
       <r>   -16.5242     2.8575    23.2425 </r>
       <r>   -16.3288     4.3126    24.0850 </r>
       <r>   -16.1335     2.0866    24.4926 </r>
       <r>   -15.9381     2.9350    25.0660 </r>
       <r>   -15.7427     5.4547    26.1317 </r>
       <r>   -15.5474     1.4182    26.4087 </r>
       <r>   -15.3520     4.3330    27.2552 </r>
       <r>   -15.1567     6.4322    28.5118 </r>
       <r>   -14.9613     3.3542    29.1671 </r>
       <r>   -14.7659     5.6191    30.2648 </r>
       <r>   -14.5706     2.9883    30.8486 </r>
       <r>   -14.3752     3.8562    31.6020 </r>
       <r>   -14.1799     3.9160    32.3670 </r>
       <r>   -13.9845     5.5290    33.4472 </r>
       <r>   -13.7891     2.2915    33.8948 </r>
       <r>   -13.5938     5.1864    34.9080 </r>
       <r>   -13.3984     3.8827    35.6666 </r>
       <r>   -13.2031     0.0007    35.6667 </r>
       <r>   -13.0077     4.4687    36.5397 </r>
       <r>   -12.8123     6.0261    37.7170 </r>
       <r>   -12.6170     7.2108    39.1257 </r>
       <r>   -12.4216     2.0375    39.5237 </r>
       <r>   -12.2263     4.4428    40.3917 </r>
       <r>   -12.0309     3.3336    41.0429 </r>
       <r>   -11.8355     5.1404    42.0472 </r>
       <r>   -11.6402     4.4206    42.9108 </r>
       <r>   -11.4448     5.5939    44.0036 </r>
       <r>   -11.2494     5.0456    44.9893 </r>
       <r>   -11.0541     7.1253    46.3813 </r>
       <r>   -10.8587     2.4593    46.8618 </r>
       <r>   -10.6634     5.3096    47.8991 </r>
       <r>   -10.4680     6.4939    49.1677 </r>
       <r>   -10.2726    10.4990    51.2188 </r>
       <r>   -10.0773     8.3547    52.8510 </r>
       <r>    -9.8819    10.4526    54.8930 </r>
       <r>    -9.6866     6.8818    56.2374 </r>
       <r>    -9.4912     9.4919    58.0918 </r>
       <r>    -9.2958     8.3922    59.7313 </r>
       <r>    -9.1005    11.1786    61.9151 </r>
       <r>    -8.9051    13.0782    64.4701 </r>
       <r>    -8.7098    11.7668    66.7688 </r>
       <r>    -8.5144     9.4377    68.6126 </r>
       <r>    -8.3190     7.7329    70.1233 </r>
       <r>    -8.1237     8.2236    71.7299 </r>
       <r>    -7.9283    13.7659    74.4192 </r>
       <r>    -7.7330     9.0918    76.1953 </r>
       <r>    -7.5376     3.4687    76.8730 </r>
       <r>    -7.3422     7.7675    78.3904 </r>
       <r>    -7.1469    10.9968    80.5388 </r>
       <r>    -6.9515     7.3769    81.9799 </r>
       <r>    -6.7562     8.6582    83.6714 </r>
       <r>    -6.5608     5.3688    84.7202 </r>
       <r>    -6.3654     6.5241    85.9948 </r>
       <r>    -6.1701     5.5517    87.0794 </r>
       <r>    -5.9747     8.7648    88.7916 </r>
       <r>    -5.7794     2.2528    89.2317 </r>
       <r>    -5.5840     5.0211    90.2127 </r>
       <r>    -5.3886     4.7858    91.1476 </r>
       <r>    -5.1933     3.3300    91.7982 </r>
       <r>    -4.9979     6.0630    92.9826 </r>
       <r>    -4.8026     5.7820    94.1122 </r>
       <r>    -4.6072     3.9551    94.8849 </r>
       <r>    -4.4118     0.7061    95.0228 </r>
       <r>    -4.2165     2.2308    95.4586 </r>
       <r>    -4.0211     2.8388    96.0132 </r>
       <r>    -3.8258     1.6410    96.3338 </r>
       <r>    -3.6304     3.1684    96.9528 </r>
       <r>    -3.4350     0.2417    97.0000 </r>
       <r>    -3.2397     0.0182    97.0036 </r>
       <r>    -3.0443     2.7195    97.5348 </r>
       <r>    -2.8490     0.8807    97.7069 </r>
       <r>    -2.6536     0.4799    97.8007 </r>
       <r>    -2.4582     1.9512    98.1818 </r>
       <r>    -2.2629     0.2067    98.2222 </r>
       <r>    -2.0675     0.0000    98.2222 </r>
       <r>    -1.8722     0.4598    98.3121 </r>
       <r>    -1.6768     6.1923    99.5218 </r>
       <r>    -1.4814     1.8472    99.8827 </r>
       <r>    -1.2861     1.4697   100.1698 </r>
       <r>    -1.0907     7.8919   101.7115 </r>
       <r>    -0.8954     8.4986   103.3718 </r>
       <r>    -0.7000     6.2636   104.5955 </r>
       <r>    -0.5046     3.5641   105.2918 </r>
       <r>    -0.3093     6.1104   106.4855 </r>
       <r>    -0.1139     2.5673   106.9871 </r>
       <r>     0.0814     5.2004   108.0030 </r>
       <r>     0.2768     5.9971   109.1746 </r>
       <r>     0.4722     7.6391   110.6670 </r>
       <r>     0.6675     4.9620   111.6364 </r>
       <r>     0.8629    10.1740   113.6240 </r>
       <r>     1.0582    10.5462   115.6843 </r>
       <r>     1.2536    12.7974   118.1844 </r>
       <r>     1.4490    13.5125   120.8242 </r>
       <r>     1.6443    12.8679   123.3381 </r>
       <r>     1.8397    15.3235   126.3317 </r>
       <r>     2.0350     7.4284   127.7829 </r>
       <r>     2.2304     1.1112   128.0000 </r>
       <r>     2.4258     0.0001   128.0000 </r>
       <r>     2.6211     0.0000   128.0000 </r>
       <r>     2.8165     0.0000   128.0000 </r>
       <r>     3.0118     0.0000   128.0000 </r>
       <r>     3.2072     0.0000   128.0000 </r>
       <r>     3.4026     0.0000   128.0000 </r>
       <r>     3.5979     0.0000   128.0000 </r>
       <r>     3.7933     0.0000   128.0000 </r>
       <r>     3.9886     0.0000   128.0000 </r>
       <r>     4.1840     0.0000   128.0000 </r>
       <r>     4.3794     0.0000   128.0000 </r>
       <r>     4.5747     0.0000   128.0000 </r>
       <r>     4.7701     0.0000   128.0000 </r>
      </set>
     </set>
    </array>
   </total>
  </dos>
 </calculation>
 <structure name="finalpos" >
  <crystal>
   <varray name="basis" >
    <v>      12.30000000       0.00000000       0.00000000 </v>
    <v>      -6.15000000      10.65211247       0.00000000 </v>
    <v>       0.00000000       0.00000000      30.00000000 </v>
   </varray>
   <i name="volume">   3930.62950016 </i>
   <varray name="rec_basis" >
    <v>       0.08130081       0.04693905       0.00000000 </v>
    <v>       0.00000000       0.09387809       0.00000000 </v>
    <v>       0.00000000       0.00000000       0.03333333 </v>
   </varray>
  </crystal>
  <varray name="positions" >
   <v>       0.00069168       0.99541666       0.49998612 </v>
   <v>       0.13570752       0.06529461       0.50002869 </v>
   <v>       0.00528682       0.19571106       0.50058609 </v>
   <v>       0.13833518       0.26560218       0.50057170 </v>
   <v>       0.99712702       0.39177707       0.50100754 </v>
   <v>       0.13026968       0.46391674       0.50087604 </v>
   <v>       0.97526623       0.57616636       0.49974051 </v>
   <v>       0.11731876       0.65556017       0.50025836 </v>
   <v>       0.98729726       0.78579945       0.49978844 </v>
   <v>       0.12617716       0.86034230       0.49990407 </v>
   <v>       0.20174420       0.99935984       0.49996315 </v>
   <v>       0.34076841       0.07491797       0.49997416 </v>
   <v>       0.20564900       0.20029985       0.50029029 </v>
   <v>       0.34065624       0.27207656       0.50022199 </v>
   <v>       0.19984457       0.39937158       0.50071372 </v>
   <v>       0.33279713       0.46984879       0.50056375 </v>
   <v>       0.19199209       0.59719431       0.50058322 </v>
   <v>       0.32697969       0.66894440       0.50043978 </v>
   <v>       0.19196150       0.79444851       0.50008107 </v>
   <v>       0.33098870       0.87000208       0.50010093 </v>
   <v>       0.40655756       0.00904940       0.49998696 </v>
   <v>       0.54540405       0.08366039       0.49998134 </v>
   <v>       0.41537712       0.21379237       0.49993588 </v>
   <v>       0.55744946       0.29324157       0.49946986 </v>
   <v>       0.40242993       0.40537510       0.50047012 </v>
   <v>       0.53559216       0.47761928       0.50044748 </v>
   <v>       0.39430443       0.60365582       0.50046434 </v>
   <v>       0.52736225       0.67361877       0.50026175 </v>
   <v>       0.39695450       0.80397139       0.50018869 </v>
   <v>       0.53196727       0.87397152       0.50011628 </v>
   <v>       0.60374810       0.00898380       0.50016676 </v>
   <v>       0.73705382       0.07076953       0.50050530 </v>
   <v>       0.62488765       0.22578393       0.49959691 </v>
   <v>       0.76599571       0.29127341       0.50025991 </v>
   <v>       0.62301774       0.43445421       0.49988325 </v>
   <v>       0.59240615       0.60866974       0.50023153 </v>
   <v>       0.72347200       0.66559306       0.50021997 </v>
   <v>       0.59727190       0.80667286       0.50014313 </v>
   <v>       0.73106729       0.86823424       0.50012855 </v>
   <v>       0.80156259       0.00117311       0.50027601 </v>
   <v>       0.93536716       0.06268160       0.50025728 </v>
   <v>       0.80924606       0.20391568       0.50083025 </v>
   <v>       0.94027672       0.26072818       0.50083145 </v>
   <v>       0.90975834       0.43503138       0.50036590 </v>
   <v>       0.76676574       0.57827823       0.49975349 </v>
   <v>       0.90787378       0.64372456       0.49943208 </v>
   <v>       0.79564026       0.79872732       0.50011285 </v>
   <v>       0.92892615       0.86046430       0.49989995 </v>
   <v>       0.70664400       0.49444431       0.55687285 </v>
  </varray>
 </structure>
</modeling>
