  51  51   0   0
  0.7707117E+02  0.1230000E-08  0.1230000E-08  0.3000000E-08  0.5000000E-15
  1.000000000000000E-004
  CAR 
 Li defective graphene MACE training lab 
      4.91882925    -55.32316876  301     -2.57299510      1.00000000
    -55.323  0.0000E+00  0.0000E+00  0.0000E+00  0.0000E+00
    -55.122  0.0000E+00  0.0000E+00  0.0000E+00  0.0000E+00
    -54.922  0.0000E+00  0.0000E+00  0.0000E+00  0.0000E+00
    -54.721  0.0000E+00  0.0000E+00  0.0000E+00  0.0000E+00
    -54.520  0.0000E+00  0.0000E+00  0.0000E+00  0.0000E+00
    -54.319  0.0000E+00  0.0000E+00  0.0000E+00  0.0000E+00
    -54.118  0.0000E+00  0.0000E+00  0.0000E+00  0.0000E+00
    -53.918  0.0000E+00  0.0000E+00  0.0000E+00  0.0000E+00
    -53.717  0.0000E+00  0.0000E+00  0.0000E+00  0.0000E+00
    -53.516  0.0000E+00  0.0000E+00  0.0000E+00  0.0000E+00
    -53.315  0.0000E+00  0.0000E+00  0.0000E+00  0.0000E+00
    -53.114  0.0000E+00  0.0000E+00  0.0000E+00  0.0000E+00
    -52.913  0.0000E+00  0.0000E+00  0.0000E+00  0.0000E+00
    -52.713  0.7497E-03  0.7346E-03  0.1505E-03  0.1475E-03
    -52.512  0.4882E+01  0.4881E+01  0.9806E+00  0.9803E+00
    -52.311  0.9684E-01  0.9809E-01  0.1000E+01  0.1000E+01
    -52.110  0.0000E+00  0.0000E+00  0.1000E+01  0.1000E+01
    -51.909  0.0000E+00  0.0000E+00  0.1000E+01  0.1000E+01
    -51.709  0.0000E+00  0.0000E+00  0.1000E+01  0.1000E+01
    -51.508  0.0000E+00  0.0000E+00  0.1000E+01  0.1000E+01
    -51.307  0.0000E+00  0.0000E+00  0.1000E+01  0.1000E+01
    -51.106  0.0000E+00  0.0000E+00  0.1000E+01  0.1000E+01
    -50.905  0.0000E+00  0.0000E+00  0.1000E+01  0.1000E+01
    -50.705  0.0000E+00  0.0000E+00  0.1000E+01  0.1000E+01
    -50.504  0.0000E+00  0.0000E+00  0.1000E+01  0.1000E+01
    -50.303  0.0000E+00  0.0000E+00  0.1000E+01  0.1000E+01
    -50.102  0.0000E+00  0.0000E+00  0.1000E+01  0.1000E+01
    -49.901  0.0000E+00  0.0000E+00  0.1000E+01  0.1000E+01
    -49.701  0.0000E+00  0.0000E+00  0.1000E+01  0.1000E+01
    -49.500  0.0000E+00  0.0000E+00  0.1000E+01  0.1000E+01
    -49.299  0.0000E+00  0.0000E+00  0.1000E+01  0.1000E+01
    -49.098  0.0000E+00  0.0000E+00  0.1000E+01  0.1000E+01
    -48.897  0.0000E+00  0.0000E+00  0.1000E+01  0.1000E+01
    -48.697  0.0000E+00  0.0000E+00  0.1000E+01  0.1000E+01
    -48.496  0.0000E+00  0.0000E+00  0.1000E+01  0.1000E+01
    -48.295  0.0000E+00  0.0000E+00  0.1000E+01  0.1000E+01
    -48.094  0.0000E+00  0.0000E+00  0.1000E+01  0.1000E+01
    -47.893  0.0000E+00  0.0000E+00  0.1000E+01  0.1000E+01
    -47.693  0.0000E+00  0.0000E+00  0.1000E+01  0.1000E+01
    -47.492  0.0000E+00  0.0000E+00  0.1000E+01  0.1000E+01
    -47.291  0.0000E+00  0.0000E+00  0.1000E+01  0.1000E+01
    -47.090  0.0000E+00  0.0000E+00  0.1000E+01  0.1000E+01
    -46.889  0.0000E+00  0.0000E+00  0.1000E+01  0.1000E+01
    -46.688  0.0000E+00  0.0000E+00  0.1000E+01  0.1000E+01
    -46.488  0.0000E+00  0.0000E+00  0.1000E+01  0.1000E+01
    -46.287  0.0000E+00  0.0000E+00  0.1000E+01  0.1000E+01
    -46.086  0.0000E+00  0.0000E+00  0.1000E+01  0.1000E+01
    -45.885  0.0000E+00  0.0000E+00  0.1000E+01  0.1000E+01
    -45.684  0.0000E+00  0.0000E+00  0.1000E+01  0.1000E+01
    -45.484  0.0000E+00  0.0000E+00  0.1000E+01  0.1000E+01
    -45.283  0.0000E+00  0.0000E+00  0.1000E+01  0.1000E+01
    -45.082  0.0000E+00  0.0000E+00  0.1000E+01  0.1000E+01
    -44.881  0.0000E+00  0.0000E+00  0.1000E+01  0.1000E+01
    -44.680  0.0000E+00  0.0000E+00  0.1000E+01  0.1000E+01
    -44.480  0.0000E+00  0.0000E+00  0.1000E+01  0.1000E+01
    -44.279  0.0000E+00  0.0000E+00  0.1000E+01  0.1000E+01
    -44.078  0.0000E+00  0.0000E+00  0.1000E+01  0.1000E+01
    -43.877  0.0000E+00  0.0000E+00  0.1000E+01  0.1000E+01
    -43.676  0.0000E+00  0.0000E+00  0.1000E+01  0.1000E+01
    -43.476  0.0000E+00  0.0000E+00  0.1000E+01  0.1000E+01
    -43.275  0.0000E+00  0.0000E+00  0.1000E+01  0.1000E+01
    -43.074  0.0000E+00  0.0000E+00  0.1000E+01  0.1000E+01
    -42.873  0.0000E+00  0.0000E+00  0.1000E+01  0.1000E+01
    -42.672  0.0000E+00  0.0000E+00  0.1000E+01  0.1000E+01
    -42.472  0.0000E+00  0.0000E+00  0.1000E+01  0.1000E+01
    -42.271  0.0000E+00  0.0000E+00  0.1000E+01  0.1000E+01
    -42.070  0.0000E+00  0.0000E+00  0.1000E+01  0.1000E+01
    -41.869  0.0000E+00  0.0000E+00  0.1000E+01  0.1000E+01
    -41.668  0.0000E+00  0.0000E+00  0.1000E+01  0.1000E+01
    -41.468  0.0000E+00  0.0000E+00  0.1000E+01  0.1000E+01
    -41.267  0.0000E+00  0.0000E+00  0.1000E+01  0.1000E+01
    -41.066  0.0000E+00  0.0000E+00  0.1000E+01  0.1000E+01
    -40.865  0.0000E+00  0.0000E+00  0.1000E+01  0.1000E+01
    -40.664  0.0000E+00  0.0000E+00  0.1000E+01  0.1000E+01
    -40.463  0.0000E+00  0.0000E+00  0.1000E+01  0.1000E+01
    -40.263  0.0000E+00  0.0000E+00  0.1000E+01  0.1000E+01
    -40.062  0.0000E+00  0.0000E+00  0.1000E+01  0.1000E+01
    -39.861  0.0000E+00  0.0000E+00  0.1000E+01  0.1000E+01
    -39.660  0.0000E+00  0.0000E+00  0.1000E+01  0.1000E+01
    -39.459  0.0000E+00  0.0000E+00  0.1000E+01  0.1000E+01
    -39.259  0.0000E+00  0.0000E+00  0.1000E+01  0.1000E+01
    -39.058  0.0000E+00  0.0000E+00  0.1000E+01  0.1000E+01
    -38.857  0.0000E+00  0.0000E+00  0.1000E+01  0.1000E+01
    -38.656  0.0000E+00  0.0000E+00  0.1000E+01  0.1000E+01
    -38.455  0.0000E+00  0.0000E+00  0.1000E+01  0.1000E+01
    -38.255  0.0000E+00  0.0000E+00  0.1000E+01  0.1000E+01
    -38.054  0.0000E+00  0.0000E+00  0.1000E+01  0.1000E+01
    -37.853  0.0000E+00  0.0000E+00  0.1000E+01  0.1000E+01
    -37.652  0.0000E+00  0.0000E+00  0.1000E+01  0.1000E+01
    -37.451  0.0000E+00  0.0000E+00  0.1000E+01  0.1000E+01
    -37.251  0.0000E+00  0.0000E+00  0.1000E+01  0.1000E+01
    -37.050  0.0000E+00  0.0000E+00  0.1000E+01  0.1000E+01
    -36.849  0.0000E+00  0.0000E+00  0.1000E+01  0.1000E+01
    -36.648  0.0000E+00  0.0000E+00  0.1000E+01  0.1000E+01
    -36.447  0.0000E+00  0.0000E+00  0.1000E+01  0.1000E+01
    -36.247  0.0000E+00  0.0000E+00  0.1000E+01  0.1000E+01
    -36.046  0.0000E+00  0.0000E+00  0.1000E+01  0.1000E+01
    -35.845  0.0000E+00  0.0000E+00  0.1000E+01  0.1000E+01
    -35.644  0.0000E+00  0.0000E+00  0.1000E+01  0.1000E+01
    -35.443  0.0000E+00  0.0000E+00  0.1000E+01  0.1000E+01
    -35.243  0.0000E+00  0.0000E+00  0.1000E+01  0.1000E+01
    -35.042  0.0000E+00  0.0000E+00  0.1000E+01  0.1000E+01
    -34.841  0.0000E+00  0.0000E+00  0.1000E+01  0.1000E+01
    -34.640  0.0000E+00  0.0000E+00  0.1000E+01  0.1000E+01
    -34.439  0.0000E+00  0.0000E+00  0.1000E+01  0.1000E+01
    -34.238  0.0000E+00  0.0000E+00  0.1000E+01  0.1000E+01
    -34.038  0.0000E+00  0.0000E+00  0.1000E+01  0.1000E+01
    -33.837  0.0000E+00  0.0000E+00  0.1000E+01  0.1000E+01
    -33.636  0.0000E+00  0.0000E+00  0.1000E+01  0.1000E+01
    -33.435  0.0000E+00  0.0000E+00  0.1000E+01  0.1000E+01
    -33.234  0.0000E+00  0.0000E+00  0.1000E+01  0.1000E+01
    -33.034  0.0000E+00  0.0000E+00  0.1000E+01  0.1000E+01
    -32.833  0.0000E+00  0.0000E+00  0.1000E+01  0.1000E+01
    -32.632  0.0000E+00  0.0000E+00  0.1000E+01  0.1000E+01
    -32.431  0.0000E+00  0.0000E+00  0.1000E+01  0.1000E+01
    -32.230  0.0000E+00  0.0000E+00  0.1000E+01  0.1000E+01
    -32.030  0.0000E+00  0.0000E+00  0.1000E+01  0.1000E+01
    -31.829  0.0000E+00  0.0000E+00  0.1000E+01  0.1000E+01
    -31.628  0.0000E+00  0.0000E+00  0.1000E+01  0.1000E+01
    -31.427  0.0000E+00  0.0000E+00  0.1000E+01  0.1000E+01
    -31.226  0.0000E+00  0.0000E+00  0.1000E+01  0.1000E+01
    -31.026  0.0000E+00  0.0000E+00  0.1000E+01  0.1000E+01
    -30.825  0.0000E+00  0.0000E+00  0.1000E+01  0.1000E+01
    -30.624  0.0000E+00  0.0000E+00  0.1000E+01  0.1000E+01
    -30.423  0.0000E+00  0.0000E+00  0.1000E+01  0.1000E+01
    -30.222  0.0000E+00  0.0000E+00  0.1000E+01  0.1000E+01
    -30.022  0.0000E+00  0.0000E+00  0.1000E+01  0.1000E+01
    -29.821  0.0000E+00  0.0000E+00  0.1000E+01  0.1000E+01
    -29.620  0.0000E+00  0.0000E+00  0.1000E+01  0.1000E+01
    -29.419  0.0000E+00  0.0000E+00  0.1000E+01  0.1000E+01
    -29.218  0.0000E+00  0.0000E+00  0.1000E+01  0.1000E+01
    -29.017  0.0000E+00  0.0000E+00  0.1000E+01  0.1000E+01
    -28.817  0.0000E+00  0.0000E+00  0.1000E+01  0.1000E+01
    -28.616  0.0000E+00  0.0000E+00  0.1000E+01  0.1000E+01
    -28.415  0.0000E+00  0.0000E+00  0.1000E+01  0.1000E+01
    -28.214  0.0000E+00  0.0000E+00  0.1000E+01  0.1000E+01
    -28.013  0.0000E+00  0.0000E+00  0.1000E+01  0.1000E+01
    -27.813  0.0000E+00  0.0000E+00  0.1000E+01  0.1000E+01
    -27.612  0.0000E+00  0.0000E+00  0.1000E+01  0.1000E+01
    -27.411  0.0000E+00  0.0000E+00  0.1000E+01  0.1000E+01
    -27.210  0.0000E+00  0.0000E+00  0.1000E+01  0.1000E+01
    -27.009  0.0000E+00  0.0000E+00  0.1000E+01  0.1000E+01
    -26.809  0.0000E+00  0.0000E+00  0.1000E+01  0.1000E+01
    -26.608  0.0000E+00  0.0000E+00  0.1000E+01  0.1000E+01
    -26.407  0.0000E+00  0.0000E+00  0.1000E+01  0.1000E+01
    -26.206  0.0000E+00  0.0000E+00  0.1000E+01  0.1000E+01
    -26.005  0.0000E+00  0.0000E+00  0.1000E+01  0.1000E+01
    -25.805  0.0000E+00  0.0000E+00  0.1000E+01  0.1000E+01
    -25.604  0.0000E+00  0.0000E+00  0.1000E+01  0.1000E+01
    -25.403  0.0000E+00  0.0000E+00  0.1000E+01  0.1000E+01
    -25.202  0.0000E+00  0.0000E+00  0.1000E+01  0.1000E+01
    -25.001  0.0000E+00  0.0000E+00  0.1000E+01  0.1000E+01
    -24.801  0.0000E+00  0.0000E+00  0.1000E+01  0.1000E+01
    -24.600  0.0000E+00  0.0000E+00  0.1000E+01  0.1000E+01
    -24.399  0.0000E+00  0.0000E+00  0.1000E+01  0.1000E+01
    -24.198  0.0000E+00  0.0000E+00  0.1000E+01  0.1000E+01
    -23.997  0.0000E+00  0.0000E+00  0.1000E+01  0.1000E+01
    -23.797  0.0000E+00  0.0000E+00  0.1000E+01  0.1000E+01
    -23.596  0.0000E+00  0.0000E+00  0.1000E+01  0.1000E+01
    -23.395  0.0000E+00  0.0000E+00  0.1000E+01  0.1000E+01
    -23.194  0.0000E+00  0.0000E+00  0.1000E+01  0.1000E+01
    -22.993  0.0000E+00  0.0000E+00  0.1000E+01  0.1000E+01
    -22.792  0.0000E+00  0.0000E+00  0.1000E+01  0.1000E+01
    -22.592  0.1673E-10  0.1954E-11  0.1000E+01  0.1000E+01
    -22.391  0.1115E+00  0.6751E-01  0.1022E+01  0.1014E+01
    -22.190  0.4298E+01  0.4140E+01  0.1886E+01  0.1845E+01
    -21.989  0.3186E+01  0.3057E+01  0.2525E+01  0.2459E+01
    -21.788  0.3368E+01  0.3479E+01  0.3201E+01  0.3157E+01
    -21.588  0.2925E+01  0.2959E+01  0.3789E+01  0.3751E+01
    -21.387  0.4391E+01  0.4559E+01  0.4671E+01  0.4667E+01
    -21.186  0.2627E+01  0.2557E+01  0.5198E+01  0.5180E+01
    -20.985  0.4591E+01  0.4577E+01  0.6120E+01  0.6099E+01
    -20.784  0.4913E+01  0.5005E+01  0.7107E+01  0.7104E+01
    -20.584  0.1794E+01  0.1673E+01  0.7467E+01  0.7440E+01
    -20.383  0.5121E+01  0.4953E+01  0.8495E+01  0.8435E+01
    -20.182  0.3279E+01  0.3280E+01  0.9154E+01  0.9094E+01
    -19.981  0.4629E+01  0.4829E+01  0.1008E+02  0.1006E+02
    -19.780  0.1497E+01  0.1521E+01  0.1038E+02  0.1037E+02
    -19.580  0.5590E+01  0.5578E+01  0.1151E+02  0.1149E+02
    -19.379  0.3674E+01  0.3655E+01  0.1224E+02  0.1222E+02
    -19.178  0.4477E+01  0.4516E+01  0.1314E+02  0.1313E+02
    -18.977  0.4854E+01  0.4656E+01  0.1412E+02  0.1406E+02
    -18.776  0.1983E+01  0.2222E+01  0.1452E+02  0.1451E+02
    -18.576  0.2805E+01  0.2505E+01  0.1508E+02  0.1501E+02
    -18.375  0.7550E+01  0.7587E+01  0.1660E+02  0.1654E+02
    -18.174  0.3364E+01  0.3611E+01  0.1727E+02  0.1726E+02
    -17.973  0.3623E+01  0.3406E+01  0.1800E+02  0.1795E+02
    -17.772  0.5385E+01  0.5583E+01  0.1908E+02  0.1907E+02
    -17.572  0.4081E+00  0.4072E+00  0.1916E+02  0.1915E+02
    -17.371  0.8310E+01  0.8133E+01  0.2083E+02  0.2078E+02
    -17.170  0.4645E+01  0.4779E+01  0.2176E+02  0.2174E+02
    -16.969  0.4191E+01  0.4141E+01  0.2260E+02  0.2257E+02
    -16.768  0.4699E+01  0.4680E+01  0.2355E+02  0.2351E+02
    -16.567  0.1799E+01  0.1883E+01  0.2391E+02  0.2389E+02
    -16.367  0.2080E+01  0.2036E+01  0.2433E+02  0.2430E+02
    -16.166  0.7768E+01  0.7774E+01  0.2589E+02  0.2586E+02
    -15.965  0.1117E+01  0.1243E+01  0.2611E+02  0.2611E+02
    -15.764  0.2043E+01  0.1707E+01  0.2652E+02  0.2645E+02
    -15.563  0.3079E+01  0.3270E+01  0.2714E+02  0.2711E+02
    -15.363  0.3515E+01  0.3549E+01  0.2785E+02  0.2782E+02
    -15.162  0.7605E+01  0.7672E+01  0.2937E+02  0.2936E+02
    -14.961  0.3654E+01  0.3544E+01  0.3011E+02  0.3008E+02
    -14.760  0.4785E+01  0.4855E+01  0.3107E+02  0.3105E+02
    -14.559  0.4507E+01  0.4537E+01  0.3197E+02  0.3196E+02
    -14.359  0.3358E+01  0.3173E+01  0.3265E+02  0.3260E+02
    -14.158  0.3590E+01  0.3765E+01  0.3337E+02  0.3335E+02
    -13.957  0.5467E+01  0.5492E+01  0.3446E+02  0.3446E+02
    -13.756  0.4696E+01  0.4678E+01  0.3541E+02  0.3540E+02
    -13.555  0.2384E+01  0.2432E+01  0.3589E+02  0.3588E+02
    -13.355  0.9045E+00  0.7522E+00  0.3607E+02  0.3604E+02
    -13.154  0.7094E+01  0.6986E+01  0.3749E+02  0.3744E+02
    -12.953  0.5760E+01  0.5927E+01  0.3865E+02  0.3863E+02
    -12.752  0.4758E+01  0.4743E+01  0.3960E+02  0.3958E+02
    -12.551  0.1523E+01  0.1519E+01  0.3991E+02  0.3989E+02
    -12.351  0.4114E+01  0.4154E+01  0.4074E+02  0.4072E+02
    -12.150  0.4844E+01  0.4793E+01  0.4171E+02  0.4168E+02
    -11.949  0.7902E+01  0.7930E+01  0.4330E+02  0.4328E+02
    -11.748  0.1252E+01  0.1300E+01  0.4355E+02  0.4354E+02
    -11.547  0.6104E+01  0.5716E+01  0.4477E+02  0.4468E+02
    -11.347  0.7622E+01  0.7982E+01  0.4630E+02  0.4629E+02
    -11.146  0.4414E+01  0.4423E+01  0.4719E+02  0.4718E+02
    -10.945  0.3619E+01  0.3584E+01  0.4792E+02  0.4789E+02
    -10.744  0.2933E+01  0.2961E+01  0.4851E+02  0.4849E+02
    -10.543  0.8358E+01  0.8144E+01  0.5018E+02  0.5012E+02
    -10.342  0.9932E+01  0.9536E+01  0.5218E+02  0.5204E+02
    -10.142  0.8704E+01  0.9275E+01  0.5393E+02  0.5390E+02
     -9.941  0.8399E+01  0.8054E+01  0.5561E+02  0.5552E+02
     -9.740  0.8243E+01  0.8332E+01  0.5727E+02  0.5719E+02
     -9.539  0.1086E+02  0.1054E+02  0.5945E+02  0.5931E+02
     -9.338  0.8830E+01  0.9274E+01  0.6122E+02  0.6117E+02
     -9.138  0.1407E+02  0.1404E+02  0.6405E+02  0.6399E+02
     -8.937  0.1202E+02  0.1164E+02  0.6646E+02  0.6633E+02
     -8.736  0.1169E+02  0.1182E+02  0.6881E+02  0.6870E+02
     -8.535  0.8017E+01  0.8440E+01  0.7042E+02  0.7039E+02
     -8.334  0.8098E+01  0.7993E+01  0.7204E+02  0.7200E+02
     -8.134  0.9878E+01  0.9750E+01  0.7403E+02  0.7396E+02
     -7.933  0.1300E+02  0.1275E+02  0.7664E+02  0.7652E+02
     -7.732  0.7884E+01  0.8310E+01  0.7822E+02  0.7819E+02
     -7.531  0.2736E+01  0.2562E+01  0.7877E+02  0.7870E+02
     -7.330  0.9011E+01  0.8965E+01  0.8058E+02  0.8050E+02
     -7.130  0.9240E+01  0.9345E+01  0.8244E+02  0.8238E+02
     -6.929  0.1006E+02  0.1001E+02  0.8446E+02  0.8439E+02
     -6.728  0.8603E+01  0.8486E+01  0.8618E+02  0.8609E+02
     -6.527  0.5289E+01  0.5718E+01  0.8725E+02  0.8724E+02
     -6.326  0.5863E+01  0.5639E+01  0.8842E+02  0.8837E+02
     -6.126  0.5309E+01  0.4511E+01  0.8949E+02  0.8928E+02
     -5.925  0.1185E+02  0.1258E+02  0.9187E+02  0.9180E+02
     -5.724  0.3162E+01  0.3219E+01  0.9250E+02  0.9245E+02
     -5.523  0.6832E+01  0.6583E+01  0.9388E+02  0.9377E+02
     -5.322  0.2259E+01  0.2741E+01  0.9433E+02  0.9432E+02
     -5.122  0.2970E+01  0.2783E+01  0.9493E+02  0.9488E+02
     -4.921  0.7984E+01  0.7147E+01  0.9653E+02  0.9632E+02
     -4.720  0.7479E+01  0.8119E+01  0.9803E+02  0.9795E+02
     -4.519  0.2034E+01  0.2222E+01  0.9844E+02  0.9839E+02
     -4.318  0.2311E+01  0.2432E+01  0.9890E+02  0.9888E+02
     -4.117  0.2003E+01  0.2087E+01  0.9931E+02  0.9930E+02
     -3.917  0.2504E+01  0.1753E+01  0.9981E+02  0.9965E+02
     -3.716  0.2594E+01  0.3320E+01  0.1003E+03  0.1003E+03
     -3.515  0.2220E+01  0.2253E+01  0.1008E+03  0.1008E+03
     -3.314  0.9993E-02  0.2453E-01  0.1008E+03  0.1008E+03
     -3.113  0.2910E-08  0.6638E-12  0.1008E+03  0.1008E+03
     -2.913  0.4834E+00  0.8518E-01  0.1009E+03  0.1008E+03
     -2.712  0.2089E+01  0.2000E+01  0.1013E+03  0.1012E+03
     -2.511  0.2458E+01  0.1794E+01  0.1018E+03  0.1016E+03
     -2.310  0.2090E+01  0.2726E+01  0.1022E+03  0.1021E+03
     -2.109  0.7198E-01  0.5883E+00  0.1022E+03  0.1022E+03
     -1.909  0.1021E+00  0.2522E-01  0.1022E+03  0.1022E+03
     -1.708  0.3882E+01  0.3811E+01  0.1030E+03  0.1030E+03
     -1.507  0.3804E+01  0.3633E+01  0.1038E+03  0.1037E+03
     -1.306  0.5667E+01  0.5838E+01  0.1049E+03  0.1049E+03
     -1.105  0.1259E+01  0.1231E+01  0.1052E+03  0.1051E+03
     -0.905  0.7213E+01  0.7176E+01  0.1066E+03  0.1066E+03
     -0.704  0.7937E+01  0.7808E+01  0.1082E+03  0.1082E+03
     -0.503  0.5177E+01  0.5050E+01  0.1093E+03  0.1092E+03
     -0.302  0.3137E+01  0.3607E+01  0.1099E+03  0.1099E+03
     -0.101  0.6423E+00  0.3612E+00  0.1100E+03  0.1100E+03
      0.099  0.3887E+01  0.3975E+01  0.1108E+03  0.1108E+03
      0.300  0.9884E+01  0.9666E+01  0.1128E+03  0.1127E+03
      0.501  0.8471E+01  0.8443E+01  0.1145E+03  0.1144E+03
      0.702  0.4275E+01  0.4692E+01  0.1153E+03  0.1153E+03
      0.903  0.7606E+01  0.7186E+01  0.1169E+03  0.1168E+03
      1.104  0.8372E+01  0.8344E+01  0.1186E+03  0.1185E+03
      1.304  0.1133E+02  0.1087E+02  0.1208E+03  0.1206E+03
      1.505  0.1379E+02  0.1277E+02  0.1236E+03  0.1232E+03
      1.706  0.1613E+02  0.1691E+02  0.1268E+03  0.1266E+03
      1.907  0.1806E+02  0.1858E+02  0.1305E+03  0.1303E+03
      2.108  0.7082E+01  0.7416E+01  0.1319E+03  0.1318E+03
      2.308  0.5847E+00  0.8884E+00  0.1320E+03  0.1320E+03
      2.509  0.1098E-06  0.8331E-04  0.1320E+03  0.1320E+03
      2.710  0.0000E+00  0.0000E+00  0.1320E+03  0.1320E+03
      2.911  0.0000E+00  0.0000E+00  0.1320E+03  0.1320E+03
      3.112  0.0000E+00  0.0000E+00  0.1320E+03  0.1320E+03
      3.312  0.0000E+00  0.0000E+00  0.1320E+03  0.1320E+03
      3.513  0.0000E+00  0.0000E+00  0.1320E+03  0.1320E+03
      3.714  0.0000E+00  0.0000E+00  0.1320E+03  0.1320E+03
      3.915  0.0000E+00  0.0000E+00  0.1320E+03  0.1320E+03
      4.116  0.0000E+00  0.0000E+00  0.1320E+03  0.1320E+03
      4.316  0.0000E+00  0.0000E+00  0.1320E+03  0.1320E+03
      4.517  0.0000E+00  0.0000E+00  0.1320E+03  0.1320E+03
      4.718  0.0000E+00  0.0000E+00  0.1320E+03  0.1320E+03
      4.919  0.0000E+00  0.0000E+00  0.1320E+03  0.1320E+03
