 vasp.5.4.1 24Jun15 (build Jul 23 2024 06:15:33) complex                        
  
 executed on           IFC91_ompi date 2026.05.05  16:49:03
 running on   16 total cores
 distrk:  each k-point on   16 cores,    1 groups
 distr:  one band on NCORES_PER_BAND=   4 cores,    4 groups


--------------------------------------------------------------------------------------------------------


 INCAR:
 POTCAR:    PAW_PBE C 08Apr2002                   
 POTCAR:    PAW_PBE Li_sv 10Sep2004               
 POTCAR:    PAW_PBE C 08Apr2002                   
   VRHFIN =C: s2p2                                                              
   LEXCH  = PE                                                                  
   EATOM  =   147.1560 eV,   10.8157 Ry                                         
                                                                                
   TITEL  = PAW_PBE C 08Apr2002                                                 
   LULTRA =        F    use ultrasoft PP ?                                      
   IUNSCR =        1    unscreen: 0-lin 1-nonlin 2-no                           
   RPACOR =    1.200    partial core radius                                     
   POMASS =   12.011; ZVAL   =    4.000    mass and valenz                      
   RCORE  =    1.500    outmost cutoff radius                                   
   RWIGS  =    1.630; RWIGS  =    0.863    wigner-seitz radius (au A)           
   ENMAX  =  400.000; ENMIN  =  300.000 eV                                      
   ICORE  =        2    local potential                                         
   LCOR   =        T    correct aug charges                                     
   LPAW   =        T    paw PP                                                  
   EAUG   =  644.873                                                            
   DEXC   =    0.000                                                            
   RMAX   =    1.529    core radius for proj-oper                               
   RAUG   =    1.300    factor for augmentation sphere                          
   RDEP   =    1.501    radius for radial grids                                 
   RDEPT  =    1.300    core radius for aug-charge                              
                                                                                
   Atomic configuration                                                         
    4 entries                                                                   
     n  l   j            E        occ.                                          
     1  0  0.50      -273.3789   2.0000                                         
     2  0  0.50       -13.7508   2.0000                                         
     2  1  0.50        -5.2854   2.0000                                         
     3  2  1.50        -5.4423   0.0000                                         
   Description                                                                  
     l       E           TYP  RCUT    TYP  RCUT                                 
     0    -13.7508458     23  1.200                                             
     0     -8.2022199     23  1.200                                             
     1     -5.2854383     23  1.500                                             
     1     34.0145650     23  1.500                                             
     2     -5.4423304      7  1.500                                             
  local pseudopotential read in
  partial core-charges read in
  partial kinetic energy density read in
  atomic valenz-charges read in
  non local Contribution for L=           0  read in
    real space projection operators read in
  non local Contribution for L=           0  read in
    real space projection operators read in
  non local Contribution for L=           1  read in
    real space projection operators read in
  non local Contribution for L=           1  read in
    real space projection operators read in
    PAW grid and wavefunctions read in
 
   number of l-projection  operators is LMAX  =           4
   number of lm-projection operators is LMMAX =           8
 
 POTCAR:    PAW_PBE Li_sv 10Sep2004               
   VRHFIN =Li: 1s2s2p                                                           
   LEXCH  = PE                                                                  
   EATOM  =   202.7858 eV,   14.9043 Ry                                         
                                                                                
   TITEL  = PAW_PBE Li_sv 10Sep2004                                             
   LULTRA =        F    use ultrasoft PP ?                                      
   IUNSCR =        0    unscreen: 0-lin 1-nonlin 2-no                           
   RPACOR =    0.000    partial core radius                                     
   POMASS =    7.010; ZVAL   =    3.000    mass and valenz                      
   RCORE  =    1.700    outmost cutoff radius                                   
   RWIGS  =    2.050; RWIGS  =    1.085    wigner-seitz radius (au A)           
   ENMAX  =  499.034; ENMIN  =  374.276 eV                                      
   ICORE  =        2    local potential                                         
   LCOR   =        T    correct aug charges                                     
   LPAW   =        T    paw PP                                                  
   EAUG   =  628.945                                                            
   RMAX   =    1.732    core radius for proj-oper                               
   RAUG   =    1.300    factor for augmentation sphere                          
   RDEP   =    1.728    radius for radial grids                                 
   RDEPT  =    1.329    core radius for aug-charge                              
                                                                                
   Atomic configuration                                                         
    4 entries                                                                   
     n  l   j            E        occ.                                          
     1  0  0.50       -51.8549   2.0000                                         
     2  0  0.50        -2.8742   1.0000                                         
     2  1  0.50        -1.3606   0.0000                                         
     3  2  1.50        -1.3606   0.0000                                         
   Description                                                                  
     l       E           TYP  RCUT    TYP  RCUT                                 
     0    -51.8548813     23  1.400                                             
     0     -2.8742052     23  1.700                                             
     1     -1.3605826     23  1.400                                             
     2     -1.3605826     23  1.400                                             
  local pseudopotential read in
  atomic valenz-charges read in
  non local Contribution for L=           0  read in
    real space projection operators read in
  non local Contribution for L=           0  read in
    real space projection operators read in
  non local Contribution for L=           1  read in
    real space projection operators read in
    PAW grid and wavefunctions read in
 
   number of l-projection  operators is LMAX  =           3
   number of lm-projection operators is LMMAX =           5
 
 Optimization of the real space projectors (new method)

 maximal supplied QI-value         = 25.13
 optimisation between [QCUT,QGAM] = [ 11.56, 23.12] = [ 37.43,149.72] Ry 
 Optimized for a Real-space Cutoff    1.04 Angstroem

   l    n(q)    QCUT    max X(q) W(low)/X(q) W(high)/X(q)  e(spline) 
   0      7    11.561   115.676    0.20E-03    0.60E-03    0.21E-06
   0      7    11.561    87.132    0.20E-03    0.59E-03    0.21E-06
   1      7    11.561     4.429    0.23E-03    0.35E-03    0.15E-06
   1      7    11.561     2.733    0.18E-03    0.25E-03    0.12E-06
 Optimization of the real space projectors (new method)

 maximal supplied QI-value         = 22.11
 optimisation between [QCUT,QGAM] = [ 11.50, 23.22] = [ 37.02,150.92] Ry 
 Optimized for a Real-space Cutoff    1.08 Angstroem

   l    n(q)    QCUT    max X(q) W(low)/X(q) W(high)/X(q)  e(spline) 
   0      7    11.497    10.506    0.36E-04    0.62E-04    0.14E-07
   0      7    11.497     8.367    0.65E-04    0.14E-03    0.28E-07
   1      7    11.497     8.983    0.21E-03    0.43E-03    0.90E-07
  PAW_PBE C 08Apr2002                   :
 energy of atom  1       EATOM= -147.1560
 kinetic energy error for atom=    0.0071 (will be added to EATOM!!)
  PAW_PBE Li_sv 10Sep2004               :
 energy of atom  2       EATOM= -202.7858
 kinetic energy error for atom=    0.0130 (will be added to EATOM!!)
 
 
 POSCAR: C  Li                                   
  positions in direct lattice
  velocities in cartesian coordinates
 exchange correlation table for  LEXCH =        8
   RHO(1)=    0.500       N(1)  =     2000
   RHO(2)=  100.500       N(2)  =     4000
 


--------------------------------------------------------------------------------------------------------


 ion  position               nearest neighbor table
   1  0.998  0.005  0.505-  38 1.42   2 1.42  42 1.44
   2  0.131  0.069  0.510-  25 1.42   1 1.42  11 1.45
   3  0.995  0.205  0.495-  42 1.43   4 1.43  44 1.46
   4  0.129  0.269  0.498-  15 1.41   3 1.43  25 1.44
   5  0.995  0.409  0.490-  44 1.45   6 1.46  46 1.48
   6  0.131  0.470  0.496-  17 1.43  15 1.45   5 1.46
   7  0.017  0.617  0.501-   8 1.37  46 1.40  48 1.42
   8  0.144  0.673  0.509-   7 1.37  19 1.40  17 1.42
   9  0.007  0.810  0.509-  48 1.37  10 1.40  38 1.42
  10  0.136  0.871  0.517-  11 1.40   9 1.40  19 1.45
  11  0.198  0.002  0.517-  10 1.40  24 1.40   2 1.45
  12  0.517  0.250  0.502-  23 1.38  35 1.40  33 1.42
  13  0.402  0.397  0.497-  14 1.43  16 1.45  26 1.46
  14  0.328  0.265  0.504-  25 1.42  23 1.42  13 1.43
  15  0.199  0.402  0.497-   4 1.41   6 1.45  16 1.45
  16  0.335  0.465  0.497-  39 1.41  13 1.45  15 1.45
  17  0.205  0.602  0.504-  18 1.42   8 1.42   6 1.43
  18  0.338  0.665  0.505-  17 1.42  29 1.42  39 1.44
  19  0.204  0.803  0.517-  20 1.40   8 1.40  10 1.45
  20  0.336  0.864  0.517-  19 1.40  21 1.40  29 1.45
  21  0.397  0.996  0.518-  20 1.40  22 1.40  24 1.45
  22  0.527  0.056  0.510-  33 1.38  21 1.40  31 1.42
  23  0.390  0.193  0.510-  12 1.38  24 1.40  14 1.42
  24  0.329  0.064  0.518-  11 1.40  23 1.40  21 1.45
  25  0.195  0.202  0.505-  14 1.42   2 1.42   4 1.44
  26  0.538  0.457  0.490-  37 1.45  13 1.46  35 1.48
  27  0.602  0.795  0.498-  40 1.41  28 1.43  30 1.44
  28  0.539  0.661  0.495-  39 1.43  27 1.43  37 1.46
  29  0.403  0.797  0.510-  30 1.42  18 1.42  20 1.45
  30  0.535  0.862  0.505-  31 1.42  29 1.42  27 1.44
  31  0.598  0.995  0.504-  30 1.42  22 1.42  32 1.43
  32  0.730  0.069  0.497-  31 1.43  41 1.45  43 1.46
  33  0.583  0.183  0.502-  22 1.38  34 1.40  12 1.42
  34  0.708  0.259  0.489-  33 1.40  36 1.47  43 1.48
  35  0.593  0.374  0.489-  12 1.40  36 1.47  26 1.48
  36  0.711  0.378  0.479-  45 1.37  35 1.47  34 1.47
  37  0.607  0.593  0.490-  50 1.45  26 1.45  28 1.46
  38  0.935  0.872  0.504-   1 1.42   9 1.42  49 1.43
  39  0.405  0.598  0.498-  16 1.41  28 1.43  18 1.44
  40  0.735  0.865  0.497-  27 1.41  49 1.45  41 1.45
  41  0.798  0.001  0.497-  42 1.41  32 1.45  40 1.45
  42  0.931  0.071  0.498-  41 1.41   3 1.43   1 1.44
  43  0.791  0.204  0.490-  44 1.45  32 1.46  34 1.48
  44  0.926  0.273  0.490-   5 1.45  43 1.45   3 1.46
  45  0.822  0.489  0.478-  36 1.37  46 1.47  47 1.47
  46  0.941  0.492  0.488-   7 1.40  45 1.47   5 1.48
  47  0.825  0.607  0.488-  48 1.40  45 1.47  50 1.48
  48  0.950  0.684  0.501-   9 1.37  47 1.40   7 1.42
  49  0.803  0.798  0.496-  38 1.43  40 1.45  50 1.46
  50  0.743  0.662  0.490-  37 1.45  49 1.46  47 1.48
  51  0.786  0.440  0.557-
 

IMPORTANT INFORMATION: All symmetrisations will be switched off!
NOSYMM: (Re-)initialisation of all symmetry stuff for point group C_1.

 
 
 KPOINTS: Automatic mesh                          

Automatic generation of k-mesh.
Space group operators:
 irot       det(A)        alpha          n_x          n_y          n_z        tau_x        tau_y        tau_z
    1     1.000000     0.000001     1.000000     0.000000     0.000000     0.000000     0.000000     0.000000
 
 Subroutine IBZKPT returns following result:
 ===========================================
 
 Found      5 irreducible k-points:
 
 Following reciprocal coordinates:
            Coordinates               Weight
  0.000000  0.000000  0.000000      1.000000
  0.333333 -0.000000  0.000000      2.000000
  0.000000  0.333333  0.000000      2.000000
  0.333333  0.333333  0.000000      2.000000
 -0.333333  0.333333  0.000000      2.000000
 
 Following cartesian coordinates:
            Coordinates               Weight
  0.000000  0.000000  0.000000      1.000000
  0.027100  0.015646  0.000000      2.000000
  0.000000  0.031293  0.000000      2.000000
  0.027100  0.046939  0.000000      2.000000
 -0.027100  0.015646  0.000000      2.000000
 


--------------------------------------------------------------------------------------------------------




 Dimension of arrays:
   k-points           NKPTS =      5   k-points in BZ     NKDIM =      5   number of bands    NBANDS=    132
   number of dos      NEDOS =    301   number of ions     NIONS =     51
   non local maximal  LDIM  =      4   non local SUM 2l+1 LMDIM =      8
   total plane-waves  NPLWV = ******
   max r-space proj   IRMAX =   2789   max aug-charges    IRDMAX=  51672
   dimension x,y,z NGX =    96 NGY =   96 NGZ =  224
   dimension x,y,z NGXF=   192 NGYF=  192 NGZF=  448
   support grid    NGXF=   384 NGYF=  384 NGZF=  896
   ions per type =              50   1
 NGX,Y,Z   is equivalent  to a cutoff of  12.98, 12.98, 12.41 a.u.
 NGXF,Y,Z  is equivalent  to a cutoff of  25.95, 25.95, 24.83 a.u.


 I would recommend the setting:
   dimension x,y,z NGX =    91 NGY =   91 NGZ =  223
 SYSTEM =  Li defective graphene MACE training lab 
 POSCAR =  C  Li                                   

 Startparameter for this run:
   NWRITE =      2    write-flag & timer
   PREC   = accura    normal or accurate (medium, high low for compatibility)
   ISTART =      0    job   : 0-new  1-cont  2-samecut
   ICHARG =      2    charge: 1-file 2-atom 10-const
   ISPIN  =      2    spin polarized calculation?
   LNONCOLLINEAR =      F non collinear calculations
   LSORBIT =      F    spin-orbit coupling
   INIWAV =      1    electr: 0-lowe 1-rand  2-diag
   LASPH  =      T    aspherical Exc in radial PAW
   METAGGA=      F    non-selfconsistent MetaGGA calc.

 Electronic Relaxation 1
   ENCUT  =  520.0 eV  38.22 Ry    6.18 a.u.  22.87 22.87 55.78*2*pi/ulx,y,z
   ENINI  =  520.0     initial cutoff
   ENAUG  =  644.9 eV  augmentation charge cutoff
   NELM   =    120;   NELMIN=  2; NELMDL= -5     # of ELM steps 
   EDIFF  = 0.1E-05   stopping-criterion for ELM
   LREAL  =      T    real-space projection
   NLSPLINE    = F    spline interpolate recip. space projectors
   LCOMPAT=      F    compatible to vasp.4.4
   GGA_COMPAT  = T    GGA compatible to vasp.4.4-vasp.4.6
   LMAXPAW     = -100 max onsite density
   LMAXMIX     =    2 max onsite mixed and CHGCAR
   VOSKOWN=      0    Vosko Wilk Nusair interpolation
   ROPT   =   -0.00025  -0.00025
 Ionic relaxation
   EDIFFG = 0.1E-04   stopping-criterion for IOM
   NSW    =      0    number of steps for IOM
   NBLOCK =      1;   KBLOCK =      1    inner block; outer block 
   IBRION =     -1    ionic relax: 0-MD 1-quasi-New 2-CG
   NFREE  =      0    steps in history (QN), initial steepest desc. (CG)
   ISIF   =      2    stress and relaxation
   IWAVPR =     10    prediction:  0-non 1-charg 2-wave 3-comb
   ISYM   =      0    0-nonsym 1-usesym 2-fastsym
   LCORR  =      T    Harris-Foulkes like correction to forces

   POTIM  = 0.5000    time-step for ionic-motion
   TEIN   =    0.0    initial temperature
   TEBEG  =    0.0;   TEEND  =   0.0 temperature during run
   SMASS  =  -3.00    Nose mass-parameter (am)
   estimated Nose-frequenzy (Omega)   =  0.10E-29 period in steps =****** mass=  -0.346E-26a.u.
   SCALEE = 1.0000    scale energy and forces
   NPACO  =    256;   APACO  = 16.0  distance and # of slots for P.C.
   PSTRESS=    0.0 pullay stress

  Mass of Ions in am
   POMASS =  12.01  7.01
  Ionic Valenz
   ZVAL   =   4.00  3.00
  Atomic Wigner-Seitz radii
   RWIGS  =  -1.00 -1.00
  virtual crystal weights 
   VCA    =   1.00  1.00
   NELECT =     203.0000    total number of electrons
   NUPDOWN=      -1.0000    fix difference up-down

 DOS related values:
   EMIN   =  10.00;   EMAX   =-10.00  energy-range for DOS
   EFERMI =   0.00
   ISMEAR =     0;   SIGMA  =   0.05  broadening in eV -4-tet -1-fermi 0-gaus

 Electronic relaxation 2 (details)
   IALGO  =     38    algorithm
   LDIAG  =      T    sub-space diagonalisation (order eigenvalues)
   LSUBROT=      F    optimize rotation matrix (better conditioning)
   TURBO    =      0    0=normal 1=particle mesh
   IRESTART =      0    0=no restart 2=restart with 2 vectors
   NREBOOT  =      0    no. of reboots
   NMIN     =      0    reboot dimension
   EREF     =   0.00    reference energy to select bands
   IMIX   =      4    mixing-type and parameters
     AMIX     =   0.40;   BMIX     =  1.00
     AMIX_MAG =   1.60;   BMIX_MAG =  1.00
     AMIN     =   0.10
     WC   =   100.;   INIMIX=   1;  MIXPRE=   1;  MAXMIX= -45

 Intra band minimization:
   WEIMIN = 0.0000     energy-eigenvalue tresh-hold
   EBREAK =  0.19E-08  absolut break condition
   DEPER  =   0.30     relativ break condition  

   TIME   =   0.40     timestep for ELM

  volume/ion in A,a.u.               =      77.07       520.10
  Fermi-wavevector in a.u.,A,eV,Ry     =   0.609658  1.152086  5.057049  0.371683
  Thomas-Fermi vector in A             =   1.664934
 
 Write flags
   LWAVE  =      F    write WAVECAR
   LCHARG =      F    write CHGCAR
   LVTOT  =      F    write LOCPOT, total local potential
   LVHAR  =      F    write LOCPOT, Hartree potential only
   LELF   =      F    write electronic localiz. function (ELF)
   LORBIT =      0    0 simple, 1 ext, 2 COOP (PROOUT)


 Dipole corrections
   LMONO  =      F    monopole corrections only (constant potential shift)
   LDIPOL =      F    correct potential (dipole corrections)
   IDIPOL =      0    1-x, 2-y, 3-z, 4-all directions 
   EPSILON=  1.0000000 bulk dielectric constant

 Exchange correlation treatment:
   GGA     =    --    GGA type
   LEXCH   =     8    internal setting for exchange type
   VOSKOWN=      0    Vosko Wilk Nusair interpolation
   LHFCALC =     F    Hartree Fock is set to
   LHFONE  =     F    Hartree Fock one center treatment
   AEXX    =    0.0000 exact exchange contribution

 Linear response parameters
   LEPSILON=     F    determine dielectric tensor
   LRPA    =     F    only Hartree local field effects (RPA)
   LNABLA  =     F    use nabla operator in PAW spheres
   LVEL    =     F    velocity operator in full k-point grid
   LINTERFAST=   F  fast interpolation
   KINTER  =     0    interpolate to denser k-point grid
   CSHIFT  =0.1000    complex shift for real part using Kramers Kronig
   OMEGAMAX=  -1.0    maximum frequency
   DEG_THRESHOLD= 0.2000000E-02 threshold for treating states as degnerate
   RTIME   =    0.100 relaxation time in fs

 Orbital magnetization related:
   ORBITALMAG=     F  switch on orbital magnetization
   LCHIMAG   =     F  perturbation theory with respect to B field
   DQ        =  0.001000  dq finite difference perturbation B field



--------------------------------------------------------------------------------------------------------


 Static calculation
 charge density and potential will be updated during run
 spin polarized calculation
 Variant of blocked Davidson
 Davidson routine will perform the subspace rotation
 perform sub-space diagonalisation
    after iterative eigenvector-optimisation
 modified Broyden-mixing scheme, WC =      100.0
 initial mixing is a Kerker type mixing with AMIX =  0.4000 and BMIX =      1.0000
 Hartree-type preconditioning will be used
 using additional bands           30
 real space projection scheme for non local part
 use partial core corrections
 calculate Harris-corrections to forces 
   (improved forces if not selfconsistent)
 use gradient corrections 
 use of overlap-Matrix (Vanderbilt PP)
 Gauss-broadening in eV      SIGMA  =   0.05


--------------------------------------------------------------------------------------------------------


  energy-cutoff  :      520.00
  volume of cell :     3930.63
      direct lattice vectors                 reciprocal lattice vectors
    12.300000000  0.000000000  0.000000000     0.081300813  0.046939046  0.000000000
    -6.150000000 10.652112467  0.000000000     0.000000000  0.093878093  0.000000000
     0.000000000  0.000000000 30.000000000     0.000000000  0.000000000  0.033333333

  length of vectors
    12.300000000 12.300000000 30.000000000     0.093878093  0.093878093  0.033333333


 
 k-points in units of 2pi/SCALE and weight: Automatic mesh                          
   0.00000000  0.00000000  0.00000000       0.111
   0.02710027  0.01564635  0.00000000       0.222
   0.00000000  0.03129270  0.00000000       0.222
   0.02710027  0.04693905  0.00000000       0.222
  -0.02710027  0.01564635  0.00000000       0.222
 
 k-points in reciprocal lattice and weights: Automatic mesh                          
   0.00000000  0.00000000  0.00000000       0.111
   0.33333333 -0.00000000  0.00000000       0.222
   0.00000000  0.33333333  0.00000000       0.222
   0.33333333  0.33333333  0.00000000       0.222
  -0.33333333  0.33333333  0.00000000       0.222
 
 position of ions in fractional coordinates (direct lattice) 
   0.99824632  0.00451485  0.50456974
   0.13064214  0.06937547  0.51014723
   0.99450334  0.20543693  0.49533941
   0.12874344  0.26897822  0.49821997
   0.99549924  0.40924387  0.48997498
   0.13111623  0.47011518  0.49608251
   0.01694627  0.61707021  0.50086202
   0.14368459  0.67346735  0.50906859
   0.00680056  0.81035110  0.50906906
   0.13634663  0.87093284  0.51710703
   0.19769422  0.00223603  0.51731135
   0.51663516  0.24987308  0.50229483
   0.40218667  0.39650253  0.49661258
   0.32847798  0.26460571  0.50429262
   0.19857260  0.40161433  0.49668863
   0.33464895  0.46494607  0.49678961
   0.20488481  0.60214560  0.50352156
   0.33784857  0.66491353  0.50456968
   0.20426646  0.80301336  0.51710687
   0.33556953  0.86436090  0.51731135
   0.39697042  0.99568090  0.51793013
   0.52677657  0.05640753  0.51029899
   0.38974075  0.19344334  0.51029902
   0.32901416  0.06363699  0.51793012
   0.19546749  0.20182835  0.50490773
   0.53776641  0.45732263  0.49044788
   0.60231162  0.79541019  0.49821990
   0.53877040  0.66117011  0.49533946
   0.40270914  0.79730880  0.51014714
   0.53516185  0.86213429  0.50490773
   0.59793910  0.99514473  0.50429256
   0.72983580  0.06885333  0.49661244
   0.58320626  0.18330190  0.50229480
   0.70782687  0.25920486  0.48900840
   0.59253813  0.37449369  0.48900842
   0.71088039  0.37754721  0.47886008
   0.60677497  0.59312172  0.48985965
   0.93547874  0.87155144  0.50352185
   0.40452511  0.59760148  0.49815080
   0.73494768  0.86523935  0.49668863
   0.79827934  0.00131561  0.49678948
   0.93093470  0.07119166  0.49815081
   0.79065586  0.20443305  0.49044784
   0.92645497  0.27344147  0.48985966
   0.82194826  0.48861487  0.47841955
   0.94070656  0.49201793  0.48816656
   0.82535155  0.60737341  0.48816659
   0.95040365  0.68361294  0.50086218
   0.80344850  0.79778282  0.49608286
   0.74257744  0.66216589  0.48997508
   0.78635967  0.44020914  0.55691839
 
 position of ions in cartesian coordinates  (Angst):
  12.25066345  0.04809267 15.13709213
   1.18023914  0.73899535 15.30441681
  10.96895395  2.18833724 14.86018242
  -0.07067176  2.86518624 14.94659910
   9.72779081  4.35931172 14.69924936
  -1.27847871  5.00771979 14.88247526
  -3.58654271  6.57310123 15.02586069
  -2.37450376  7.17384995 15.27205779
  -4.90001236  8.63195107 15.27207176
  -3.67917338  9.27727452 15.51321085
   2.41788737  0.02381841 15.51934053
   4.81789300  2.66167616 15.06884487
   2.50840547  4.22358955 14.89837726
   2.41295395  2.81860983 15.12877852
  -0.02748511  4.27804103 14.90065899
   1.25676375  4.95265780 14.90368841
  -1.18311232  6.41412265 15.10564670
   0.06631924  7.08273371 15.13709045
  -2.42605473  8.55378864 15.51320609
  -1.18831428  9.20726949 15.51934038
  -1.24070143 10.60610493 15.53790393
   6.13244552  0.60085932 15.30896967
   3.60413469  2.06058018 15.30897065
   3.65550668  0.67786837 15.53790345
   1.16300575  2.14989824 15.14723199
   3.80199267  4.87145209 14.71343648
   2.51666023  8.47279877 14.94659692
   2.56067971  7.04285839 14.86018376
   0.04987332  8.49302299 15.30441435
   1.28036491  9.18355145 15.14723182
   1.23451077 10.60039360 15.12877676
   8.55353232  0.73343339 14.89837318
   6.04613028  1.95255246 15.06884403
   7.11216056  2.76107933 14.67025196
   4.98508284  3.98914888 14.67025271
   6.42191350  4.02167537 14.36580231
   3.81563353  6.31799930 14.69578952
   6.14634719  9.28386394 15.10565544
   1.30040977  6.36571813 14.94452396
   3.71863441  9.21662691 14.90065885
   9.81074486  0.01401397 14.90368426
  11.01266809  0.75834162 14.94452419
   8.46780378  2.17764382 14.71343523
   9.71373112  2.91272932 14.69578990
   7.10498215  5.20478057 14.35258636
   8.54478041  5.24103032 14.64499686
   6.41647763  6.46980984 14.64499757
   7.48574532  7.28192191 15.02586532
   4.97605225  8.49807234 14.88248578
   5.06138228  7.05346551 14.69925235
   6.96493769  4.68915723 16.70755156
 


--------------------------------------------------------------------------------------------------------


 k-point  1 :   0.0000 0.0000 0.0000  plane waves:  105831
 k-point  2 :   0.3333-0.0000 0.0000  plane waves:  105834
 k-point  3 :   0.0000 0.3333 0.0000  plane waves:  105834
 k-point  4 :   0.3333 0.3333 0.0000  plane waves:  105861
 k-point  5 :  -0.3333 0.3333 0.0000  plane waves:  105834

 maximum and minimum number of plane-waves per node :     26501    26424

 maximum number of plane-waves:    105861
 maximum index in each direction: 
   IXMAX=   23   IYMAX=   22   IZMAX=   55
   IXMIN=  -23   IYMIN=  -23   IZMIN=  -55

 NGX is ok and might be reduce to  94
 NGY is ok and might be reduce to  92
 NGZ is ok and might be reduce to 222

 real space projection operators:
  total allocation   :       7704.95 KBytes
  max/ min on nodes  :       1928.53       1923.35


 parallel 3D FFT for wavefunctions:
    minimum data exchange during FFTs selected (reduces bandwidth)
 parallel 3D FFT for charge:
    minimum data exchange during FFTs selected (reduces bandwidth)


 total amount of memory used by VASP on root node   465219. kBytes
========================================================================

   base      :      30000. kBytes
   nonlr-proj:       4757. kBytes
   fftplans  :     165810. kBytes
   grid      :     124231. kBytes
   one-center:         79. kBytes
   wavefun   :     140342. kBytes
 
     INWAV:  cpu time    0.0000: real time    0.0002
 Broyden mixing: mesh for mixing (old mesh)
   NGX = 45   NGY = 45   NGZ =111
  (NGX  =192   NGY  =192   NGZ  =448)
  gives a total of 224775 points

 initial charge density was supplied:
 charge density of overlapping atoms calculated
 number of electron     203.0000000 magnetization       6.0000000
 keeping initial charge density in first step


--------------------------------------------------------------------------------------------------------


 Maximum index for non-local projection operator          675
 Maximum index for augmentation-charges         3214 (set IRDMAX)


--------------------------------------------------------------------------------------------------------


 First call to EWALD:  gamma=   0.112
 Maximum number of real-space cells 4x 4x 2
 Maximum number of reciprocal cells 2x 2x 5

 FEWALD executed in parallel
    FEWALD:  cpu time    0.0021: real time    0.0021


----------------------------------------- Iteration    1(   1)  ---------------------------------------


    POTLOK:  cpu time    1.4907: real time    1.4907
    SETDIJ:  cpu time    1.3563: real time    1.3564
     EDDAV:  cpu time   45.5030: real time   45.5048
       DOS:  cpu time    0.0006: real time    0.0006
    --------------------------------------------
      LOOP:  cpu time   48.3518: real time   48.3552

 eigenvalue-minimisations  :  3232
 total energy-change (2. order) : 0.1944123E+04  (-0.6759460E+04)
 number of electron     203.0000000 magnetization       6.0000000
 augmentation part      203.0000000 magnetization       6.0000000

 Free energy of the ion-electron system (eV)
  ---------------------------------------------------
  alpha Z        PSCENC =        53.42782116
  Ewald energy   TEWEN  =     56421.09958711
  -Hartree energ DENC   =    -61689.25992316
  -exchange      EXHF   =         0.00000000
  -V(xc)+E(xc)   XCENC  =       670.78772291
  PAW double counting   =      5505.55773403    -5549.36347127
  entropy T*S    EENTRO =        -0.02853765
  eigenvalues    EBANDS =     -1028.31507020
  atomic energy  EATOM  =      7560.21751256
  Solvation  Ediel_sol  =         0.00000000
  ---------------------------------------------------
  free energy    TOTEN  =      1944.12337548 eV

  energy without entropy =     1944.15191312  energy(sigma->0) =     1944.13764430


--------------------------------------------------------------------------------------------------------




----------------------------------------- Iteration    1(   2)  ---------------------------------------


     EDDAV:  cpu time   54.9398: real time   54.9424
       DOS:  cpu time    0.0005: real time    0.0005
    --------------------------------------------
      LOOP:  cpu time   54.9408: real time   54.9466

 eigenvalue-minimisations  :  4080
 total energy-change (2. order) :-0.1901323E+04  (-0.1757736E+04)
 number of electron     203.0000000 magnetization       6.0000000
 augmentation part      203.0000000 magnetization       6.0000000

 Free energy of the ion-electron system (eV)
  ---------------------------------------------------
  alpha Z        PSCENC =        53.42782116
  Ewald energy   TEWEN  =     56421.09958711
  -Hartree energ DENC   =    -61689.25992316
  -exchange      EXHF   =         0.00000000
  -V(xc)+E(xc)   XCENC  =       670.78772291
  PAW double counting   =      5505.55773403    -5549.36347127
  entropy T*S    EENTRO =        -0.00348165
  eigenvalues    EBANDS =     -2929.66323263
  atomic energy  EATOM  =      7560.21751256
  Solvation  Ediel_sol  =         0.00000000
  ---------------------------------------------------
  free energy    TOTEN  =        42.80026904 eV

  energy without entropy =       42.80375069  energy(sigma->0) =       42.80200987


--------------------------------------------------------------------------------------------------------




----------------------------------------- Iteration    1(   3)  ---------------------------------------


     EDDAV:  cpu time   47.9596: real time   47.9883
       DOS:  cpu time    0.0005: real time    0.0005
    --------------------------------------------
      LOOP:  cpu time   47.9606: real time   47.9922

 eigenvalue-minimisations  :  3456
 total energy-change (2. order) :-0.5054831E+03  (-0.5009875E+03)
 number of electron     203.0000000 magnetization       6.0000000
 augmentation part      203.0000000 magnetization       6.0000000

 Free energy of the ion-electron system (eV)
  ---------------------------------------------------
  alpha Z        PSCENC =        53.42782116
  Ewald energy   TEWEN  =     56421.09958711
  -Hartree energ DENC   =    -61689.25992316
  -exchange      EXHF   =         0.00000000
  -V(xc)+E(xc)   XCENC  =       670.78772291
  PAW double counting   =      5505.55773403    -5549.36347127
  entropy T*S    EENTRO =        -0.00553690
  eigenvalues    EBANDS =     -3435.14427727
  atomic energy  EATOM  =      7560.21751256
  Solvation  Ediel_sol  =         0.00000000
  ---------------------------------------------------
  free energy    TOTEN  =      -462.68283084 eV

  energy without entropy =     -462.67729395  energy(sigma->0) =     -462.68006240


--------------------------------------------------------------------------------------------------------




----------------------------------------- Iteration    1(   4)  ---------------------------------------


     EDDAV:  cpu time   47.1636: real time   47.1902
       DOS:  cpu time    0.0005: real time    0.0005
    --------------------------------------------
      LOOP:  cpu time   47.1647: real time   47.1944

 eigenvalue-minimisations  :  3384
 total energy-change (2. order) :-0.2694526E+02  (-0.2665648E+02)
 number of electron     203.0000000 magnetization       6.0000000
 augmentation part      203.0000000 magnetization       6.0000000

 Free energy of the ion-electron system (eV)
  ---------------------------------------------------
  alpha Z        PSCENC =        53.42782116
  Ewald energy   TEWEN  =     56421.09958711
  -Hartree energ DENC   =    -61689.25992316
  -exchange      EXHF   =         0.00000000
  -V(xc)+E(xc)   XCENC  =       670.78772291
  PAW double counting   =      5505.55773403    -5549.36347127
  entropy T*S    EENTRO =        -0.00484596
  eigenvalues    EBANDS =     -3462.09022686
  atomic energy  EATOM  =      7560.21751256
  Solvation  Ediel_sol  =         0.00000000
  ---------------------------------------------------
  free energy    TOTEN  =      -489.62808950 eV

  energy without entropy =     -489.62324354  energy(sigma->0) =     -489.62566652


--------------------------------------------------------------------------------------------------------




----------------------------------------- Iteration    1(   5)  ---------------------------------------


     EDDAV:  cpu time   50.4498: real time   50.4522
       DOS:  cpu time    0.0005: real time    0.0005
    CHARGE:  cpu time    4.0032: real time    4.0033
    MIXING:  cpu time    0.0248: real time    0.0248
    --------------------------------------------
      LOOP:  cpu time   54.4788: real time   54.4829

 eigenvalue-minimisations  :  3688
 total energy-change (2. order) :-0.9110024E+00  (-0.9045952E+00)
 number of electron     203.0000000 magnetization       5.6274338
 augmentation part        6.4426048 magnetization       5.1668661

 Broyden mixing:
  rms(total) = 0.32951E+01    rms(broyden)= 0.32945E+01
  rms(prec ) = 0.33980E+01
  weight for this iteration     100.00

 Free energy of the ion-electron system (eV)
  ---------------------------------------------------
  alpha Z        PSCENC =        53.42782116
  Ewald energy   TEWEN  =     56421.09958711
  -Hartree energ DENC   =    -61689.25992316
  -exchange      EXHF   =         0.00000000
  -V(xc)+E(xc)   XCENC  =       670.78772291
  PAW double counting   =      5505.55773403    -5549.36347127
  entropy T*S    EENTRO =        -0.00457935
  eigenvalues    EBANDS =     -3463.00149583
  atomic energy  EATOM  =      7560.21751256
  Solvation  Ediel_sol  =         0.00000000
  ---------------------------------------------------
  free energy    TOTEN  =      -490.53909186 eV

  energy without entropy =     -490.53451251  energy(sigma->0) =     -490.53680218


--------------------------------------------------------------------------------------------------------




----------------------------------------- Iteration    1(   6)  ---------------------------------------


    POTLOK:  cpu time    1.3568: real time    1.3579
    SETDIJ:  cpu time    1.3948: real time    1.3949
     EDDAV:  cpu time   42.5312: real time   42.5580
       DOS:  cpu time    0.0005: real time    0.0005
    CHARGE:  cpu time    4.0683: real time    4.0700
    MIXING:  cpu time    0.0384: real time    0.0384
    --------------------------------------------
      LOOP:  cpu time   49.3905: real time   49.4230

 eigenvalue-minimisations  :  2972
 total energy-change (2. order) : 0.2511541E+02  (-0.2504117E+01)
 number of electron     203.0000000 magnetization       5.1245678
 augmentation part        6.2050726 magnetization       4.6261450

 Broyden mixing:
  rms(total) = 0.19001E+01    rms(broyden)= 0.19000E+01
  rms(prec ) = 0.19533E+01
  weight for this iteration     100.00

 eigenvalues of (default mixing * dielectric matrix)
  average eigenvalue GAMMA=   0.9794
  0.9794

 Free energy of the ion-electron system (eV)
  ---------------------------------------------------
  alpha Z        PSCENC =        53.42782116
  Ewald energy   TEWEN  =     56421.09958711
  -Hartree energ DENC   =    -61991.74127676
  -exchange      EXHF   =         0.00000000
  -V(xc)+E(xc)   XCENC  =       683.73945925
  PAW double counting   =      9995.39767332   -10043.19645800
  entropy T*S    EENTRO =        -0.00451232
  eigenvalues    EBANDS =     -3144.36348999
  atomic energy  EATOM  =      7560.21751256
  Solvation  Ediel_sol  =         0.00000000
  ---------------------------------------------------
  free energy    TOTEN  =      -465.42368368 eV

  energy without entropy =     -465.41917136  energy(sigma->0) =     -465.42142752


--------------------------------------------------------------------------------------------------------




----------------------------------------- Iteration    1(   7)  ---------------------------------------


    POTLOK:  cpu time    1.3443: real time    1.3453
    SETDIJ:  cpu time    1.3986: real time    1.3996
     EDDAV:  cpu time   43.0790: real time   43.1052
       DOS:  cpu time    0.0005: real time    0.0005
    CHARGE:  cpu time    4.1446: real time    4.1459
    MIXING:  cpu time    0.0430: real time    0.0430
    --------------------------------------------
      LOOP:  cpu time   50.0105: real time   50.0425

 eigenvalue-minimisations  :  3020
 total energy-change (2. order) : 0.1204060E+02  (-0.1707398E+01)
 number of electron     203.0000000 magnetization       4.6601514
 augmentation part        5.9994434 magnetization       4.2449349

 Broyden mixing:
  rms(total) = 0.99802E+00    rms(broyden)= 0.99797E+00
  rms(prec ) = 0.10149E+01
  weight for this iteration     100.00

 eigenvalues of (default mixing * dielectric matrix)
  average eigenvalue GAMMA=   1.4263
  0.6716  2.1811

 Free energy of the ion-electron system (eV)
  ---------------------------------------------------
  alpha Z        PSCENC =        53.42782116
  Ewald energy   TEWEN  =     56421.09958711
  -Hartree energ DENC   =    -62264.37615619
  -exchange      EXHF   =         0.00000000
  -V(xc)+E(xc)   XCENC  =       697.78277976
  PAW double counting   =     15450.50312495   -15500.77032382
  entropy T*S    EENTRO =        -0.00574745
  eigenvalues    EBANDS =     -2871.26167885
  atomic energy  EATOM  =      7560.21751256
  Solvation  Ediel_sol  =         0.00000000
  ---------------------------------------------------
  free energy    TOTEN  =      -453.38308078 eV

  energy without entropy =     -453.37733334  energy(sigma->0) =     -453.38020706


--------------------------------------------------------------------------------------------------------




----------------------------------------- Iteration    1(   8)  ---------------------------------------


    POTLOK:  cpu time    1.3211: real time    1.3215
    SETDIJ:  cpu time    1.3892: real time    1.3892
     EDDAV:  cpu time   43.4659: real time   43.4681
       DOS:  cpu time    0.0005: real time    0.0005
    CHARGE:  cpu time    3.8540: real time    3.8541
    MIXING:  cpu time    0.0467: real time    0.0467
    --------------------------------------------
      LOOP:  cpu time   50.0781: real time   50.0832

 eigenvalue-minimisations  :  3052
 total energy-change (2. order) : 0.6308572E+00  (-0.4472772E+00)
 number of electron     203.0000000 magnetization       4.1403159
 augmentation part        5.8594345 magnetization       3.7619155

 Broyden mixing:
  rms(total) = 0.38790E+00    rms(broyden)= 0.38783E+00
  rms(prec ) = 0.40008E+00
  weight for this iteration     100.00

 eigenvalues of (default mixing * dielectric matrix)
  average eigenvalue GAMMA=   1.4499
  2.3096  1.3741  0.6661

 Free energy of the ion-electron system (eV)
  ---------------------------------------------------
  alpha Z        PSCENC =        53.42782116
  Ewald energy   TEWEN  =     56421.09958711
  -Hartree energ DENC   =    -62427.32402238
  -exchange      EXHF   =         0.00000000
  -V(xc)+E(xc)   XCENC  =       703.33458488
  PAW double counting   =     19367.03569617   -19418.19822666
  entropy T*S    EENTRO =        -0.00563186
  eigenvalues    EBANDS =     -2712.33954460
  atomic energy  EATOM  =      7560.21751256
  Solvation  Ediel_sol  =         0.00000000
  ---------------------------------------------------
  free energy    TOTEN  =      -452.75222363 eV

  energy without entropy =     -452.74659177  energy(sigma->0) =     -452.74940770


--------------------------------------------------------------------------------------------------------




----------------------------------------- Iteration    1(   9)  ---------------------------------------


    POTLOK:  cpu time    1.4064: real time    1.4064
    SETDIJ:  cpu time    1.4020: real time    1.4021
     EDDAV:  cpu time   47.6057: real time   47.6079
       DOS:  cpu time    0.0005: real time    0.0005
    CHARGE:  cpu time    4.0073: real time    4.0074
    MIXING:  cpu time    0.0267: real time    0.0267
    --------------------------------------------
      LOOP:  cpu time   54.4491: real time   54.4536

 eigenvalue-minimisations  :  3428
 total energy-change (2. order) :-0.1046890E+01  (-0.5715555E-01)
 number of electron     203.0000000 magnetization       3.8195931
 augmentation part        5.8442757 magnetization       3.4541391

 Broyden mixing:
  rms(total) = 0.14328E+00    rms(broyden)= 0.14325E+00
  rms(prec ) = 0.15784E+00
  weight for this iteration     100.00

 eigenvalues of (default mixing * dielectric matrix)
  average eigenvalue GAMMA=   1.4400
  2.3132  2.0261  0.7565  0.6641

 Free energy of the ion-electron system (eV)
  ---------------------------------------------------
  alpha Z        PSCENC =        53.42782116
  Ewald energy   TEWEN  =     56421.09958711
  -Hartree energ DENC   =    -62482.11003995
  -exchange      EXHF   =         0.00000000
  -V(xc)+E(xc)   XCENC  =       702.51648281
  PAW double counting   =     20650.77494094   -20701.31895225
  entropy T*S    EENTRO =        -0.00553956
  eigenvalues    EBANDS =     -2658.40092667
  atomic energy  EATOM  =      7560.21751256
  Solvation  Ediel_sol  =         0.00000000
  ---------------------------------------------------
  free energy    TOTEN  =      -453.79911386 eV

  energy without entropy =     -453.79357429  energy(sigma->0) =     -453.79634408


--------------------------------------------------------------------------------------------------------




----------------------------------------- Iteration    1(  10)  ---------------------------------------


    POTLOK:  cpu time    1.3384: real time    1.3386
    SETDIJ:  cpu time    1.3950: real time    1.3951
     EDDAV:  cpu time   40.8282: real time   40.8299
       DOS:  cpu time    0.0005: real time    0.0005
    CHARGE:  cpu time    4.0697: real time    4.0699
    MIXING:  cpu time    0.0407: real time    0.0407
    --------------------------------------------
      LOOP:  cpu time   47.6731: real time   47.6771

 eigenvalue-minimisations  :  2816
 total energy-change (2. order) :-0.3376179E+00  (-0.1808856E-01)
 number of electron     203.0000000 magnetization       3.5669295
 augmentation part        5.8396816 magnetization       3.2227222

 Broyden mixing:
  rms(total) = 0.98131E-01    rms(broyden)= 0.98127E-01
  rms(prec ) = 0.11135E+00
  weight for this iteration     100.00

 eigenvalues of (default mixing * dielectric matrix)
  average eigenvalue GAMMA=   1.3378
  2.1936  2.1936  0.9542  0.6986  0.6490

 Free energy of the ion-electron system (eV)
  ---------------------------------------------------
  alpha Z        PSCENC =        53.42782116
  Ewald energy   TEWEN  =     56421.09958711
  -Hartree energ DENC   =    -62513.45966675
  -exchange      EXHF   =         0.00000000
  -V(xc)+E(xc)   XCENC  =       702.44157078
  PAW double counting   =     20885.97151585   -20936.34165524
  entropy T*S    EENTRO =        -0.00539357
  eigenvalues    EBANDS =     -2627.48802369
  atomic energy  EATOM  =      7560.21751256
  Solvation  Ediel_sol  =         0.00000000
  ---------------------------------------------------
  free energy    TOTEN  =      -454.13673180 eV

  energy without entropy =     -454.13133823  energy(sigma->0) =     -454.13403501


--------------------------------------------------------------------------------------------------------




----------------------------------------- Iteration    1(  11)  ---------------------------------------


    POTLOK:  cpu time    1.3336: real time    1.3337
    SETDIJ:  cpu time    1.4032: real time    1.4034
     EDDAV:  cpu time   46.3111: real time   46.3133
       DOS:  cpu time    0.0006: real time    0.0006
    CHARGE:  cpu time    3.9038: real time    3.9045
    MIXING:  cpu time    0.0376: real time    0.0376
    --------------------------------------------
      LOOP:  cpu time   52.9905: real time   52.9960

 eigenvalue-minimisations  :  3320
 total energy-change (2. order) :-0.3064871E+00  (-0.4761505E-02)
 number of electron     203.0000000 magnetization       2.8848236
 augmentation part        5.8355824 magnetization       2.5492443

 Broyden mixing:
  rms(total) = 0.83627E-01    rms(broyden)= 0.83626E-01
  rms(prec ) = 0.94510E-01
  weight for this iteration     100.00

 eigenvalues of (default mixing * dielectric matrix)
  average eigenvalue GAMMA=   1.3841
  2.2609  2.2609  1.4923  0.9620  0.6844  0.6441

 Free energy of the ion-electron system (eV)
  ---------------------------------------------------
  alpha Z        PSCENC =        53.42782116
  Ewald energy   TEWEN  =     56421.09958711
  -Hartree energ DENC   =    -62535.79226520
  -exchange      EXHF   =         0.00000000
  -V(xc)+E(xc)   XCENC  =       702.37211540
  PAW double counting   =     20851.30500914   -20901.64549715
  entropy T*S    EENTRO =        -0.00531171
  eigenvalues    EBANDS =     -2605.42219020
  atomic energy  EATOM  =      7560.21751256
  Solvation  Ediel_sol  =         0.00000000
  ---------------------------------------------------
  free energy    TOTEN  =      -454.44321890 eV

  energy without entropy =     -454.43790719  energy(sigma->0) =     -454.44056304


--------------------------------------------------------------------------------------------------------




----------------------------------------- Iteration    1(  12)  ---------------------------------------


    POTLOK:  cpu time    1.3524: real time    1.3526
    SETDIJ:  cpu time    1.3954: real time    1.3954
     EDDAV:  cpu time   40.8615: real time   40.8631
       DOS:  cpu time    0.0006: real time    0.0006
    CHARGE:  cpu time    3.9701: real time    3.9702
    MIXING:  cpu time    0.0499: real time    0.0500
    --------------------------------------------
      LOOP:  cpu time   47.6303: real time   47.6343

 eigenvalue-minimisations  :  2824
 total energy-change (2. order) :-0.7309538E+00  (-0.2145777E-01)
 number of electron     203.0000000 magnetization       2.2535661
 augmentation part        5.8310391 magnetization       1.9283849

 Broyden mixing:
  rms(total) = 0.59250E-01    rms(broyden)= 0.59249E-01
  rms(prec ) = 0.64568E-01
  weight for this iteration     100.00

 eigenvalues of (default mixing * dielectric matrix)
  average eigenvalue GAMMA=   1.5685
  3.4193  2.5441  1.8564  1.0639  0.7868  0.6757  0.6336

 Free energy of the ion-electron system (eV)
  ---------------------------------------------------
  alpha Z        PSCENC =        53.42782116
  Ewald energy   TEWEN  =     56421.09958711
  -Hartree energ DENC   =    -62589.23391288
  -exchange      EXHF   =         0.00000000
  -V(xc)+E(xc)   XCENC  =       702.15596941
  PAW double counting   =     20737.84897028   -20788.11397580
  entropy T*S    EENTRO =        -0.00526471
  eigenvalues    EBANDS =     -2552.57087985
  atomic energy  EATOM  =      7560.21751256
  Solvation  Ediel_sol  =         0.00000000
  ---------------------------------------------------
  free energy    TOTEN  =      -455.17417273 eV

  energy without entropy =     -455.16890802  energy(sigma->0) =     -455.17154038


--------------------------------------------------------------------------------------------------------




----------------------------------------- Iteration    1(  13)  ---------------------------------------


    POTLOK:  cpu time    1.3417: real time    1.3418
    SETDIJ:  cpu time    1.4019: real time    1.4029
     EDDAV:  cpu time   40.5367: real time   40.5620
       DOS:  cpu time    0.0005: real time    0.0005
    CHARGE:  cpu time    3.9595: real time    3.9626
    MIXING:  cpu time    0.0294: real time    0.0294
    --------------------------------------------
      LOOP:  cpu time   47.2703: real time   47.3018

 eigenvalue-minimisations  :  2796
 total energy-change (2. order) : 0.2551263E-01  (-0.1276112E-01)
 number of electron     203.0000000 magnetization       1.7462803
 augmentation part        5.8250502 magnetization       1.4314400

 Broyden mixing:
  rms(total) = 0.42642E-01    rms(broyden)= 0.42639E-01
  rms(prec ) = 0.44683E-01
  weight for this iteration     100.00

 eigenvalues of (default mixing * dielectric matrix)
  average eigenvalue GAMMA=   1.6753
  4.7924  2.3467  1.9707  1.1187  1.1187  0.7569  0.6704  0.6276

 Free energy of the ion-electron system (eV)
  ---------------------------------------------------
  alpha Z        PSCENC =        53.42782116
  Ewald energy   TEWEN  =     56421.09958711
  -Hartree energ DENC   =    -62633.91192712
  -exchange      EXHF   =         0.00000000
  -V(xc)+E(xc)   XCENC  =       702.62303524
  PAW double counting   =     20716.45864597   -20766.68598077
  entropy T*S    EENTRO =        -0.00550441
  eigenvalues    EBANDS =     -2508.37184983
  atomic energy  EATOM  =      7560.21751256
  Solvation  Ediel_sol  =         0.00000000
  ---------------------------------------------------
  free energy    TOTEN  =      -455.14866010 eV

  energy without entropy =     -455.14315569  energy(sigma->0) =     -455.14590790


--------------------------------------------------------------------------------------------------------




----------------------------------------- Iteration    1(  14)  ---------------------------------------


    POTLOK:  cpu time    1.3397: real time    1.3409
    SETDIJ:  cpu time    1.3905: real time    1.3907
     EDDAV:  cpu time   41.6419: real time   41.6691
       DOS:  cpu time    0.0005: real time    0.0005
    CHARGE:  cpu time    3.8514: real time    3.8541
    MIXING:  cpu time    0.0431: real time    0.0431
    --------------------------------------------
      LOOP:  cpu time   48.2677: real time   48.3009

 eigenvalue-minimisations  :  2896
 total energy-change (2. order) :-0.6310727E+00  (-0.5712818E-02)
 number of electron     203.0000000 magnetization       1.3458236
 augmentation part        5.8211158 magnetization       1.0387515

 Broyden mixing:
  rms(total) = 0.29259E-01    rms(broyden)= 0.29257E-01
  rms(prec ) = 0.30645E-01
  weight for this iteration     100.00

 eigenvalues of (default mixing * dielectric matrix)
  average eigenvalue GAMMA=   1.9233
  7.0093  2.2732  2.2732  1.7067  1.1428  0.8984  0.7206  0.6620  0.6231

 Free energy of the ion-electron system (eV)
  ---------------------------------------------------
  alpha Z        PSCENC =        53.42782116
  Ewald energy   TEWEN  =     56421.09958711
  -Hartree energ DENC   =    -62659.58635010
  -exchange      EXHF   =         0.00000000
  -V(xc)+E(xc)   XCENC  =       702.18664967
  PAW double counting   =     20716.51526149   -20766.74888211
  entropy T*S    EENTRO =        -0.00575110
  eigenvalues    EBANDS =     -2482.88558151
  atomic energy  EATOM  =      7560.21751256
  Solvation  Ediel_sol  =         0.00000000
  ---------------------------------------------------
  free energy    TOTEN  =      -455.77973284 eV

  energy without entropy =     -455.77398174  energy(sigma->0) =     -455.77685729


--------------------------------------------------------------------------------------------------------




----------------------------------------- Iteration    1(  15)  ---------------------------------------


    POTLOK:  cpu time    1.3834: real time    1.3850
    SETDIJ:  cpu time    1.3998: real time    1.3999
     EDDAV:  cpu time   42.0033: real time   42.0283
       DOS:  cpu time    0.0005: real time    0.0005
    CHARGE:  cpu time    3.9619: real time    3.9640
    MIXING:  cpu time    0.0423: real time    0.0423
    --------------------------------------------
      LOOP:  cpu time   48.7917: real time   48.8224

 eigenvalue-minimisations  :  2932
 total energy-change (2. order) :-0.7125555E+00  (-0.3211157E-02)
 number of electron     203.0000000 magnetization       1.1139653
 augmentation part        5.8196664 magnetization       0.8149127

 Broyden mixing:
  rms(total) = 0.19990E-01    rms(broyden)= 0.19989E-01
  rms(prec ) = 0.21364E-01
  weight for this iteration     100.00

 eigenvalues of (default mixing * dielectric matrix)
  average eigenvalue GAMMA=   2.0149
  8.4889  2.4557  2.4557  1.8189  1.0725  1.0725  0.8105  0.6978  0.6563  0.6207

 Free energy of the ion-electron system (eV)
  ---------------------------------------------------
  alpha Z        PSCENC =        53.42782116
  Ewald energy   TEWEN  =     56421.09958711
  -Hartree energ DENC   =    -62670.66765724
  -exchange      EXHF   =         0.00000000
  -V(xc)+E(xc)   XCENC  =       701.47342911
  PAW double counting   =     20696.32329875   -20746.56099974
  entropy T*S    EENTRO =        -0.00604971
  eigenvalues    EBANDS =     -2471.79923034
  atomic energy  EATOM  =      7560.21751256
  Solvation  Ediel_sol  =         0.00000000
  ---------------------------------------------------
  free energy    TOTEN  =      -456.49228836 eV

  energy without entropy =     -456.48623864  energy(sigma->0) =     -456.48926350


--------------------------------------------------------------------------------------------------------




----------------------------------------- Iteration    1(  16)  ---------------------------------------


    POTLOK:  cpu time    1.3378: real time    1.3391
    SETDIJ:  cpu time    1.3898: real time    1.3908
     EDDAV:  cpu time   42.6582: real time   42.6623
       DOS:  cpu time    0.0006: real time    0.0006
    CHARGE:  cpu time    3.8186: real time    3.8187
    MIXING:  cpu time    0.0525: real time    0.0525
    --------------------------------------------
      LOOP:  cpu time   49.2580: real time   49.2665

 eigenvalue-minimisations  :  2988
 total energy-change (2. order) :-0.3937840E+00  (-0.7942752E-03)
 number of electron     203.0000000 magnetization       0.8555133
 augmentation part        5.8194549 magnetization       0.5612415

 Broyden mixing:
  rms(total) = 0.15058E-01    rms(broyden)= 0.15058E-01
  rms(prec ) = 0.16207E-01
  weight for this iteration     100.00

 eigenvalues of (default mixing * dielectric matrix)
  average eigenvalue GAMMA=   2.1241
  9.5776  2.9914  2.4957  1.8017  1.5373  1.3025  0.9100  0.7822  0.6893  0.6571
  0.6200

 Free energy of the ion-electron system (eV)
  ---------------------------------------------------
  alpha Z        PSCENC =        53.42782116
  Ewald energy   TEWEN  =     56421.09958711
  -Hartree energ DENC   =    -62671.94350417
  -exchange      EXHF   =         0.00000000
  -V(xc)+E(xc)   XCENC  =       701.02333128
  PAW double counting   =     20696.07576484   -20746.31553408
  entropy T*S    EENTRO =        -0.00623944
  eigenvalues    EBANDS =     -2470.46481158
  atomic energy  EATOM  =      7560.21751256
  Solvation  Ediel_sol  =         0.00000000
  ---------------------------------------------------
  free energy    TOTEN  =      -456.88607233 eV

  energy without entropy =     -456.87983290  energy(sigma->0) =     -456.88295262


--------------------------------------------------------------------------------------------------------




----------------------------------------- Iteration    1(  17)  ---------------------------------------


    POTLOK:  cpu time    1.4398: real time    1.4401
    SETDIJ:  cpu time    1.4051: real time    1.4055
     EDDAV:  cpu time   41.5829: real time   41.5846
       DOS:  cpu time    0.0006: real time    0.0006
    CHARGE:  cpu time    3.8574: real time    3.8575
    MIXING:  cpu time    0.0324: real time    0.0324
    --------------------------------------------
      LOOP:  cpu time   48.3187: real time   48.3236

 eigenvalue-minimisations  :  2888
 total energy-change (2. order) :-0.3407520E+00  (-0.7059677E-03)
 number of electron     203.0000000 magnetization       0.7010924
 augmentation part        5.8198838 magnetization       0.4112195

 Broyden mixing:
  rms(total) = 0.98715E-02    rms(broyden)= 0.98712E-02
  rms(prec ) = 0.10701E-01
  weight for this iteration     100.00

 eigenvalues of (default mixing * dielectric matrix)
  average eigenvalue GAMMA=   2.2078
 10.5616  3.8695  2.4371  1.9096  1.9096  1.1049  1.1049  0.8752  0.7666  0.6840
  0.6192  0.6509

 Free energy of the ion-electron system (eV)
  ---------------------------------------------------
  alpha Z        PSCENC =        53.42782116
  Ewald energy   TEWEN  =     56421.09958711
  -Hartree energ DENC   =    -62670.13103987
  -exchange      EXHF   =         0.00000000
  -V(xc)+E(xc)   XCENC  =       700.60843643
  PAW double counting   =     20704.39605950   -20754.63541178
  entropy T*S    EENTRO =        -0.00641567
  eigenvalues    EBANDS =     -2472.20337376
  atomic energy  EATOM  =      7560.21751256
  Solvation  Ediel_sol  =         0.00000000
  ---------------------------------------------------
  free energy    TOTEN  =      -457.22682433 eV

  energy without entropy =     -457.22040866  energy(sigma->0) =     -457.22361650


--------------------------------------------------------------------------------------------------------




----------------------------------------- Iteration    1(  18)  ---------------------------------------


    POTLOK:  cpu time    1.3998: real time    1.4000
    SETDIJ:  cpu time    1.3935: real time    1.3937
     EDDAV:  cpu time   42.2823: real time   42.2840
       DOS:  cpu time    0.0005: real time    0.0005
    CHARGE:  cpu time    3.8281: real time    3.8285
    MIXING:  cpu time    0.0471: real time    0.0471
    --------------------------------------------
      LOOP:  cpu time   48.9518: real time   48.9571

 eigenvalue-minimisations  :  2944
 total energy-change (2. order) :-0.1108799E+00  (-0.2279261E-03)
 number of electron     203.0000000 magnetization       0.5864439
 augmentation part        5.8200837 magnetization       0.2994868

 Broyden mixing:
  rms(total) = 0.74209E-02    rms(broyden)= 0.74208E-02
  rms(prec ) = 0.81152E-02
  weight for this iteration     100.00

 eigenvalues of (default mixing * dielectric matrix)
  average eigenvalue GAMMA=   2.2183
 11.1222  4.3667  2.3570  2.0176  1.9519  1.2449  1.2449  1.0007  0.8382  0.7478
  0.6798  0.6190  0.6476

 Free energy of the ion-electron system (eV)
  ---------------------------------------------------
  alpha Z        PSCENC =        53.42782116
  Ewald energy   TEWEN  =     56421.09958711
  -Hartree energ DENC   =    -62668.26584422
  -exchange      EXHF   =         0.00000000
  -V(xc)+E(xc)   XCENC  =       700.46748648
  PAW double counting   =     20707.04978888   -20757.28884402
  entropy T*S    EENTRO =        -0.00653206
  eigenvalues    EBANDS =     -2474.03868011
  atomic energy  EATOM  =      7560.21751256
  Solvation  Ediel_sol  =         0.00000000
  ---------------------------------------------------
  free energy    TOTEN  =      -457.33770424 eV

  energy without entropy =     -457.33117218  energy(sigma->0) =     -457.33443821


--------------------------------------------------------------------------------------------------------




----------------------------------------- Iteration    1(  19)  ---------------------------------------


    POTLOK:  cpu time    1.4387: real time    1.4400
    SETDIJ:  cpu time    1.3980: real time    1.3994
     EDDAV:  cpu time   43.3072: real time   43.3350
       DOS:  cpu time    0.0006: real time    0.0006
    CHARGE:  cpu time    3.7610: real time    3.7622
    MIXING:  cpu time    0.0452: real time    0.0452
    --------------------------------------------
      LOOP:  cpu time   49.9512: real time   49.9853

 eigenvalue-minimisations  :  3040
 total energy-change (2. order) :-0.3975898E-01  (-0.1201792E-03)
 number of electron     203.0000000 magnetization       0.4792674
 augmentation part        5.8203919 magnetization       0.1941987

 Broyden mixing:
  rms(total) = 0.54727E-02    rms(broyden)= 0.54725E-02
  rms(prec ) = 0.60254E-02
  weight for this iteration     100.00

 eigenvalues of (default mixing * dielectric matrix)
  average eigenvalue GAMMA=   2.2839
 11.7263  5.0758  2.4474  2.4474  1.7792  1.7792  1.1755  1.1755  0.9060  0.8134
  0.7125  0.6744  0.6192  0.6424

 Free energy of the ion-electron system (eV)
  ---------------------------------------------------
  alpha Z        PSCENC =        53.42782116
  Ewald energy   TEWEN  =     56421.09958711
  -Hartree energ DENC   =    -62666.00172763
  -exchange      EXHF   =         0.00000000
  -V(xc)+E(xc)   XCENC  =       700.40916996
  PAW double counting   =     20706.64613979   -20756.88351720
  entropy T*S    EENTRO =        -0.00660684
  eigenvalues    EBANDS =     -2476.28584211
  atomic energy  EATOM  =      7560.21751256
  Solvation  Ediel_sol  =         0.00000000
  ---------------------------------------------------
  free energy    TOTEN  =      -457.37746322 eV

  energy without entropy =     -457.37085637  energy(sigma->0) =     -457.37415979


--------------------------------------------------------------------------------------------------------




----------------------------------------- Iteration    1(  20)  ---------------------------------------


    POTLOK:  cpu time    1.4664: real time    1.4667
    SETDIJ:  cpu time    1.3936: real time    1.3942
     EDDAV:  cpu time   42.8540: real time   42.8794
       DOS:  cpu time    0.0006: real time    0.0006
    CHARGE:  cpu time    3.8139: real time    3.8167
    MIXING:  cpu time    0.0572: real time    0.0572
    --------------------------------------------
      LOOP:  cpu time   49.5864: real time   49.6180

 eigenvalue-minimisations  :  3000
 total energy-change (2. order) :-0.1443135E-01  (-0.7695003E-04)
 number of electron     203.0000000 magnetization       0.4046591
 augmentation part        5.8204958 magnetization       0.1217020

 Broyden mixing:
  rms(total) = 0.37504E-02    rms(broyden)= 0.37503E-02
  rms(prec ) = 0.41397E-02
  weight for this iteration     100.00

 eigenvalues of (default mixing * dielectric matrix)
  average eigenvalue GAMMA=   2.3343
 12.2607  5.8770  3.0465  2.3729  1.9364  1.5217  1.5217  1.1081  1.1081  0.8505
  0.7859  0.6992  0.6694  0.6191  0.6380

 Free energy of the ion-electron system (eV)
  ---------------------------------------------------
  alpha Z        PSCENC =        53.42782116
  Ewald energy   TEWEN  =     56421.09958711
  -Hartree energ DENC   =    -62663.72042981
  -exchange      EXHF   =         0.00000000
  -V(xc)+E(xc)   XCENC  =       700.38973651
  PAW double counting   =     20708.04491857   -20758.28126026
  entropy T*S    EENTRO =        -0.00669129
  eigenvalues    EBANDS =     -2478.56308911
  atomic energy  EATOM  =      7560.21751256
  Solvation  Ediel_sol  =         0.00000000
  ---------------------------------------------------
  free energy    TOTEN  =      -457.39189457 eV

  energy without entropy =     -457.38520328  energy(sigma->0) =     -457.38854892


--------------------------------------------------------------------------------------------------------




----------------------------------------- Iteration    1(  21)  ---------------------------------------


    POTLOK:  cpu time    1.4748: real time    1.4761
    SETDIJ:  cpu time    1.4037: real time    1.4051
     EDDAV:  cpu time   42.3534: real time   42.3788
       DOS:  cpu time    0.0006: real time    0.0006
    CHARGE:  cpu time    3.8222: real time    3.8248
    MIXING:  cpu time    0.0377: real time    0.0378
    --------------------------------------------
      LOOP:  cpu time   49.0928: real time   49.1250

 eigenvalue-minimisations  :  2956
 total energy-change (2. order) :-0.1617292E-01  (-0.3378742E-04)
 number of electron     203.0000000 magnetization       0.3514871
 augmentation part        5.8205074 magnetization       0.0698121

 Broyden mixing:
  rms(total) = 0.25296E-02    rms(broyden)= 0.25295E-02
  rms(prec ) = 0.28005E-02
  weight for this iteration     100.00

 eigenvalues of (default mixing * dielectric matrix)
  average eigenvalue GAMMA=   2.4077
 12.8561  6.7988  3.6262  2.3250  2.0971  1.5633  1.5633  1.3958  1.1163  1.0056
  0.8149  0.7553  0.6919  0.6602  0.6194  0.6348

 Free energy of the ion-electron system (eV)
  ---------------------------------------------------
  alpha Z        PSCENC =        53.42782116
  Ewald energy   TEWEN  =     56421.09958711
  -Hartree energ DENC   =    -62662.16183052
  -exchange      EXHF   =         0.00000000
  -V(xc)+E(xc)   XCENC  =       700.37627740
  PAW double counting   =     20707.63254433   -20757.86904568
  entropy T*S    EENTRO =        -0.00674244
  eigenvalues    EBANDS =     -2480.12419138
  atomic energy  EATOM  =      7560.21751256
  Solvation  Ediel_sol  =         0.00000000
  ---------------------------------------------------
  free energy    TOTEN  =      -457.40806748 eV

  energy without entropy =     -457.40132504  energy(sigma->0) =     -457.40469626


--------------------------------------------------------------------------------------------------------




----------------------------------------- Iteration    1(  22)  ---------------------------------------


    POTLOK:  cpu time    1.4479: real time    1.4482
    SETDIJ:  cpu time    1.3885: real time    1.3901
     EDDAV:  cpu time   42.1291: real time   42.1542
       DOS:  cpu time    0.0005: real time    0.0005
    CHARGE:  cpu time    3.8032: real time    3.8058
    MIXING:  cpu time    0.0516: real time    0.0516
    --------------------------------------------
      LOOP:  cpu time   48.8213: real time   48.8539

 eigenvalue-minimisations  :  2936
 total energy-change (2. order) :-0.2829081E-01  (-0.1742895E-04)
 number of electron     203.0000000 magnetization       0.3237938
 augmentation part        5.8205650 magnetization       0.0429538

 Broyden mixing:
  rms(total) = 0.15188E-02    rms(broyden)= 0.15187E-02
  rms(prec ) = 0.17085E-02
  weight for this iteration     100.00

 eigenvalues of (default mixing * dielectric matrix)
  average eigenvalue GAMMA=   2.5055
 13.6343  7.9417  4.1610  2.3903  2.3903  1.9421  1.4851  1.4851  1.0835  1.0835
  0.8860  0.8031  0.7290  0.6842  0.6495  0.6196  0.6261

 Free energy of the ion-electron system (eV)
  ---------------------------------------------------
  alpha Z        PSCENC =        53.42782116
  Ewald energy   TEWEN  =     56421.09958711
  -Hartree energ DENC   =    -62660.82454265
  -exchange      EXHF   =         0.00000000
  -V(xc)+E(xc)   XCENC  =       700.34331076
  PAW double counting   =     20706.17113222   -20756.40812874
  entropy T*S    EENTRO =        -0.00677502
  eigenvalues    EBANDS =     -2481.45627568
  atomic energy  EATOM  =      7560.21751256
  Solvation  Ediel_sol  =         0.00000000
  ---------------------------------------------------
  free energy    TOTEN  =      -457.43635830 eV

  energy without entropy =     -457.42958328  energy(sigma->0) =     -457.43297079


--------------------------------------------------------------------------------------------------------




----------------------------------------- Iteration    1(  23)  ---------------------------------------


    POTLOK:  cpu time    1.4765: real time    1.4779
    SETDIJ:  cpu time    1.4055: real time    1.4057
     EDDAV:  cpu time   41.3286: real time   41.3303
       DOS:  cpu time    0.0005: real time    0.0005
    CHARGE:  cpu time    3.7815: real time    3.7817
    MIXING:  cpu time    0.0499: real time    0.0499
    --------------------------------------------
      LOOP:  cpu time   48.0431: real time   48.0485

 eigenvalue-minimisations  :  2860
 total energy-change (2. order) :-0.1395912E-01  (-0.9029815E-05)
 number of electron     203.0000000 magnetization       0.3113437
 augmentation part        5.8206053 magnetization       0.0308406

 Broyden mixing:
  rms(total) = 0.94854E-03    rms(broyden)= 0.94843E-03
  rms(prec ) = 0.10876E-02
  weight for this iteration     100.00

 eigenvalues of (default mixing * dielectric matrix)
  average eigenvalue GAMMA=   2.5223
 14.1073  8.5617  4.4146  2.6573  2.4171  1.9453  1.5084  1.5084  1.1758  1.1758
  1.0162  0.8399  0.7899  0.7151  0.6797  0.6484  0.6176  0.6225

 Free energy of the ion-electron system (eV)
  ---------------------------------------------------
  alpha Z        PSCENC =        53.42782116
  Ewald energy   TEWEN  =     56421.09958711
  -Hartree energ DENC   =    -62660.07699819
  -exchange      EXHF   =         0.00000000
  -V(xc)+E(xc)   XCENC  =       700.32470302
  PAW double counting   =     20706.36027950   -20756.59806279
  entropy T*S    EENTRO =        -0.00678823
  eigenvalues    EBANDS =     -2482.19837155
  atomic energy  EATOM  =      7560.21751256
  Solvation  Ediel_sol  =         0.00000000
  ---------------------------------------------------
  free energy    TOTEN  =      -457.45031742 eV

  energy without entropy =     -457.44352919  energy(sigma->0) =     -457.44692330


--------------------------------------------------------------------------------------------------------




----------------------------------------- Iteration    1(  24)  ---------------------------------------


    POTLOK:  cpu time    1.4851: real time    1.4852
    SETDIJ:  cpu time    1.3918: real time    1.3925
     EDDAV:  cpu time   38.2944: real time   38.2965
       DOS:  cpu time    0.0005: real time    0.0005
    CHARGE:  cpu time    3.7748: real time    3.7749
    MIXING:  cpu time    0.0850: real time    0.0850
    --------------------------------------------
      LOOP:  cpu time   45.0322: real time   45.0375

 eigenvalue-minimisations  :  2584
 total energy-change (2. order) :-0.4467653E-02  (-0.5941739E-05)
 number of electron     203.0000000 magnetization       0.3043421
 augmentation part        5.8206093 magnetization       0.0238453

 Broyden mixing:
  rms(total) = 0.61423E-03    rms(broyden)= 0.61409E-03
  rms(prec ) = 0.70146E-03
  weight for this iteration     100.00

 eigenvalues of (default mixing * dielectric matrix)
  average eigenvalue GAMMA=   2.5469
 14.4751  9.0140  4.6947  3.0325  2.3902  2.0135  2.0135  1.4453  1.4453  1.0723
  1.0723  0.9126  0.8141  0.7492  0.6940  0.6687  0.6472  0.6147  0.6219

 Free energy of the ion-electron system (eV)
  ---------------------------------------------------
  alpha Z        PSCENC =        53.42782116
  Ewald energy   TEWEN  =     56421.09958711
  -Hartree energ DENC   =    -62659.81009386
  -exchange      EXHF   =         0.00000000
  -V(xc)+E(xc)   XCENC  =       700.31934472
  PAW double counting   =     20706.72732775   -20756.96578245
  entropy T*S    EENTRO =        -0.00678842
  eigenvalues    EBANDS =     -2482.46371363
  atomic energy  EATOM  =      7560.21751256
  Solvation  Ediel_sol  =         0.00000000
  ---------------------------------------------------
  free energy    TOTEN  =      -457.45478507 eV

  energy without entropy =     -457.44799666  energy(sigma->0) =     -457.45139086


--------------------------------------------------------------------------------------------------------




----------------------------------------- Iteration    1(  25)  ---------------------------------------


    POTLOK:  cpu time    1.5022: real time    1.5033
    SETDIJ:  cpu time    1.4031: real time    1.4044
     EDDAV:  cpu time   36.2715: real time   36.2944
       DOS:  cpu time    0.0005: real time    0.0005
    CHARGE:  cpu time    3.9004: real time    3.9006
    MIXING:  cpu time    0.0452: real time    0.0452
    --------------------------------------------
      LOOP:  cpu time   43.1234: real time   43.1504

 eigenvalue-minimisations  :  2400
 total energy-change (2. order) :-0.2067790E-02  (-0.4218865E-05)
 number of electron     203.0000000 magnetization       0.3010623
 augmentation part        5.8206103 magnetization       0.0204918

 Broyden mixing:
  rms(total) = 0.37008E-03    rms(broyden)= 0.36985E-03
  rms(prec ) = 0.42508E-03
  weight for this iteration     100.00

 eigenvalues of (default mixing * dielectric matrix)
  average eigenvalue GAMMA=   2.5583
 14.7269  9.3308  5.0745  3.4725  2.4048  2.4048  1.9435  1.4742  1.4742  1.1162
  1.1162  1.0105  0.8786  0.7955  0.7298  0.6870  0.6578  0.6394  0.6186  0.6096

 Free energy of the ion-electron system (eV)
  ---------------------------------------------------
  alpha Z        PSCENC =        53.42782116
  Ewald energy   TEWEN  =     56421.09958711
  -Hartree energ DENC   =    -62659.69432574
  -exchange      EXHF   =         0.00000000
  -V(xc)+E(xc)   XCENC  =       700.31740079
  PAW double counting   =     20706.78001484   -20757.01863338
  entropy T*S    EENTRO =        -0.00678553
  eigenvalues    EBANDS =     -2482.57944466
  atomic energy  EATOM  =      7560.21751256
  Solvation  Ediel_sol  =         0.00000000
  ---------------------------------------------------
  free energy    TOTEN  =      -457.45685286 eV

  energy without entropy =     -457.45006733  energy(sigma->0) =     -457.45346010


--------------------------------------------------------------------------------------------------------




----------------------------------------- Iteration    1(  26)  ---------------------------------------


    POTLOK:  cpu time    1.3933: real time    1.3934
    SETDIJ:  cpu time    1.3913: real time    1.3925
     EDDAV:  cpu time   36.4414: real time   36.4627
       DOS:  cpu time    0.0005: real time    0.0005
    CHARGE:  cpu time    3.9398: real time    3.9414
    MIXING:  cpu time    0.0581: real time    0.0581
    --------------------------------------------
      LOOP:  cpu time   43.2250: real time   43.2519

 eigenvalue-minimisations  :  2416
 total energy-change (2. order) :-0.8919350E-03  (-0.1450953E-05)
 number of electron     203.0000000 magnetization       0.2995947
 augmentation part        5.8206137 magnetization       0.0189252

 Broyden mixing:
  rms(total) = 0.23920E-03    rms(broyden)= 0.23884E-03
  rms(prec ) = 0.28017E-03
  weight for this iteration     100.00

 eigenvalues of (default mixing * dielectric matrix)
  average eigenvalue GAMMA=   2.5500
 14.8562  9.5166  5.4401  3.7669  2.4680  2.4680  1.7885  1.7885  1.4146  1.4146
  1.0661  1.0661  0.9676  0.8339  0.7791  0.7199  0.6848  0.6533  0.6349  0.6184
  0.6036

 Free energy of the ion-electron system (eV)
  ---------------------------------------------------
  alpha Z        PSCENC =        53.42782116
  Ewald energy   TEWEN  =     56421.09958711
  -Hartree energ DENC   =    -62659.66355607
  -exchange      EXHF   =         0.00000000
  -V(xc)+E(xc)   XCENC  =       700.31691615
  PAW double counting   =     20706.97681989   -20757.21528147
  entropy T*S    EENTRO =        -0.00678161
  eigenvalues    EBANDS =     -2482.61078250
  atomic energy  EATOM  =      7560.21751256
  Solvation  Ediel_sol  =         0.00000000
  ---------------------------------------------------
  free energy    TOTEN  =      -457.45774480 eV

  energy without entropy =     -457.45096319  energy(sigma->0) =     -457.45435399


--------------------------------------------------------------------------------------------------------




----------------------------------------- Iteration    1(  27)  ---------------------------------------


    POTLOK:  cpu time    1.3565: real time    1.3577
    SETDIJ:  cpu time    1.4014: real time    1.4021
     EDDAV:  cpu time   35.3130: real time   35.3216
       DOS:  cpu time    0.0005: real time    0.0005
    CHARGE:  cpu time    3.9810: real time    3.9811
    MIXING:  cpu time    0.0585: real time    0.0585
    --------------------------------------------
      LOOP:  cpu time   42.1115: real time   42.1241

 eigenvalue-minimisations  :  2312
 total energy-change (2. order) :-0.3917149E-03  (-0.3922957E-06)
 number of electron     203.0000000 magnetization       0.2987352
 augmentation part        5.8206081 magnetization       0.0179623

 Broyden mixing:
  rms(total) = 0.14929E-03    rms(broyden)= 0.14872E-03
  rms(prec ) = 0.18148E-03
  weight for this iteration     100.00

 eigenvalues of (default mixing * dielectric matrix)
  average eigenvalue GAMMA=   2.5427
 14.9341  9.6250  5.7969  3.9764  2.5282  2.5282  2.0325  2.0325  1.4372  1.4372
  1.0920  1.0920  1.0573  0.8994  0.8156  0.7586  0.7138  0.6822  0.6516  0.6295
  0.6185  0.6003

 Free energy of the ion-electron system (eV)
  ---------------------------------------------------
  alpha Z        PSCENC =        53.42782116
  Ewald energy   TEWEN  =     56421.09958711
  -Hartree energ DENC   =    -62659.68616818
  -exchange      EXHF   =         0.00000000
  -V(xc)+E(xc)   XCENC  =       700.31734697
  PAW double counting   =     20707.12680737   -20757.36517653
  entropy T*S    EENTRO =        -0.00677749
  eigenvalues    EBANDS =     -2482.58908947
  atomic energy  EATOM  =      7560.21751256
  Solvation  Ediel_sol  =         0.00000000
  ---------------------------------------------------
  free energy    TOTEN  =      -457.45813651 eV

  energy without entropy =     -457.45135902  energy(sigma->0) =     -457.45474776


--------------------------------------------------------------------------------------------------------




----------------------------------------- Iteration    1(  28)  ---------------------------------------


    POTLOK:  cpu time    1.3571: real time    1.3574
    SETDIJ:  cpu time    1.3975: real time    1.3976
     EDDAV:  cpu time   34.5891: real time   34.5907
       DOS:  cpu time    0.0020: real time    0.0020
    CHARGE:  cpu time    3.9263: real time    3.9265
    MIXING:  cpu time    0.0714: real time    0.0714
    --------------------------------------------
      LOOP:  cpu time   41.3440: real time   41.3475

 eigenvalue-minimisations  :  2244
 total energy-change (2. order) :-0.2258002E-03  (-0.1728561E-06)
 number of electron     203.0000000 magnetization       0.2982045
 augmentation part        5.8205994 magnetization       0.0173670

 Broyden mixing:
  rms(total) = 0.99058E-04    rms(broyden)= 0.98209E-04
  rms(prec ) = 0.12093E-03
  weight for this iteration     100.00

 eigenvalues of (default mixing * dielectric matrix)
  average eigenvalue GAMMA=   2.5298
 14.9831  9.6961  6.1702  4.1767  2.7559  2.6017  2.0592  2.0592  1.4325  1.4325
  1.3712  1.0906  1.0906  0.9919  0.8661  0.7962  0.7399  0.6995  0.6780  0.6483
  0.6280  0.6189  0.5984

 Free energy of the ion-electron system (eV)
  ---------------------------------------------------
  alpha Z        PSCENC =        53.42782116
  Ewald energy   TEWEN  =     56421.09958711
  -Hartree energ DENC   =    -62659.71851116
  -exchange      EXHF   =         0.00000000
  -V(xc)+E(xc)   XCENC  =       700.31786444
  PAW double counting   =     20706.97978680   -20757.21811199
  entropy T*S    EENTRO =        -0.00677490
  eigenvalues    EBANDS =     -2482.55753632
  atomic energy  EATOM  =      7560.21751256
  Solvation  Ediel_sol  =         0.00000000
  ---------------------------------------------------
  free energy    TOTEN  =      -457.45836231 eV

  energy without entropy =     -457.45158741  energy(sigma->0) =     -457.45497486


--------------------------------------------------------------------------------------------------------




----------------------------------------- Iteration    1(  29)  ---------------------------------------


    POTLOK:  cpu time    1.3883: real time    1.3897
    SETDIJ:  cpu time    1.4096: real time    1.4109
     EDDAV:  cpu time   32.6211: real time   32.6402
       DOS:  cpu time    0.0005: real time    0.0005
    CHARGE:  cpu time    3.7915: real time    3.7940
    MIXING:  cpu time    0.0526: real time    0.0526
    --------------------------------------------
      LOOP:  cpu time   39.2643: real time   39.2907

 eigenvalue-minimisations  :  2064
 total energy-change (2. order) :-0.1122926E-03  (-0.6306466E-07)
 number of electron     203.0000000 magnetization       0.2978797
 augmentation part        5.8205963 magnetization       0.0170134

 Broyden mixing:
  rms(total) = 0.65528E-04    rms(broyden)= 0.64243E-04
  rms(prec ) = 0.80700E-04
  weight for this iteration     100.00

 eigenvalues of (default mixing * dielectric matrix)
  average eigenvalue GAMMA=   2.5209
 15.0054  9.7624  6.4619  4.3853  3.0757  2.5115  2.0795  2.0795  1.8674  1.4032
  1.4032  1.1328  1.0978  1.0978  0.9315  0.8415  0.7865  0.7269  0.6900  0.6720
  0.6454  0.6276  0.6190  0.5976

 Free energy of the ion-electron system (eV)
  ---------------------------------------------------
  alpha Z        PSCENC =        53.42782116
  Ewald energy   TEWEN  =     56421.09958711
  -Hartree energ DENC   =    -62659.73552878
  -exchange      EXHF   =         0.00000000
  -V(xc)+E(xc)   XCENC  =       700.31798524
  PAW double counting   =     20706.86661082   -20757.10486870
  entropy T*S    EENTRO =        -0.00677376
  eigenvalues    EBANDS =     -2482.54082023
  atomic energy  EATOM  =      7560.21751256
  Solvation  Ediel_sol  =         0.00000000
  ---------------------------------------------------
  free energy    TOTEN  =      -457.45847460 eV

  energy without entropy =     -457.45170084  energy(sigma->0) =     -457.45508772


--------------------------------------------------------------------------------------------------------




----------------------------------------- Iteration    1(  30)  ---------------------------------------


    POTLOK:  cpu time    1.5067: real time    1.5082
    SETDIJ:  cpu time    1.3950: real time    1.3956
     EDDAV:  cpu time   31.9976: real time   32.0190
       DOS:  cpu time    0.0006: real time    0.0006
    CHARGE:  cpu time    3.7557: real time    3.7573
    MIXING:  cpu time    0.0941: real time    0.0941
    --------------------------------------------
      LOOP:  cpu time   38.7503: real time   38.7778

 eigenvalue-minimisations  :  2012
 total energy-change (2. order) :-0.7159364E-04  (-0.4122919E-07)
 number of electron     203.0000000 magnetization       0.2977374
 augmentation part        5.8205944 magnetization       0.0168481

 Broyden mixing:
  rms(total) = 0.41747E-04    rms(broyden)= 0.39701E-04
  rms(prec ) = 0.49801E-04
  weight for this iteration     100.00

 eigenvalues of (default mixing * dielectric matrix)
  average eigenvalue GAMMA=   2.5256
 15.0206  9.8439  6.7707  4.7076  3.4123  2.4849  2.4849  1.9840  1.9840  1.4219
  1.4219  1.3614  1.1034  1.1034  1.0031  0.8941  0.8221  0.7624  0.7192  0.6870
  0.6611  0.6436  0.6265  0.6183  0.5972

 Free energy of the ion-electron system (eV)
  ---------------------------------------------------
  alpha Z        PSCENC =        53.42782116
  Ewald energy   TEWEN  =     56421.09958711
  -Hartree energ DENC   =    -62659.75007367
  -exchange      EXHF   =         0.00000000
  -V(xc)+E(xc)   XCENC  =       700.31795461
  PAW double counting   =     20706.89264711   -20757.13086840
  entropy T*S    EENTRO =        -0.00677284
  eigenvalues    EBANDS =     -2482.52635382
  atomic energy  EATOM  =      7560.21751256
  Solvation  Ediel_sol  =         0.00000000
  ---------------------------------------------------
  free energy    TOTEN  =      -457.45854620 eV

  energy without entropy =     -457.45177335  energy(sigma->0) =     -457.45515977


--------------------------------------------------------------------------------------------------------




----------------------------------------- Iteration    1(  31)  ---------------------------------------


    POTLOK:  cpu time    1.5146: real time    1.5157
    SETDIJ:  cpu time    1.4062: real time    1.4075
     EDDAV:  cpu time   31.9834: real time   32.0027
       DOS:  cpu time    0.0005: real time    0.0005
    CHARGE:  cpu time    3.7537: real time    3.7566
    MIXING:  cpu time    0.0974: real time    0.0974
    --------------------------------------------
      LOOP:  cpu time   38.7566: real time   38.7836

 eigenvalue-minimisations  :  2012
 total energy-change (2. order) :-0.4125528E-04  (-0.2288191E-07)
 number of electron     203.0000000 magnetization       0.2976670
 augmentation part        5.8205923 magnetization       0.0167613

 Broyden mixing:
  rms(total) = 0.27189E-04    rms(broyden)= 0.23932E-04
  rms(prec ) = 0.29280E-04
  weight for this iteration     100.00
  WARNING: grid for Broyden might be to small

 eigenvalues of (default mixing * dielectric matrix)
  average eigenvalue GAMMA=   2.5296
 15.0328  9.9147  7.1186  5.0983  3.7324  2.7563  2.4454  2.0036  2.0036  1.6582
  1.3836  1.3836  1.1105  1.1105  1.1525  0.9393  0.8638  0.7950  0.7408  0.7087
  0.6842  0.6507  0.6433  0.6251  0.6174  0.5967

 Free energy of the ion-electron system (eV)
  ---------------------------------------------------
  alpha Z        PSCENC =        53.42782116
  Ewald energy   TEWEN  =     56421.09958711
  -Hartree energ DENC   =    -62659.76423689
  -exchange      EXHF   =         0.00000000
  -V(xc)+E(xc)   XCENC  =       700.31796510
  PAW double counting   =     20706.89897416   -20757.13722422
  entropy T*S    EENTRO =        -0.00677221
  eigenvalues    EBANDS =     -2482.51221420
  atomic energy  EATOM  =      7560.21751256
  Solvation  Ediel_sol  =         0.00000000
  ---------------------------------------------------
  free energy    TOTEN  =      -457.45858745 eV

  energy without entropy =     -457.45181524  energy(sigma->0) =     -457.45520135


--------------------------------------------------------------------------------------------------------




----------------------------------------- Iteration    1(  32)  ---------------------------------------


    POTLOK:  cpu time    1.5152: real time    1.5168
    SETDIJ:  cpu time    1.3956: real time    1.3974
     EDDAV:  cpu time   31.9553: real time   31.9764
       DOS:  cpu time    0.0005: real time    0.0005
    CHARGE:  cpu time    3.7595: real time    3.7623
    MIXING:  cpu time    0.1131: real time    0.1131
    --------------------------------------------
      LOOP:  cpu time   38.7399: real time   38.7701

 eigenvalue-minimisations  :  2008
 total energy-change (2. order) :-0.1700932E-04  (-0.7948085E-08)
 number of electron     203.0000000 magnetization       0.2976237
 augmentation part        5.8205909 magnetization       0.0167106

 Broyden mixing:
  rms(total) = 0.18513E-04    rms(broyden)= 0.13276E-04
  rms(prec ) = 0.16379E-04
  weight for this iteration     100.00
  WARNING: grid for Broyden might be to small

 eigenvalues of (default mixing * dielectric matrix)
  average eigenvalue GAMMA=   2.5362
 15.0400  9.9842  7.5207  5.4796  3.9635  2.9267  2.3465  2.3465  2.0059  1.7078
  1.3970  1.3970  1.3977  1.1085  1.1085  0.9502  0.9502  0.8373  0.7794  0.7281
  0.6993  0.6798  0.6519  0.6332  0.6198  0.6216  0.5964

 Free energy of the ion-electron system (eV)
  ---------------------------------------------------
  alpha Z        PSCENC =        53.42782116
  Ewald energy   TEWEN  =     56421.09958711
  -Hartree energ DENC   =    -62659.77234824
  -exchange      EXHF   =         0.00000000
  -V(xc)+E(xc)   XCENC  =       700.31795613
  PAW double counting   =     20706.86862115   -20757.10689905
  entropy T*S    EENTRO =        -0.00677192
  eigenvalues    EBANDS =     -2482.50408336
  atomic energy  EATOM  =      7560.21751256
  Solvation  Ediel_sol  =         0.00000000
  ---------------------------------------------------
  free energy    TOTEN  =      -457.45860446 eV

  energy without entropy =     -457.45183254  energy(sigma->0) =     -457.45521850


--------------------------------------------------------------------------------------------------------




----------------------------------------- Iteration    1(  33)  ---------------------------------------


    POTLOK:  cpu time    1.5068: real time    1.5069
    SETDIJ:  cpu time    1.4062: real time    1.4076
     EDDAV:  cpu time   31.8929: real time   31.9131
       DOS:  cpu time    0.0005: real time    0.0005
    CHARGE:  cpu time    3.7829: real time    3.7835
    MIXING:  cpu time    0.0878: real time    0.0878
    --------------------------------------------
      LOOP:  cpu time   38.6777: real time   38.7022

 eigenvalue-minimisations  :  2004
 total energy-change (2. order) :-0.7024220E-05  (-0.2571961E-08)
 number of electron     203.0000000 magnetization       0.2976091
 augmentation part        5.8205905 magnetization       0.0166953

 Broyden mixing:
  rms(total) = 0.14965E-04    rms(broyden)= 0.75820E-05
  rms(prec ) = 0.92730E-05
  weight for this iteration     100.00
  WARNING: grid for Broyden might be to small

 eigenvalues of (default mixing * dielectric matrix)
  average eigenvalue GAMMA=   2.5340
 15.0428 10.0568  7.8742  5.7734  4.1319  3.1239  2.4737  2.4737  1.7713  1.7713
  1.7601  1.3897  1.3897  1.1211  1.1211  1.0712  0.9772  0.8632  0.8112  0.7581
  0.7194  0.6911  0.6738  0.6496  0.5961  0.6287  0.6190  0.6190

 Free energy of the ion-electron system (eV)
  ---------------------------------------------------
  alpha Z        PSCENC =        53.42782116
  Ewald energy   TEWEN  =     56421.09958711
  -Hartree energ DENC   =    -62659.77694365
  -exchange      EXHF   =         0.00000000
  -V(xc)+E(xc)   XCENC  =       700.31793336
  PAW double counting   =     20706.86598160   -20757.10425607
  entropy T*S    EENTRO =        -0.00677191
  eigenvalues    EBANDS =     -2482.49947564
  atomic energy  EATOM  =      7560.21751256
  Solvation  Ediel_sol  =         0.00000000
  ---------------------------------------------------
  free energy    TOTEN  =      -457.45861149 eV

  energy without entropy =     -457.45183958  energy(sigma->0) =     -457.45522553


--------------------------------------------------------------------------------------------------------




----------------------------------------- Iteration    1(  34)  ---------------------------------------


    POTLOK:  cpu time    1.5107: real time    1.5117
    SETDIJ:  cpu time    1.3867: real time    1.3873
     EDDAV:  cpu time   31.4884: real time   31.4899
       DOS:  cpu time    0.0006: real time    0.0006
    CHARGE:  cpu time    3.7518: real time    3.7520
    MIXING:  cpu time    0.1124: real time    0.1124
    --------------------------------------------
      LOOP:  cpu time   38.2512: real time   38.2568

 eigenvalue-minimisations  :  1964
 total energy-change (2. order) :-0.2393856E-05  ( 0.9970141E-10)
 number of electron     203.0000000 magnetization       0.2976067
 augmentation part        5.8205904 magnetization       0.0166925

 Broyden mixing:
  rms(total) = 0.13628E-04    rms(broyden)= 0.43892E-05
  rms(prec ) = 0.55925E-05
  weight for this iteration     100.00
  WARNING: grid for Broyden might be to small

 eigenvalues of (default mixing * dielectric matrix)
  average eigenvalue GAMMA=   2.5128
 15.0434 10.0982  8.0790  5.8974  4.2346  3.2429  2.5498  2.4427  1.9709  1.9709
  1.6534  1.3732  1.3732  1.2906  1.1001  1.1001  0.9547  0.9547  0.8474  0.7903
  0.7369  0.7141  0.6858  0.6647  0.6455  0.5961  0.6276  0.6161  0.6161

 Free energy of the ion-electron system (eV)
  ---------------------------------------------------
  alpha Z        PSCENC =        53.42782116
  Ewald energy   TEWEN  =     56421.09958711
  -Hartree energ DENC   =    -62659.77979146
  -exchange      EXHF   =         0.00000000
  -V(xc)+E(xc)   XCENC  =       700.31793199
  PAW double counting   =     20706.87989335   -20757.11815664
  entropy T*S    EENTRO =        -0.00677190
  eigenvalues    EBANDS =     -2482.49664003
  atomic energy  EATOM  =      7560.21751256
  Solvation  Ediel_sol  =         0.00000000
  ---------------------------------------------------
  free energy    TOTEN  =      -457.45861388 eV

  energy without entropy =     -457.45184198  energy(sigma->0) =     -457.45522793


--------------------------------------------------------------------------------------------------------




----------------------------------------- Iteration    1(  35)  ---------------------------------------


    POTLOK:  cpu time    1.5088: real time    1.5099
    SETDIJ:  cpu time    1.3992: real time    1.3995
     EDDAV:  cpu time   31.1173: real time   31.1203
       DOS:  cpu time    0.0006: real time    0.0006
    CHARGE:  cpu time    3.7589: real time    3.7591
    MIXING:  cpu time    0.1109: real time    0.1109
    --------------------------------------------
      LOOP:  cpu time   37.8963: real time   37.9032

 eigenvalue-minimisations  :  1932
 total energy-change (2. order) :-0.1009095E-05  ( 0.1220743E-08)
 number of electron     203.0000000 magnetization       0.2976049
 augmentation part        5.8205901 magnetization       0.0166896

 Broyden mixing:
  rms(total) = 0.13156E-04    rms(broyden)= 0.25754E-05
  rms(prec ) = 0.34893E-05
  weight for this iteration     100.00
  WARNING: grid for Broyden might be to small

 eigenvalues of (default mixing * dielectric matrix)
  average eigenvalue GAMMA=   2.4964
 15.0439 10.1212  8.2417  5.9572  4.3389  3.3423  2.5561  2.5561  2.2316  1.9834
  1.5627  1.5627  1.3870  1.3870  1.1145  1.1145  1.0242  1.0242  0.8733  0.8302
  0.7769  0.7152  0.7152  0.6836  0.6563  0.6411  0.6286  0.6175  0.5964  0.6076

 Free energy of the ion-electron system (eV)
  ---------------------------------------------------
  alpha Z        PSCENC =        53.42782116
  Ewald energy   TEWEN  =     56421.09958711
  -Hartree energ DENC   =    -62659.78219670
  -exchange      EXHF   =         0.00000000
  -V(xc)+E(xc)   XCENC  =       700.31794920
  PAW double counting   =     20706.88165748   -20757.11991576
  entropy T*S    EENTRO =        -0.00677186
  eigenvalues    EBANDS =     -2482.49425808
  atomic energy  EATOM  =      7560.21751256
  Solvation  Ediel_sol  =         0.00000000
  ---------------------------------------------------
  free energy    TOTEN  =      -457.45861489 eV

  energy without entropy =     -457.45184303  energy(sigma->0) =     -457.45522896


--------------------------------------------------------------------------------------------------------




----------------------------------------- Iteration    1(  36)  ---------------------------------------


    POTLOK:  cpu time    1.5139: real time    1.5140
    SETDIJ:  cpu time    1.3862: real time    1.3879
     EDDAV:  cpu time   30.4960: real time   30.5393
       DOS:  cpu time    0.0006: real time    0.0006
    --------------------------------------------
      LOOP:  cpu time   33.3972: real time   33.4447

 eigenvalue-minimisations  :  1876
 total energy-change (2. order) :-0.5124857E-06  ( 0.1553820E-08)
 number of electron     203.0000000 magnetization       0.2976049
 augmentation part        5.8205901 magnetization       0.0166896

 Free energy of the ion-electron system (eV)
  ---------------------------------------------------
  alpha Z        PSCENC =        53.42782116
  Ewald energy   TEWEN  =     56421.09958711
  -Hartree energ DENC   =    -62659.78408695
  -exchange      EXHF   =         0.00000000
  -V(xc)+E(xc)   XCENC  =       700.31796431
  PAW double counting   =     20706.87583971   -20757.11409634
  entropy T*S    EENTRO =        -0.00677181
  eigenvalues    EBANDS =     -2482.49238513
  atomic energy  EATOM  =      7560.21751256
  Solvation  Ediel_sol  =         0.00000000
  ---------------------------------------------------
  free energy    TOTEN  =      -457.45861540 eV

  energy without entropy =     -457.45184359  energy(sigma->0) =     -457.45522949


--------------------------------------------------------------------------------------------------------




 average (electrostatic) potential at core
  the test charge radii are     0.6991  0.7079
  (the norm of the test charge is              1.0000)
       1 -58.1782       2 -58.1423       3 -58.2938       4 -58.2290       5 -58.6317
       6 -58.3418       7 -57.8834       8 -58.0484       9 -58.0386      10 -58.0920
      11 -58.1198      12 -57.8110      13 -58.3147      14 -58.1624      15 -58.2771
      16 -58.2717      17 -58.1816      18 -58.1814      19 -58.0945      20 -58.1240
      21 -58.0877      22 -58.0291      23 -58.0215      24 -58.0857      25 -58.1760
      26 -58.5897      27 -58.2269      28 -58.2871      29 -58.1477      30 -58.1784
      31 -58.1705      32 -58.3254      33 -57.8263      34 -58.1630      35 -58.1460
      36 -58.4198      37 -58.4053      38 -58.1716      39 -58.2234      40 -58.2729
      41 -58.2745      42 -58.2246      43 -58.6105      44 -58.4168      45 -58.4371
      46 -58.2112      47 -58.1929      48 -57.8643      49 -58.3287      50 -58.6070
      51 -71.6677
 
 
 
 E-fermi :  -2.5730     XC(G=0):  -1.4898     alpha+bet : -1.3130


 spin component 1

 k-point     1 :       0.0000    0.0000    0.0000
  band No.  band energies     occupation 
      1     -52.5849      1.00000
      2     -22.3604      1.00000
      3     -21.7427      1.00000
      4     -21.5472      1.00000
      5     -21.3312      1.00000
      6     -21.3080      1.00000
      7     -21.2383      1.00000
      8     -21.0155      1.00000
      9     -19.9527      1.00000
     10     -19.5781      1.00000
     11     -19.5317      1.00000
     12     -19.4274      1.00000
     13     -19.3531      1.00000
     14     -19.2796      1.00000
     15     -18.7893      1.00000
     16     -18.6499      1.00000
     17     -18.6206      1.00000
     18     -18.5354      1.00000
     19     -18.4847      1.00000
     20     -18.1263      1.00000
     21     -16.6025      1.00000
     22     -16.5530      1.00000
     23     -16.4734      1.00000
     24     -16.3183      1.00000
     25     -16.2506      1.00000
     26     -16.2187      1.00000
     27     -16.0888      1.00000
     28     -15.5520      1.00000
     29     -15.4033      1.00000
     30     -15.3352      1.00000
     31     -15.1622      1.00000
     32     -14.9922      1.00000
     33     -14.3107      1.00000
     34     -14.2699      1.00000
     35     -14.0680      1.00000
     36     -14.0051      1.00000
     37     -13.9249      1.00000
     38     -13.3676      1.00000
     39     -12.1541      1.00000
     40     -11.9783      1.00000
     41     -11.7986      1.00000
     42     -11.7790      1.00000
     43     -11.7045      1.00000
     44     -11.6324      1.00000
     45     -11.6232      1.00000
     46     -11.6113      1.00000
     47     -11.4541      1.00000
     48     -11.4478      1.00000
     49     -11.1248      1.00000
     50     -11.0686      1.00000
     51     -10.6550      1.00000
     52     -10.4822      1.00000
     53     -10.4104      1.00000
     54     -10.2132      1.00000
     55     -10.1618      1.00000
     56     -10.1193      1.00000
     57      -9.8844      1.00000
     58      -9.6241      1.00000
     59      -9.5489      1.00000
     60      -9.3009      1.00000
     61      -9.2834      1.00000
     62      -9.2128      1.00000
     63      -9.1120      1.00000
     64      -9.0724      1.00000
     65      -9.0363      1.00000
     66      -9.0190      1.00000
     67      -9.0111      1.00000
     68      -8.9349      1.00000
     69      -8.8609      1.00000
     70      -8.8497      1.00000
     71      -8.7262      1.00000
     72      -8.6241      1.00000
     73      -8.6191      1.00000
     74      -8.6144      1.00000
     75      -7.9879      1.00000
     76      -7.4746      1.00000
     77      -7.4532      1.00000
     78      -7.3718      1.00000
     79      -7.3124      1.00000
     80      -7.2959      1.00000
     81      -7.2746      1.00000
     82      -7.2396      1.00000
     83      -7.1828      1.00000
     84      -7.0687      1.00000
     85      -6.9887      1.00000
     86      -6.9673      1.00000
     87      -6.9577      1.00000
     88      -6.3617      1.00000
     89      -6.3529      1.00000
     90      -6.2690      1.00000
     91      -6.1992      1.00000
     92      -6.1779      1.00000
     93      -6.1036      1.00000
     94      -5.9622      1.00000
     95      -5.6822      1.00000
     96      -4.3778      1.00000
     97      -4.2698      1.00000
     98      -4.2598      1.00000
     99      -4.2588      1.00000
    100      -4.1419      1.00000
    101      -3.9060      1.00000
    102      -2.7612      1.00000
    103      -1.7327      0.00000
    104      -1.6454      0.00000
    105      -1.5162      0.00000
    106      -1.3577      0.00000
    107      -1.3160      0.00000
    108      -0.9951      0.00000
    109      -0.5723      0.00000
    110       0.1600      0.00000
    111       0.2675      0.00000
    112       0.3512      0.00000
    113       0.3761      0.00000
    114       0.3826      0.00000
    115       0.4175      0.00000
    116       0.5027      0.00000
    117       0.7704      0.00000
    118       0.9622      0.00000
    119       1.0196      0.00000
    120       1.3533      0.00000
    121       1.4249      0.00000
    122       1.4300      0.00000
    123       1.5062      0.00000
    124       1.5323      0.00000
    125       1.6593      0.00000
    126       1.7178      0.00000
    127       1.7272      0.00000
    128       1.8419      0.00000
    129       1.9284      0.00000
    130       2.0629      0.00000
    131       2.0777      0.00000
    132       2.1291      0.00000

 k-point     2 :       0.3333   -0.0000    0.0000
  band No.  band energies     occupation 
      1     -52.5849      1.00000
      2     -22.2683      1.00000
      3     -22.0067      1.00000
      4     -21.6091      1.00000
      5     -21.4710      1.00000
      6     -21.1095      1.00000
      7     -20.8851      1.00000
      8     -20.5687      1.00000
      9     -20.4395      1.00000
     10     -20.1934      1.00000
     11     -19.7164      1.00000
     12     -19.4477      1.00000
     13     -19.3156      1.00000
     14     -19.1267      1.00000
     15     -18.9875      1.00000
     16     -18.5421      1.00000
     17     -18.4161      1.00000
     18     -17.9599      1.00000
     19     -17.8252      1.00000
     20     -17.4842      1.00000
     21     -17.3675      1.00000
     22     -17.3094      1.00000
     23     -17.0826      1.00000
     24     -16.9486      1.00000
     25     -16.3178      1.00000
     26     -16.1913      1.00000
     27     -15.7726      1.00000
     28     -15.2710      1.00000
     29     -15.2271      1.00000
     30     -14.9896      1.00000
     31     -14.8431      1.00000
     32     -14.7082      1.00000
     33     -14.6132      1.00000
     34     -14.3805      1.00000
     35     -14.0973      1.00000
     36     -13.2970      1.00000
     37     -13.2137      1.00000
     38     -13.1268      1.00000
     39     -12.9974      1.00000
     40     -12.7655      1.00000
     41     -12.5050      1.00000
     42     -12.2827      1.00000
     43     -12.1185      1.00000
     44     -12.0381      1.00000
     45     -11.5181      1.00000
     46     -11.4037      1.00000
     47     -11.2015      1.00000
     48     -10.8924      1.00000
     49     -10.6911      1.00000
     50     -10.6006      1.00000
     51     -10.5643      1.00000
     52     -10.4381      1.00000
     53     -10.3529      1.00000
     54     -10.2470      1.00000
     55     -10.0140      1.00000
     56      -9.9135      1.00000
     57      -9.7570      1.00000
     58      -9.7021      1.00000
     59      -9.6643      1.00000
     60      -9.5920      1.00000
     61      -9.4415      1.00000
     62      -9.3274      1.00000
     63      -9.2569      1.00000
     64      -9.1970      1.00000
     65      -9.1178      1.00000
     66      -9.0435      1.00000
     67      -8.9700      1.00000
     68      -8.9031      1.00000
     69      -8.7685      1.00000
     70      -8.7086      1.00000
     71      -8.4450      1.00000
     72      -8.3862      1.00000
     73      -8.2520      1.00000
     74      -8.2108      1.00000
     75      -8.0838      1.00000
     76      -8.0060      1.00000
     77      -7.9831      1.00000
     78      -7.9142      1.00000
     79      -7.5238      1.00000
     80      -7.4294      1.00000
     81      -7.3079      1.00000
     82      -7.1841      1.00000
     83      -7.0796      1.00000
     84      -7.0077      1.00000
     85      -6.8294      1.00000
     86      -6.7758      1.00000
     87      -6.7634      1.00000
     88      -6.6292      1.00000
     89      -6.3292      1.00000
     90      -6.1269      1.00000
     91      -6.0647      1.00000
     92      -5.9907      1.00000
     93      -5.6699      1.00000
     94      -5.5304      1.00000
     95      -5.2129      1.00000
     96      -5.0004      1.00000
     97      -4.9477      1.00000
     98      -4.7890      1.00000
     99      -4.7061      1.00000
    100      -3.9202      1.00000
    101      -3.6079      1.00000
    102      -2.5923      0.70717
    103      -1.8468      0.00000
    104      -1.5459      0.00000
    105      -1.3633      0.00000
    106      -1.0237      0.00000
    107      -0.9582      0.00000
    108      -0.8073      0.00000
    109      -0.8001      0.00000
    110      -0.4535      0.00000
    111      -0.0746      0.00000
    112       0.1785      0.00000
    113       0.3295      0.00000
    114       0.4412      0.00000
    115       0.5670      0.00000
    116       0.7835      0.00000
    117       0.8501      0.00000
    118       0.9791      0.00000
    119       1.1035      0.00000
    120       1.1776      0.00000
    121       1.3090      0.00000
    122       1.3655      0.00000
    123       1.4763      0.00000
    124       1.5214      0.00000
    125       1.5784      0.00000
    126       1.6095      0.00000
    127       1.6583      0.00000
    128       1.7040      0.00000
    129       1.7906      0.00000
    130       1.8209      0.00000
    131       1.8405      0.00000
    132       2.0050      0.00000

 k-point     3 :       0.0000    0.3333    0.0000
  band No.  band energies     occupation 
      1     -52.5849      1.00000
      2     -22.2683      1.00000
      3     -22.0068      1.00000
      4     -21.6092      1.00000
      5     -21.4708      1.00000
      6     -21.1091      1.00000
      7     -20.8855      1.00000
      8     -20.5685      1.00000
      9     -20.4393      1.00000
     10     -20.1941      1.00000
     11     -19.7164      1.00000
     12     -19.4476      1.00000
     13     -19.3151      1.00000
     14     -19.1269      1.00000
     15     -18.9875      1.00000
     16     -18.5415      1.00000
     17     -18.4168      1.00000
     18     -17.9600      1.00000
     19     -17.8252      1.00000
     20     -17.4839      1.00000
     21     -17.3675      1.00000
     22     -17.3099      1.00000
     23     -17.0827      1.00000
     24     -16.9485      1.00000
     25     -16.3177      1.00000
     26     -16.1912      1.00000
     27     -15.7724      1.00000
     28     -15.2712      1.00000
     29     -15.2270      1.00000
     30     -14.9892      1.00000
     31     -14.8430      1.00000
     32     -14.7081      1.00000
     33     -14.6137      1.00000
     34     -14.3808      1.00000
     35     -14.0973      1.00000
     36     -13.2972      1.00000
     37     -13.2133      1.00000
     38     -13.1267      1.00000
     39     -12.9977      1.00000
     40     -12.7656      1.00000
     41     -12.5051      1.00000
     42     -12.2826      1.00000
     43     -12.1186      1.00000
     44     -12.0381      1.00000
     45     -11.5183      1.00000
     46     -11.4032      1.00000
     47     -11.2013      1.00000
     48     -10.8923      1.00000
     49     -10.6914      1.00000
     50     -10.6007      1.00000
     51     -10.5644      1.00000
     52     -10.4380      1.00000
     53     -10.3523      1.00000
     54     -10.2471      1.00000
     55     -10.0142      1.00000
     56      -9.9137      1.00000
     57      -9.7572      1.00000
     58      -9.7022      1.00000
     59      -9.6641      1.00000
     60      -9.5918      1.00000
     61      -9.4414      1.00000
     62      -9.3277      1.00000
     63      -9.2571      1.00000
     64      -9.1969      1.00000
     65      -9.1177      1.00000
     66      -9.0432      1.00000
     67      -8.9700      1.00000
     68      -8.9029      1.00000
     69      -8.7693      1.00000
     70      -8.7086      1.00000
     71      -8.4448      1.00000
     72      -8.3859      1.00000
     73      -8.2519      1.00000
     74      -8.2101      1.00000
     75      -8.0841      1.00000
     76      -8.0068      1.00000
     77      -7.9827      1.00000
     78      -7.9144      1.00000
     79      -7.5237      1.00000
     80      -7.4301      1.00000
     81      -7.3079      1.00000
     82      -7.1839      1.00000
     83      -7.0798      1.00000
     84      -7.0071      1.00000
     85      -6.8293      1.00000
     86      -6.7763      1.00000
     87      -6.7632      1.00000
     88      -6.6294      1.00000
     89      -6.3292      1.00000
     90      -6.1255      1.00000
     91      -6.0647      1.00000
     92      -5.9916      1.00000
     93      -5.6698      1.00000
     94      -5.5306      1.00000
     95      -5.2125      1.00000
     96      -5.0006      1.00000
     97      -4.9477      1.00000
     98      -4.7898      1.00000
     99      -4.7056      1.00000
    100      -3.9213      1.00000
    101      -3.6068      1.00000
    102      -2.5928      0.71185
    103      -1.8466      0.00000
    104      -1.5449      0.00000
    105      -1.3626      0.00000
    106      -1.0249      0.00000
    107      -0.9587      0.00000
    108      -0.8066      0.00000
    109      -0.8014      0.00000
    110      -0.4537      0.00000
    111      -0.0732      0.00000
    112       0.1797      0.00000
    113       0.3294      0.00000
    114       0.4401      0.00000
    115       0.5672      0.00000
    116       0.7815      0.00000
    117       0.8508      0.00000
    118       0.9793      0.00000
    119       1.1041      0.00000
    120       1.1772      0.00000
    121       1.3102      0.00000
    122       1.3657      0.00000
    123       1.4763      0.00000
    124       1.5219      0.00000
    125       1.5789      0.00000
    126       1.6103      0.00000
    127       1.6579      0.00000
    128       1.7027      0.00000
    129       1.7904      0.00000
    130       1.8206      0.00000
    131       1.8405      0.00000
    132       2.0044      0.00000

 k-point     4 :       0.3333    0.3333    0.0000
  band No.  band energies     occupation 
      1     -52.5849      1.00000
      2     -22.1912      1.00000
      3     -22.0656      1.00000
      4     -21.8313      1.00000
      5     -21.2303      1.00000
      6     -21.0839      1.00000
      7     -20.9113      1.00000
      8     -20.3931      1.00000
      9     -20.2036      1.00000
     10     -20.1394      1.00000
     11     -20.0641      1.00000
     12     -19.9605      1.00000
     13     -19.7398      1.00000
     14     -18.6135      1.00000
     15     -18.3850      1.00000
     16     -18.3577      1.00000
     17     -18.2994      1.00000
     18     -18.1407      1.00000
     19     -17.9990      1.00000
     20     -17.5036      1.00000
     21     -17.4400      1.00000
     22     -17.4146      1.00000
     23     -16.9311      1.00000
     24     -16.8964      1.00000
     25     -16.7836      1.00000
     26     -16.2728      1.00000
     27     -15.7789      1.00000
     28     -15.6499      1.00000
     29     -15.3066      1.00000
     30     -15.2451      1.00000
     31     -14.3226      1.00000
     32     -14.0914      1.00000
     33     -13.8951      1.00000
     34     -13.8648      1.00000
     35     -13.8254      1.00000
     36     -13.7881      1.00000
     37     -13.6960      1.00000
     38     -13.6375      1.00000
     39     -13.2625      1.00000
     40     -13.0292      1.00000
     41     -12.5371      1.00000
     42     -12.0795      1.00000
     43     -12.0729      1.00000
     44     -11.6874      1.00000
     45     -11.5483      1.00000
     46     -11.5049      1.00000
     47     -11.3436      1.00000
     48     -11.2605      1.00000
     49     -11.0012      1.00000
     50     -10.4366      1.00000
     51     -10.2724      1.00000
     52     -10.2617      1.00000
     53     -10.2512      1.00000
     54     -10.1025      1.00000
     55     -10.0769      1.00000
     56     -10.0727      1.00000
     57      -9.9620      1.00000
     58      -9.9315      1.00000
     59      -9.5262      1.00000
     60      -9.4032      1.00000
     61      -9.3728      1.00000
     62      -9.2319      1.00000
     63      -9.1700      1.00000
     64      -9.1677      1.00000
     65      -9.0669      1.00000
     66      -8.9944      1.00000
     67      -8.8625      1.00000
     68      -8.7414      1.00000
     69      -8.6418      1.00000
     70      -8.5896      1.00000
     71      -8.5742      1.00000
     72      -8.4466      1.00000
     73      -8.3215      1.00000
     74      -8.1930      1.00000
     75      -8.0697      1.00000
     76      -8.0273      1.00000
     77      -7.9841      1.00000
     78      -7.8808      1.00000
     79      -7.8307      1.00000
     80      -7.7826      1.00000
     81      -7.6027      1.00000
     82      -7.3679      1.00000
     83      -7.0982      1.00000
     84      -6.9496      1.00000
     85      -6.8816      1.00000
     86      -6.7146      1.00000
     87      -6.4036      1.00000
     88      -6.3281      1.00000
     89      -6.0958      1.00000
     90      -6.0248      1.00000
     91      -5.9605      1.00000
     92      -5.8736      1.00000
     93      -5.7615      1.00000
     94      -5.6975      1.00000
     95      -5.1305      1.00000
     96      -5.0710      1.00000
     97      -4.9538      1.00000
     98      -4.9158      1.00000
     99      -4.8486      1.00000
    100      -4.5110      1.00000
    101      -2.9070      1.00000
    102      -2.7508      1.00000
    103      -2.3637      0.00000
    104      -1.4143      0.00000
    105      -1.1287      0.00000
    106      -1.0381      0.00000
    107      -0.6690      0.00000
    108      -0.6562      0.00000
    109      -0.5414      0.00000
    110      -0.4667      0.00000
    111       0.0508      0.00000
    112       0.1421      0.00000
    113       0.1801      0.00000
    114       0.1948      0.00000
    115       0.2160      0.00000
    116       0.3097      0.00000
    117       1.0012      0.00000
    118       1.0441      0.00000
    119       1.1130      0.00000
    120       1.1843      0.00000
    121       1.2594      0.00000
    122       1.2808      0.00000
    123       1.2990      0.00000
    124       1.4725      0.00000
    125       1.4801      0.00000
    126       1.4864      0.00000
    127       1.7326      0.00000
    128       1.7913      0.00000
    129       1.8133      0.00000
    130       1.8219      0.00000
    131       1.8787      0.00000
    132       2.0218      0.00000

 k-point     5 :      -0.3333    0.3333    0.0000
  band No.  band energies     occupation 
      1     -52.5849      1.00000
      2     -22.2944      1.00000
      3     -21.8314      1.00000
      4     -21.7959      1.00000
      5     -21.5203      1.00000
      6     -20.9958      1.00000
      7     -20.8606      1.00000
      8     -20.6358      1.00000
      9     -20.4037      1.00000
     10     -20.1341      1.00000
     11     -19.7141      1.00000
     12     -19.6653      1.00000
     13     -19.2612      1.00000
     14     -19.0887      1.00000
     15     -18.9586      1.00000
     16     -18.5389      1.00000
     17     -18.3722      1.00000
     18     -17.9744      1.00000
     19     -17.8581      1.00000
     20     -17.5399      1.00000
     21     -17.4084      1.00000
     22     -17.1973      1.00000
     23     -17.1315      1.00000
     24     -16.7497      1.00000
     25     -16.3914      1.00000
     26     -16.2561      1.00000
     27     -15.5567      1.00000
     28     -15.4940      1.00000
     29     -15.3803      1.00000
     30     -15.0474      1.00000
     31     -14.8519      1.00000
     32     -14.7772      1.00000
     33     -14.4263      1.00000
     34     -14.3367      1.00000
     35     -14.0922      1.00000
     36     -13.3435      1.00000
     37     -13.1416      1.00000
     38     -12.9139      1.00000
     39     -12.8725      1.00000
     40     -12.8037      1.00000
     41     -12.4976      1.00000
     42     -12.3230      1.00000
     43     -12.2895      1.00000
     44     -12.0057      1.00000
     45     -11.5958      1.00000
     46     -11.5522      1.00000
     47     -11.1296      1.00000
     48     -10.9488      1.00000
     49     -10.7054      1.00000
     50     -10.5434      1.00000
     51     -10.5390      1.00000
     52     -10.4520      1.00000
     53     -10.4093      1.00000
     54     -10.2940      1.00000
     55      -9.9599      1.00000
     56      -9.8344      1.00000
     57      -9.8176      1.00000
     58      -9.7434      1.00000
     59      -9.6141      1.00000
     60      -9.5541      1.00000
     61      -9.5252      1.00000
     62      -9.4322      1.00000
     63      -9.3197      1.00000
     64      -9.2677      1.00000
     65      -9.1972      1.00000
     66      -8.9241      1.00000
     67      -8.8655      1.00000
     68      -8.8129      1.00000
     69      -8.7663      1.00000
     70      -8.4841      1.00000
     71      -8.3571      1.00000
     72      -8.3076      1.00000
     73      -8.2316      1.00000
     74      -8.1860      1.00000
     75      -8.0825      1.00000
     76      -7.9809      1.00000
     77      -7.8847      1.00000
     78      -7.7657      1.00000
     79      -7.7554      1.00000
     80      -7.4891      1.00000
     81      -7.4340      1.00000
     82      -7.2589      1.00000
     83      -7.2488      1.00000
     84      -7.1059      1.00000
     85      -6.9888      1.00000
     86      -6.7234      1.00000
     87      -6.6508      1.00000
     88      -6.4812      1.00000
     89      -6.4478      1.00000
     90      -6.1077      1.00000
     91      -6.0143      1.00000
     92      -5.9369      1.00000
     93      -5.5992      1.00000
     94      -5.5519      1.00000
     95      -5.3961      1.00000
     96      -4.9889      1.00000
     97      -4.8709      1.00000
     98      -4.8308      1.00000
     99      -4.4666      1.00000
    100      -3.9545      1.00000
    101      -3.7904      1.00000
    102      -2.4582      0.00058
    103      -1.8291      0.00000
    104      -1.6782      0.00000
    105      -1.4238      0.00000
    106      -0.9518      0.00000
    107      -0.8345      0.00000
    108      -0.8102      0.00000
    109      -0.7202      0.00000
    110      -0.6508      0.00000
    111      -0.0636      0.00000
    112       0.2007      0.00000
    113       0.3218      0.00000
    114       0.5074      0.00000
    115       0.5630      0.00000
    116       0.7899      0.00000
    117       0.8314      0.00000
    118       0.9008      0.00000
    119       1.0952      0.00000
    120       1.1905      0.00000
    121       1.2519      0.00000
    122       1.3547      0.00000
    123       1.4769      0.00000
    124       1.5069      0.00000
    125       1.5765      0.00000
    126       1.6300      0.00000
    127       1.6708      0.00000
    128       1.7747      0.00000
    129       1.8229      0.00000
    130       1.8247      0.00000
    131       1.9287      0.00000
    132       2.0015      0.00000

 spin component 2

 k-point     1 :       0.0000    0.0000    0.0000
  band No.  band energies     occupation 
      1     -52.5847      1.00000
      2     -22.3493      1.00000
      3     -21.7302      1.00000
      4     -21.5312      1.00000
      5     -21.3269      1.00000
      6     -21.3034      1.00000
      7     -21.2345      1.00000
      8     -21.0105      1.00000
      9     -19.9401      1.00000
     10     -19.5662      1.00000
     11     -19.5283      1.00000
     12     -19.4217      1.00000
     13     -19.3442      1.00000
     14     -19.2764      1.00000
     15     -18.7851      1.00000
     16     -18.6426      1.00000
     17     -18.6163      1.00000
     18     -18.5261      1.00000
     19     -18.4772      1.00000
     20     -18.1204      1.00000
     21     -16.5898      1.00000
     22     -16.5475      1.00000
     23     -16.4701      1.00000
     24     -16.3085      1.00000
     25     -16.2481      1.00000
     26     -16.2148      1.00000
     27     -16.0726      1.00000
     28     -15.5487      1.00000
     29     -15.3966      1.00000
     30     -15.3309      1.00000
     31     -15.1593      1.00000
     32     -14.9870      1.00000
     33     -14.3045      1.00000
     34     -14.2609      1.00000
     35     -14.0628      1.00000
     36     -14.0016      1.00000
     37     -13.9215      1.00000
     38     -13.3605      1.00000
     39     -12.1466      1.00000
     40     -11.9645      1.00000
     41     -11.7938      1.00000
     42     -11.7752      1.00000
     43     -11.6996      1.00000
     44     -11.6288      1.00000
     45     -11.6203      1.00000
     46     -11.6035      1.00000
     47     -11.4501      1.00000
     48     -11.4441      1.00000
     49     -11.1218      1.00000
     50     -11.0592      1.00000
     51     -10.6497      1.00000
     52     -10.4596      1.00000
     53     -10.4047      1.00000
     54     -10.2100      1.00000
     55     -10.1588      1.00000
     56     -10.1136      1.00000
     57      -9.8815      1.00000
     58      -9.6000      1.00000
     59      -9.5160      1.00000
     60      -9.2852      1.00000
     61      -9.2732      1.00000
     62      -9.2042      1.00000
     63      -9.1067      1.00000
     64      -9.0608      1.00000
     65      -9.0337      1.00000
     66      -9.0166      1.00000
     67      -9.0079      1.00000
     68      -8.9321      1.00000
     69      -8.8562      1.00000
     70      -8.8451      1.00000
     71      -8.7230      1.00000
     72      -8.6176      1.00000
     73      -8.6133      1.00000
     74      -8.6099      1.00000
     75      -7.9838      1.00000
     76      -7.4502      1.00000
     77      -7.4277      1.00000
     78      -7.3705      1.00000
     79      -7.3048      1.00000
     80      -7.2846      1.00000
     81      -7.2518      1.00000
     82      -7.2368      1.00000
     83      -7.1759      1.00000
     84      -7.0464      1.00000
     85      -6.9837      1.00000
     86      -6.9595      1.00000
     87      -6.9482      1.00000
     88      -6.3455      1.00000
     89      -6.3432      1.00000
     90      -6.2576      1.00000
     91      -6.1796      1.00000
     92      -6.1594      1.00000
     93      -6.0995      1.00000
     94      -5.9492      1.00000
     95      -5.6767      1.00000
     96      -4.3622      1.00000
     97      -4.2536      1.00000
     98      -4.2406      1.00000
     99      -4.2239      1.00000
    100      -4.1378      1.00000
    101      -3.8940      1.00000
    102      -2.6868      0.99936
    103      -1.7177      0.00000
    104      -1.6208      0.00000
    105      -1.5111      0.00000
    106      -1.3458      0.00000
    107      -1.3079      0.00000
    108      -0.9780      0.00000
    109      -0.5483      0.00000
    110       0.1814      0.00000
    111       0.2828      0.00000
    112       0.3586      0.00000
    113       0.3852      0.00000
    114       0.3917      0.00000
    115       0.4273      0.00000
    116       0.5070      0.00000
    117       0.7840      0.00000
    118       0.9731      0.00000
    119       1.0355      0.00000
    120       1.3759      0.00000
    121       1.4279      0.00000
    122       1.4332      0.00000
    123       1.5208      0.00000
    124       1.5353      0.00000
    125       1.6756      0.00000
    126       1.7371      0.00000
    127       1.7530      0.00000
    128       1.8565      0.00000
    129       1.9430      0.00000
    130       2.0781      0.00000
    131       2.0919      0.00000
    132       2.1806      0.00000

 k-point     2 :       0.3333   -0.0000    0.0000
  band No.  band energies     occupation 
      1     -52.5847      1.00000
      2     -22.2570      1.00000
      3     -21.9936      1.00000
      4     -21.6032      1.00000
      5     -21.4658      1.00000
      6     -21.0976      1.00000
      7     -20.8798      1.00000
      8     -20.5642      1.00000
      9     -20.4267      1.00000
     10     -20.1879      1.00000
     11     -19.7107      1.00000
     12     -19.4414      1.00000
     13     -19.3105      1.00000
     14     -19.1204      1.00000
     15     -18.9795      1.00000
     16     -18.5305      1.00000
     17     -18.4116      1.00000
     18     -17.9546      1.00000
     19     -17.8197      1.00000
     20     -17.4703      1.00000
     21     -17.3628      1.00000
     22     -17.3033      1.00000
     23     -17.0769      1.00000
     24     -16.9428      1.00000
     25     -16.3122      1.00000
     26     -16.1864      1.00000
     27     -15.7606      1.00000
     28     -15.2667      1.00000
     29     -15.2231      1.00000
     30     -14.9833      1.00000
     31     -14.8378      1.00000
     32     -14.7037      1.00000
     33     -14.6071      1.00000
     34     -14.3754      1.00000
     35     -14.0908      1.00000
     36     -13.2911      1.00000
     37     -13.1997      1.00000
     38     -13.1219      1.00000
     39     -12.9927      1.00000
     40     -12.7617      1.00000
     41     -12.5011      1.00000
     42     -12.2766      1.00000
     43     -12.1138      1.00000
     44     -12.0319      1.00000
     45     -11.5130      1.00000
     46     -11.4008      1.00000
     47     -11.1983      1.00000
     48     -10.8879      1.00000
     49     -10.6845      1.00000
     50     -10.5942      1.00000
     51     -10.5601      1.00000
     52     -10.4250      1.00000
     53     -10.3320      1.00000
     54     -10.2423      1.00000
     55      -9.9905      1.00000
     56      -9.9098      1.00000
     57      -9.7521      1.00000
     58      -9.6946      1.00000
     59      -9.6584      1.00000
     60      -9.5788      1.00000
     61      -9.4328      1.00000
     62      -9.3239      1.00000
     63      -9.2514      1.00000
     64      -9.1927      1.00000
     65      -9.1135      1.00000
     66      -9.0380      1.00000
     67      -8.9591      1.00000
     68      -8.8851      1.00000
     69      -8.7568      1.00000
     70      -8.7052      1.00000
     71      -8.4344      1.00000
     72      -8.3804      1.00000
     73      -8.2480      1.00000
     74      -8.1829      1.00000
     75      -8.0758      1.00000
     76      -7.9965      1.00000
     77      -7.9785      1.00000
     78      -7.9094      1.00000
     79      -7.5124      1.00000
     80      -7.4193      1.00000
     81      -7.2974      1.00000
     82      -7.1771      1.00000
     83      -7.0678      1.00000
     84      -6.9965      1.00000
     85      -6.8200      1.00000
     86      -6.7612      1.00000
     87      -6.7584      1.00000
     88      -6.6133      1.00000
     89      -6.3264      1.00000
     90      -6.0984      1.00000
     91      -6.0592      1.00000
     92      -5.9805      1.00000
     93      -5.6552      1.00000
     94      -5.5181      1.00000
     95      -5.1959      1.00000
     96      -4.9727      1.00000
     97      -4.9291      1.00000
     98      -4.7828      1.00000
     99      -4.6866      1.00000
    100      -3.9032      1.00000
    101      -3.5965      1.00000
    102      -2.5110      0.03975
    103      -1.8273      0.00000
    104      -1.5297      0.00000
    105      -1.3555      0.00000
    106      -1.0089      0.00000
    107      -0.9532      0.00000
    108      -0.7954      0.00000
    109      -0.7876      0.00000
    110      -0.4367      0.00000
    111      -0.0623      0.00000
    112       0.1851      0.00000
    113       0.3373      0.00000
    114       0.4550      0.00000
    115       0.5931      0.00000
    116       0.7888      0.00000
    117       0.8672      0.00000
    118       0.9982      0.00000
    119       1.1107      0.00000
    120       1.1919      0.00000
    121       1.3232      0.00000
    122       1.3809      0.00000
    123       1.4970      0.00000
    124       1.5427      0.00000
    125       1.5927      0.00000
    126       1.6190      0.00000
    127       1.6713      0.00000
    128       1.7173      0.00000
    129       1.8035      0.00000
    130       1.8363      0.00000
    131       1.8526      0.00000
    132       2.0229      0.00000

 k-point     3 :       0.0000    0.3333    0.0000
  band No.  band energies     occupation 
      1     -52.5847      1.00000
      2     -22.2570      1.00000
      3     -21.9937      1.00000
      4     -21.6033      1.00000
      5     -21.4656      1.00000
      6     -21.0972      1.00000
      7     -20.8803      1.00000
      8     -20.5640      1.00000
      9     -20.4265      1.00000
     10     -20.1886      1.00000
     11     -19.7108      1.00000
     12     -19.4413      1.00000
     13     -19.3100      1.00000
     14     -19.1206      1.00000
     15     -18.9795      1.00000
     16     -18.5299      1.00000
     17     -18.4123      1.00000
     18     -17.9547      1.00000
     19     -17.8197      1.00000
     20     -17.4701      1.00000
     21     -17.3628      1.00000
     22     -17.3037      1.00000
     23     -17.0770      1.00000
     24     -16.9427      1.00000
     25     -16.3120      1.00000
     26     -16.1864      1.00000
     27     -15.7604      1.00000
     28     -15.2669      1.00000
     29     -15.2230      1.00000
     30     -14.9829      1.00000
     31     -14.8377      1.00000
     32     -14.7036      1.00000
     33     -14.6076      1.00000
     34     -14.3757      1.00000
     35     -14.0908      1.00000
     36     -13.2912      1.00000
     37     -13.1993      1.00000
     38     -13.1219      1.00000
     39     -12.9930      1.00000
     40     -12.7617      1.00000
     41     -12.5011      1.00000
     42     -12.2765      1.00000
     43     -12.1139      1.00000
     44     -12.0319      1.00000
     45     -11.5132      1.00000
     46     -11.4004      1.00000
     47     -11.1982      1.00000
     48     -10.8878      1.00000
     49     -10.6848      1.00000
     50     -10.5943      1.00000
     51     -10.5602      1.00000
     52     -10.4248      1.00000
     53     -10.3315      1.00000
     54     -10.2425      1.00000
     55      -9.9907      1.00000
     56      -9.9099      1.00000
     57      -9.7524      1.00000
     58      -9.6947      1.00000
     59      -9.6582      1.00000
     60      -9.5786      1.00000
     61      -9.4327      1.00000
     62      -9.3241      1.00000
     63      -9.2516      1.00000
     64      -9.1926      1.00000
     65      -9.1134      1.00000
     66      -9.0376      1.00000
     67      -8.9591      1.00000
     68      -8.8848      1.00000
     69      -8.7576      1.00000
     70      -8.7053      1.00000
     71      -8.4341      1.00000
     72      -8.3801      1.00000
     73      -8.2479      1.00000
     74      -8.1823      1.00000
     75      -8.0761      1.00000
     76      -7.9972      1.00000
     77      -7.9782      1.00000
     78      -7.9095      1.00000
     79      -7.5123      1.00000
     80      -7.4200      1.00000
     81      -7.2974      1.00000
     82      -7.1769      1.00000
     83      -7.0679      1.00000
     84      -6.9959      1.00000
     85      -6.8198      1.00000
     86      -6.7625      1.00000
     87      -6.7576      1.00000
     88      -6.6135      1.00000
     89      -6.3264      1.00000
     90      -6.0972      1.00000
     91      -6.0589      1.00000
     92      -5.9813      1.00000
     93      -5.6551      1.00000
     94      -5.5183      1.00000
     95      -5.1956      1.00000
     96      -4.9731      1.00000
     97      -4.9287      1.00000
     98      -4.7836      1.00000
     99      -4.6862      1.00000
    100      -3.9043      1.00000
    101      -3.5954      1.00000
    102      -2.5115      0.04097
    103      -1.8272      0.00000
    104      -1.5287      0.00000
    105      -1.3548      0.00000
    106      -1.0100      0.00000
    107      -0.9537      0.00000
    108      -0.7946      0.00000
    109      -0.7891      0.00000
    110      -0.4369      0.00000
    111      -0.0609      0.00000
    112       0.1863      0.00000
    113       0.3372      0.00000
    114       0.4539      0.00000
    115       0.5935      0.00000
    116       0.7870      0.00000
    117       0.8676      0.00000
    118       0.9983      0.00000
    119       1.1113      0.00000
    120       1.1915      0.00000
    121       1.3243      0.00000
    122       1.3812      0.00000
    123       1.4970      0.00000
    124       1.5433      0.00000
    125       1.5933      0.00000
    126       1.6197      0.00000
    127       1.6709      0.00000
    128       1.7161      0.00000
    129       1.8033      0.00000
    130       1.8359      0.00000
    131       1.8527      0.00000
    132       2.0229      0.00000

 k-point     4 :       0.3333    0.3333    0.0000
  band No.  band energies     occupation 
      1     -52.5847      1.00000
      2     -22.1779      1.00000
      3     -22.0537      1.00000
      4     -21.8278      1.00000
      5     -21.2214      1.00000
      6     -21.0738      1.00000
      7     -20.9054      1.00000
      8     -20.3848      1.00000
      9     -20.1928      1.00000
     10     -20.1359      1.00000
     11     -20.0575      1.00000
     12     -19.9562      1.00000
     13     -19.7338      1.00000
     14     -18.6028      1.00000
     15     -18.3827      1.00000
     16     -18.3444      1.00000
     17     -18.2914      1.00000
     18     -18.1372      1.00000
     19     -17.9939      1.00000
     20     -17.4978      1.00000
     21     -17.4278      1.00000
     22     -17.4123      1.00000
     23     -16.9266      1.00000
     24     -16.8904      1.00000
     25     -16.7760      1.00000
     26     -16.2603      1.00000
     27     -15.7757      1.00000
     28     -15.6461      1.00000
     29     -15.2998      1.00000
     30     -15.2403      1.00000
     31     -14.3155      1.00000
     32     -14.0820      1.00000
     33     -13.8901      1.00000
     34     -13.8594      1.00000
     35     -13.8193      1.00000
     36     -13.7849      1.00000
     37     -13.6906      1.00000
     38     -13.6299      1.00000
     39     -13.2590      1.00000
     40     -13.0204      1.00000
     41     -12.5307      1.00000
     42     -12.0772      1.00000
     43     -12.0680      1.00000
     44     -11.6822      1.00000
     45     -11.5414      1.00000
     46     -11.5009      1.00000
     47     -11.3390      1.00000
     48     -11.2550      1.00000
     49     -10.9959      1.00000
     50     -10.4207      1.00000
     51     -10.2672      1.00000
     52     -10.2590      1.00000
     53     -10.2222      1.00000
     54     -10.0981      1.00000
     55     -10.0702      1.00000
     56     -10.0578      1.00000
     57      -9.9580      1.00000
     58      -9.9253      1.00000
     59      -9.5230      1.00000
     60      -9.3969      1.00000
     61      -9.3664      1.00000
     62      -9.2279      1.00000
     63      -9.1648      1.00000
     64      -9.1621      1.00000
     65      -9.0534      1.00000
     66      -8.9703      1.00000
     67      -8.8507      1.00000
     68      -8.7368      1.00000
     69      -8.6380      1.00000
     70      -8.5832      1.00000
     71      -8.5714      1.00000
     72      -8.4409      1.00000
     73      -8.3169      1.00000
     74      -8.1876      1.00000
     75      -8.0505      1.00000
     76      -8.0226      1.00000
     77      -7.9522      1.00000
     78      -7.8722      1.00000
     79      -7.8179      1.00000
     80      -7.7716      1.00000
     81      -7.5900      1.00000
     82      -7.3604      1.00000
     83      -7.0913      1.00000
     84      -6.9478      1.00000
     85      -6.8756      1.00000
     86      -6.7106      1.00000
     87      -6.3977      1.00000
     88      -6.3254      1.00000
     89      -6.0734      1.00000
     90      -5.9887      1.00000
     91      -5.9540      1.00000
     92      -5.8554      1.00000
     93      -5.7550      1.00000
     94      -5.6830      1.00000
     95      -5.1211      1.00000
     96      -5.0408      1.00000
     97      -4.9311      1.00000
     98      -4.9008      1.00000
     99      -4.8427      1.00000
    100      -4.4955      1.00000
    101      -2.8622      1.00000
    102      -2.7373      1.00000
    103      -2.3084      0.00000
    104      -1.4053      0.00000
    105      -1.1148      0.00000
    106      -1.0358      0.00000
    107      -0.6510      0.00000
    108      -0.6453      0.00000
    109      -0.5184      0.00000
    110      -0.4480      0.00000
    111       0.0637      0.00000
    112       0.1588      0.00000
    113       0.1930      0.00000
    114       0.2022      0.00000
    115       0.2239      0.00000
    116       0.3165      0.00000
    117       1.0114      0.00000
    118       1.0566      0.00000
    119       1.1210      0.00000
    120       1.1956      0.00000
    121       1.2767      0.00000
    122       1.2926      0.00000
    123       1.3105      0.00000
    124       1.4877      0.00000
    125       1.4942      0.00000
    126       1.5008      0.00000
    127       1.7676      0.00000
    128       1.8187      0.00000
    129       1.8346      0.00000
    130       1.8460      0.00000
    131       1.8959      0.00000
    132       2.0371      0.00000

 k-point     5 :      -0.3333    0.3333    0.0000
  band No.  band energies     occupation 
      1     -52.5847      1.00000
      2     -22.2819      1.00000
      3     -21.8260      1.00000
      4     -21.7849      1.00000
      5     -21.5082      1.00000
      6     -20.9904      1.00000
      7     -20.8550      1.00000
      8     -20.6292      1.00000
      9     -20.3966      1.00000
     10     -20.1285      1.00000
     11     -19.7048      1.00000
     12     -19.6586      1.00000
     13     -19.2485      1.00000
     14     -19.0842      1.00000
     15     -18.9522      1.00000
     16     -18.5337      1.00000
     17     -18.3675      1.00000
     18     -17.9675      1.00000
     19     -17.8491      1.00000
     20     -17.5349      1.00000
     21     -17.4030      1.00000
     22     -17.1915      1.00000
     23     -17.1251      1.00000
     24     -16.7416      1.00000
     25     -16.3856      1.00000
     26     -16.2440      1.00000
     27     -15.5468      1.00000
     28     -15.4900      1.00000
     29     -15.3764      1.00000
     30     -15.0383      1.00000
     31     -14.8501      1.00000
     32     -14.7738      1.00000
     33     -14.4202      1.00000
     34     -14.3314      1.00000
     35     -14.0850      1.00000
     36     -13.3363      1.00000
     37     -13.1356      1.00000
     38     -12.9096      1.00000
     39     -12.8678      1.00000
     40     -12.7984      1.00000
     41     -12.4945      1.00000
     42     -12.3173      1.00000
     43     -12.2854      1.00000
     44     -11.9995      1.00000
     45     -11.5886      1.00000
     46     -11.5366      1.00000
     47     -11.1270      1.00000
     48     -10.9445      1.00000
     49     -10.7004      1.00000
     50     -10.5378      1.00000
     51     -10.5341      1.00000
     52     -10.4491      1.00000
     53     -10.3826      1.00000
     54     -10.2901      1.00000
     55      -9.9478      1.00000
     56      -9.8267      1.00000
     57      -9.8109      1.00000
     58      -9.7318      1.00000
     59      -9.6050      1.00000
     60      -9.5491      1.00000
     61      -9.5016      1.00000
     62      -9.4290      1.00000
     63      -9.3176      1.00000
     64      -9.2649      1.00000
     65      -9.1944      1.00000
     66      -8.9188      1.00000
     67      -8.8542      1.00000
     68      -8.8078      1.00000
     69      -8.7494      1.00000
     70      -8.4683      1.00000
     71      -8.3510      1.00000
     72      -8.3035      1.00000
     73      -8.2260      1.00000
     74      -8.1758      1.00000
     75      -8.0737      1.00000
     76      -7.9651      1.00000
     77      -7.8777      1.00000
     78      -7.7620      1.00000
     79      -7.7481      1.00000
     80      -7.4856      1.00000
     81      -7.4170      1.00000
     82      -7.2447      1.00000
     83      -7.2344      1.00000
     84      -7.1004      1.00000
     85      -6.9586      1.00000
     86      -6.7131      1.00000
     87      -6.6361      1.00000
     88      -6.4789      1.00000
     89      -6.4439      1.00000
     90      -6.0944      1.00000
     91      -5.9987      1.00000
     92      -5.9326      1.00000
     93      -5.5780      1.00000
     94      -5.5368      1.00000
     95      -5.3826      1.00000
     96      -4.9734      1.00000
     97      -4.8572      1.00000
     98      -4.8169      1.00000
     99      -4.4478      1.00000
    100      -3.9253      1.00000
    101      -3.7711      1.00000
    102      -2.3912      0.00000
    103      -1.8030      0.00000
    104      -1.6729      0.00000
    105      -1.4150      0.00000
    106      -0.9328      0.00000
    107      -0.8205      0.00000
    108      -0.7991      0.00000
    109      -0.7094      0.00000
    110      -0.6360      0.00000
    111      -0.0478      0.00000
    112       0.2055      0.00000
    113       0.3323      0.00000
    114       0.5262      0.00000
    115       0.5784      0.00000
    116       0.7950      0.00000
    117       0.8462      0.00000
    118       0.9142      0.00000
    119       1.1028      0.00000
    120       1.2034      0.00000
    121       1.2629      0.00000
    122       1.3668      0.00000
    123       1.4970      0.00000
    124       1.5299      0.00000
    125       1.5915      0.00000
    126       1.6365      0.00000
    127       1.6865      0.00000
    128       1.7862      0.00000
    129       1.8357      0.00000
    130       1.8403      0.00000
    131       1.9458      0.00000
    132       2.0197      0.00000


--------------------------------------------------------------------------------------------------------


 soft charge-density along one line, spin component           1
         0         1         2         3         4         5         6         7         8         9
 total charge-density along one line
 
 soft charge-density along one line, spin component           2
         0         1         2         3         4         5         6         7         8         9
 total charge-density along one line
 
 pseudopotential strength for first ion, spin component:           1
 10.218  13.589   0.000   0.000  -0.001  -0.000   0.000   0.001
 13.589  18.070   0.000   0.000  -0.001  -0.000   0.000   0.001
  0.000   0.000  -4.351  -0.000  -0.000   8.511   0.000   0.000
  0.000   0.000  -0.000  -4.331  -0.003   0.000   8.478   0.004
 -0.001  -0.001  -0.000  -0.003  -4.351   0.000   0.004   8.509
 -0.000  -0.000   8.511   0.000   0.000 -18.783  -0.001  -0.000
  0.000   0.000   0.000   8.478   0.004  -0.001 -18.732  -0.007
  0.001   0.001   0.000   0.004   8.509  -0.000  -0.007 -18.781
 pseudopotential strength for first ion, spin component:           2
 10.219  13.589   0.000   0.000  -0.001   0.000   0.000   0.001
 13.589  18.071   0.000   0.000  -0.001   0.000   0.000   0.001
  0.000   0.000  -4.351  -0.000  -0.000   8.511   0.000   0.000
  0.000   0.000  -0.000  -4.331  -0.003   0.000   8.478   0.004
 -0.001  -0.001  -0.000  -0.003  -4.351   0.000   0.004   8.510
  0.000   0.000   8.511   0.000   0.000 -18.783  -0.001  -0.000
  0.000   0.000   0.000   8.478   0.004  -0.001 -18.732  -0.007
  0.001   0.001   0.000   0.004   8.510  -0.000  -0.007 -18.781
 total augmentation occupancy for first ion, spin component:           1
  8.005  -3.538  -0.041  -0.021   0.058  -0.007  -0.003   0.010
 -3.538   1.622   0.025   0.013  -0.033   0.004   0.002  -0.005
 -0.041   0.025   1.812   0.005   0.010   0.165   0.001  -0.001
 -0.021   0.013   0.005   1.205   0.085   0.001   0.072   0.014
  0.058  -0.033   0.010   0.085   1.787  -0.001   0.014   0.163
 -0.007   0.004   0.165   0.001  -0.001   0.016   0.000  -0.000
 -0.003   0.002   0.001   0.072   0.014   0.000   0.005   0.002
  0.010  -0.005  -0.001   0.014   0.163  -0.000   0.002   0.016
 total augmentation occupancy for first ion, spin component:           2
  0.000  -0.000  -0.000  -0.000   0.000  -0.000  -0.000   0.000
 -0.000   0.000   0.000   0.000  -0.000   0.000   0.000  -0.000
 -0.000   0.000  -0.000   0.000  -0.000   0.000   0.000   0.000
 -0.000   0.000   0.000  -0.002   0.000   0.000  -0.000   0.000
  0.000  -0.000  -0.000   0.000  -0.000   0.000   0.000   0.000
 -0.000   0.000   0.000   0.000   0.000   0.000   0.000   0.000
 -0.000   0.000   0.000  -0.000   0.000   0.000   0.000  -0.000
  0.000  -0.000   0.000   0.000   0.000   0.000  -0.000   0.000


------------------------ aborting loop because EDIFF is reached ----------------------------------------


    CHARGE:  cpu time    4.4959: real time    4.4982
    FORLOC:  cpu time    0.2380: real time    0.2381
    FORNL :  cpu time   16.8092: real time   16.8100
    STRESS:  cpu time   51.1430: real time   51.1459
    FORCOR:  cpu time    1.2057: real time    1.2057
    FORHAR:  cpu time    0.2498: real time    0.2498
    MIXING:  cpu time    0.0593: real time    0.0593
    OFIELD:  cpu time    0.0000: real time    0.0000

  FORCE on cell =-STRESS in cart. coord.  units (eV):
  Direction    XX          YY          ZZ          XY          YZ          ZX
  --------------------------------------------------------------------------------------
  Alpha Z    53.42782    53.42782    53.42782
  Ewald   62911.51610 62868.52411-69358.96535   -37.31803     0.54693     2.02245
  Hartree 62180.57684 62152.26592-61673.05436   -24.62101     0.87294     1.71114
  E(xc)    -755.70582  -756.19501  -782.09468    -0.42317    -0.00233    -0.00109
  Local  ************************128481.13112    62.54828    -1.37649    -3.65071
  n-local  -182.94522  -189.86716  -174.14589    -6.00537    -0.00118     0.01345
  augment     0.42531     0.42162     1.89996    -0.00239    -0.00065    -0.00198
  Kinetic  3014.43757  3063.74798  3448.87221    42.72939     0.08850    -0.03003
  Fock        0.00000     0.00000     0.00000     0.00000     0.00000     0.00000
  -------------------------------------------------------------------------------------
  Total     -18.63011    23.97785    -2.92918    36.90769     0.12772     0.06323
  in kB      -7.59388     9.77369    -1.19397    15.04407     0.05206     0.02577
  external pressure =        0.33 kB  Pullay stress =        0.00 kB


 VOLUME and BASIS-vectors are now :
 -----------------------------------------------------------------------------
  energy-cutoff  :      520.00
  volume of cell :     3930.63
      direct lattice vectors                 reciprocal lattice vectors
    12.300000000  0.000000000  0.000000000     0.081300813  0.046939046  0.000000000
    -6.150000000 10.652112467  0.000000000     0.000000000  0.093878093  0.000000000
     0.000000000  0.000000000 30.000000000     0.000000000  0.000000000  0.033333333

  length of vectors
    12.300000000 12.300000000 30.000000000     0.093878093  0.093878093  0.033333333


 FORCES acting on ions
    electron-ion (+dipol)            ewald-force                    non-local-force                 convergence-correction
 -----------------------------------------------------------------------------------------------
   0.137E+02 -.748E+01 -.243E+02   -.138E+02 0.764E+01 0.244E+02   0.591E-01 -.150E+00 -.697E-01   0.498E-05 0.279E-05 -.459E-05
   0.598E+01 -.346E+01 -.631E+02   -.598E+01 0.346E+01 0.630E+02   -.102E-01 -.722E-02 0.790E-01   0.218E-05 -.183E-05 -.242E-05
   0.846E+01 -.483E+01 0.340E+02   -.868E+01 0.495E+01 -.338E+02   0.230E+00 -.132E+00 -.196E+00   0.357E-05 -.232E-05 -.873E-05
   0.332E+01 0.392E+01 0.197E+02   -.342E+01 -.399E+01 -.200E+02   0.113E+00 0.579E-01 0.306E+00   0.462E-05 -.322E-05 -.694E-05
   0.464E+01 0.116E+02 0.793E+02   -.440E+01 -.123E+02 -.798E+02   -.227E+00 0.686E+00 0.441E+00   0.209E-05 -.438E-06 -.127E-04
   -.104E+01 0.136E+02 0.341E+02   0.877E+00 -.138E+02 -.344E+02   0.181E+00 0.127E+00 0.319E+00   0.152E-05 0.301E-05 -.894E-05
   -.179E+02 -.287E-01 -.121E+02   0.183E+02 0.760E-01 0.118E+02   -.470E+00 -.454E-01 0.365E+00   0.776E-05 0.545E-05 -.675E-05
   -.214E+02 0.902E+01 -.670E+02   0.222E+02 -.881E+01 0.671E+02   -.676E+00 -.189E+00 -.142E+00   0.547E-05 0.101E-04 -.257E-05
   0.190E+02 -.137E+02 -.672E+02   -.192E+02 0.144E+02 0.674E+02   0.189E+00 -.662E+00 -.150E+00   0.582E-05 0.983E-05 -.247E-05
   -.335E+01 0.398E+01 -.118E+03   0.359E+01 -.394E+01 0.118E+03   -.235E+00 -.436E-01 -.155E+00   0.416E-05 0.377E-05 -.884E-06
   0.196E+02 -.113E+02 -.113E+03   -.198E+02 0.115E+02 0.113E+03   0.172E+00 -.129E+00 -.100E+00   0.283E-05 -.225E-05 -.512E-06
   0.163E+02 -.317E+01 -.255E+02   -.167E+02 0.328E+01 0.254E+02   0.413E+00 -.416E-01 0.141E+00   -.776E-05 -.513E-05 -.571E-05
   -.350E+00 -.137E+02 0.302E+02   0.571E+00 0.138E+02 -.305E+02   -.243E+00 -.117E+00 0.286E+00   -.140E-05 -.137E-05 -.855E-05
   0.871E+01 -.114E+02 -.236E+02   -.897E+01 0.115E+02 0.234E+02   0.270E+00 -.136E+00 0.223E+00   -.522E-06 -.355E-05 -.494E-05
   -.737E+00 -.605E+01 0.278E+02   0.789E+00 0.602E+01 -.278E+02   -.493E-01 0.451E-01 0.207E-01   0.531E-06 0.792E-06 -.814E-05
   -.200E+00 0.625E+01 0.272E+02   0.196E+00 -.624E+01 -.272E+02   0.116E-01 -.231E-01 0.348E-01   -.518E-06 0.781E-07 -.798E-05
   -.978E+01 0.109E+02 -.181E+02   0.101E+02 -.110E+02 0.179E+02   -.316E+00 0.145E+00 0.215E+00   0.533E-06 0.360E-05 -.560E-05
   -.137E+02 0.805E+01 -.243E+02   0.139E+02 -.804E+01 0.244E+02   -.176E+00 -.246E-01 -.667E-01   0.193E-06 0.554E-05 -.462E-05
   0.525E+01 -.113E+01 -.118E+03   -.535E+01 0.138E+01 0.118E+03   0.877E-01 -.238E+00 -.155E+00   0.112E-05 0.554E-05 -.918E-06
   -.196E+02 0.112E+02 -.113E+03   0.198E+02 -.113E+02 0.113E+03   -.194E+00 0.818E-01 -.100E+00   -.357E-05 0.143E-05 -.531E-06
   0.332E+01 -.448E+01 -.124E+03   -.356E+01 0.448E+01 0.125E+03   0.224E+00 0.254E-04 -.164E+00   -.426E-05 -.439E-05 -.285E-06
   -.193E+02 0.126E+02 -.767E+02   0.195E+02 -.133E+02 0.769E+02   -.172E+00 0.629E+00 -.187E+00   -.646E-05 -.968E-05 -.156E-05
   0.206E+02 -.109E+02 -.768E+02   -.212E+02 0.107E+02 0.770E+02   0.625E+00 0.148E+00 -.191E+00   -.512E-05 -.103E-04 -.152E-05
   -.543E+01 0.463E+00 -.124E+03   0.553E+01 -.661E+00 0.125E+03   -.104E+00 0.185E+00 -.164E+00   -.174E-05 -.573E-05 -.236E-06
   0.132E+02 -.848E+01 -.267E+02   -.133E+02 0.849E+01 0.267E+02   0.144E+00 -.437E-02 -.811E-01   -.913E-06 -.650E-05 -.440E-05
   -.626E+01 -.108E+02 0.749E+02   0.617E+01 0.114E+02 -.752E+02   0.167E+00 -.650E+00 0.350E+00   -.243E-05 0.125E-05 -.123E-04
   0.141E+01 0.522E+01 0.196E+02   -.141E+01 -.535E+01 -.199E+02   -.165E-01 0.137E+00 0.303E+00   -.481E-05 0.206E-05 -.687E-05
   -.899E+01 0.520E+01 0.337E+02   0.923E+01 -.535E+01 -.335E+02   -.248E+00 0.143E+00 -.200E+00   -.354E-05 0.165E-05 -.864E-05
   -.613E+01 0.350E+01 -.631E+02   0.613E+01 -.350E+01 0.630E+02   -.431E-02 -.119E-01 0.792E-01   -.263E-05 0.983E-06 -.238E-05
   -.141E+02 0.743E+01 -.266E+02   0.141E+02 -.757E+01 0.267E+02   -.844E-01 0.134E+00 -.785E-01   -.509E-05 -.421E-05 -.443E-05
   -.141E+02 0.231E+01 -.234E+02   0.144E+02 -.249E+01 0.232E+02   -.250E+00 0.177E+00 0.225E+00   -.302E-05 -.231E-05 -.499E-05
   -.117E+02 -.642E+01 0.306E+02   0.118E+02 0.665E+01 -.308E+02   0.127E-01 -.242E+00 0.299E+00   -.798E-06 -.216E-05 -.867E-05
   -.982E+01 0.126E+02 -.251E+02   0.100E+02 -.129E+02 0.250E+02   -.200E+00 0.334E+00 0.169E+00   -.923E-06 -.915E-05 -.569E-05
   -.575E+02 -.654E+01 0.999E+02   0.584E+02 0.659E+01 -.101E+03   -.862E+00 -.797E-01 0.803E+00   0.513E-05 -.107E-05 -.137E-04
   0.230E+02 -.547E+02 0.982E+02   -.234E+02 0.555E+02 -.989E+02   0.332E+00 -.869E+00 0.641E+00   -.385E-05 0.389E-05 -.138E-04
   0.490E+01 0.576E+01 0.211E+03   -.499E+01 -.573E+01 -.214E+03   0.142E+00 0.132E+00 0.308E+01   0.903E-06 0.168E-05 -.184E-04
   -.906E+00 0.101E+01 0.779E+02   0.960E+00 -.107E+01 -.784E+02   -.448E-01 0.471E-01 0.504E+00   0.136E-05 -.630E-06 -.124E-04
   0.144E+02 -.249E+01 -.183E+02   -.147E+02 0.268E+01 0.181E+02   0.287E+00 -.186E+00 0.211E+00   0.275E-05 0.216E-05 -.551E-05
   -.405E+01 -.371E+01 0.200E+02   0.417E+01 0.378E+01 -.203E+02   -.143E+00 -.486E-01 0.294E+00   -.468E-05 0.316E-05 -.685E-05
   -.511E+01 -.313E+01 0.277E+02   0.508E+01 0.314E+01 -.277E+02   0.484E-01 -.234E-02 0.185E-01   0.647E-06 0.280E-06 -.809E-05
   0.529E+01 0.348E+01 0.273E+02   -.527E+01 -.350E+01 -.273E+02   -.392E-01 0.159E-01 0.364E-01   0.529E-06 -.865E-06 -.798E-05
   -.148E+01 -.495E+01 0.201E+02   0.149E+01 0.507E+01 -.204E+02   0.199E-01 -.136E+00 0.297E+00   0.556E-05 -.260E-05 -.692E-05
   -.640E+01 -.973E+01 0.759E+02   0.699E+01 0.990E+01 -.764E+02   -.656E+00 -.151E+00 0.418E+00   0.200E-05 -.129E-05 -.125E-04
   0.491E+00 0.300E+00 0.789E+02   -.523E+00 -.307E+00 -.794E+02   0.399E-01 0.366E-02 0.528E+00   -.116E-05 0.938E-06 -.125E-04
   -.276E+00 -.350E+01 0.216E+03   0.111E+00 0.342E+01 -.219E+03   0.363E-01 -.668E-01 0.321E+01   -.354E-06 -.685E-06 -.184E-04
   -.242E+02 0.546E+02 0.108E+03   0.246E+02 -.555E+02 -.109E+03   -.448E+00 0.829E+00 0.103E+01   0.340E-05 -.357E-05 -.140E-04
   0.607E+02 0.724E+01 0.105E+03   -.618E+02 -.733E+01 -.106E+03   0.100E+01 0.985E-01 0.839E+00   -.503E-05 0.142E-05 -.141E-04
   0.103E+02 -.153E+02 -.127E+02   -.106E+02 0.158E+02 0.124E+02   0.252E+00 -.429E+00 0.319E+00   0.683E-06 0.950E-05 -.676E-05
   0.122E+02 0.668E+01 0.337E+02   -.122E+02 -.692E+01 -.340E+02   0.106E-01 0.250E+00 0.301E+00   0.179E-05 0.248E-05 -.883E-05
   0.735E+01 0.109E+02 0.781E+02   -.801E+01 -.111E+02 -.784E+02   0.692E+00 0.177E+00 0.357E+00   -.171E-05 0.172E-05 -.126E-04
   0.189E+01 0.367E+01 -.322E+03   -.174E+01 -.359E+01 0.318E+03   -.140E+00 -.441E-01 0.277E+01   0.284E-06 0.294E-06 -.182E-05
 -----------------------------------------------------------------------------------------------
   0.252E+00 0.282E+00 -.173E+02   0.132E-12 0.808E-13 0.114E-12   -.250E+00 -.278E+00 0.173E+02   0.152E-06 0.247E-06 -.362E-03
 
 
 POSITION                                       TOTAL-FORCE (eV/Angst)
 -----------------------------------------------------------------------------------
     12.25066      0.04809     15.13709        -0.016300      0.014108      0.005727
      1.18024      0.73900     15.30442        -0.007737     -0.009160      0.007043
     10.96895      2.18834     14.86018         0.003876     -0.008855     -0.010638
     -0.07067      2.86519     14.94660         0.015403     -0.013243      0.008809
      9.72779      4.35931     14.69925         0.009424     -0.006146      0.005873
     -1.27848      5.00772     14.88248         0.014558      0.003255      0.003521
     -3.58654      6.57310     15.02586         0.002322      0.001835      0.063025
     -2.37450      7.17385     15.27206         0.041561      0.025174      0.015712
     -4.90001      8.63195     15.27207        -0.001719      0.048918      0.016903
     -3.67917      9.27727     15.51321         0.003382     -0.003430     -0.000373
      2.41789      0.02382     15.51934        -0.008976      0.002530      0.007232
      4.81789      2.66168     15.06884         0.003437      0.068879     -0.028716
      2.50841      4.22359     14.89838        -0.021772      0.000781      0.004600
      2.41295      2.81861     15.12878         0.003230      0.006604      0.006238
     -0.02749      4.27804     14.90066         0.002449      0.017755     -0.005846
      1.25676      4.95266     14.90369         0.008232     -0.015487     -0.007334
     -1.18311      6.41412     15.10565         0.000799      0.012947     -0.000431
      0.06632      7.08273     15.13709         0.018606     -0.011048      0.005642
     -2.42605      8.55379     15.51321        -0.008361      0.004630      0.000922
     -1.18831      9.20727     15.51934         0.008074     -0.006916      0.006444
     -1.24070     10.60610     15.53790        -0.015951     -0.003785      0.003764
      6.13245      0.60086     15.30897         0.005572      0.010442      0.001949
      3.60413      2.06058     15.30897         0.002979      0.009802      0.004096
      3.65551      0.67787     15.53790         0.001786     -0.012211      0.002700
      1.16301      2.14990     15.14723        -0.008275     -0.002967      0.005953
      3.80199      4.87145     14.71344         0.080703     -0.061566      0.000982
      2.51666      8.47280     14.94660        -0.016464      0.005531      0.008612
      2.56068      7.04286     14.86018        -0.008363     -0.002047     -0.010724
      0.04987      8.49302     15.30441        -0.006523     -0.009338      0.007249
      1.28036      9.18355     15.14723         0.003892     -0.005774      0.005753
      1.23451     10.60039     15.12878         0.001687     -0.000975      0.003679
      8.55353      0.73343     14.89837         0.016472     -0.016356      0.003787
      6.04613      1.95255     15.06884         0.024559      0.018541      0.002742
      7.11216      2.76108     14.67025         0.033997     -0.032758     -0.011165
      4.98508      3.98915     14.67025        -0.064871     -0.026608     -0.067522
      6.42191      4.02168     14.36580         0.054575      0.158042      0.597239
      3.81563      6.31800     14.69579         0.009129     -0.004595     -0.009322
      6.14635      9.28386     15.10566         0.009013     -0.000719      0.002815
      1.30041      6.36572     14.94452        -0.024583      0.015953      0.009522
      3.71863      9.21663     14.90066         0.016139      0.009575     -0.006473
      9.81074      0.01401     14.90368        -0.016126     -0.002903     -0.006859
     11.01267      0.75834     14.94452         0.028966     -0.014726      0.009845
      8.46780      2.17764     14.71344        -0.065551      0.012379     -0.003232
      9.71373      2.91273     14.69579         0.007997     -0.003716     -0.009880
      7.10498      5.20478     14.35259        -0.129327     -0.152044      0.486769
      8.54478      5.24103     14.64500        -0.007890     -0.043535      0.022544
      6.41648      6.46981     14.64500        -0.006399      0.012479     -0.034937
      7.48575      7.28192     15.02587        -0.040545     -0.017743      0.025251
      4.97605      8.49807     14.88249         0.000977      0.013295      0.003372
      5.06138      7.05347     14.69925         0.027713     -0.021561      0.008857
      6.96494      4.68916     16.70755         0.014227      0.036756     -1.161719
 -----------------------------------------------------------------------------------
    total drift:                                0.001595      0.004430     -0.001966


--------------------------------------------------------------------------------------------------------



  FREE ENERGIE OF THE ION-ELECTRON SYSTEM (eV)
  ---------------------------------------------------
  free  energy   TOTEN  =      -457.45861540 eV

  energy  without entropy=     -457.45184359  energy(sigma->0) =     -457.45522949
 


--------------------------------------------------------------------------------------------------------


    POTLOK:  cpu time    2.0476: real time    2.0476


--------------------------------------------------------------------------------------------------------


     LOOP+:  cpu time 1737.6919: real time 1738.3898
    4ORBIT:  cpu time    0.0000: real time    0.0000

 total amount of memory used by VASP on root node   465219. kBytes
========================================================================

   base      :      30000. kBytes
   nonlr-proj:       4757. kBytes
   fftplans  :     165810. kBytes
   grid      :     124231. kBytes
   one-center:         79. kBytes
   wavefun   :     140342. kBytes
 
  
  
 General timing and accounting informations for this job:
 ========================================================
  
                  Total CPU time used (sec):     1762.007
                            User time (sec):     1688.198
                          System time (sec):       73.809
                         Elapsed time (sec):     1763.316
  
                   Maximum memory used (kb):      869708.
                   Average memory used (kb):           0.
  
                          Minor page faults:       181727
                          Major page faults:          386
                 Voluntary context switches:         1923
