Li defective graphene MACE training lab 
           1
    12.300000    0.000000    0.000000
    -6.150000   10.652112    0.000000
     0.000000    0.000000   30.000000
   C    Li
  50   1
Direct configuration=     1
   0.99824632  0.00451485  0.50456974
   0.13064214  0.06937547  0.51014723
   0.99450334  0.20543693  0.49533941
   0.12874344  0.26897822  0.49821997
   0.99549924  0.40924387  0.48997498
   0.13111623  0.47011518  0.49608251
   0.01694627  0.61707021  0.50086202
   0.14368459  0.67346735  0.50906859
   0.00680056  0.81035110  0.50906906
   0.13634663  0.87093284  0.51710703
   0.19769422  0.00223603  0.51731135
   0.51663516  0.24987308  0.50229483
   0.40218667  0.39650253  0.49661258
   0.32847798  0.26460571  0.50429262
   0.19857260  0.40161433  0.49668863
   0.33464895  0.46494607  0.49678961
   0.20488481  0.60214560  0.50352156
   0.33784857  0.66491353  0.50456968
   0.20426646  0.80301336  0.51710687
   0.33556953  0.86436090  0.51731135
   0.39697042  0.99568090  0.51793013
   0.52677657  0.05640753  0.51029899
   0.38974075  0.19344334  0.51029902
   0.32901416  0.06363699  0.51793012
   0.19546749  0.20182835  0.50490773
   0.53776641  0.45732263  0.49044788
   0.60231162  0.79541019  0.49821990
   0.53877040  0.66117011  0.49533946
   0.40270914  0.79730880  0.51014714
   0.53516185  0.86213429  0.50490773
   0.59793910  0.99514473  0.50429256
   0.72983580  0.06885333  0.49661244
   0.58320626  0.18330190  0.50229480
   0.70782687  0.25920486  0.48900840
   0.59253813  0.37449369  0.48900842
   0.71088039  0.37754721  0.47886008
   0.60677497  0.59312172  0.48985965
   0.93547874  0.87155144  0.50352185
   0.40452511  0.59760148  0.49815080
   0.73494768  0.86523935  0.49668863
   0.79827934  0.00131561  0.49678948
   0.93093470  0.07119166  0.49815081
   0.79065586  0.20443305  0.49044784
   0.92645497  0.27344147  0.48985966
   0.82194826  0.48861487  0.47841955
   0.94070656  0.49201793  0.48816656
   0.82535155  0.60737341  0.48816659
   0.95040365  0.68361294  0.50086218
   0.80344850  0.79778282  0.49608286
   0.74257744  0.66216589  0.48997508
   0.78635967  0.44020914  0.55691839
