  49  49   0   0
  0.8021693E+02  0.1230000E-08  0.1230000E-08  0.3000000E-08  0.5000000E-15
  1.000000000000000E-004
  CAR 
 Li defective graphene MACE training lab 
      4.78161243    -54.02142880  301     -3.07130520      1.00000000
    -54.021  0.0000E+00  0.0000E+00  0.0000E+00  0.0000E+00
    -53.825  0.0000E+00  0.0000E+00  0.0000E+00  0.0000E+00
    -53.629  0.0000E+00  0.0000E+00  0.0000E+00  0.0000E+00
    -53.433  0.0000E+00  0.0000E+00  0.0000E+00  0.0000E+00
    -53.237  0.0000E+00  0.0000E+00  0.0000E+00  0.0000E+00
    -53.041  0.0000E+00  0.0000E+00  0.0000E+00  0.0000E+00
    -52.845  0.0000E+00  0.0000E+00  0.0000E+00  0.0000E+00
    -52.649  0.0000E+00  0.0000E+00  0.0000E+00  0.0000E+00
    -52.453  0.0000E+00  0.0000E+00  0.0000E+00  0.0000E+00
    -52.257  0.0000E+00  0.0000E+00  0.0000E+00  0.0000E+00
    -52.061  0.0000E+00  0.0000E+00  0.0000E+00  0.0000E+00
    -51.865  0.0000E+00  0.0000E+00  0.0000E+00  0.0000E+00
    -51.669  0.0000E+00  0.0000E+00  0.0000E+00  0.0000E+00
    -51.473  0.1068E-02  0.1068E-02  0.2093E-03  0.2093E-03
    -51.277  0.4989E+01  0.4989E+01  0.9781E+00  0.9781E+00
    -51.081  0.1117E+00  0.1117E+00  0.1000E+01  0.1000E+01
    -50.885  0.0000E+00  0.0000E+00  0.1000E+01  0.1000E+01
    -50.689  0.0000E+00  0.0000E+00  0.1000E+01  0.1000E+01
    -50.493  0.0000E+00  0.0000E+00  0.1000E+01  0.1000E+01
    -50.297  0.0000E+00  0.0000E+00  0.1000E+01  0.1000E+01
    -50.101  0.0000E+00  0.0000E+00  0.1000E+01  0.1000E+01
    -49.905  0.0000E+00  0.0000E+00  0.1000E+01  0.1000E+01
    -49.709  0.0000E+00  0.0000E+00  0.1000E+01  0.1000E+01
    -49.513  0.0000E+00  0.0000E+00  0.1000E+01  0.1000E+01
    -49.317  0.0000E+00  0.0000E+00  0.1000E+01  0.1000E+01
    -49.121  0.0000E+00  0.0000E+00  0.1000E+01  0.1000E+01
    -48.925  0.0000E+00  0.0000E+00  0.1000E+01  0.1000E+01
    -48.729  0.0000E+00  0.0000E+00  0.1000E+01  0.1000E+01
    -48.533  0.0000E+00  0.0000E+00  0.1000E+01  0.1000E+01
    -48.337  0.0000E+00  0.0000E+00  0.1000E+01  0.1000E+01
    -48.141  0.0000E+00  0.0000E+00  0.1000E+01  0.1000E+01
    -47.945  0.0000E+00  0.0000E+00  0.1000E+01  0.1000E+01
    -47.749  0.0000E+00  0.0000E+00  0.1000E+01  0.1000E+01
    -47.553  0.0000E+00  0.0000E+00  0.1000E+01  0.1000E+01
    -47.357  0.0000E+00  0.0000E+00  0.1000E+01  0.1000E+01
    -47.161  0.0000E+00  0.0000E+00  0.1000E+01  0.1000E+01
    -46.965  0.0000E+00  0.0000E+00  0.1000E+01  0.1000E+01
    -46.769  0.0000E+00  0.0000E+00  0.1000E+01  0.1000E+01
    -46.573  0.0000E+00  0.0000E+00  0.1000E+01  0.1000E+01
    -46.377  0.0000E+00  0.0000E+00  0.1000E+01  0.1000E+01
    -46.181  0.0000E+00  0.0000E+00  0.1000E+01  0.1000E+01
    -45.985  0.0000E+00  0.0000E+00  0.1000E+01  0.1000E+01
    -45.789  0.0000E+00  0.0000E+00  0.1000E+01  0.1000E+01
    -45.593  0.0000E+00  0.0000E+00  0.1000E+01  0.1000E+01
    -45.397  0.0000E+00  0.0000E+00  0.1000E+01  0.1000E+01
    -45.201  0.0000E+00  0.0000E+00  0.1000E+01  0.1000E+01
    -45.005  0.0000E+00  0.0000E+00  0.1000E+01  0.1000E+01
    -44.809  0.0000E+00  0.0000E+00  0.1000E+01  0.1000E+01
    -44.613  0.0000E+00  0.0000E+00  0.1000E+01  0.1000E+01
    -44.417  0.0000E+00  0.0000E+00  0.1000E+01  0.1000E+01
    -44.221  0.0000E+00  0.0000E+00  0.1000E+01  0.1000E+01
    -44.025  0.0000E+00  0.0000E+00  0.1000E+01  0.1000E+01
    -43.829  0.0000E+00  0.0000E+00  0.1000E+01  0.1000E+01
    -43.633  0.0000E+00  0.0000E+00  0.1000E+01  0.1000E+01
    -43.437  0.0000E+00  0.0000E+00  0.1000E+01  0.1000E+01
    -43.241  0.0000E+00  0.0000E+00  0.1000E+01  0.1000E+01
    -43.045  0.0000E+00  0.0000E+00  0.1000E+01  0.1000E+01
    -42.849  0.0000E+00  0.0000E+00  0.1000E+01  0.1000E+01
    -42.653  0.0000E+00  0.0000E+00  0.1000E+01  0.1000E+01
    -42.457  0.0000E+00  0.0000E+00  0.1000E+01  0.1000E+01
    -42.261  0.0000E+00  0.0000E+00  0.1000E+01  0.1000E+01
    -42.065  0.0000E+00  0.0000E+00  0.1000E+01  0.1000E+01
    -41.869  0.0000E+00  0.0000E+00  0.1000E+01  0.1000E+01
    -41.673  0.0000E+00  0.0000E+00  0.1000E+01  0.1000E+01
    -41.477  0.0000E+00  0.0000E+00  0.1000E+01  0.1000E+01
    -41.281  0.0000E+00  0.0000E+00  0.1000E+01  0.1000E+01
    -41.085  0.0000E+00  0.0000E+00  0.1000E+01  0.1000E+01
    -40.889  0.0000E+00  0.0000E+00  0.1000E+01  0.1000E+01
    -40.693  0.0000E+00  0.0000E+00  0.1000E+01  0.1000E+01
    -40.497  0.0000E+00  0.0000E+00  0.1000E+01  0.1000E+01
    -40.301  0.0000E+00  0.0000E+00  0.1000E+01  0.1000E+01
    -40.105  0.0000E+00  0.0000E+00  0.1000E+01  0.1000E+01
    -39.909  0.0000E+00  0.0000E+00  0.1000E+01  0.1000E+01
    -39.713  0.0000E+00  0.0000E+00  0.1000E+01  0.1000E+01
    -39.517  0.0000E+00  0.0000E+00  0.1000E+01  0.1000E+01
    -39.321  0.0000E+00  0.0000E+00  0.1000E+01  0.1000E+01
    -39.125  0.0000E+00  0.0000E+00  0.1000E+01  0.1000E+01
    -38.929  0.0000E+00  0.0000E+00  0.1000E+01  0.1000E+01
    -38.733  0.0000E+00  0.0000E+00  0.1000E+01  0.1000E+01
    -38.537  0.0000E+00  0.0000E+00  0.1000E+01  0.1000E+01
    -38.341  0.0000E+00  0.0000E+00  0.1000E+01  0.1000E+01
    -38.145  0.0000E+00  0.0000E+00  0.1000E+01  0.1000E+01
    -37.949  0.0000E+00  0.0000E+00  0.1000E+01  0.1000E+01
    -37.753  0.0000E+00  0.0000E+00  0.1000E+01  0.1000E+01
    -37.557  0.0000E+00  0.0000E+00  0.1000E+01  0.1000E+01
    -37.361  0.0000E+00  0.0000E+00  0.1000E+01  0.1000E+01
    -37.165  0.0000E+00  0.0000E+00  0.1000E+01  0.1000E+01
    -36.969  0.0000E+00  0.0000E+00  0.1000E+01  0.1000E+01
    -36.773  0.0000E+00  0.0000E+00  0.1000E+01  0.1000E+01
    -36.577  0.0000E+00  0.0000E+00  0.1000E+01  0.1000E+01
    -36.381  0.0000E+00  0.0000E+00  0.1000E+01  0.1000E+01
    -36.185  0.0000E+00  0.0000E+00  0.1000E+01  0.1000E+01
    -35.988  0.0000E+00  0.0000E+00  0.1000E+01  0.1000E+01
    -35.792  0.0000E+00  0.0000E+00  0.1000E+01  0.1000E+01
    -35.596  0.0000E+00  0.0000E+00  0.1000E+01  0.1000E+01
    -35.400  0.0000E+00  0.0000E+00  0.1000E+01  0.1000E+01
    -35.204  0.0000E+00  0.0000E+00  0.1000E+01  0.1000E+01
    -35.008  0.0000E+00  0.0000E+00  0.1000E+01  0.1000E+01
    -34.812  0.0000E+00  0.0000E+00  0.1000E+01  0.1000E+01
    -34.616  0.0000E+00  0.0000E+00  0.1000E+01  0.1000E+01
    -34.420  0.0000E+00  0.0000E+00  0.1000E+01  0.1000E+01
    -34.224  0.0000E+00  0.0000E+00  0.1000E+01  0.1000E+01
    -34.028  0.0000E+00  0.0000E+00  0.1000E+01  0.1000E+01
    -33.832  0.0000E+00  0.0000E+00  0.1000E+01  0.1000E+01
    -33.636  0.0000E+00  0.0000E+00  0.1000E+01  0.1000E+01
    -33.440  0.0000E+00  0.0000E+00  0.1000E+01  0.1000E+01
    -33.244  0.0000E+00  0.0000E+00  0.1000E+01  0.1000E+01
    -33.048  0.0000E+00  0.0000E+00  0.1000E+01  0.1000E+01
    -32.852  0.0000E+00  0.0000E+00  0.1000E+01  0.1000E+01
    -32.656  0.0000E+00  0.0000E+00  0.1000E+01  0.1000E+01
    -32.460  0.0000E+00  0.0000E+00  0.1000E+01  0.1000E+01
    -32.264  0.0000E+00  0.0000E+00  0.1000E+01  0.1000E+01
    -32.068  0.0000E+00  0.0000E+00  0.1000E+01  0.1000E+01
    -31.872  0.0000E+00  0.0000E+00  0.1000E+01  0.1000E+01
    -31.676  0.0000E+00  0.0000E+00  0.1000E+01  0.1000E+01
    -31.480  0.0000E+00  0.0000E+00  0.1000E+01  0.1000E+01
    -31.284  0.0000E+00  0.0000E+00  0.1000E+01  0.1000E+01
    -31.088  0.0000E+00  0.0000E+00  0.1000E+01  0.1000E+01
    -30.892  0.0000E+00  0.0000E+00  0.1000E+01  0.1000E+01
    -30.696  0.0000E+00  0.0000E+00  0.1000E+01  0.1000E+01
    -30.500  0.0000E+00  0.0000E+00  0.1000E+01  0.1000E+01
    -30.304  0.0000E+00  0.0000E+00  0.1000E+01  0.1000E+01
    -30.108  0.0000E+00  0.0000E+00  0.1000E+01  0.1000E+01
    -29.912  0.0000E+00  0.0000E+00  0.1000E+01  0.1000E+01
    -29.716  0.0000E+00  0.0000E+00  0.1000E+01  0.1000E+01
    -29.520  0.0000E+00  0.0000E+00  0.1000E+01  0.1000E+01
    -29.324  0.0000E+00  0.0000E+00  0.1000E+01  0.1000E+01
    -29.128  0.0000E+00  0.0000E+00  0.1000E+01  0.1000E+01
    -28.932  0.0000E+00  0.0000E+00  0.1000E+01  0.1000E+01
    -28.736  0.0000E+00  0.0000E+00  0.1000E+01  0.1000E+01
    -28.540  0.0000E+00  0.0000E+00  0.1000E+01  0.1000E+01
    -28.344  0.0000E+00  0.0000E+00  0.1000E+01  0.1000E+01
    -28.148  0.0000E+00  0.0000E+00  0.1000E+01  0.1000E+01
    -27.952  0.0000E+00  0.0000E+00  0.1000E+01  0.1000E+01
    -27.756  0.0000E+00  0.0000E+00  0.1000E+01  0.1000E+01
    -27.560  0.0000E+00  0.0000E+00  0.1000E+01  0.1000E+01
    -27.364  0.0000E+00  0.0000E+00  0.1000E+01  0.1000E+01
    -27.168  0.0000E+00  0.0000E+00  0.1000E+01  0.1000E+01
    -26.972  0.0000E+00  0.0000E+00  0.1000E+01  0.1000E+01
    -26.776  0.0000E+00  0.0000E+00  0.1000E+01  0.1000E+01
    -26.580  0.0000E+00  0.0000E+00  0.1000E+01  0.1000E+01
    -26.384  0.0000E+00  0.0000E+00  0.1000E+01  0.1000E+01
    -26.188  0.0000E+00  0.0000E+00  0.1000E+01  0.1000E+01
    -25.992  0.0000E+00  0.0000E+00  0.1000E+01  0.1000E+01
    -25.796  0.0000E+00  0.0000E+00  0.1000E+01  0.1000E+01
    -25.600  0.0000E+00  0.0000E+00  0.1000E+01  0.1000E+01
    -25.404  0.0000E+00  0.0000E+00  0.1000E+01  0.1000E+01
    -25.208  0.0000E+00  0.0000E+00  0.1000E+01  0.1000E+01
    -25.012  0.0000E+00  0.0000E+00  0.1000E+01  0.1000E+01
    -24.816  0.0000E+00  0.0000E+00  0.1000E+01  0.1000E+01
    -24.620  0.0000E+00  0.0000E+00  0.1000E+01  0.1000E+01
    -24.424  0.0000E+00  0.0000E+00  0.1000E+01  0.1000E+01
    -24.228  0.0000E+00  0.0000E+00  0.1000E+01  0.1000E+01
    -24.032  0.0000E+00  0.0000E+00  0.1000E+01  0.1000E+01
    -23.836  0.0000E+00  0.0000E+00  0.1000E+01  0.1000E+01
    -23.640  0.0000E+00  0.0000E+00  0.1000E+01  0.1000E+01
    -23.444  0.0000E+00  0.0000E+00  0.1000E+01  0.1000E+01
    -23.248  0.0000E+00  0.0000E+00  0.1000E+01  0.1000E+01
    -23.052  0.0000E+00  0.0000E+00  0.1000E+01  0.1000E+01
    -22.856  0.0000E+00  0.0000E+00  0.1000E+01  0.1000E+01
    -22.660  0.0000E+00  0.0000E+00  0.1000E+01  0.1000E+01
    -22.464  0.2598E-03  0.2598E-03  0.1000E+01  0.1000E+01
    -22.268  0.2058E+01  0.2058E+01  0.1403E+01  0.1403E+01
    -22.072  0.3290E+01  0.3290E+01  0.2048E+01  0.2048E+01
    -21.876  0.3368E+01  0.3368E+01  0.2708E+01  0.2708E+01
    -21.680  0.2323E+01  0.2323E+01  0.3164E+01  0.3164E+01
    -21.484  0.5421E+01  0.5421E+01  0.4226E+01  0.4226E+01
    -21.288  0.3371E+01  0.3371E+01  0.4887E+01  0.4887E+01
    -21.092  0.2395E+01  0.2395E+01  0.5356E+01  0.5356E+01
    -20.896  0.4639E+01  0.4639E+01  0.6266E+01  0.6266E+01
    -20.700  0.4312E+01  0.4312E+01  0.7111E+01  0.7111E+01
    -20.504  0.2646E+01  0.2646E+01  0.7630E+01  0.7630E+01
    -20.308  0.4138E+01  0.4138E+01  0.8441E+01  0.8441E+01
    -20.112  0.5363E+01  0.5363E+01  0.9492E+01  0.9492E+01
    -19.916  0.3514E+01  0.3514E+01  0.1018E+02  0.1018E+02
    -19.720  0.4922E+00  0.4922E+00  0.1028E+02  0.1028E+02
    -19.524  0.4350E+01  0.4350E+01  0.1113E+02  0.1113E+02
    -19.328  0.7708E+01  0.7708E+01  0.1264E+02  0.1264E+02
    -19.132  0.2369E+01  0.2369E+01  0.1310E+02  0.1310E+02
    -18.936  0.4396E+01  0.4396E+01  0.1397E+02  0.1397E+02
    -18.740  0.2430E+01  0.2430E+01  0.1444E+02  0.1444E+02
    -18.544  0.3724E+01  0.3724E+01  0.1517E+02  0.1517E+02
    -18.348  0.6161E+01  0.6161E+01  0.1638E+02  0.1638E+02
    -18.152  0.4294E+01  0.4294E+01  0.1722E+02  0.1722E+02
    -17.956  0.9602E+00  0.9602E+00  0.1741E+02  0.1741E+02
    -17.760  0.5115E+01  0.5115E+01  0.1841E+02  0.1841E+02
    -17.564  0.4645E+01  0.4645E+01  0.1932E+02  0.1932E+02
    -17.368  0.5280E+01  0.5280E+01  0.2036E+02  0.2036E+02
    -17.172  0.4821E+01  0.4821E+01  0.2130E+02  0.2130E+02
    -16.976  0.3596E+01  0.3596E+01  0.2201E+02  0.2201E+02
    -16.780  0.3363E+01  0.3363E+01  0.2267E+02  0.2267E+02
    -16.583  0.1686E+01  0.1686E+01  0.2300E+02  0.2300E+02
    -16.387  0.4839E+01  0.4839E+01  0.2395E+02  0.2395E+02
    -16.191  0.2545E+01  0.2545E+01  0.2445E+02  0.2445E+02
    -15.995  0.2880E+01  0.2880E+01  0.2501E+02  0.2501E+02
    -15.799  0.4662E+01  0.4662E+01  0.2592E+02  0.2592E+02
    -15.603  0.2111E+01  0.2111E+01  0.2634E+02  0.2634E+02
    -15.407  0.3959E+01  0.3959E+01  0.2711E+02  0.2711E+02
    -15.211  0.5568E+01  0.5568E+01  0.2820E+02  0.2820E+02
    -15.015  0.4475E+01  0.4475E+01  0.2908E+02  0.2908E+02
    -14.819  0.4724E+01  0.4724E+01  0.3001E+02  0.3001E+02
    -14.623  0.3854E+01  0.3854E+01  0.3076E+02  0.3076E+02
    -14.427  0.3982E+01  0.3982E+01  0.3154E+02  0.3154E+02
    -14.231  0.3665E+01  0.3665E+01  0.3226E+02  0.3226E+02
    -14.035  0.5506E+01  0.5506E+01  0.3334E+02  0.3334E+02
    -13.839  0.2795E+01  0.2795E+01  0.3389E+02  0.3389E+02
    -13.643  0.3738E+01  0.3738E+01  0.3462E+02  0.3462E+02
    -13.447  0.5288E+01  0.5288E+01  0.3566E+02  0.3566E+02
    -13.251  0.4355E-01  0.4355E-01  0.3567E+02  0.3567E+02
    -13.055  0.3638E+01  0.3638E+01  0.3638E+02  0.3638E+02
    -12.859  0.6013E+01  0.6013E+01  0.3756E+02  0.3756E+02
    -12.663  0.7136E+01  0.7136E+01  0.3896E+02  0.3896E+02
    -12.467  0.2932E+01  0.2932E+01  0.3953E+02  0.3953E+02
    -12.271  0.4269E+01  0.4269E+01  0.4037E+02  0.4037E+02
    -12.075  0.2797E+01  0.2797E+01  0.4092E+02  0.4092E+02
    -11.879  0.4403E+01  0.4403E+01  0.4178E+02  0.4178E+02
    -11.683  0.5260E+01  0.5260E+01  0.4281E+02  0.4281E+02
    -11.487  0.5461E+01  0.5461E+01  0.4388E+02  0.4388E+02
    -11.291  0.5454E+01  0.5454E+01  0.4495E+02  0.4495E+02
    -11.095  0.6878E+01  0.6878E+01  0.4630E+02  0.4630E+02
    -10.899  0.2807E+01  0.2807E+01  0.4685E+02  0.4685E+02
    -10.703  0.4701E+01  0.4701E+01  0.4777E+02  0.4777E+02
    -10.507  0.6828E+01  0.6828E+01  0.4911E+02  0.4911E+02
    -10.311  0.9668E+01  0.9668E+01  0.5100E+02  0.5100E+02
    -10.115  0.1004E+02  0.1004E+02  0.5297E+02  0.5297E+02
     -9.919  0.9463E+01  0.9463E+01  0.5483E+02  0.5483E+02
     -9.723  0.6758E+01  0.6758E+01  0.5615E+02  0.5615E+02
     -9.527  0.9400E+01  0.9400E+01  0.5799E+02  0.5799E+02
     -9.331  0.7967E+01  0.7967E+01  0.5956E+02  0.5956E+02
     -9.135  0.1076E+02  0.1076E+02  0.6166E+02  0.6166E+02
     -8.939  0.1197E+02  0.1197E+02  0.6401E+02  0.6401E+02
     -8.743  0.1363E+02  0.1363E+02  0.6668E+02  0.6668E+02
     -8.547  0.8664E+01  0.8664E+01  0.6838E+02  0.6838E+02
     -8.351  0.8373E+01  0.8373E+01  0.7002E+02  0.7002E+02
     -8.155  0.9166E+01  0.9166E+01  0.7182E+02  0.7182E+02
     -7.959  0.1197E+02  0.1197E+02  0.7416E+02  0.7416E+02
     -7.763  0.9849E+01  0.9849E+01  0.7609E+02  0.7609E+02
     -7.567  0.3441E+01  0.3441E+01  0.7677E+02  0.7677E+02
     -7.371  0.7225E+01  0.7225E+01  0.7819E+02  0.7819E+02
     -7.175  0.1211E+02  0.1211E+02  0.8056E+02  0.8056E+02
     -6.979  0.7944E+01  0.7944E+01  0.8212E+02  0.8212E+02
     -6.783  0.6882E+01  0.6882E+01  0.8347E+02  0.8347E+02
     -6.587  0.5866E+01  0.5866E+01  0.8462E+02  0.8462E+02
     -6.391  0.6688E+01  0.6688E+01  0.8593E+02  0.8593E+02
     -6.195  0.6498E+01  0.6498E+01  0.8720E+02  0.8720E+02
     -5.999  0.8249E+01  0.8249E+01  0.8882E+02  0.8882E+02
     -5.803  0.2078E+01  0.2078E+01  0.8922E+02  0.8922E+02
     -5.607  0.3965E+01  0.3965E+01  0.9000E+02  0.9000E+02
     -5.411  0.5796E+01  0.5796E+01  0.9114E+02  0.9114E+02
     -5.215  0.3203E+01  0.3203E+01  0.9177E+02  0.9177E+02
     -5.019  0.5792E+01  0.5792E+01  0.9290E+02  0.9290E+02
     -4.823  0.5792E+01  0.5792E+01  0.9404E+02  0.9404E+02
     -4.627  0.3117E+01  0.3117E+01  0.9465E+02  0.9465E+02
     -4.431  0.1696E+01  0.1696E+01  0.9498E+02  0.9498E+02
     -4.235  0.2479E+01  0.2479E+01  0.9547E+02  0.9547E+02
     -4.039  0.2736E+01  0.2736E+01  0.9600E+02  0.9600E+02
     -3.843  0.1545E+01  0.1545E+01  0.9630E+02  0.9630E+02
     -3.647  0.2804E+01  0.2804E+01  0.9685E+02  0.9685E+02
     -3.451  0.7456E+00  0.7456E+00  0.9700E+02  0.9700E+02
     -3.255  0.3537E-01  0.3537E-01  0.9701E+02  0.9701E+02
     -3.059  0.2647E+01  0.2647E+01  0.9753E+02  0.9753E+02
     -2.863  0.8856E+00  0.8856E+00  0.9770E+02  0.9770E+02
     -2.667  0.5922E+00  0.5922E+00  0.9782E+02  0.9782E+02
     -2.471  0.2043E+01  0.2043E+01  0.9822E+02  0.9822E+02
     -2.275  0.3237E-01  0.3237E-01  0.9822E+02  0.9822E+02
     -2.079  0.4221E-01  0.4221E-01  0.9823E+02  0.9823E+02
     -1.883  0.2721E+01  0.2721E+01  0.9876E+02  0.9876E+02
     -1.687  0.4229E+01  0.4229E+01  0.9959E+02  0.9959E+02
     -1.491  0.1833E+01  0.1833E+01  0.9995E+02  0.9995E+02
     -1.295  0.4577E+01  0.4577E+01  0.1008E+03  0.1008E+03
     -1.099  0.5599E+01  0.5599E+01  0.1019E+03  0.1019E+03
     -0.903  0.8195E+01  0.8195E+01  0.1036E+03  0.1036E+03
     -0.707  0.4579E+01  0.4580E+01  0.1045E+03  0.1045E+03
     -0.511  0.3567E+01  0.3567E+01  0.1051E+03  0.1051E+03
     -0.315  0.7020E+01  0.7020E+01  0.1065E+03  0.1065E+03
     -0.119  0.3382E+00  0.3383E+00  0.1066E+03  0.1066E+03
      0.077  0.3010E+01  0.3009E+01  0.1072E+03  0.1072E+03
      0.273  0.8886E+01  0.8884E+01  0.1089E+03  0.1089E+03
      0.469  0.9067E+01  0.9064E+01  0.1107E+03  0.1107E+03
      0.665  0.5247E+01  0.5249E+01  0.1117E+03  0.1117E+03
      0.861  0.8222E+01  0.8163E+01  0.1133E+03  0.1133E+03
      1.057  0.1212E+02  0.1202E+02  0.1157E+03  0.1157E+03
      1.253  0.1307E+02  0.1287E+02  0.1183E+03  0.1182E+03
      1.449  0.1332E+02  0.1325E+02  0.1209E+03  0.1208E+03
      1.645  0.1309E+02  0.1303E+02  0.1235E+03  0.1234E+03
      1.841  0.1687E+02  0.1609E+02  0.1268E+03  0.1265E+03
      2.037  0.5365E+01  0.6843E+01  0.1278E+03  0.1279E+03
      2.233  0.9442E+00  0.7432E+00  0.1280E+03  0.1280E+03
      2.429  0.1518E-05  0.1187E-03  0.1280E+03  0.1280E+03
      2.626  0.0000E+00  0.0000E+00  0.1280E+03  0.1280E+03
      2.822  0.0000E+00  0.0000E+00  0.1280E+03  0.1280E+03
      3.018  0.0000E+00  0.0000E+00  0.1280E+03  0.1280E+03
      3.214  0.0000E+00  0.0000E+00  0.1280E+03  0.1280E+03
      3.410  0.0000E+00  0.0000E+00  0.1280E+03  0.1280E+03
      3.606  0.0000E+00  0.0000E+00  0.1280E+03  0.1280E+03
      3.802  0.0000E+00  0.0000E+00  0.1280E+03  0.1280E+03
      3.998  0.0000E+00  0.0000E+00  0.1280E+03  0.1280E+03
      4.194  0.0000E+00  0.0000E+00  0.1280E+03  0.1280E+03
      4.390  0.0000E+00  0.0000E+00  0.1280E+03  0.1280E+03
      4.586  0.0000E+00  0.0000E+00  0.1280E+03  0.1280E+03
      4.782  0.0000E+00  0.0000E+00  0.1280E+03  0.1280E+03
