  50  50   0   0
  0.7861259E+02  0.1230000E-08  0.1230000E-08  0.3000000E-08  0.5000000E-15
  1.000000000000000E-004
  CAR 
 Li defective graphene MACE training lab 
      4.51057807    -52.43125136  301     -2.97684892      1.00000000
    -52.431  0.0000E+00  0.0000E+00  0.0000E+00  0.0000E+00
    -52.241  0.0000E+00  0.0000E+00  0.0000E+00  0.0000E+00
    -52.052  0.0000E+00  0.0000E+00  0.0000E+00  0.0000E+00
    -51.862  0.0000E+00  0.0000E+00  0.0000E+00  0.0000E+00
    -51.672  0.0000E+00  0.0000E+00  0.0000E+00  0.0000E+00
    -51.482  0.0000E+00  0.0000E+00  0.0000E+00  0.0000E+00
    -51.292  0.0000E+00  0.0000E+00  0.0000E+00  0.0000E+00
    -51.103  0.0000E+00  0.0000E+00  0.0000E+00  0.0000E+00
    -50.913  0.0000E+00  0.0000E+00  0.0000E+00  0.0000E+00
    -50.723  0.0000E+00  0.0000E+00  0.0000E+00  0.0000E+00
    -50.533  0.0000E+00  0.0000E+00  0.0000E+00  0.0000E+00
    -50.343  0.0000E+00  0.0000E+00  0.0000E+00  0.0000E+00
    -50.154  0.0000E+00  0.0000E+00  0.0000E+00  0.0000E+00
    -49.964  0.1672E-02  0.7835E-03  0.3173E-03  0.1487E-03
    -49.774  0.5133E+01  0.5057E+01  0.9745E+00  0.9600E+00
    -49.584  0.1341E+00  0.2106E+00  0.1000E+01  0.1000E+01
    -49.394  0.0000E+00  0.0000E+00  0.1000E+01  0.1000E+01
    -49.205  0.0000E+00  0.0000E+00  0.1000E+01  0.1000E+01
    -49.015  0.0000E+00  0.0000E+00  0.1000E+01  0.1000E+01
    -48.825  0.0000E+00  0.0000E+00  0.1000E+01  0.1000E+01
    -48.635  0.0000E+00  0.0000E+00  0.1000E+01  0.1000E+01
    -48.445  0.0000E+00  0.0000E+00  0.1000E+01  0.1000E+01
    -48.256  0.0000E+00  0.0000E+00  0.1000E+01  0.1000E+01
    -48.066  0.0000E+00  0.0000E+00  0.1000E+01  0.1000E+01
    -47.876  0.0000E+00  0.0000E+00  0.1000E+01  0.1000E+01
    -47.686  0.0000E+00  0.0000E+00  0.1000E+01  0.1000E+01
    -47.496  0.0000E+00  0.0000E+00  0.1000E+01  0.1000E+01
    -47.306  0.0000E+00  0.0000E+00  0.1000E+01  0.1000E+01
    -47.117  0.0000E+00  0.0000E+00  0.1000E+01  0.1000E+01
    -46.927  0.0000E+00  0.0000E+00  0.1000E+01  0.1000E+01
    -46.737  0.0000E+00  0.0000E+00  0.1000E+01  0.1000E+01
    -46.547  0.0000E+00  0.0000E+00  0.1000E+01  0.1000E+01
    -46.357  0.0000E+00  0.0000E+00  0.1000E+01  0.1000E+01
    -46.168  0.0000E+00  0.0000E+00  0.1000E+01  0.1000E+01
    -45.978  0.0000E+00  0.0000E+00  0.1000E+01  0.1000E+01
    -45.788  0.0000E+00  0.0000E+00  0.1000E+01  0.1000E+01
    -45.598  0.0000E+00  0.0000E+00  0.1000E+01  0.1000E+01
    -45.408  0.0000E+00  0.0000E+00  0.1000E+01  0.1000E+01
    -45.219  0.0000E+00  0.0000E+00  0.1000E+01  0.1000E+01
    -45.029  0.0000E+00  0.0000E+00  0.1000E+01  0.1000E+01
    -44.839  0.0000E+00  0.0000E+00  0.1000E+01  0.1000E+01
    -44.649  0.0000E+00  0.0000E+00  0.1000E+01  0.1000E+01
    -44.459  0.0000E+00  0.0000E+00  0.1000E+01  0.1000E+01
    -44.270  0.0000E+00  0.0000E+00  0.1000E+01  0.1000E+01
    -44.080  0.0000E+00  0.0000E+00  0.1000E+01  0.1000E+01
    -43.890  0.0000E+00  0.0000E+00  0.1000E+01  0.1000E+01
    -43.700  0.0000E+00  0.0000E+00  0.1000E+01  0.1000E+01
    -43.510  0.0000E+00  0.0000E+00  0.1000E+01  0.1000E+01
    -43.321  0.0000E+00  0.0000E+00  0.1000E+01  0.1000E+01
    -43.131  0.0000E+00  0.0000E+00  0.1000E+01  0.1000E+01
    -42.941  0.0000E+00  0.0000E+00  0.1000E+01  0.1000E+01
    -42.751  0.0000E+00  0.0000E+00  0.1000E+01  0.1000E+01
    -42.561  0.0000E+00  0.0000E+00  0.1000E+01  0.1000E+01
    -42.372  0.0000E+00  0.0000E+00  0.1000E+01  0.1000E+01
    -42.182  0.0000E+00  0.0000E+00  0.1000E+01  0.1000E+01
    -41.992  0.0000E+00  0.0000E+00  0.1000E+01  0.1000E+01
    -41.802  0.0000E+00  0.0000E+00  0.1000E+01  0.1000E+01
    -41.612  0.0000E+00  0.0000E+00  0.1000E+01  0.1000E+01
    -41.422  0.0000E+00  0.0000E+00  0.1000E+01  0.1000E+01
    -41.233  0.0000E+00  0.0000E+00  0.1000E+01  0.1000E+01
    -41.043  0.0000E+00  0.0000E+00  0.1000E+01  0.1000E+01
    -40.853  0.0000E+00  0.0000E+00  0.1000E+01  0.1000E+01
    -40.663  0.0000E+00  0.0000E+00  0.1000E+01  0.1000E+01
    -40.473  0.0000E+00  0.0000E+00  0.1000E+01  0.1000E+01
    -40.284  0.0000E+00  0.0000E+00  0.1000E+01  0.1000E+01
    -40.094  0.0000E+00  0.0000E+00  0.1000E+01  0.1000E+01
    -39.904  0.0000E+00  0.0000E+00  0.1000E+01  0.1000E+01
    -39.714  0.0000E+00  0.0000E+00  0.1000E+01  0.1000E+01
    -39.524  0.0000E+00  0.0000E+00  0.1000E+01  0.1000E+01
    -39.335  0.0000E+00  0.0000E+00  0.1000E+01  0.1000E+01
    -39.145  0.0000E+00  0.0000E+00  0.1000E+01  0.1000E+01
    -38.955  0.0000E+00  0.0000E+00  0.1000E+01  0.1000E+01
    -38.765  0.0000E+00  0.0000E+00  0.1000E+01  0.1000E+01
    -38.575  0.0000E+00  0.0000E+00  0.1000E+01  0.1000E+01
    -38.386  0.0000E+00  0.0000E+00  0.1000E+01  0.1000E+01
    -38.196  0.0000E+00  0.0000E+00  0.1000E+01  0.1000E+01
    -38.006  0.0000E+00  0.0000E+00  0.1000E+01  0.1000E+01
    -37.816  0.0000E+00  0.0000E+00  0.1000E+01  0.1000E+01
    -37.626  0.0000E+00  0.0000E+00  0.1000E+01  0.1000E+01
    -37.437  0.0000E+00  0.0000E+00  0.1000E+01  0.1000E+01
    -37.247  0.0000E+00  0.0000E+00  0.1000E+01  0.1000E+01
    -37.057  0.0000E+00  0.0000E+00  0.1000E+01  0.1000E+01
    -36.867  0.0000E+00  0.0000E+00  0.1000E+01  0.1000E+01
    -36.677  0.0000E+00  0.0000E+00  0.1000E+01  0.1000E+01
    -36.488  0.0000E+00  0.0000E+00  0.1000E+01  0.1000E+01
    -36.298  0.0000E+00  0.0000E+00  0.1000E+01  0.1000E+01
    -36.108  0.0000E+00  0.0000E+00  0.1000E+01  0.1000E+01
    -35.918  0.0000E+00  0.0000E+00  0.1000E+01  0.1000E+01
    -35.728  0.0000E+00  0.0000E+00  0.1000E+01  0.1000E+01
    -35.539  0.0000E+00  0.0000E+00  0.1000E+01  0.1000E+01
    -35.349  0.0000E+00  0.0000E+00  0.1000E+01  0.1000E+01
    -35.159  0.0000E+00  0.0000E+00  0.1000E+01  0.1000E+01
    -34.969  0.0000E+00  0.0000E+00  0.1000E+01  0.1000E+01
    -34.779  0.0000E+00  0.0000E+00  0.1000E+01  0.1000E+01
    -34.589  0.0000E+00  0.0000E+00  0.1000E+01  0.1000E+01
    -34.400  0.0000E+00  0.0000E+00  0.1000E+01  0.1000E+01
    -34.210  0.0000E+00  0.0000E+00  0.1000E+01  0.1000E+01
    -34.020  0.0000E+00  0.0000E+00  0.1000E+01  0.1000E+01
    -33.830  0.0000E+00  0.0000E+00  0.1000E+01  0.1000E+01
    -33.640  0.0000E+00  0.0000E+00  0.1000E+01  0.1000E+01
    -33.451  0.0000E+00  0.0000E+00  0.1000E+01  0.1000E+01
    -33.261  0.0000E+00  0.0000E+00  0.1000E+01  0.1000E+01
    -33.071  0.0000E+00  0.0000E+00  0.1000E+01  0.1000E+01
    -32.881  0.0000E+00  0.0000E+00  0.1000E+01  0.1000E+01
    -32.691  0.0000E+00  0.0000E+00  0.1000E+01  0.1000E+01
    -32.502  0.0000E+00  0.0000E+00  0.1000E+01  0.1000E+01
    -32.312  0.0000E+00  0.0000E+00  0.1000E+01  0.1000E+01
    -32.122  0.0000E+00  0.0000E+00  0.1000E+01  0.1000E+01
    -31.932  0.0000E+00  0.0000E+00  0.1000E+01  0.1000E+01
    -31.742  0.0000E+00  0.0000E+00  0.1000E+01  0.1000E+01
    -31.553  0.0000E+00  0.0000E+00  0.1000E+01  0.1000E+01
    -31.363  0.0000E+00  0.0000E+00  0.1000E+01  0.1000E+01
    -31.173  0.0000E+00  0.0000E+00  0.1000E+01  0.1000E+01
    -30.983  0.0000E+00  0.0000E+00  0.1000E+01  0.1000E+01
    -30.793  0.0000E+00  0.0000E+00  0.1000E+01  0.1000E+01
    -30.604  0.0000E+00  0.0000E+00  0.1000E+01  0.1000E+01
    -30.414  0.0000E+00  0.0000E+00  0.1000E+01  0.1000E+01
    -30.224  0.0000E+00  0.0000E+00  0.1000E+01  0.1000E+01
    -30.034  0.0000E+00  0.0000E+00  0.1000E+01  0.1000E+01
    -29.844  0.0000E+00  0.0000E+00  0.1000E+01  0.1000E+01
    -29.655  0.0000E+00  0.0000E+00  0.1000E+01  0.1000E+01
    -29.465  0.0000E+00  0.0000E+00  0.1000E+01  0.1000E+01
    -29.275  0.0000E+00  0.0000E+00  0.1000E+01  0.1000E+01
    -29.085  0.0000E+00  0.0000E+00  0.1000E+01  0.1000E+01
    -28.895  0.0000E+00  0.0000E+00  0.1000E+01  0.1000E+01
    -28.705  0.0000E+00  0.0000E+00  0.1000E+01  0.1000E+01
    -28.516  0.0000E+00  0.0000E+00  0.1000E+01  0.1000E+01
    -28.326  0.0000E+00  0.0000E+00  0.1000E+01  0.1000E+01
    -28.136  0.0000E+00  0.0000E+00  0.1000E+01  0.1000E+01
    -27.946  0.0000E+00  0.0000E+00  0.1000E+01  0.1000E+01
    -27.756  0.0000E+00  0.0000E+00  0.1000E+01  0.1000E+01
    -27.567  0.0000E+00  0.0000E+00  0.1000E+01  0.1000E+01
    -27.377  0.0000E+00  0.0000E+00  0.1000E+01  0.1000E+01
    -27.187  0.0000E+00  0.0000E+00  0.1000E+01  0.1000E+01
    -26.997  0.0000E+00  0.0000E+00  0.1000E+01  0.1000E+01
    -26.807  0.0000E+00  0.0000E+00  0.1000E+01  0.1000E+01
    -26.618  0.0000E+00  0.0000E+00  0.1000E+01  0.1000E+01
    -26.428  0.0000E+00  0.0000E+00  0.1000E+01  0.1000E+01
    -26.238  0.0000E+00  0.0000E+00  0.1000E+01  0.1000E+01
    -26.048  0.0000E+00  0.0000E+00  0.1000E+01  0.1000E+01
    -25.858  0.0000E+00  0.0000E+00  0.1000E+01  0.1000E+01
    -25.669  0.0000E+00  0.0000E+00  0.1000E+01  0.1000E+01
    -25.479  0.0000E+00  0.0000E+00  0.1000E+01  0.1000E+01
    -25.289  0.0000E+00  0.0000E+00  0.1000E+01  0.1000E+01
    -25.099  0.0000E+00  0.0000E+00  0.1000E+01  0.1000E+01
    -24.909  0.0000E+00  0.0000E+00  0.1000E+01  0.1000E+01
    -24.720  0.0000E+00  0.0000E+00  0.1000E+01  0.1000E+01
    -24.530  0.0000E+00  0.0000E+00  0.1000E+01  0.1000E+01
    -24.340  0.0000E+00  0.0000E+00  0.1000E+01  0.1000E+01
    -24.150  0.0000E+00  0.0000E+00  0.1000E+01  0.1000E+01
    -23.960  0.0000E+00  0.0000E+00  0.1000E+01  0.1000E+01
    -23.771  0.0000E+00  0.0000E+00  0.1000E+01  0.1000E+01
    -23.581  0.0000E+00  0.0000E+00  0.1000E+01  0.1000E+01
    -23.391  0.0000E+00  0.0000E+00  0.1000E+01  0.1000E+01
    -23.201  0.0000E+00  0.0000E+00  0.1000E+01  0.1000E+01
    -23.011  0.0000E+00  0.0000E+00  0.1000E+01  0.1000E+01
    -22.822  0.0000E+00  0.0000E+00  0.1000E+01  0.1000E+01
    -22.632  0.7584E-06  0.1173E-06  0.1000E+01  0.1000E+01
    -22.442  0.5536E+00  0.4133E+00  0.1105E+01  0.1078E+01
    -22.252  0.4328E+01  0.4309E+01  0.1926E+01  0.1896E+01
    -22.062  0.2949E+01  0.2747E+01  0.2486E+01  0.2418E+01
    -21.872  0.3293E+01  0.3642E+01  0.3111E+01  0.3109E+01
    -21.683  0.4701E+01  0.4257E+01  0.4004E+01  0.3917E+01
    -21.493  0.4430E+01  0.4757E+01  0.4844E+01  0.4820E+01
    -21.303  0.1168E+01  0.1118E+01  0.5066E+01  0.5032E+01
    -21.113  0.4573E+01  0.4355E+01  0.5934E+01  0.5859E+01
    -20.923  0.6184E+01  0.6546E+01  0.7108E+01  0.7101E+01
    -20.734  0.1179E+01  0.5510E+00  0.7332E+01  0.7206E+01
    -20.544  0.3284E+01  0.3621E+01  0.7955E+01  0.7893E+01
    -20.354  0.5133E+01  0.4614E+01  0.8929E+01  0.8769E+01
    -20.164  0.6214E+01  0.6783E+01  0.1011E+02  0.1006E+02
    -19.974  0.5989E+00  0.8740E+00  0.1022E+02  0.1022E+02
    -19.785  0.3094E+01  0.2298E+01  0.1081E+02  0.1066E+02
    -19.595  0.5206E+01  0.5407E+01  0.1180E+02  0.1168E+02
    -19.405  0.6222E+01  0.6693E+01  0.1298E+02  0.1296E+02
    -19.215  0.3301E+01  0.2726E+01  0.1361E+02  0.1347E+02
    -19.025  0.2577E+01  0.2907E+01  0.1409E+02  0.1402E+02
    -18.836  0.2623E+01  0.2759E+01  0.1459E+02  0.1455E+02
    -18.646  0.4886E+01  0.4602E+01  0.1552E+02  0.1542E+02
    -18.456  0.7491E+01  0.7423E+01  0.1694E+02  0.1683E+02
    -18.266  0.2647E+01  0.3181E+01  0.1744E+02  0.1743E+02
    -18.076  0.2516E+01  0.1500E+01  0.1792E+02  0.1772E+02
    -17.887  0.5516E+01  0.5871E+01  0.1897E+02  0.1883E+02
    -17.697  0.9974E+00  0.1612E+01  0.1916E+02  0.1914E+02
    -17.507  0.7234E+01  0.6867E+01  0.2053E+02  0.2044E+02
    -17.317  0.6901E+01  0.6994E+01  0.2184E+02  0.2177E+02
    -17.127  0.4305E+01  0.4572E+01  0.2266E+02  0.2264E+02
    -16.938  0.1280E+01  0.1311E+01  0.2290E+02  0.2289E+02
    -16.748  0.3462E+01  0.3478E+01  0.2356E+02  0.2355E+02
    -16.558  0.2861E+01  0.2152E+01  0.2410E+02  0.2395E+02
    -16.368  0.4506E+01  0.4870E+01  0.2496E+02  0.2488E+02
    -16.178  0.1041E+01  0.7660E+00  0.2515E+02  0.2502E+02
    -15.988  0.4621E+01  0.5214E+01  0.2603E+02  0.2601E+02
    -15.799  0.2158E+01  0.2208E+01  0.2644E+02  0.2643E+02
    -15.609  0.4561E+01  0.4017E+01  0.2731E+02  0.2720E+02
    -15.419  0.5739E+01  0.4903E+01  0.2840E+02  0.2813E+02
    -15.229  0.4355E+01  0.5773E+01  0.2922E+02  0.2922E+02
    -15.039  0.2754E+01  0.2060E+01  0.2974E+02  0.2961E+02
    -14.850  0.6598E+01  0.6704E+01  0.3100E+02  0.3089E+02
    -14.660  0.3842E+01  0.3844E+01  0.3173E+02  0.3162E+02
    -14.470  0.5908E+01  0.6009E+01  0.3285E+02  0.3276E+02
    -14.280  0.1271E+01  0.1484E+01  0.3309E+02  0.3304E+02
    -14.090  0.3344E+01  0.3021E+01  0.3372E+02  0.3361E+02
    -13.901  0.7891E+01  0.6982E+01  0.3522E+02  0.3494E+02
    -13.711  0.3306E+01  0.4173E+01  0.3585E+02  0.3573E+02
    -13.521  0.2098E+00  0.8457E+00  0.3589E+02  0.3589E+02
    -13.331  0.1743E+01  0.9587E+00  0.3622E+02  0.3607E+02
    -13.141  0.7682E+01  0.7492E+01  0.3768E+02  0.3749E+02
    -12.952  0.4401E+01  0.4815E+01  0.3851E+02  0.3841E+02
    -12.762  0.4961E+01  0.5339E+01  0.3945E+02  0.3942E+02
    -12.572  0.5203E+01  0.5319E+01  0.4044E+02  0.4043E+02
    -12.382  0.1765E+01  0.8185E+00  0.4078E+02  0.4058E+02
    -12.192  0.7607E+01  0.8602E+01  0.4222E+02  0.4222E+02
    -12.003  0.1217E+01  0.1150E+01  0.4245E+02  0.4244E+02
    -11.813  0.5495E+01  0.4171E+01  0.4350E+02  0.4323E+02
    -11.623  0.6645E+01  0.7673E+01  0.4476E+02  0.4468E+02
    -11.433  0.6073E+01  0.5222E+01  0.4591E+02  0.4568E+02
    -11.243  0.4785E+01  0.5853E+01  0.4682E+02  0.4679E+02
    -11.054  0.4332E+01  0.4194E+01  0.4764E+02  0.4758E+02
    -10.864  0.2528E+01  0.2796E+01  0.4812E+02  0.4811E+02
    -10.674  0.8256E+01  0.7439E+01  0.4969E+02  0.4952E+02
    -10.484  0.6151E+01  0.5864E+01  0.5085E+02  0.5064E+02
    -10.294  0.1154E+02  0.1201E+02  0.5304E+02  0.5292E+02
    -10.104  0.7630E+01  0.7578E+01  0.5449E+02  0.5436E+02
     -9.915  0.1108E+02  0.1092E+02  0.5660E+02  0.5643E+02
     -9.725  0.9017E+01  0.8935E+01  0.5831E+02  0.5812E+02
     -9.535  0.9169E+01  0.8913E+01  0.6005E+02  0.5982E+02
     -9.345  0.1262E+02  0.1325E+02  0.6244E+02  0.6233E+02
     -9.155  0.1194E+02  0.1172E+02  0.6471E+02  0.6456E+02
     -8.966  0.1126E+02  0.1035E+02  0.6685E+02  0.6652E+02
     -8.776  0.1243E+02  0.1370E+02  0.6921E+02  0.6912E+02
     -8.586  0.5562E+01  0.4426E+01  0.7026E+02  0.6996E+02
     -8.396  0.1010E+02  0.1092E+02  0.7218E+02  0.7203E+02
     -8.206  0.7789E+01  0.7518E+01  0.7366E+02  0.7346E+02
     -8.017  0.1336E+02  0.1326E+02  0.7619E+02  0.7598E+02
     -7.827  0.5270E+01  0.5519E+01  0.7719E+02  0.7702E+02
     -7.637  0.4589E+01  0.4807E+01  0.7806E+02  0.7794E+02
     -7.447  0.9264E+01  0.8003E+01  0.7982E+02  0.7946E+02
     -7.257  0.9482E+01  0.9933E+01  0.8162E+02  0.8134E+02
     -7.068  0.8417E+01  0.9155E+01  0.8322E+02  0.8308E+02
     -6.878  0.7483E+01  0.7343E+01  0.8464E+02  0.8447E+02
     -6.688  0.5112E+01  0.5103E+01  0.8561E+02  0.8544E+02
     -6.498  0.6064E+01  0.6444E+01  0.8676E+02  0.8666E+02
     -6.308  0.5793E+01  0.5898E+01  0.8786E+02  0.8778E+02
     -6.119  0.9187E+01  0.7780E+01  0.8961E+02  0.8926E+02
     -5.929  0.4415E+01  0.6132E+01  0.9044E+02  0.9042E+02
     -5.739  0.4811E+01  0.3687E+01  0.9136E+02  0.9112E+02
     -5.549  0.3991E+01  0.5197E+01  0.9211E+02  0.9211E+02
     -5.359  0.3459E+01  0.3020E+01  0.9277E+02  0.9268E+02
     -5.170  0.5834E+01  0.4828E+01  0.9388E+02  0.9360E+02
     -4.980  0.1055E+02  0.1173E+02  0.9588E+02  0.9583E+02
     -4.790  0.4634E-01  0.3219E+00  0.9589E+02  0.9589E+02
     -4.600  0.2992E+01  0.6486E+00  0.9646E+02  0.9601E+02
     -4.410  0.3683E+01  0.4839E+01  0.9716E+02  0.9693E+02
     -4.221  0.9415E+00  0.1848E+01  0.9733E+02  0.9728E+02
     -4.031  0.5060E+01  0.3086E+01  0.9830E+02  0.9787E+02
     -3.841  0.2538E+01  0.7389E+00  0.9878E+02  0.9801E+02
     -3.651  0.1082E+01  0.3534E+01  0.9898E+02  0.9868E+02
     -3.461  0.1012E+00  0.5249E+00  0.9900E+02  0.9878E+02
     -3.271  0.3472E+01  0.3480E+00  0.9966E+02  0.9884E+02
     -3.082  0.6246E+00  0.8228E+00  0.9978E+02  0.9900E+02
     -2.892  0.1161E+01  0.2754E+01  0.1000E+03  0.9952E+02
     -2.702  0.8723E-01  0.2513E+01  0.1000E+03  0.1000E+03
     -2.512  0.1086E+01  0.1023E+01  0.1002E+03  0.1002E+03
     -2.322  0.5422E-04  0.1493E+00  0.1002E+03  0.1002E+03
     -2.133  0.4207E-02  0.7736E-05  0.1002E+03  0.1002E+03
     -1.943  0.2524E+01  0.1922E+01  0.1007E+03  0.1006E+03
     -1.753  0.5555E+01  0.4390E+01  0.1018E+03  0.1014E+03
     -1.563  0.2184E+01  0.3590E+01  0.1022E+03  0.1021E+03
     -1.373  0.6013E+01  0.4314E+01  0.1033E+03  0.1029E+03
     -1.184  0.6309E+01  0.7530E+01  0.1045E+03  0.1043E+03
     -0.994  0.7995E+01  0.8108E+01  0.1060E+03  0.1059E+03
     -0.804  0.7449E+01  0.5685E+01  0.1074E+03  0.1070E+03
     -0.614  0.3338E+01  0.4747E+01  0.1081E+03  0.1079E+03
     -0.424  0.5733E+01  0.6273E+01  0.1092E+03  0.1091E+03
     -0.235  0.2093E+01  0.2614E+01  0.1096E+03  0.1096E+03
     -0.045  0.4793E+01  0.2179E+01  0.1105E+03  0.1100E+03
      0.145  0.6055E+01  0.8158E+01  0.1116E+03  0.1115E+03
      0.335  0.2606E+01  0.2513E+01  0.1121E+03  0.1120E+03
      0.525  0.7839E+01  0.8294E+01  0.1136E+03  0.1136E+03
      0.714  0.4474E+01  0.3975E+01  0.1145E+03  0.1143E+03
      0.904  0.7577E+01  0.8021E+01  0.1159E+03  0.1158E+03
      1.094  0.9746E+01  0.9590E+01  0.1177E+03  0.1177E+03
      1.284  0.8714E+01  0.7918E+01  0.1194E+03  0.1192E+03
      1.474  0.1592E+02  0.1561E+02  0.1224E+03  0.1221E+03
      1.663  0.1487E+02  0.1542E+02  0.1252E+03  0.1251E+03
      1.853  0.1381E+02  0.1427E+02  0.1279E+03  0.1278E+03
      2.043  0.7363E+00  0.1230E+01  0.1280E+03  0.1280E+03
      2.233  0.1596E-03  0.1858E-03  0.1280E+03  0.1280E+03
      2.423  0.0000E+00  0.0000E+00  0.1280E+03  0.1280E+03
      2.613  0.0000E+00  0.0000E+00  0.1280E+03  0.1280E+03
      2.802  0.0000E+00  0.0000E+00  0.1280E+03  0.1280E+03
      2.992  0.0000E+00  0.0000E+00  0.1280E+03  0.1280E+03
      3.182  0.0000E+00  0.0000E+00  0.1280E+03  0.1280E+03
      3.372  0.0000E+00  0.0000E+00  0.1280E+03  0.1280E+03
      3.562  0.0000E+00  0.0000E+00  0.1280E+03  0.1280E+03
      3.751  0.0000E+00  0.0000E+00  0.1280E+03  0.1280E+03
      3.941  0.0000E+00  0.0000E+00  0.1280E+03  0.1280E+03
      4.131  0.0000E+00  0.0000E+00  0.1280E+03  0.1280E+03
      4.321  0.0000E+00  0.0000E+00  0.1280E+03  0.1280E+03
      4.511  0.0000E+00  0.0000E+00  0.1280E+03  0.1280E+03
