  49  49   0   0
  0.8021693E+02  0.1230000E-08  0.1230000E-08  0.3000000E-08  0.5000000E-15
  1.000000000000000E-004
  CAR 
 Li defective graphene MACE training lab 
      4.79198342    -54.15342331  301     -2.97362666      1.00000000
    -54.153  0.0000E+00  0.0000E+00  0.0000E+00  0.0000E+00
    -53.957  0.0000E+00  0.0000E+00  0.0000E+00  0.0000E+00
    -53.760  0.0000E+00  0.0000E+00  0.0000E+00  0.0000E+00
    -53.564  0.0000E+00  0.0000E+00  0.0000E+00  0.0000E+00
    -53.367  0.0000E+00  0.0000E+00  0.0000E+00  0.0000E+00
    -53.171  0.0000E+00  0.0000E+00  0.0000E+00  0.0000E+00
    -52.975  0.0000E+00  0.0000E+00  0.0000E+00  0.0000E+00
    -52.778  0.0000E+00  0.0000E+00  0.0000E+00  0.0000E+00
    -52.582  0.0000E+00  0.0000E+00  0.0000E+00  0.0000E+00
    -52.385  0.0000E+00  0.0000E+00  0.0000E+00  0.0000E+00
    -52.189  0.0000E+00  0.0000E+00  0.0000E+00  0.0000E+00
    -51.992  0.0000E+00  0.0000E+00  0.0000E+00  0.0000E+00
    -51.796  0.0000E+00  0.0000E+00  0.0000E+00  0.0000E+00
    -51.599  0.1032E-02  0.1031E-02  0.2027E-03  0.2027E-03
    -51.403  0.4978E+01  0.4978E+01  0.9784E+00  0.9784E+00
    -51.206  0.1102E+00  0.1102E+00  0.1000E+01  0.1000E+01
    -51.010  0.0000E+00  0.0000E+00  0.1000E+01  0.1000E+01
    -50.813  0.0000E+00  0.0000E+00  0.1000E+01  0.1000E+01
    -50.617  0.0000E+00  0.0000E+00  0.1000E+01  0.1000E+01
    -50.420  0.0000E+00  0.0000E+00  0.1000E+01  0.1000E+01
    -50.224  0.0000E+00  0.0000E+00  0.1000E+01  0.1000E+01
    -50.027  0.0000E+00  0.0000E+00  0.1000E+01  0.1000E+01
    -49.831  0.0000E+00  0.0000E+00  0.1000E+01  0.1000E+01
    -49.634  0.0000E+00  0.0000E+00  0.1000E+01  0.1000E+01
    -49.438  0.0000E+00  0.0000E+00  0.1000E+01  0.1000E+01
    -49.241  0.0000E+00  0.0000E+00  0.1000E+01  0.1000E+01
    -49.045  0.0000E+00  0.0000E+00  0.1000E+01  0.1000E+01
    -48.848  0.0000E+00  0.0000E+00  0.1000E+01  0.1000E+01
    -48.652  0.0000E+00  0.0000E+00  0.1000E+01  0.1000E+01
    -48.455  0.0000E+00  0.0000E+00  0.1000E+01  0.1000E+01
    -48.259  0.0000E+00  0.0000E+00  0.1000E+01  0.1000E+01
    -48.062  0.0000E+00  0.0000E+00  0.1000E+01  0.1000E+01
    -47.866  0.0000E+00  0.0000E+00  0.1000E+01  0.1000E+01
    -47.669  0.0000E+00  0.0000E+00  0.1000E+01  0.1000E+01
    -47.473  0.0000E+00  0.0000E+00  0.1000E+01  0.1000E+01
    -47.276  0.0000E+00  0.0000E+00  0.1000E+01  0.1000E+01
    -47.080  0.0000E+00  0.0000E+00  0.1000E+01  0.1000E+01
    -46.883  0.0000E+00  0.0000E+00  0.1000E+01  0.1000E+01
    -46.687  0.0000E+00  0.0000E+00  0.1000E+01  0.1000E+01
    -46.491  0.0000E+00  0.0000E+00  0.1000E+01  0.1000E+01
    -46.294  0.0000E+00  0.0000E+00  0.1000E+01  0.1000E+01
    -46.098  0.0000E+00  0.0000E+00  0.1000E+01  0.1000E+01
    -45.901  0.0000E+00  0.0000E+00  0.1000E+01  0.1000E+01
    -45.705  0.0000E+00  0.0000E+00  0.1000E+01  0.1000E+01
    -45.508  0.0000E+00  0.0000E+00  0.1000E+01  0.1000E+01
    -45.312  0.0000E+00  0.0000E+00  0.1000E+01  0.1000E+01
    -45.115  0.0000E+00  0.0000E+00  0.1000E+01  0.1000E+01
    -44.919  0.0000E+00  0.0000E+00  0.1000E+01  0.1000E+01
    -44.722  0.0000E+00  0.0000E+00  0.1000E+01  0.1000E+01
    -44.526  0.0000E+00  0.0000E+00  0.1000E+01  0.1000E+01
    -44.329  0.0000E+00  0.0000E+00  0.1000E+01  0.1000E+01
    -44.133  0.0000E+00  0.0000E+00  0.1000E+01  0.1000E+01
    -43.936  0.0000E+00  0.0000E+00  0.1000E+01  0.1000E+01
    -43.740  0.0000E+00  0.0000E+00  0.1000E+01  0.1000E+01
    -43.543  0.0000E+00  0.0000E+00  0.1000E+01  0.1000E+01
    -43.347  0.0000E+00  0.0000E+00  0.1000E+01  0.1000E+01
    -43.150  0.0000E+00  0.0000E+00  0.1000E+01  0.1000E+01
    -42.954  0.0000E+00  0.0000E+00  0.1000E+01  0.1000E+01
    -42.757  0.0000E+00  0.0000E+00  0.1000E+01  0.1000E+01
    -42.561  0.0000E+00  0.0000E+00  0.1000E+01  0.1000E+01
    -42.364  0.0000E+00  0.0000E+00  0.1000E+01  0.1000E+01
    -42.168  0.0000E+00  0.0000E+00  0.1000E+01  0.1000E+01
    -41.971  0.0000E+00  0.0000E+00  0.1000E+01  0.1000E+01
    -41.775  0.0000E+00  0.0000E+00  0.1000E+01  0.1000E+01
    -41.578  0.0000E+00  0.0000E+00  0.1000E+01  0.1000E+01
    -41.382  0.0000E+00  0.0000E+00  0.1000E+01  0.1000E+01
    -41.185  0.0000E+00  0.0000E+00  0.1000E+01  0.1000E+01
    -40.989  0.0000E+00  0.0000E+00  0.1000E+01  0.1000E+01
    -40.792  0.0000E+00  0.0000E+00  0.1000E+01  0.1000E+01
    -40.596  0.0000E+00  0.0000E+00  0.1000E+01  0.1000E+01
    -40.399  0.0000E+00  0.0000E+00  0.1000E+01  0.1000E+01
    -40.203  0.0000E+00  0.0000E+00  0.1000E+01  0.1000E+01
    -40.007  0.0000E+00  0.0000E+00  0.1000E+01  0.1000E+01
    -39.810  0.0000E+00  0.0000E+00  0.1000E+01  0.1000E+01
    -39.614  0.0000E+00  0.0000E+00  0.1000E+01  0.1000E+01
    -39.417  0.0000E+00  0.0000E+00  0.1000E+01  0.1000E+01
    -39.221  0.0000E+00  0.0000E+00  0.1000E+01  0.1000E+01
    -39.024  0.0000E+00  0.0000E+00  0.1000E+01  0.1000E+01
    -38.828  0.0000E+00  0.0000E+00  0.1000E+01  0.1000E+01
    -38.631  0.0000E+00  0.0000E+00  0.1000E+01  0.1000E+01
    -38.435  0.0000E+00  0.0000E+00  0.1000E+01  0.1000E+01
    -38.238  0.0000E+00  0.0000E+00  0.1000E+01  0.1000E+01
    -38.042  0.0000E+00  0.0000E+00  0.1000E+01  0.1000E+01
    -37.845  0.0000E+00  0.0000E+00  0.1000E+01  0.1000E+01
    -37.649  0.0000E+00  0.0000E+00  0.1000E+01  0.1000E+01
    -37.452  0.0000E+00  0.0000E+00  0.1000E+01  0.1000E+01
    -37.256  0.0000E+00  0.0000E+00  0.1000E+01  0.1000E+01
    -37.059  0.0000E+00  0.0000E+00  0.1000E+01  0.1000E+01
    -36.863  0.0000E+00  0.0000E+00  0.1000E+01  0.1000E+01
    -36.666  0.0000E+00  0.0000E+00  0.1000E+01  0.1000E+01
    -36.470  0.0000E+00  0.0000E+00  0.1000E+01  0.1000E+01
    -36.273  0.0000E+00  0.0000E+00  0.1000E+01  0.1000E+01
    -36.077  0.0000E+00  0.0000E+00  0.1000E+01  0.1000E+01
    -35.880  0.0000E+00  0.0000E+00  0.1000E+01  0.1000E+01
    -35.684  0.0000E+00  0.0000E+00  0.1000E+01  0.1000E+01
    -35.487  0.0000E+00  0.0000E+00  0.1000E+01  0.1000E+01
    -35.291  0.0000E+00  0.0000E+00  0.1000E+01  0.1000E+01
    -35.094  0.0000E+00  0.0000E+00  0.1000E+01  0.1000E+01
    -34.898  0.0000E+00  0.0000E+00  0.1000E+01  0.1000E+01
    -34.701  0.0000E+00  0.0000E+00  0.1000E+01  0.1000E+01
    -34.505  0.0000E+00  0.0000E+00  0.1000E+01  0.1000E+01
    -34.308  0.0000E+00  0.0000E+00  0.1000E+01  0.1000E+01
    -34.112  0.0000E+00  0.0000E+00  0.1000E+01  0.1000E+01
    -33.916  0.0000E+00  0.0000E+00  0.1000E+01  0.1000E+01
    -33.719  0.0000E+00  0.0000E+00  0.1000E+01  0.1000E+01
    -33.523  0.0000E+00  0.0000E+00  0.1000E+01  0.1000E+01
    -33.326  0.0000E+00  0.0000E+00  0.1000E+01  0.1000E+01
    -33.130  0.0000E+00  0.0000E+00  0.1000E+01  0.1000E+01
    -32.933  0.0000E+00  0.0000E+00  0.1000E+01  0.1000E+01
    -32.737  0.0000E+00  0.0000E+00  0.1000E+01  0.1000E+01
    -32.540  0.0000E+00  0.0000E+00  0.1000E+01  0.1000E+01
    -32.344  0.0000E+00  0.0000E+00  0.1000E+01  0.1000E+01
    -32.147  0.0000E+00  0.0000E+00  0.1000E+01  0.1000E+01
    -31.951  0.0000E+00  0.0000E+00  0.1000E+01  0.1000E+01
    -31.754  0.0000E+00  0.0000E+00  0.1000E+01  0.1000E+01
    -31.558  0.0000E+00  0.0000E+00  0.1000E+01  0.1000E+01
    -31.361  0.0000E+00  0.0000E+00  0.1000E+01  0.1000E+01
    -31.165  0.0000E+00  0.0000E+00  0.1000E+01  0.1000E+01
    -30.968  0.0000E+00  0.0000E+00  0.1000E+01  0.1000E+01
    -30.772  0.0000E+00  0.0000E+00  0.1000E+01  0.1000E+01
    -30.575  0.0000E+00  0.0000E+00  0.1000E+01  0.1000E+01
    -30.379  0.0000E+00  0.0000E+00  0.1000E+01  0.1000E+01
    -30.182  0.0000E+00  0.0000E+00  0.1000E+01  0.1000E+01
    -29.986  0.0000E+00  0.0000E+00  0.1000E+01  0.1000E+01
    -29.789  0.0000E+00  0.0000E+00  0.1000E+01  0.1000E+01
    -29.593  0.0000E+00  0.0000E+00  0.1000E+01  0.1000E+01
    -29.396  0.0000E+00  0.0000E+00  0.1000E+01  0.1000E+01
    -29.200  0.0000E+00  0.0000E+00  0.1000E+01  0.1000E+01
    -29.003  0.0000E+00  0.0000E+00  0.1000E+01  0.1000E+01
    -28.807  0.0000E+00  0.0000E+00  0.1000E+01  0.1000E+01
    -28.610  0.0000E+00  0.0000E+00  0.1000E+01  0.1000E+01
    -28.414  0.0000E+00  0.0000E+00  0.1000E+01  0.1000E+01
    -28.217  0.0000E+00  0.0000E+00  0.1000E+01  0.1000E+01
    -28.021  0.0000E+00  0.0000E+00  0.1000E+01  0.1000E+01
    -27.824  0.0000E+00  0.0000E+00  0.1000E+01  0.1000E+01
    -27.628  0.0000E+00  0.0000E+00  0.1000E+01  0.1000E+01
    -27.432  0.0000E+00  0.0000E+00  0.1000E+01  0.1000E+01
    -27.235  0.0000E+00  0.0000E+00  0.1000E+01  0.1000E+01
    -27.039  0.0000E+00  0.0000E+00  0.1000E+01  0.1000E+01
    -26.842  0.0000E+00  0.0000E+00  0.1000E+01  0.1000E+01
    -26.646  0.0000E+00  0.0000E+00  0.1000E+01  0.1000E+01
    -26.449  0.0000E+00  0.0000E+00  0.1000E+01  0.1000E+01
    -26.253  0.0000E+00  0.0000E+00  0.1000E+01  0.1000E+01
    -26.056  0.0000E+00  0.0000E+00  0.1000E+01  0.1000E+01
    -25.860  0.0000E+00  0.0000E+00  0.1000E+01  0.1000E+01
    -25.663  0.0000E+00  0.0000E+00  0.1000E+01  0.1000E+01
    -25.467  0.0000E+00  0.0000E+00  0.1000E+01  0.1000E+01
    -25.270  0.0000E+00  0.0000E+00  0.1000E+01  0.1000E+01
    -25.074  0.0000E+00  0.0000E+00  0.1000E+01  0.1000E+01
    -24.877  0.0000E+00  0.0000E+00  0.1000E+01  0.1000E+01
    -24.681  0.0000E+00  0.0000E+00  0.1000E+01  0.1000E+01
    -24.484  0.0000E+00  0.0000E+00  0.1000E+01  0.1000E+01
    -24.288  0.0000E+00  0.0000E+00  0.1000E+01  0.1000E+01
    -24.091  0.0000E+00  0.0000E+00  0.1000E+01  0.1000E+01
    -23.895  0.0000E+00  0.0000E+00  0.1000E+01  0.1000E+01
    -23.698  0.0000E+00  0.0000E+00  0.1000E+01  0.1000E+01
    -23.502  0.0000E+00  0.0000E+00  0.1000E+01  0.1000E+01
    -23.305  0.0000E+00  0.0000E+00  0.1000E+01  0.1000E+01
    -23.109  0.0000E+00  0.0000E+00  0.1000E+01  0.1000E+01
    -22.912  0.0000E+00  0.0000E+00  0.1000E+01  0.1000E+01
    -22.716  0.1205E-08  0.1205E-08  0.1000E+01  0.1000E+01
    -22.519  0.4099E+00  0.4099E+00  0.1081E+01  0.1081E+01
    -22.323  0.4678E+01  0.4678E+01  0.2000E+01  0.2000E+01
    -22.126  0.5867E-01  0.5867E-01  0.2011E+01  0.2011E+01
    -21.930  0.3337E+01  0.3337E+01  0.2667E+01  0.2667E+01
    -21.733  0.3066E+01  0.3066E+01  0.3269E+01  0.3269E+01
    -21.537  0.4759E+01  0.4759E+01  0.4204E+01  0.4204E+01
    -21.340  0.2382E+01  0.2382E+01  0.4672E+01  0.4672E+01
    -21.144  0.3923E+01  0.3923E+01  0.5443E+01  0.5443E+01
    -20.948  0.3032E+01  0.3032E+01  0.6039E+01  0.6039E+01
    -20.751  0.4895E+01  0.4895E+01  0.7001E+01  0.7001E+01
    -20.555  0.2577E+01  0.2577E+01  0.7507E+01  0.7507E+01
    -20.358  0.4626E+01  0.4626E+01  0.8416E+01  0.8416E+01
    -20.162  0.3070E+01  0.3070E+01  0.9019E+01  0.9019E+01
    -19.965  0.4971E+01  0.4971E+01  0.9996E+01  0.9996E+01
    -19.769  0.1367E+01  0.1367E+01  0.1026E+02  0.1026E+02
    -19.572  0.4551E+01  0.4551E+01  0.1116E+02  0.1116E+02
    -19.376  0.5774E+01  0.5774E+01  0.1229E+02  0.1229E+02
    -19.179  0.3553E+01  0.3553E+01  0.1299E+02  0.1299E+02
    -18.983  0.3823E+01  0.3823E+01  0.1374E+02  0.1374E+02
    -18.786  0.1890E+01  0.1890E+01  0.1411E+02  0.1411E+02
    -18.590  0.6015E+01  0.6015E+01  0.1530E+02  0.1530E+02
    -18.393  0.3465E+01  0.3465E+01  0.1598E+02  0.1598E+02
    -18.197  0.6314E+01  0.6314E+01  0.1722E+02  0.1722E+02
    -18.000  0.3580E+00  0.3580E+00  0.1729E+02  0.1729E+02
    -17.804  0.5064E+01  0.5064E+01  0.1828E+02  0.1828E+02
    -17.607  0.5343E+01  0.5343E+01  0.1933E+02  0.1933E+02
    -17.411  0.5370E+01  0.5370E+01  0.2039E+02  0.2039E+02
    -17.214  0.3437E+01  0.3437E+01  0.2106E+02  0.2106E+02
    -17.018  0.3740E+01  0.3740E+01  0.2180E+02  0.2180E+02
    -16.821  0.4433E+01  0.4433E+01  0.2267E+02  0.2267E+02
    -16.625  0.1477E+01  0.1477E+01  0.2296E+02  0.2296E+02
    -16.428  0.5124E+01  0.5124E+01  0.2397E+02  0.2397E+02
    -16.232  0.1931E+01  0.1931E+01  0.2434E+02  0.2434E+02
    -16.035  0.3266E+01  0.3266E+01  0.2499E+02  0.2499E+02
    -15.839  0.3539E+01  0.3539E+01  0.2568E+02  0.2568E+02
    -15.642  0.2838E+01  0.2838E+01  0.2624E+02  0.2624E+02
    -15.446  0.3740E+01  0.3740E+01  0.2697E+02  0.2697E+02
    -15.249  0.5453E+01  0.5453E+01  0.2805E+02  0.2805E+02
    -15.053  0.4837E+01  0.4837E+01  0.2900E+02  0.2900E+02
    -14.856  0.4275E+01  0.4275E+01  0.2984E+02  0.2984E+02
    -14.660  0.4421E+01  0.4421E+01  0.3070E+02  0.3070E+02
    -14.464  0.3504E+01  0.3504E+01  0.3139E+02  0.3139E+02
    -14.267  0.4152E+01  0.4152E+01  0.3221E+02  0.3221E+02
    -14.071  0.3780E+01  0.3780E+01  0.3295E+02  0.3295E+02
    -13.874  0.4789E+01  0.4789E+01  0.3389E+02  0.3389E+02
    -13.678  0.3152E+01  0.3152E+01  0.3451E+02  0.3451E+02
    -13.481  0.5827E+01  0.5827E+01  0.3566E+02  0.3566E+02
    -13.285  0.5097E-01  0.5097E-01  0.3567E+02  0.3567E+02
    -13.088  0.2751E+01  0.2751E+01  0.3621E+02  0.3621E+02
    -12.892  0.6603E+01  0.6603E+01  0.3750E+02  0.3750E+02
    -12.695  0.5643E+01  0.5643E+01  0.3861E+02  0.3861E+02
    -12.499  0.3798E+01  0.3798E+01  0.3936E+02  0.3936E+02
    -12.302  0.4951E+01  0.4951E+01  0.4033E+02  0.4033E+02
    -12.106  0.2418E+01  0.2418E+01  0.4081E+02  0.4081E+02
    -11.909  0.3891E+01  0.3891E+01  0.4157E+02  0.4157E+02
    -11.713  0.6067E+01  0.6067E+01  0.4276E+02  0.4276E+02
    -11.516  0.6361E+01  0.6361E+01  0.4401E+02  0.4401E+02
    -11.320  0.3594E+01  0.3594E+01  0.4472E+02  0.4472E+02
    -11.123  0.6651E+01  0.6651E+01  0.4603E+02  0.4603E+02
    -10.927  0.3472E+01  0.3472E+01  0.4671E+02  0.4671E+02
    -10.730  0.4945E+01  0.4945E+01  0.4768E+02  0.4768E+02
    -10.534  0.1047E+02  0.1047E+02  0.4974E+02  0.4974E+02
    -10.337  0.6899E+01  0.6899E+01  0.5109E+02  0.5109E+02
    -10.141  0.8190E+01  0.8190E+01  0.5270E+02  0.5270E+02
     -9.944  0.9394E+01  0.9394E+01  0.5455E+02  0.5455E+02
     -9.748  0.8448E+01  0.8448E+01  0.5621E+02  0.5621E+02
     -9.551  0.9474E+01  0.9474E+01  0.5807E+02  0.5807E+02
     -9.355  0.6010E+01  0.6010E+01  0.5925E+02  0.5925E+02
     -9.158  0.1100E+02  0.1100E+02  0.6141E+02  0.6141E+02
     -8.962  0.1397E+02  0.1397E+02  0.6416E+02  0.6416E+02
     -8.765  0.9911E+01  0.9911E+01  0.6610E+02  0.6610E+02
     -8.569  0.1088E+02  0.1088E+02  0.6824E+02  0.6824E+02
     -8.372  0.7840E+01  0.7840E+01  0.6978E+02  0.6978E+02
     -8.176  0.9731E+01  0.9731E+01  0.7169E+02  0.7169E+02
     -7.980  0.1013E+02  0.1013E+02  0.7368E+02  0.7368E+02
     -7.783  0.1044E+02  0.1044E+02  0.7574E+02  0.7574E+02
     -7.587  0.4851E+01  0.4851E+01  0.7669E+02  0.7669E+02
     -7.390  0.6859E+01  0.6859E+01  0.7804E+02  0.7804E+02
     -7.194  0.1198E+02  0.1198E+02  0.8039E+02  0.8039E+02
     -6.997  0.7728E+01  0.7728E+01  0.8191E+02  0.8191E+02
     -6.801  0.6328E+01  0.6328E+01  0.8315E+02  0.8315E+02
     -6.604  0.6213E+01  0.6213E+01  0.8437E+02  0.8437E+02
     -6.408  0.7565E+01  0.7565E+01  0.8586E+02  0.8586E+02
     -6.211  0.7544E+01  0.7544E+01  0.8734E+02  0.8734E+02
     -6.015  0.6775E+01  0.6775E+01  0.8867E+02  0.8867E+02
     -5.818  0.2797E+01  0.2797E+01  0.8922E+02  0.8922E+02
     -5.622  0.3961E+01  0.3961E+01  0.9000E+02  0.9000E+02
     -5.425  0.5709E+01  0.5709E+01  0.9112E+02  0.9112E+02
     -5.229  0.3926E+01  0.3926E+01  0.9189E+02  0.9189E+02
     -5.032  0.5199E+01  0.5199E+01  0.9292E+02  0.9292E+02
     -4.836  0.4301E+01  0.4301E+01  0.9376E+02  0.9376E+02
     -4.639  0.4566E+01  0.4566E+01  0.9466E+02  0.9466E+02
     -4.443  0.2808E+01  0.2808E+01  0.9521E+02  0.9521E+02
     -4.246  0.1083E+01  0.1083E+01  0.9542E+02  0.9542E+02
     -4.050  0.2827E+01  0.2827E+01  0.9598E+02  0.9598E+02
     -3.853  0.1771E+01  0.1771E+01  0.9633E+02  0.9633E+02
     -3.657  0.2370E+01  0.2370E+01  0.9679E+02  0.9679E+02
     -3.460  0.1057E+01  0.1057E+01  0.9700E+02  0.9700E+02
     -3.264  0.7109E-05  0.7108E-05  0.9700E+02  0.9700E+02
     -3.067  0.6343E+00  0.6343E+00  0.9712E+02  0.9712E+02
     -2.871  0.2193E+01  0.2193E+01  0.9756E+02  0.9756E+02
     -2.674  0.1173E+01  0.1173E+01  0.9779E+02  0.9779E+02
     -2.478  0.1303E+01  0.1303E+01  0.9804E+02  0.9804E+02
     -2.281  0.9166E+00  0.9166E+00  0.9822E+02  0.9822E+02
     -2.085  0.4693E-04  0.4693E-04  0.9822E+02  0.9822E+02
     -1.888  0.1768E+01  0.1768E+01  0.9857E+02  0.9857E+02
     -1.692  0.5533E+01  0.5533E+01  0.9966E+02  0.9966E+02
     -1.496  0.7348E+00  0.7348E+00  0.9980E+02  0.9980E+02
     -1.299  0.4217E+01  0.4217E+01  0.1006E+03  0.1006E+03
     -1.103  0.7476E+01  0.7475E+01  0.1021E+03  0.1021E+03
     -0.906  0.8721E+01  0.8721E+01  0.1038E+03  0.1038E+03
     -0.710  0.4475E+01  0.4475E+01  0.1047E+03  0.1047E+03
     -0.513  0.7452E+00  0.7452E+00  0.1048E+03  0.1048E+03
     -0.317  0.8038E+01  0.8038E+01  0.1064E+03  0.1064E+03
     -0.120  0.1726E+01  0.1726E+01  0.1068E+03  0.1068E+03
      0.076  0.3090E+01  0.3090E+01  0.1074E+03  0.1074E+03
      0.273  0.4828E+01  0.4825E+01  0.1083E+03  0.1083E+03
      0.469  0.1119E+02  0.1119E+02  0.1105E+03  0.1105E+03
      0.666  0.6382E+01  0.6385E+01  0.1118E+03  0.1118E+03
      0.862  0.7509E+01  0.7464E+01  0.1132E+03  0.1132E+03
      1.059  0.9535E+01  0.9451E+01  0.1151E+03  0.1151E+03
      1.255  0.1568E+02  0.1542E+02  0.1182E+03  0.1181E+03
      1.452  0.1442E+02  0.1421E+02  0.1210E+03  0.1209E+03
      1.648  0.1221E+02  0.1238E+02  0.1234E+03  0.1233E+03
      1.845  0.1708E+02  0.1639E+02  0.1268E+03  0.1266E+03
      2.041  0.5570E+01  0.6747E+01  0.1279E+03  0.1279E+03
      2.238  0.6153E+00  0.5692E+00  0.1280E+03  0.1280E+03
      2.434  0.1994E-06  0.1146E-03  0.1280E+03  0.1280E+03
      2.631  0.0000E+00  0.0000E+00  0.1280E+03  0.1280E+03
      2.827  0.0000E+00  0.0000E+00  0.1280E+03  0.1280E+03
      3.024  0.0000E+00  0.0000E+00  0.1280E+03  0.1280E+03
      3.220  0.0000E+00  0.0000E+00  0.1280E+03  0.1280E+03
      3.417  0.0000E+00  0.0000E+00  0.1280E+03  0.1280E+03
      3.613  0.0000E+00  0.0000E+00  0.1280E+03  0.1280E+03
      3.810  0.0000E+00  0.0000E+00  0.1280E+03  0.1280E+03
      4.006  0.0000E+00  0.0000E+00  0.1280E+03  0.1280E+03
      4.203  0.0000E+00  0.0000E+00  0.1280E+03  0.1280E+03
      4.399  0.0000E+00  0.0000E+00  0.1280E+03  0.1280E+03
      4.595  0.0000E+00  0.0000E+00  0.1280E+03  0.1280E+03
      4.792  0.0000E+00  0.0000E+00  0.1280E+03  0.1280E+03
