  51  51   0   0
  0.7707117E+02  0.1230000E-08  0.1230000E-08  0.3000000E-08  0.5000000E-15
  1.000000000000000E-004
  CAR 
 Li defective graphene MACE training lab 
      4.91342812    -55.28716155  301     -2.57307925      1.00000000
    -55.287  0.0000E+00  0.0000E+00  0.0000E+00  0.0000E+00
    -55.086  0.0000E+00  0.0000E+00  0.0000E+00  0.0000E+00
    -54.886  0.0000E+00  0.0000E+00  0.0000E+00  0.0000E+00
    -54.685  0.0000E+00  0.0000E+00  0.0000E+00  0.0000E+00
    -54.484  0.0000E+00  0.0000E+00  0.0000E+00  0.0000E+00
    -54.284  0.0000E+00  0.0000E+00  0.0000E+00  0.0000E+00
    -54.083  0.0000E+00  0.0000E+00  0.0000E+00  0.0000E+00
    -53.882  0.0000E+00  0.0000E+00  0.0000E+00  0.0000E+00
    -53.682  0.0000E+00  0.0000E+00  0.0000E+00  0.0000E+00
    -53.481  0.0000E+00  0.0000E+00  0.0000E+00  0.0000E+00
    -53.280  0.0000E+00  0.0000E+00  0.0000E+00  0.0000E+00
    -53.080  0.0000E+00  0.0000E+00  0.0000E+00  0.0000E+00
    -52.879  0.0000E+00  0.0000E+00  0.0000E+00  0.0000E+00
    -52.678  0.7574E-03  0.7372E-03  0.1520E-03  0.1479E-03
    -52.478  0.4885E+01  0.4884E+01  0.9805E+00  0.9802E+00
    -52.277  0.9724E-01  0.9892E-01  0.1000E+01  0.1000E+01
    -52.076  0.0000E+00  0.0000E+00  0.1000E+01  0.1000E+01
    -51.876  0.0000E+00  0.0000E+00  0.1000E+01  0.1000E+01
    -51.675  0.0000E+00  0.0000E+00  0.1000E+01  0.1000E+01
    -51.474  0.0000E+00  0.0000E+00  0.1000E+01  0.1000E+01
    -51.274  0.0000E+00  0.0000E+00  0.1000E+01  0.1000E+01
    -51.073  0.0000E+00  0.0000E+00  0.1000E+01  0.1000E+01
    -50.872  0.0000E+00  0.0000E+00  0.1000E+01  0.1000E+01
    -50.672  0.0000E+00  0.0000E+00  0.1000E+01  0.1000E+01
    -50.471  0.0000E+00  0.0000E+00  0.1000E+01  0.1000E+01
    -50.270  0.0000E+00  0.0000E+00  0.1000E+01  0.1000E+01
    -50.070  0.0000E+00  0.0000E+00  0.1000E+01  0.1000E+01
    -49.869  0.0000E+00  0.0000E+00  0.1000E+01  0.1000E+01
    -49.668  0.0000E+00  0.0000E+00  0.1000E+01  0.1000E+01
    -49.468  0.0000E+00  0.0000E+00  0.1000E+01  0.1000E+01
    -49.267  0.0000E+00  0.0000E+00  0.1000E+01  0.1000E+01
    -49.066  0.0000E+00  0.0000E+00  0.1000E+01  0.1000E+01
    -48.866  0.0000E+00  0.0000E+00  0.1000E+01  0.1000E+01
    -48.665  0.0000E+00  0.0000E+00  0.1000E+01  0.1000E+01
    -48.464  0.0000E+00  0.0000E+00  0.1000E+01  0.1000E+01
    -48.264  0.0000E+00  0.0000E+00  0.1000E+01  0.1000E+01
    -48.063  0.0000E+00  0.0000E+00  0.1000E+01  0.1000E+01
    -47.862  0.0000E+00  0.0000E+00  0.1000E+01  0.1000E+01
    -47.662  0.0000E+00  0.0000E+00  0.1000E+01  0.1000E+01
    -47.461  0.0000E+00  0.0000E+00  0.1000E+01  0.1000E+01
    -47.260  0.0000E+00  0.0000E+00  0.1000E+01  0.1000E+01
    -47.060  0.0000E+00  0.0000E+00  0.1000E+01  0.1000E+01
    -46.859  0.0000E+00  0.0000E+00  0.1000E+01  0.1000E+01
    -46.658  0.0000E+00  0.0000E+00  0.1000E+01  0.1000E+01
    -46.458  0.0000E+00  0.0000E+00  0.1000E+01  0.1000E+01
    -46.257  0.0000E+00  0.0000E+00  0.1000E+01  0.1000E+01
    -46.056  0.0000E+00  0.0000E+00  0.1000E+01  0.1000E+01
    -45.856  0.0000E+00  0.0000E+00  0.1000E+01  0.1000E+01
    -45.655  0.0000E+00  0.0000E+00  0.1000E+01  0.1000E+01
    -45.454  0.0000E+00  0.0000E+00  0.1000E+01  0.1000E+01
    -45.254  0.0000E+00  0.0000E+00  0.1000E+01  0.1000E+01
    -45.053  0.0000E+00  0.0000E+00  0.1000E+01  0.1000E+01
    -44.852  0.0000E+00  0.0000E+00  0.1000E+01  0.1000E+01
    -44.652  0.0000E+00  0.0000E+00  0.1000E+01  0.1000E+01
    -44.451  0.0000E+00  0.0000E+00  0.1000E+01  0.1000E+01
    -44.250  0.0000E+00  0.0000E+00  0.1000E+01  0.1000E+01
    -44.050  0.0000E+00  0.0000E+00  0.1000E+01  0.1000E+01
    -43.849  0.0000E+00  0.0000E+00  0.1000E+01  0.1000E+01
    -43.648  0.0000E+00  0.0000E+00  0.1000E+01  0.1000E+01
    -43.448  0.0000E+00  0.0000E+00  0.1000E+01  0.1000E+01
    -43.247  0.0000E+00  0.0000E+00  0.1000E+01  0.1000E+01
    -43.046  0.0000E+00  0.0000E+00  0.1000E+01  0.1000E+01
    -42.846  0.0000E+00  0.0000E+00  0.1000E+01  0.1000E+01
    -42.645  0.0000E+00  0.0000E+00  0.1000E+01  0.1000E+01
    -42.444  0.0000E+00  0.0000E+00  0.1000E+01  0.1000E+01
    -42.244  0.0000E+00  0.0000E+00  0.1000E+01  0.1000E+01
    -42.043  0.0000E+00  0.0000E+00  0.1000E+01  0.1000E+01
    -41.842  0.0000E+00  0.0000E+00  0.1000E+01  0.1000E+01
    -41.642  0.0000E+00  0.0000E+00  0.1000E+01  0.1000E+01
    -41.441  0.0000E+00  0.0000E+00  0.1000E+01  0.1000E+01
    -41.240  0.0000E+00  0.0000E+00  0.1000E+01  0.1000E+01
    -41.040  0.0000E+00  0.0000E+00  0.1000E+01  0.1000E+01
    -40.839  0.0000E+00  0.0000E+00  0.1000E+01  0.1000E+01
    -40.638  0.0000E+00  0.0000E+00  0.1000E+01  0.1000E+01
    -40.438  0.0000E+00  0.0000E+00  0.1000E+01  0.1000E+01
    -40.237  0.0000E+00  0.0000E+00  0.1000E+01  0.1000E+01
    -40.036  0.0000E+00  0.0000E+00  0.1000E+01  0.1000E+01
    -39.836  0.0000E+00  0.0000E+00  0.1000E+01  0.1000E+01
    -39.635  0.0000E+00  0.0000E+00  0.1000E+01  0.1000E+01
    -39.434  0.0000E+00  0.0000E+00  0.1000E+01  0.1000E+01
    -39.234  0.0000E+00  0.0000E+00  0.1000E+01  0.1000E+01
    -39.033  0.0000E+00  0.0000E+00  0.1000E+01  0.1000E+01
    -38.832  0.0000E+00  0.0000E+00  0.1000E+01  0.1000E+01
    -38.632  0.0000E+00  0.0000E+00  0.1000E+01  0.1000E+01
    -38.431  0.0000E+00  0.0000E+00  0.1000E+01  0.1000E+01
    -38.230  0.0000E+00  0.0000E+00  0.1000E+01  0.1000E+01
    -38.030  0.0000E+00  0.0000E+00  0.1000E+01  0.1000E+01
    -37.829  0.0000E+00  0.0000E+00  0.1000E+01  0.1000E+01
    -37.628  0.0000E+00  0.0000E+00  0.1000E+01  0.1000E+01
    -37.428  0.0000E+00  0.0000E+00  0.1000E+01  0.1000E+01
    -37.227  0.0000E+00  0.0000E+00  0.1000E+01  0.1000E+01
    -37.026  0.0000E+00  0.0000E+00  0.1000E+01  0.1000E+01
    -36.826  0.0000E+00  0.0000E+00  0.1000E+01  0.1000E+01
    -36.625  0.0000E+00  0.0000E+00  0.1000E+01  0.1000E+01
    -36.424  0.0000E+00  0.0000E+00  0.1000E+01  0.1000E+01
    -36.224  0.0000E+00  0.0000E+00  0.1000E+01  0.1000E+01
    -36.023  0.0000E+00  0.0000E+00  0.1000E+01  0.1000E+01
    -35.822  0.0000E+00  0.0000E+00  0.1000E+01  0.1000E+01
    -35.622  0.0000E+00  0.0000E+00  0.1000E+01  0.1000E+01
    -35.421  0.0000E+00  0.0000E+00  0.1000E+01  0.1000E+01
    -35.220  0.0000E+00  0.0000E+00  0.1000E+01  0.1000E+01
    -35.020  0.0000E+00  0.0000E+00  0.1000E+01  0.1000E+01
    -34.819  0.0000E+00  0.0000E+00  0.1000E+01  0.1000E+01
    -34.618  0.0000E+00  0.0000E+00  0.1000E+01  0.1000E+01
    -34.418  0.0000E+00  0.0000E+00  0.1000E+01  0.1000E+01
    -34.217  0.0000E+00  0.0000E+00  0.1000E+01  0.1000E+01
    -34.016  0.0000E+00  0.0000E+00  0.1000E+01  0.1000E+01
    -33.816  0.0000E+00  0.0000E+00  0.1000E+01  0.1000E+01
    -33.615  0.0000E+00  0.0000E+00  0.1000E+01  0.1000E+01
    -33.414  0.0000E+00  0.0000E+00  0.1000E+01  0.1000E+01
    -33.214  0.0000E+00  0.0000E+00  0.1000E+01  0.1000E+01
    -33.013  0.0000E+00  0.0000E+00  0.1000E+01  0.1000E+01
    -32.812  0.0000E+00  0.0000E+00  0.1000E+01  0.1000E+01
    -32.612  0.0000E+00  0.0000E+00  0.1000E+01  0.1000E+01
    -32.411  0.0000E+00  0.0000E+00  0.1000E+01  0.1000E+01
    -32.210  0.0000E+00  0.0000E+00  0.1000E+01  0.1000E+01
    -32.010  0.0000E+00  0.0000E+00  0.1000E+01  0.1000E+01
    -31.809  0.0000E+00  0.0000E+00  0.1000E+01  0.1000E+01
    -31.608  0.0000E+00  0.0000E+00  0.1000E+01  0.1000E+01
    -31.408  0.0000E+00  0.0000E+00  0.1000E+01  0.1000E+01
    -31.207  0.0000E+00  0.0000E+00  0.1000E+01  0.1000E+01
    -31.006  0.0000E+00  0.0000E+00  0.1000E+01  0.1000E+01
    -30.806  0.0000E+00  0.0000E+00  0.1000E+01  0.1000E+01
    -30.605  0.0000E+00  0.0000E+00  0.1000E+01  0.1000E+01
    -30.404  0.0000E+00  0.0000E+00  0.1000E+01  0.1000E+01
    -30.204  0.0000E+00  0.0000E+00  0.1000E+01  0.1000E+01
    -30.003  0.0000E+00  0.0000E+00  0.1000E+01  0.1000E+01
    -29.802  0.0000E+00  0.0000E+00  0.1000E+01  0.1000E+01
    -29.602  0.0000E+00  0.0000E+00  0.1000E+01  0.1000E+01
    -29.401  0.0000E+00  0.0000E+00  0.1000E+01  0.1000E+01
    -29.200  0.0000E+00  0.0000E+00  0.1000E+01  0.1000E+01
    -29.000  0.0000E+00  0.0000E+00  0.1000E+01  0.1000E+01
    -28.799  0.0000E+00  0.0000E+00  0.1000E+01  0.1000E+01
    -28.598  0.0000E+00  0.0000E+00  0.1000E+01  0.1000E+01
    -28.398  0.0000E+00  0.0000E+00  0.1000E+01  0.1000E+01
    -28.197  0.0000E+00  0.0000E+00  0.1000E+01  0.1000E+01
    -27.996  0.0000E+00  0.0000E+00  0.1000E+01  0.1000E+01
    -27.796  0.0000E+00  0.0000E+00  0.1000E+01  0.1000E+01
    -27.595  0.0000E+00  0.0000E+00  0.1000E+01  0.1000E+01
    -27.394  0.0000E+00  0.0000E+00  0.1000E+01  0.1000E+01
    -27.194  0.0000E+00  0.0000E+00  0.1000E+01  0.1000E+01
    -26.993  0.0000E+00  0.0000E+00  0.1000E+01  0.1000E+01
    -26.792  0.0000E+00  0.0000E+00  0.1000E+01  0.1000E+01
    -26.592  0.0000E+00  0.0000E+00  0.1000E+01  0.1000E+01
    -26.391  0.0000E+00  0.0000E+00  0.1000E+01  0.1000E+01
    -26.190  0.0000E+00  0.0000E+00  0.1000E+01  0.1000E+01
    -25.990  0.0000E+00  0.0000E+00  0.1000E+01  0.1000E+01
    -25.789  0.0000E+00  0.0000E+00  0.1000E+01  0.1000E+01
    -25.588  0.0000E+00  0.0000E+00  0.1000E+01  0.1000E+01
    -25.388  0.0000E+00  0.0000E+00  0.1000E+01  0.1000E+01
    -25.187  0.0000E+00  0.0000E+00  0.1000E+01  0.1000E+01
    -24.986  0.0000E+00  0.0000E+00  0.1000E+01  0.1000E+01
    -24.786  0.0000E+00  0.0000E+00  0.1000E+01  0.1000E+01
    -24.585  0.0000E+00  0.0000E+00  0.1000E+01  0.1000E+01
    -24.384  0.0000E+00  0.0000E+00  0.1000E+01  0.1000E+01
    -24.184  0.0000E+00  0.0000E+00  0.1000E+01  0.1000E+01
    -23.983  0.0000E+00  0.0000E+00  0.1000E+01  0.1000E+01
    -23.782  0.0000E+00  0.0000E+00  0.1000E+01  0.1000E+01
    -23.582  0.0000E+00  0.0000E+00  0.1000E+01  0.1000E+01
    -23.381  0.0000E+00  0.0000E+00  0.1000E+01  0.1000E+01
    -23.180  0.0000E+00  0.0000E+00  0.1000E+01  0.1000E+01
    -22.980  0.0000E+00  0.0000E+00  0.1000E+01  0.1000E+01
    -22.779  0.0000E+00  0.0000E+00  0.1000E+01  0.1000E+01
    -22.578  0.5351E-09  0.7402E-10  0.1000E+01  0.1000E+01
    -22.378  0.2269E+00  0.1524E+00  0.1046E+01  0.1031E+01
    -22.177  0.4498E+01  0.4422E+01  0.1948E+01  0.1918E+01
    -21.976  0.3168E+01  0.3058E+01  0.2584E+01  0.2532E+01
    -21.775  0.3443E+01  0.3504E+01  0.3275E+01  0.3235E+01
    -21.575  0.2920E+01  0.2934E+01  0.3861E+01  0.3823E+01
    -21.374  0.4106E+01  0.4270E+01  0.4685E+01  0.4680E+01
    -21.173  0.2712E+01  0.2647E+01  0.5229E+01  0.5211E+01
    -20.973  0.4718E+01  0.4712E+01  0.6176E+01  0.6157E+01
    -20.772  0.4655E+01  0.4745E+01  0.7110E+01  0.7109E+01
    -20.571  0.2181E+01  0.2056E+01  0.7547E+01  0.7521E+01
    -20.371  0.5097E+01  0.5017E+01  0.8570E+01  0.8528E+01
    -20.170  0.3566E+01  0.3497E+01  0.9286E+01  0.9230E+01
    -19.969  0.4227E+01  0.4383E+01  0.1013E+02  0.1011E+02
    -19.769  0.1501E+01  0.1490E+01  0.1044E+02  0.1041E+02
    -19.568  0.5472E+01  0.5516E+01  0.1153E+02  0.1152E+02
    -19.367  0.3786E+01  0.3758E+01  0.1229E+02  0.1227E+02
    -19.167  0.4415E+01  0.4437E+01  0.1318E+02  0.1316E+02
    -18.966  0.5132E+01  0.4976E+01  0.1421E+02  0.1416E+02
    -18.765  0.1605E+01  0.1833E+01  0.1453E+02  0.1453E+02
    -18.565  0.3271E+01  0.2914E+01  0.1519E+02  0.1511E+02
    -18.364  0.7656E+01  0.7746E+01  0.1672E+02  0.1667E+02
    -18.163  0.2893E+01  0.3124E+01  0.1730E+02  0.1729E+02
    -17.963  0.4049E+01  0.3854E+01  0.1812E+02  0.1807E+02
    -17.762  0.4887E+01  0.5107E+01  0.1910E+02  0.1909E+02
    -17.561  0.5068E+00  0.4436E+00  0.1920E+02  0.1918E+02
    -17.361  0.8707E+01  0.8581E+01  0.2095E+02  0.2090E+02
    -17.160  0.4299E+01  0.4409E+01  0.2181E+02  0.2179E+02
    -16.959  0.4377E+01  0.4294E+01  0.2269E+02  0.2265E+02
    -16.759  0.4531E+01  0.4551E+01  0.2360E+02  0.2356E+02
    -16.558  0.1683E+01  0.1778E+01  0.2393E+02  0.2392E+02
    -16.357  0.2257E+01  0.2171E+01  0.2439E+02  0.2435E+02
    -16.157  0.7702E+01  0.7768E+01  0.2593E+02  0.2591E+02
    -15.956  0.8921E+00  0.9913E+00  0.2611E+02  0.2611E+02
    -15.755  0.2438E+01  0.2130E+01  0.2660E+02  0.2654E+02
    -15.555  0.2934E+01  0.3085E+01  0.2719E+02  0.2716E+02
    -15.354  0.3542E+01  0.3581E+01  0.2790E+02  0.2788E+02
    -15.153  0.7455E+01  0.7541E+01  0.2940E+02  0.2939E+02
    -14.953  0.3760E+01  0.3675E+01  0.3015E+02  0.3013E+02
    -14.752  0.4817E+01  0.4841E+01  0.3112E+02  0.3110E+02
    -14.551  0.4326E+01  0.4385E+01  0.3199E+02  0.3198E+02
    -14.351  0.3756E+01  0.3546E+01  0.3274E+02  0.3269E+02
    -14.150  0.3263E+01  0.3405E+01  0.3339E+02  0.3337E+02
    -13.949  0.5454E+01  0.5508E+01  0.3449E+02  0.3448E+02
    -13.749  0.4714E+01  0.4712E+01  0.3543E+02  0.3542E+02
    -13.548  0.2261E+01  0.2307E+01  0.3589E+02  0.3589E+02
    -13.347  0.1153E+01  0.9733E+00  0.3612E+02  0.3608E+02
    -13.147  0.7213E+01  0.7144E+01  0.3757E+02  0.3752E+02
    -12.946  0.5601E+01  0.5760E+01  0.3869E+02  0.3867E+02
    -12.745  0.4798E+01  0.4792E+01  0.3965E+02  0.3963E+02
    -12.545  0.1568E+01  0.1518E+01  0.3997E+02  0.3994E+02
    -12.344  0.4006E+01  0.4046E+01  0.4077E+02  0.4075E+02
    -12.143  0.4935E+01  0.4891E+01  0.4176E+02  0.4173E+02
    -11.943  0.7710E+01  0.7783E+01  0.4331E+02  0.4329E+02
    -11.742  0.1303E+01  0.1324E+01  0.4357E+02  0.4356E+02
    -11.541  0.6497E+01  0.6106E+01  0.4487E+02  0.4478E+02
    -11.341  0.7289E+01  0.7661E+01  0.4634E+02  0.4632E+02
    -11.140  0.4450E+01  0.4456E+01  0.4723E+02  0.4722E+02
    -10.939  0.3629E+01  0.3586E+01  0.4796E+02  0.4794E+02
    -10.739  0.2871E+01  0.2878E+01  0.4853E+02  0.4851E+02
    -10.538  0.8664E+01  0.8488E+01  0.5027E+02  0.5022E+02
    -10.337  0.9874E+01  0.9534E+01  0.5225E+02  0.5213E+02
    -10.137  0.8495E+01  0.8997E+01  0.5396E+02  0.5393E+02
     -9.936  0.8694E+01  0.8397E+01  0.5570E+02  0.5562E+02
     -9.735  0.8182E+01  0.8214E+01  0.5735E+02  0.5727E+02
     -9.535  0.1066E+02  0.1042E+02  0.5948E+02  0.5936E+02
     -9.334  0.9090E+01  0.9445E+01  0.6131E+02  0.6126E+02
     -9.133  0.1403E+02  0.1401E+02  0.6412E+02  0.6407E+02
     -8.933  0.1201E+02  0.1161E+02  0.6653E+02  0.6640E+02
     -8.732  0.1173E+02  0.1192E+02  0.6889E+02  0.6879E+02
     -8.531  0.7730E+01  0.8104E+01  0.7044E+02  0.7041E+02
     -8.331  0.8285E+01  0.8197E+01  0.7210E+02  0.7206E+02
     -8.130  0.9781E+01  0.9640E+01  0.7406E+02  0.7399E+02
     -7.929  0.1314E+02  0.1290E+02  0.7670E+02  0.7658E+02
     -7.729  0.7705E+01  0.8149E+01  0.7825E+02  0.7822E+02
     -7.528  0.2817E+01  0.2588E+01  0.7881E+02  0.7874E+02
     -7.327  0.9076E+01  0.9025E+01  0.8063E+02  0.8055E+02
     -7.127  0.9205E+01  0.9315E+01  0.8248E+02  0.8242E+02
     -6.926  0.9999E+01  0.1002E+02  0.8449E+02  0.8443E+02
     -6.725  0.8716E+01  0.8587E+01  0.8624E+02  0.8615E+02
     -6.525  0.5070E+01  0.5466E+01  0.8725E+02  0.8725E+02
     -6.324  0.6071E+01  0.5855E+01  0.8847E+02  0.8842E+02
     -6.123  0.5392E+01  0.4531E+01  0.8955E+02  0.8933E+02
     -5.923  0.1170E+02  0.1251E+02  0.9190E+02  0.9184E+02
     -5.722  0.3143E+01  0.3148E+01  0.9253E+02  0.9247E+02
     -5.521  0.6859E+01  0.6667E+01  0.9391E+02  0.9381E+02
     -5.321  0.2106E+01  0.2566E+01  0.9433E+02  0.9433E+02
     -5.120  0.3075E+01  0.2872E+01  0.9495E+02  0.9490E+02
     -4.919  0.8119E+01  0.7364E+01  0.9658E+02  0.9638E+02
     -4.719  0.7307E+01  0.7870E+01  0.9804E+02  0.9796E+02
     -4.518  0.1970E+01  0.2164E+01  0.9844E+02  0.9839E+02
     -4.317  0.2359E+01  0.2468E+01  0.9891E+02  0.9889E+02
     -4.117  0.1993E+01  0.2089E+01  0.9931E+02  0.9931E+02
     -3.916  0.2601E+01  0.1862E+01  0.9983E+02  0.9968E+02
     -3.715  0.2475E+01  0.3192E+01  0.1003E+03  0.1003E+03
     -3.515  0.2219E+01  0.2247E+01  0.1008E+03  0.1008E+03
     -3.314  0.9239E-02  0.2296E-01  0.1008E+03  0.1008E+03
     -3.113  0.4115E-08  0.1026E-11  0.1008E+03  0.1008E+03
     -2.913  0.5074E+00  0.9463E-01  0.1009E+03  0.1008E+03
     -2.712  0.2083E+01  0.2012E+01  0.1013E+03  0.1012E+03
     -2.511  0.2445E+01  0.1769E+01  0.1018E+03  0.1016E+03
     -2.311  0.2089E+01  0.2727E+01  0.1022E+03  0.1021E+03
     -2.110  0.7375E-01  0.5962E+00  0.1022E+03  0.1022E+03
     -1.909  0.9580E-01  0.2131E-01  0.1022E+03  0.1022E+03
     -1.709  0.3878E+01  0.3790E+01  0.1030E+03  0.1030E+03
     -1.508  0.3876E+01  0.3737E+01  0.1038E+03  0.1037E+03
     -1.307  0.5619E+01  0.5627E+01  0.1049E+03  0.1049E+03
     -1.107  0.1326E+01  0.1439E+01  0.1052E+03  0.1052E+03
     -0.906  0.7203E+01  0.7183E+01  0.1066E+03  0.1066E+03
     -0.705  0.7957E+01  0.7798E+01  0.1082E+03  0.1082E+03
     -0.505  0.5173E+01  0.5036E+01  0.1093E+03  0.1092E+03
     -0.304  0.3079E+01  0.3575E+01  0.1099E+03  0.1099E+03
     -0.103  0.5254E+00  0.2813E+00  0.1100E+03  0.1099E+03
      0.097  0.4040E+01  0.4080E+01  0.1108E+03  0.1108E+03
      0.298  0.9716E+01  0.9470E+01  0.1128E+03  0.1127E+03
      0.499  0.8583E+01  0.8561E+01  0.1145E+03  0.1144E+03
      0.699  0.4311E+01  0.4759E+01  0.1153E+03  0.1153E+03
      0.900  0.7537E+01  0.7031E+01  0.1169E+03  0.1167E+03
      1.101  0.8103E+01  0.8137E+01  0.1185E+03  0.1184E+03
      1.301  0.1162E+02  0.1114E+02  0.1208E+03  0.1206E+03
      1.502  0.1366E+02  0.1257E+02  0.1236E+03  0.1231E+03
      1.703  0.1627E+02  0.1709E+02  0.1268E+03  0.1266E+03
      1.903  0.1811E+02  0.1860E+02  0.1305E+03  0.1303E+03
      2.104  0.7094E+01  0.7498E+01  0.1319E+03  0.1318E+03
      2.305  0.6152E+00  0.9673E+00  0.1320E+03  0.1320E+03
      2.505  0.1334E-06  0.8417E-04  0.1320E+03  0.1320E+03
      2.706  0.0000E+00  0.0000E+00  0.1320E+03  0.1320E+03
      2.907  0.0000E+00  0.0000E+00  0.1320E+03  0.1320E+03
      3.107  0.0000E+00  0.0000E+00  0.1320E+03  0.1320E+03
      3.308  0.0000E+00  0.0000E+00  0.1320E+03  0.1320E+03
      3.509  0.0000E+00  0.0000E+00  0.1320E+03  0.1320E+03
      3.709  0.0000E+00  0.0000E+00  0.1320E+03  0.1320E+03
      3.910  0.0000E+00  0.0000E+00  0.1320E+03  0.1320E+03
      4.111  0.0000E+00  0.0000E+00  0.1320E+03  0.1320E+03
      4.311  0.0000E+00  0.0000E+00  0.1320E+03  0.1320E+03
      4.512  0.0000E+00  0.0000E+00  0.1320E+03  0.1320E+03
      4.713  0.0000E+00  0.0000E+00  0.1320E+03  0.1320E+03
      4.913  0.0000E+00  0.0000E+00  0.1320E+03  0.1320E+03
