  51  51   0   0
  0.7707117E+02  0.1230000E-08  0.1230000E-08  0.3000000E-08  0.5000000E-15
  1.000000000000000E-004
  CAR 
 Li defective graphene MACE training lab 
      4.92192822    -54.27513521  301     -1.87667294      1.00000000
    -54.275  0.0000E+00  0.0000E+00  0.0000E+00  0.0000E+00
    -54.078  0.0000E+00  0.0000E+00  0.0000E+00  0.0000E+00
    -53.880  0.0000E+00  0.0000E+00  0.0000E+00  0.0000E+00
    -53.683  0.0000E+00  0.0000E+00  0.0000E+00  0.0000E+00
    -53.486  0.0000E+00  0.0000E+00  0.0000E+00  0.0000E+00
    -53.289  0.0000E+00  0.0000E+00  0.0000E+00  0.0000E+00
    -53.091  0.0000E+00  0.0000E+00  0.0000E+00  0.0000E+00
    -52.894  0.0000E+00  0.0000E+00  0.0000E+00  0.0000E+00
    -52.697  0.0000E+00  0.0000E+00  0.0000E+00  0.0000E+00
    -52.499  0.0000E+00  0.0000E+00  0.0000E+00  0.0000E+00
    -52.302  0.0000E+00  0.0000E+00  0.0000E+00  0.0000E+00
    -52.105  0.0000E+00  0.0000E+00  0.0000E+00  0.0000E+00
    -51.907  0.0000E+00  0.0000E+00  0.0000E+00  0.0000E+00
    -51.710  0.9700E-03  0.9689E-03  0.1914E-03  0.1912E-03
    -51.513  0.4959E+01  0.4959E+01  0.9788E+00  0.9788E+00
    -51.315  0.1075E+00  0.1075E+00  0.1000E+01  0.1000E+01
    -51.118  0.0000E+00  0.0000E+00  0.1000E+01  0.1000E+01
    -50.921  0.0000E+00  0.0000E+00  0.1000E+01  0.1000E+01
    -50.723  0.0000E+00  0.0000E+00  0.1000E+01  0.1000E+01
    -50.526  0.0000E+00  0.0000E+00  0.1000E+01  0.1000E+01
    -50.329  0.0000E+00  0.0000E+00  0.1000E+01  0.1000E+01
    -50.131  0.0000E+00  0.0000E+00  0.1000E+01  0.1000E+01
    -49.934  0.0000E+00  0.0000E+00  0.1000E+01  0.1000E+01
    -49.737  0.0000E+00  0.0000E+00  0.1000E+01  0.1000E+01
    -49.539  0.0000E+00  0.0000E+00  0.1000E+01  0.1000E+01
    -49.342  0.0000E+00  0.0000E+00  0.1000E+01  0.1000E+01
    -49.145  0.0000E+00  0.0000E+00  0.1000E+01  0.1000E+01
    -48.947  0.0000E+00  0.0000E+00  0.1000E+01  0.1000E+01
    -48.750  0.0000E+00  0.0000E+00  0.1000E+01  0.1000E+01
    -48.553  0.0000E+00  0.0000E+00  0.1000E+01  0.1000E+01
    -48.355  0.0000E+00  0.0000E+00  0.1000E+01  0.1000E+01
    -48.158  0.0000E+00  0.0000E+00  0.1000E+01  0.1000E+01
    -47.961  0.0000E+00  0.0000E+00  0.1000E+01  0.1000E+01
    -47.763  0.0000E+00  0.0000E+00  0.1000E+01  0.1000E+01
    -47.566  0.0000E+00  0.0000E+00  0.1000E+01  0.1000E+01
    -47.369  0.0000E+00  0.0000E+00  0.1000E+01  0.1000E+01
    -47.171  0.0000E+00  0.0000E+00  0.1000E+01  0.1000E+01
    -46.974  0.0000E+00  0.0000E+00  0.1000E+01  0.1000E+01
    -46.777  0.0000E+00  0.0000E+00  0.1000E+01  0.1000E+01
    -46.580  0.0000E+00  0.0000E+00  0.1000E+01  0.1000E+01
    -46.382  0.0000E+00  0.0000E+00  0.1000E+01  0.1000E+01
    -46.185  0.0000E+00  0.0000E+00  0.1000E+01  0.1000E+01
    -45.988  0.0000E+00  0.0000E+00  0.1000E+01  0.1000E+01
    -45.790  0.0000E+00  0.0000E+00  0.1000E+01  0.1000E+01
    -45.593  0.0000E+00  0.0000E+00  0.1000E+01  0.1000E+01
    -45.396  0.0000E+00  0.0000E+00  0.1000E+01  0.1000E+01
    -45.198  0.0000E+00  0.0000E+00  0.1000E+01  0.1000E+01
    -45.001  0.0000E+00  0.0000E+00  0.1000E+01  0.1000E+01
    -44.804  0.0000E+00  0.0000E+00  0.1000E+01  0.1000E+01
    -44.606  0.0000E+00  0.0000E+00  0.1000E+01  0.1000E+01
    -44.409  0.0000E+00  0.0000E+00  0.1000E+01  0.1000E+01
    -44.212  0.0000E+00  0.0000E+00  0.1000E+01  0.1000E+01
    -44.014  0.0000E+00  0.0000E+00  0.1000E+01  0.1000E+01
    -43.817  0.0000E+00  0.0000E+00  0.1000E+01  0.1000E+01
    -43.620  0.0000E+00  0.0000E+00  0.1000E+01  0.1000E+01
    -43.422  0.0000E+00  0.0000E+00  0.1000E+01  0.1000E+01
    -43.225  0.0000E+00  0.0000E+00  0.1000E+01  0.1000E+01
    -43.028  0.0000E+00  0.0000E+00  0.1000E+01  0.1000E+01
    -42.830  0.0000E+00  0.0000E+00  0.1000E+01  0.1000E+01
    -42.633  0.0000E+00  0.0000E+00  0.1000E+01  0.1000E+01
    -42.436  0.0000E+00  0.0000E+00  0.1000E+01  0.1000E+01
    -42.238  0.0000E+00  0.0000E+00  0.1000E+01  0.1000E+01
    -42.041  0.0000E+00  0.0000E+00  0.1000E+01  0.1000E+01
    -41.844  0.0000E+00  0.0000E+00  0.1000E+01  0.1000E+01
    -41.646  0.0000E+00  0.0000E+00  0.1000E+01  0.1000E+01
    -41.449  0.0000E+00  0.0000E+00  0.1000E+01  0.1000E+01
    -41.252  0.0000E+00  0.0000E+00  0.1000E+01  0.1000E+01
    -41.054  0.0000E+00  0.0000E+00  0.1000E+01  0.1000E+01
    -40.857  0.0000E+00  0.0000E+00  0.1000E+01  0.1000E+01
    -40.660  0.0000E+00  0.0000E+00  0.1000E+01  0.1000E+01
    -40.462  0.0000E+00  0.0000E+00  0.1000E+01  0.1000E+01
    -40.265  0.0000E+00  0.0000E+00  0.1000E+01  0.1000E+01
    -40.068  0.0000E+00  0.0000E+00  0.1000E+01  0.1000E+01
    -39.871  0.0000E+00  0.0000E+00  0.1000E+01  0.1000E+01
    -39.673  0.0000E+00  0.0000E+00  0.1000E+01  0.1000E+01
    -39.476  0.0000E+00  0.0000E+00  0.1000E+01  0.1000E+01
    -39.279  0.0000E+00  0.0000E+00  0.1000E+01  0.1000E+01
    -39.081  0.0000E+00  0.0000E+00  0.1000E+01  0.1000E+01
    -38.884  0.0000E+00  0.0000E+00  0.1000E+01  0.1000E+01
    -38.687  0.0000E+00  0.0000E+00  0.1000E+01  0.1000E+01
    -38.489  0.0000E+00  0.0000E+00  0.1000E+01  0.1000E+01
    -38.292  0.0000E+00  0.0000E+00  0.1000E+01  0.1000E+01
    -38.095  0.0000E+00  0.0000E+00  0.1000E+01  0.1000E+01
    -37.897  0.0000E+00  0.0000E+00  0.1000E+01  0.1000E+01
    -37.700  0.0000E+00  0.0000E+00  0.1000E+01  0.1000E+01
    -37.503  0.0000E+00  0.0000E+00  0.1000E+01  0.1000E+01
    -37.305  0.0000E+00  0.0000E+00  0.1000E+01  0.1000E+01
    -37.108  0.0000E+00  0.0000E+00  0.1000E+01  0.1000E+01
    -36.911  0.0000E+00  0.0000E+00  0.1000E+01  0.1000E+01
    -36.713  0.0000E+00  0.0000E+00  0.1000E+01  0.1000E+01
    -36.516  0.0000E+00  0.0000E+00  0.1000E+01  0.1000E+01
    -36.319  0.0000E+00  0.0000E+00  0.1000E+01  0.1000E+01
    -36.121  0.0000E+00  0.0000E+00  0.1000E+01  0.1000E+01
    -35.924  0.0000E+00  0.0000E+00  0.1000E+01  0.1000E+01
    -35.727  0.0000E+00  0.0000E+00  0.1000E+01  0.1000E+01
    -35.529  0.0000E+00  0.0000E+00  0.1000E+01  0.1000E+01
    -35.332  0.0000E+00  0.0000E+00  0.1000E+01  0.1000E+01
    -35.135  0.0000E+00  0.0000E+00  0.1000E+01  0.1000E+01
    -34.937  0.0000E+00  0.0000E+00  0.1000E+01  0.1000E+01
    -34.740  0.0000E+00  0.0000E+00  0.1000E+01  0.1000E+01
    -34.543  0.0000E+00  0.0000E+00  0.1000E+01  0.1000E+01
    -34.345  0.0000E+00  0.0000E+00  0.1000E+01  0.1000E+01
    -34.148  0.0000E+00  0.0000E+00  0.1000E+01  0.1000E+01
    -33.951  0.0000E+00  0.0000E+00  0.1000E+01  0.1000E+01
    -33.753  0.0000E+00  0.0000E+00  0.1000E+01  0.1000E+01
    -33.556  0.0000E+00  0.0000E+00  0.1000E+01  0.1000E+01
    -33.359  0.0000E+00  0.0000E+00  0.1000E+01  0.1000E+01
    -33.162  0.0000E+00  0.0000E+00  0.1000E+01  0.1000E+01
    -32.964  0.0000E+00  0.0000E+00  0.1000E+01  0.1000E+01
    -32.767  0.0000E+00  0.0000E+00  0.1000E+01  0.1000E+01
    -32.570  0.0000E+00  0.0000E+00  0.1000E+01  0.1000E+01
    -32.372  0.0000E+00  0.0000E+00  0.1000E+01  0.1000E+01
    -32.175  0.0000E+00  0.0000E+00  0.1000E+01  0.1000E+01
    -31.978  0.0000E+00  0.0000E+00  0.1000E+01  0.1000E+01
    -31.780  0.0000E+00  0.0000E+00  0.1000E+01  0.1000E+01
    -31.583  0.0000E+00  0.0000E+00  0.1000E+01  0.1000E+01
    -31.386  0.0000E+00  0.0000E+00  0.1000E+01  0.1000E+01
    -31.188  0.0000E+00  0.0000E+00  0.1000E+01  0.1000E+01
    -30.991  0.0000E+00  0.0000E+00  0.1000E+01  0.1000E+01
    -30.794  0.0000E+00  0.0000E+00  0.1000E+01  0.1000E+01
    -30.596  0.0000E+00  0.0000E+00  0.1000E+01  0.1000E+01
    -30.399  0.0000E+00  0.0000E+00  0.1000E+01  0.1000E+01
    -30.202  0.0000E+00  0.0000E+00  0.1000E+01  0.1000E+01
    -30.004  0.0000E+00  0.0000E+00  0.1000E+01  0.1000E+01
    -29.807  0.0000E+00  0.0000E+00  0.1000E+01  0.1000E+01
    -29.610  0.0000E+00  0.0000E+00  0.1000E+01  0.1000E+01
    -29.412  0.0000E+00  0.0000E+00  0.1000E+01  0.1000E+01
    -29.215  0.0000E+00  0.0000E+00  0.1000E+01  0.1000E+01
    -29.018  0.0000E+00  0.0000E+00  0.1000E+01  0.1000E+01
    -28.820  0.0000E+00  0.0000E+00  0.1000E+01  0.1000E+01
    -28.623  0.0000E+00  0.0000E+00  0.1000E+01  0.1000E+01
    -28.426  0.0000E+00  0.0000E+00  0.1000E+01  0.1000E+01
    -28.228  0.0000E+00  0.0000E+00  0.1000E+01  0.1000E+01
    -28.031  0.0000E+00  0.0000E+00  0.1000E+01  0.1000E+01
    -27.834  0.0000E+00  0.0000E+00  0.1000E+01  0.1000E+01
    -27.636  0.0000E+00  0.0000E+00  0.1000E+01  0.1000E+01
    -27.439  0.0000E+00  0.0000E+00  0.1000E+01  0.1000E+01
    -27.242  0.0000E+00  0.0000E+00  0.1000E+01  0.1000E+01
    -27.044  0.0000E+00  0.0000E+00  0.1000E+01  0.1000E+01
    -26.847  0.0000E+00  0.0000E+00  0.1000E+01  0.1000E+01
    -26.650  0.0000E+00  0.0000E+00  0.1000E+01  0.1000E+01
    -26.453  0.0000E+00  0.0000E+00  0.1000E+01  0.1000E+01
    -26.255  0.0000E+00  0.0000E+00  0.1000E+01  0.1000E+01
    -26.058  0.0000E+00  0.0000E+00  0.1000E+01  0.1000E+01
    -25.861  0.0000E+00  0.0000E+00  0.1000E+01  0.1000E+01
    -25.663  0.0000E+00  0.0000E+00  0.1000E+01  0.1000E+01
    -25.466  0.0000E+00  0.0000E+00  0.1000E+01  0.1000E+01
    -25.269  0.0000E+00  0.0000E+00  0.1000E+01  0.1000E+01
    -25.071  0.0000E+00  0.0000E+00  0.1000E+01  0.1000E+01
    -24.874  0.0000E+00  0.0000E+00  0.1000E+01  0.1000E+01
    -24.677  0.0000E+00  0.0000E+00  0.1000E+01  0.1000E+01
    -24.479  0.0000E+00  0.0000E+00  0.1000E+01  0.1000E+01
    -24.282  0.0000E+00  0.0000E+00  0.1000E+01  0.1000E+01
    -24.085  0.0000E+00  0.0000E+00  0.1000E+01  0.1000E+01
    -23.887  0.0000E+00  0.0000E+00  0.1000E+01  0.1000E+01
    -23.690  0.0000E+00  0.0000E+00  0.1000E+01  0.1000E+01
    -23.493  0.0000E+00  0.0000E+00  0.1000E+01  0.1000E+01
    -23.295  0.0000E+00  0.0000E+00  0.1000E+01  0.1000E+01
    -23.098  0.0000E+00  0.0000E+00  0.1000E+01  0.1000E+01
    -22.901  0.0000E+00  0.0000E+00  0.1000E+01  0.1000E+01
    -22.703  0.1750E-14  0.1750E-14  0.1000E+01  0.1000E+01
    -22.506  0.7471E-02  0.7456E-02  0.1001E+01  0.1001E+01
    -22.309  0.3244E+01  0.3243E+01  0.1642E+01  0.1641E+01
    -22.111  0.1825E+01  0.1826E+01  0.2002E+01  0.2002E+01
    -21.914  0.5533E+01  0.5533E+01  0.3093E+01  0.3093E+01
    -21.717  0.3019E+00  0.3017E+00  0.3153E+01  0.3153E+01
    -21.519  0.7255E+01  0.7255E+01  0.4585E+01  0.4585E+01
    -21.322  0.2448E+01  0.2448E+01  0.5068E+01  0.5068E+01
    -21.125  0.2421E+01  0.2420E+01  0.5545E+01  0.5545E+01
    -20.927  0.7898E+01  0.7899E+01  0.7104E+01  0.7104E+01
    -20.730  0.6299E+00  0.6294E+00  0.7228E+01  0.7228E+01
    -20.533  0.2799E+01  0.2800E+01  0.7781E+01  0.7780E+01
    -20.335  0.6682E+01  0.6682E+01  0.9099E+01  0.9099E+01
    -20.138  0.5144E+01  0.5144E+01  0.1011E+02  0.1011E+02
    -19.941  0.1674E+01  0.1674E+01  0.1044E+02  0.1044E+02
    -19.744  0.2962E+01  0.2961E+01  0.1103E+02  0.1103E+02
    -19.546  0.4067E+01  0.4066E+01  0.1183E+02  0.1183E+02
    -19.349  0.6485E+01  0.6487E+01  0.1311E+02  0.1311E+02
    -19.152  0.4966E+01  0.4965E+01  0.1409E+02  0.1409E+02
    -18.954  0.1791E+01  0.1792E+01  0.1444E+02  0.1444E+02
    -18.757  0.1598E+00  0.1596E+00  0.1448E+02  0.1448E+02
    -18.560  0.8819E+01  0.8818E+01  0.1622E+02  0.1622E+02
    -18.362  0.5163E+01  0.5164E+01  0.1723E+02  0.1723E+02
    -18.165  0.2751E+01  0.2752E+01  0.1778E+02  0.1778E+02
    -17.968  0.5751E+01  0.5750E+01  0.1891E+02  0.1891E+02
    -17.770  0.1007E+01  0.1008E+01  0.1911E+02  0.1911E+02
    -17.573  0.1031E+01  0.1030E+01  0.1931E+02  0.1931E+02
    -17.376  0.1215E+02  0.1215E+02  0.2171E+02  0.2171E+02
    -17.178  0.4305E+01  0.4304E+01  0.2256E+02  0.2256E+02
    -16.981  0.5907E+01  0.5909E+01  0.2373E+02  0.2373E+02
    -16.784  0.2530E+00  0.2533E+00  0.2378E+02  0.2378E+02
    -16.586  0.2256E+00  0.2253E+00  0.2382E+02  0.2382E+02
    -16.389  0.6303E+01  0.6302E+01  0.2507E+02  0.2507E+02
    -16.192  0.3607E+01  0.3609E+01  0.2578E+02  0.2578E+02
    -15.994  0.2701E+01  0.2700E+01  0.2631E+02  0.2631E+02
    -15.797  0.6800E+00  0.6805E+00  0.2644E+02  0.2644E+02
    -15.600  0.3488E+01  0.3487E+01  0.2713E+02  0.2713E+02
    -15.402  0.1039E+02  0.1039E+02  0.2918E+02  0.2918E+02
    -15.205  0.1886E+01  0.1887E+01  0.2956E+02  0.2956E+02
    -15.008  0.5223E-01  0.5214E-01  0.2957E+02  0.2957E+02
    -14.810  0.1298E+02  0.1298E+02  0.3213E+02  0.3213E+02
    -14.613  0.4788E+00  0.4793E+00  0.3222E+02  0.3222E+02
    -14.416  0.6296E+01  0.6296E+01  0.3346E+02  0.3346E+02
    -14.218  0.6859E+00  0.6861E+00  0.3360E+02  0.3360E+02
    -14.021  0.3862E+01  0.3862E+01  0.3436E+02  0.3436E+02
    -13.824  0.7842E+01  0.7842E+01  0.3591E+02  0.3591E+02
    -13.626  0.1584E+01  0.1585E+01  0.3622E+02  0.3622E+02
    -13.429  0.3009E+00  0.3008E+00  0.3628E+02  0.3628E+02
    -13.232  0.6918E+01  0.6917E+01  0.3765E+02  0.3765E+02
    -13.035  0.5126E+01  0.5126E+01  0.3866E+02  0.3866E+02
    -12.837  0.2895E+01  0.2895E+01  0.3923E+02  0.3923E+02
    -12.640  0.6158E+01  0.6159E+01  0.4044E+02  0.4044E+02
    -12.443  0.2228E+01  0.2228E+01  0.4088E+02  0.4088E+02
    -12.245  0.9330E+01  0.9330E+01  0.4273E+02  0.4273E+02
    -12.048  0.1956E+01  0.1957E+01  0.4311E+02  0.4311E+02
    -11.851  0.1088E+00  0.1087E+00  0.4313E+02  0.4313E+02
    -11.653  0.5130E+01  0.5130E+01  0.4414E+02  0.4414E+02
    -11.456  0.1487E+02  0.1487E+02  0.4708E+02  0.4708E+02
    -11.259  0.1610E+00  0.1612E+00  0.4711E+02  0.4711E+02
    -11.061  0.6172E+01  0.6172E+01  0.4833E+02  0.4833E+02
    -10.864  0.5866E+00  0.5869E+00  0.4844E+02  0.4844E+02
    -10.667  0.9027E+01  0.9026E+01  0.5023E+02  0.5023E+02
    -10.469  0.7473E+01  0.7471E+01  0.5170E+02  0.5170E+02
    -10.272  0.1039E+02  0.1039E+02  0.5375E+02  0.5375E+02
    -10.075  0.7017E+01  0.7015E+01  0.5514E+02  0.5514E+02
     -9.877  0.4591E+01  0.4594E+01  0.5604E+02  0.5604E+02
     -9.680  0.1423E+02  0.1423E+02  0.5885E+02  0.5885E+02
     -9.483  0.1172E+02  0.1172E+02  0.6116E+02  0.6116E+02
     -9.285  0.9597E+01  0.9597E+01  0.6306E+02  0.6306E+02
     -9.088  0.1462E+02  0.1462E+02  0.6594E+02  0.6594E+02
     -8.891  0.1750E+02  0.1750E+02  0.6940E+02  0.6940E+02
     -8.693  0.3813E+01  0.3815E+01  0.7015E+02  0.7015E+02
     -8.496  0.1148E+02  0.1148E+02  0.7241E+02  0.7241E+02
     -8.299  0.1791E+01  0.1791E+01  0.7277E+02  0.7277E+02
     -8.101  0.1649E+02  0.1649E+02  0.7602E+02  0.7602E+02
     -7.904  0.1327E+02  0.1327E+02  0.7864E+02  0.7864E+02
     -7.707  0.2964E+01  0.2966E+01  0.7922E+02  0.7922E+02
     -7.509  0.1435E+01  0.1433E+01  0.7951E+02  0.7951E+02
     -7.312  0.8715E+01  0.8716E+01  0.8123E+02  0.8122E+02
     -7.115  0.1678E+02  0.1678E+02  0.8454E+02  0.8454E+02
     -6.917  0.2970E+01  0.2970E+01  0.8512E+02  0.8512E+02
     -6.720  0.7266E+01  0.7266E+01  0.8656E+02  0.8656E+02
     -6.523  0.4239E+01  0.4239E+01  0.8739E+02  0.8739E+02
     -6.326  0.4560E+01  0.4560E+01  0.8829E+02  0.8829E+02
     -6.128  0.1238E+02  0.1238E+02  0.9073E+02  0.9073E+02
     -5.931  0.7011E+01  0.7012E+01  0.9212E+02  0.9212E+02
     -5.734  0.5078E+01  0.5076E+01  0.9312E+02  0.9312E+02
     -5.536  0.5021E+01  0.5025E+01  0.9411E+02  0.9411E+02
     -5.339  0.3263E+01  0.3262E+01  0.9475E+02  0.9475E+02
     -5.142  0.3026E+01  0.3024E+01  0.9535E+02  0.9535E+02
     -4.944  0.1164E+02  0.1164E+02  0.9765E+02  0.9765E+02
     -4.747  0.5720E+01  0.5725E+01  0.9878E+02  0.9878E+02
     -4.550  0.6785E-03  0.6736E-03  0.9878E+02  0.9878E+02
     -4.352  0.1975E+01  0.1975E+01  0.9917E+02  0.9917E+02
     -4.155  0.1401E+01  0.1401E+01  0.9944E+02  0.9944E+02
     -3.958  0.2196E+01  0.2192E+01  0.9988E+02  0.9988E+02
     -3.760  0.4563E+01  0.4567E+01  0.1008E+03  0.1008E+03
     -3.563  0.1411E-05  0.1424E-05  0.1008E+03  0.1008E+03
     -3.366  0.0000E+00  0.0000E+00  0.1008E+03  0.1008E+03
     -3.168  0.0000E+00  0.0000E+00  0.1008E+03  0.1008E+03
     -2.971  0.2450E-02  0.2436E-02  0.1008E+03  0.1008E+03
     -2.774  0.2235E+01  0.2235E+01  0.1012E+03  0.1012E+03
     -2.576  0.1494E-01  0.1500E-01  0.1012E+03  0.1012E+03
     -2.379  0.0000E+00  0.0000E+00  0.1012E+03  0.1012E+03
     -2.182  0.0000E+00  0.0000E+00  0.1012E+03  0.1012E+03
     -1.984  0.1363E-02  0.1355E-02  0.1012E+03  0.1012E+03
     -1.787  0.5995E+01  0.5994E+01  0.1024E+03  0.1024E+03
     -1.590  0.2464E+01  0.2465E+01  0.1029E+03  0.1029E+03
     -1.392  0.2219E+01  0.2222E+01  0.1033E+03  0.1033E+03
     -1.195  0.6893E+01  0.6890E+01  0.1047E+03  0.1047E+03
     -0.998  0.8604E+01  0.8623E+01  0.1064E+03  0.1064E+03
     -0.800  0.3268E+01  0.3249E+01  0.1070E+03  0.1070E+03
     -0.603  0.8291E+01  0.8292E+01  0.1087E+03  0.1087E+03
     -0.406  0.7414E+01  0.7414E+01  0.1101E+03  0.1101E+03
     -0.208  0.4618E+00  0.4610E+00  0.1102E+03  0.1102E+03
     -0.011  0.8757E+00  0.8773E+00  0.1104E+03  0.1104E+03
      0.186  0.4154E+01  0.4158E+01  0.1112E+03  0.1112E+03
      0.383  0.7897E+01  0.8217E+01  0.1128E+03  0.1128E+03
      0.581  0.7390E+01  0.7301E+01  0.1142E+03  0.1143E+03
      0.778  0.7344E+01  0.7677E+01  0.1157E+03  0.1158E+03
      0.975  0.4740E+01  0.6797E+01  0.1166E+03  0.1171E+03
      1.173  0.1134E+02  0.1196E+02  0.1189E+03  0.1195E+03
      1.370  0.1032E+02  0.1204E+02  0.1209E+03  0.1219E+03
      1.567  0.1096E+02  0.1258E+02  0.1231E+03  0.1244E+03
      1.765  0.1328E+02  0.1294E+02  0.1257E+03  0.1269E+03
      1.962  0.2095E+02  0.1802E+02  0.1298E+03  0.1305E+03
      2.159  0.9935E+01  0.7603E+01  0.1318E+03  0.1320E+03
      2.357  0.1189E+01  0.2041E+00  0.1320E+03  0.1320E+03
      2.554  0.1078E-03  0.0000E+00  0.1320E+03  0.1320E+03
      2.751  0.0000E+00  0.0000E+00  0.1320E+03  0.1320E+03
      2.949  0.0000E+00  0.0000E+00  0.1320E+03  0.1320E+03
      3.146  0.0000E+00  0.0000E+00  0.1320E+03  0.1320E+03
      3.343  0.0000E+00  0.0000E+00  0.1320E+03  0.1320E+03
      3.541  0.0000E+00  0.0000E+00  0.1320E+03  0.1320E+03
      3.738  0.0000E+00  0.0000E+00  0.1320E+03  0.1320E+03
      3.935  0.0000E+00  0.0000E+00  0.1320E+03  0.1320E+03
      4.133  0.0000E+00  0.0000E+00  0.1320E+03  0.1320E+03
      4.330  0.0000E+00  0.0000E+00  0.1320E+03  0.1320E+03
      4.527  0.0000E+00  0.0000E+00  0.1320E+03  0.1320E+03
      4.725  0.0000E+00  0.0000E+00  0.1320E+03  0.1320E+03
      4.922  0.0000E+00  0.0000E+00  0.1320E+03  0.1320E+03
