  51  51   0   0
  0.7707117E+02  0.1230000E-08  0.1230000E-08  0.3000000E-08  0.5000000E-15
  1.000000000000000E-004
  CAR 
 Li defective graphene MACE training lab 
      4.85724644    -54.27445706  301     -1.86706518      1.00000000
    -54.274  0.0000E+00  0.0000E+00  0.0000E+00  0.0000E+00
    -54.077  0.0000E+00  0.0000E+00  0.0000E+00  0.0000E+00
    -53.880  0.0000E+00  0.0000E+00  0.0000E+00  0.0000E+00
    -53.683  0.0000E+00  0.0000E+00  0.0000E+00  0.0000E+00
    -53.486  0.0000E+00  0.0000E+00  0.0000E+00  0.0000E+00
    -53.289  0.0000E+00  0.0000E+00  0.0000E+00  0.0000E+00
    -53.092  0.0000E+00  0.0000E+00  0.0000E+00  0.0000E+00
    -52.895  0.0000E+00  0.0000E+00  0.0000E+00  0.0000E+00
    -52.698  0.0000E+00  0.0000E+00  0.0000E+00  0.0000E+00
    -52.501  0.0000E+00  0.0000E+00  0.0000E+00  0.0000E+00
    -52.303  0.0000E+00  0.0000E+00  0.0000E+00  0.0000E+00
    -52.106  0.0000E+00  0.0000E+00  0.0000E+00  0.0000E+00
    -51.909  0.0000E+00  0.0000E+00  0.0000E+00  0.0000E+00
    -51.712  0.9853E-03  0.9856E-03  0.1942E-03  0.1943E-03
    -51.515  0.4964E+01  0.4964E+01  0.9787E+00  0.9787E+00
    -51.318  0.1082E+00  0.1082E+00  0.1000E+01  0.1000E+01
    -51.121  0.0000E+00  0.0000E+00  0.1000E+01  0.1000E+01
    -50.924  0.0000E+00  0.0000E+00  0.1000E+01  0.1000E+01
    -50.727  0.0000E+00  0.0000E+00  0.1000E+01  0.1000E+01
    -50.529  0.0000E+00  0.0000E+00  0.1000E+01  0.1000E+01
    -50.332  0.0000E+00  0.0000E+00  0.1000E+01  0.1000E+01
    -50.135  0.0000E+00  0.0000E+00  0.1000E+01  0.1000E+01
    -49.938  0.0000E+00  0.0000E+00  0.1000E+01  0.1000E+01
    -49.741  0.0000E+00  0.0000E+00  0.1000E+01  0.1000E+01
    -49.544  0.0000E+00  0.0000E+00  0.1000E+01  0.1000E+01
    -49.347  0.0000E+00  0.0000E+00  0.1000E+01  0.1000E+01
    -49.150  0.0000E+00  0.0000E+00  0.1000E+01  0.1000E+01
    -48.953  0.0000E+00  0.0000E+00  0.1000E+01  0.1000E+01
    -48.755  0.0000E+00  0.0000E+00  0.1000E+01  0.1000E+01
    -48.558  0.0000E+00  0.0000E+00  0.1000E+01  0.1000E+01
    -48.361  0.0000E+00  0.0000E+00  0.1000E+01  0.1000E+01
    -48.164  0.0000E+00  0.0000E+00  0.1000E+01  0.1000E+01
    -47.967  0.0000E+00  0.0000E+00  0.1000E+01  0.1000E+01
    -47.770  0.0000E+00  0.0000E+00  0.1000E+01  0.1000E+01
    -47.573  0.0000E+00  0.0000E+00  0.1000E+01  0.1000E+01
    -47.376  0.0000E+00  0.0000E+00  0.1000E+01  0.1000E+01
    -47.179  0.0000E+00  0.0000E+00  0.1000E+01  0.1000E+01
    -46.982  0.0000E+00  0.0000E+00  0.1000E+01  0.1000E+01
    -46.784  0.0000E+00  0.0000E+00  0.1000E+01  0.1000E+01
    -46.587  0.0000E+00  0.0000E+00  0.1000E+01  0.1000E+01
    -46.390  0.0000E+00  0.0000E+00  0.1000E+01  0.1000E+01
    -46.193  0.0000E+00  0.0000E+00  0.1000E+01  0.1000E+01
    -45.996  0.0000E+00  0.0000E+00  0.1000E+01  0.1000E+01
    -45.799  0.0000E+00  0.0000E+00  0.1000E+01  0.1000E+01
    -45.602  0.0000E+00  0.0000E+00  0.1000E+01  0.1000E+01
    -45.405  0.0000E+00  0.0000E+00  0.1000E+01  0.1000E+01
    -45.208  0.0000E+00  0.0000E+00  0.1000E+01  0.1000E+01
    -45.010  0.0000E+00  0.0000E+00  0.1000E+01  0.1000E+01
    -44.813  0.0000E+00  0.0000E+00  0.1000E+01  0.1000E+01
    -44.616  0.0000E+00  0.0000E+00  0.1000E+01  0.1000E+01
    -44.419  0.0000E+00  0.0000E+00  0.1000E+01  0.1000E+01
    -44.222  0.0000E+00  0.0000E+00  0.1000E+01  0.1000E+01
    -44.025  0.0000E+00  0.0000E+00  0.1000E+01  0.1000E+01
    -43.828  0.0000E+00  0.0000E+00  0.1000E+01  0.1000E+01
    -43.631  0.0000E+00  0.0000E+00  0.1000E+01  0.1000E+01
    -43.434  0.0000E+00  0.0000E+00  0.1000E+01  0.1000E+01
    -43.237  0.0000E+00  0.0000E+00  0.1000E+01  0.1000E+01
    -43.039  0.0000E+00  0.0000E+00  0.1000E+01  0.1000E+01
    -42.842  0.0000E+00  0.0000E+00  0.1000E+01  0.1000E+01
    -42.645  0.0000E+00  0.0000E+00  0.1000E+01  0.1000E+01
    -42.448  0.0000E+00  0.0000E+00  0.1000E+01  0.1000E+01
    -42.251  0.0000E+00  0.0000E+00  0.1000E+01  0.1000E+01
    -42.054  0.0000E+00  0.0000E+00  0.1000E+01  0.1000E+01
    -41.857  0.0000E+00  0.0000E+00  0.1000E+01  0.1000E+01
    -41.660  0.0000E+00  0.0000E+00  0.1000E+01  0.1000E+01
    -41.463  0.0000E+00  0.0000E+00  0.1000E+01  0.1000E+01
    -41.265  0.0000E+00  0.0000E+00  0.1000E+01  0.1000E+01
    -41.068  0.0000E+00  0.0000E+00  0.1000E+01  0.1000E+01
    -40.871  0.0000E+00  0.0000E+00  0.1000E+01  0.1000E+01
    -40.674  0.0000E+00  0.0000E+00  0.1000E+01  0.1000E+01
    -40.477  0.0000E+00  0.0000E+00  0.1000E+01  0.1000E+01
    -40.280  0.0000E+00  0.0000E+00  0.1000E+01  0.1000E+01
    -40.083  0.0000E+00  0.0000E+00  0.1000E+01  0.1000E+01
    -39.886  0.0000E+00  0.0000E+00  0.1000E+01  0.1000E+01
    -39.689  0.0000E+00  0.0000E+00  0.1000E+01  0.1000E+01
    -39.492  0.0000E+00  0.0000E+00  0.1000E+01  0.1000E+01
    -39.294  0.0000E+00  0.0000E+00  0.1000E+01  0.1000E+01
    -39.097  0.0000E+00  0.0000E+00  0.1000E+01  0.1000E+01
    -38.900  0.0000E+00  0.0000E+00  0.1000E+01  0.1000E+01
    -38.703  0.0000E+00  0.0000E+00  0.1000E+01  0.1000E+01
    -38.506  0.0000E+00  0.0000E+00  0.1000E+01  0.1000E+01
    -38.309  0.0000E+00  0.0000E+00  0.1000E+01  0.1000E+01
    -38.112  0.0000E+00  0.0000E+00  0.1000E+01  0.1000E+01
    -37.915  0.0000E+00  0.0000E+00  0.1000E+01  0.1000E+01
    -37.718  0.0000E+00  0.0000E+00  0.1000E+01  0.1000E+01
    -37.520  0.0000E+00  0.0000E+00  0.1000E+01  0.1000E+01
    -37.323  0.0000E+00  0.0000E+00  0.1000E+01  0.1000E+01
    -37.126  0.0000E+00  0.0000E+00  0.1000E+01  0.1000E+01
    -36.929  0.0000E+00  0.0000E+00  0.1000E+01  0.1000E+01
    -36.732  0.0000E+00  0.0000E+00  0.1000E+01  0.1000E+01
    -36.535  0.0000E+00  0.0000E+00  0.1000E+01  0.1000E+01
    -36.338  0.0000E+00  0.0000E+00  0.1000E+01  0.1000E+01
    -36.141  0.0000E+00  0.0000E+00  0.1000E+01  0.1000E+01
    -35.944  0.0000E+00  0.0000E+00  0.1000E+01  0.1000E+01
    -35.747  0.0000E+00  0.0000E+00  0.1000E+01  0.1000E+01
    -35.549  0.0000E+00  0.0000E+00  0.1000E+01  0.1000E+01
    -35.352  0.0000E+00  0.0000E+00  0.1000E+01  0.1000E+01
    -35.155  0.0000E+00  0.0000E+00  0.1000E+01  0.1000E+01
    -34.958  0.0000E+00  0.0000E+00  0.1000E+01  0.1000E+01
    -34.761  0.0000E+00  0.0000E+00  0.1000E+01  0.1000E+01
    -34.564  0.0000E+00  0.0000E+00  0.1000E+01  0.1000E+01
    -34.367  0.0000E+00  0.0000E+00  0.1000E+01  0.1000E+01
    -34.170  0.0000E+00  0.0000E+00  0.1000E+01  0.1000E+01
    -33.973  0.0000E+00  0.0000E+00  0.1000E+01  0.1000E+01
    -33.775  0.0000E+00  0.0000E+00  0.1000E+01  0.1000E+01
    -33.578  0.0000E+00  0.0000E+00  0.1000E+01  0.1000E+01
    -33.381  0.0000E+00  0.0000E+00  0.1000E+01  0.1000E+01
    -33.184  0.0000E+00  0.0000E+00  0.1000E+01  0.1000E+01
    -32.987  0.0000E+00  0.0000E+00  0.1000E+01  0.1000E+01
    -32.790  0.0000E+00  0.0000E+00  0.1000E+01  0.1000E+01
    -32.593  0.0000E+00  0.0000E+00  0.1000E+01  0.1000E+01
    -32.396  0.0000E+00  0.0000E+00  0.1000E+01  0.1000E+01
    -32.199  0.0000E+00  0.0000E+00  0.1000E+01  0.1000E+01
    -32.002  0.0000E+00  0.0000E+00  0.1000E+01  0.1000E+01
    -31.804  0.0000E+00  0.0000E+00  0.1000E+01  0.1000E+01
    -31.607  0.0000E+00  0.0000E+00  0.1000E+01  0.1000E+01
    -31.410  0.0000E+00  0.0000E+00  0.1000E+01  0.1000E+01
    -31.213  0.0000E+00  0.0000E+00  0.1000E+01  0.1000E+01
    -31.016  0.0000E+00  0.0000E+00  0.1000E+01  0.1000E+01
    -30.819  0.0000E+00  0.0000E+00  0.1000E+01  0.1000E+01
    -30.622  0.0000E+00  0.0000E+00  0.1000E+01  0.1000E+01
    -30.425  0.0000E+00  0.0000E+00  0.1000E+01  0.1000E+01
    -30.228  0.0000E+00  0.0000E+00  0.1000E+01  0.1000E+01
    -30.030  0.0000E+00  0.0000E+00  0.1000E+01  0.1000E+01
    -29.833  0.0000E+00  0.0000E+00  0.1000E+01  0.1000E+01
    -29.636  0.0000E+00  0.0000E+00  0.1000E+01  0.1000E+01
    -29.439  0.0000E+00  0.0000E+00  0.1000E+01  0.1000E+01
    -29.242  0.0000E+00  0.0000E+00  0.1000E+01  0.1000E+01
    -29.045  0.0000E+00  0.0000E+00  0.1000E+01  0.1000E+01
    -28.848  0.0000E+00  0.0000E+00  0.1000E+01  0.1000E+01
    -28.651  0.0000E+00  0.0000E+00  0.1000E+01  0.1000E+01
    -28.454  0.0000E+00  0.0000E+00  0.1000E+01  0.1000E+01
    -28.257  0.0000E+00  0.0000E+00  0.1000E+01  0.1000E+01
    -28.059  0.0000E+00  0.0000E+00  0.1000E+01  0.1000E+01
    -27.862  0.0000E+00  0.0000E+00  0.1000E+01  0.1000E+01
    -27.665  0.0000E+00  0.0000E+00  0.1000E+01  0.1000E+01
    -27.468  0.0000E+00  0.0000E+00  0.1000E+01  0.1000E+01
    -27.271  0.0000E+00  0.0000E+00  0.1000E+01  0.1000E+01
    -27.074  0.0000E+00  0.0000E+00  0.1000E+01  0.1000E+01
    -26.877  0.0000E+00  0.0000E+00  0.1000E+01  0.1000E+01
    -26.680  0.0000E+00  0.0000E+00  0.1000E+01  0.1000E+01
    -26.483  0.0000E+00  0.0000E+00  0.1000E+01  0.1000E+01
    -26.285  0.0000E+00  0.0000E+00  0.1000E+01  0.1000E+01
    -26.088  0.0000E+00  0.0000E+00  0.1000E+01  0.1000E+01
    -25.891  0.0000E+00  0.0000E+00  0.1000E+01  0.1000E+01
    -25.694  0.0000E+00  0.0000E+00  0.1000E+01  0.1000E+01
    -25.497  0.0000E+00  0.0000E+00  0.1000E+01  0.1000E+01
    -25.300  0.0000E+00  0.0000E+00  0.1000E+01  0.1000E+01
    -25.103  0.0000E+00  0.0000E+00  0.1000E+01  0.1000E+01
    -24.906  0.0000E+00  0.0000E+00  0.1000E+01  0.1000E+01
    -24.709  0.0000E+00  0.0000E+00  0.1000E+01  0.1000E+01
    -24.511  0.0000E+00  0.0000E+00  0.1000E+01  0.1000E+01
    -24.314  0.0000E+00  0.0000E+00  0.1000E+01  0.1000E+01
    -24.117  0.0000E+00  0.0000E+00  0.1000E+01  0.1000E+01
    -23.920  0.0000E+00  0.0000E+00  0.1000E+01  0.1000E+01
    -23.723  0.0000E+00  0.0000E+00  0.1000E+01  0.1000E+01
    -23.526  0.0000E+00  0.0000E+00  0.1000E+01  0.1000E+01
    -23.329  0.0000E+00  0.0000E+00  0.1000E+01  0.1000E+01
    -23.132  0.0000E+00  0.0000E+00  0.1000E+01  0.1000E+01
    -22.935  0.0000E+00  0.0000E+00  0.1000E+01  0.1000E+01
    -22.738  0.0000E+00  0.0000E+00  0.1000E+01  0.1000E+01
    -22.540  0.2369E-03  0.2370E-03  0.1000E+01  0.1000E+01
    -22.343  0.1817E+01  0.1817E+01  0.1358E+01  0.1358E+01
    -22.146  0.3251E+01  0.3251E+01  0.1999E+01  0.1999E+01
    -21.949  0.4814E+01  0.4814E+01  0.2948E+01  0.2948E+01
    -21.752  0.8359E+00  0.8358E+00  0.3113E+01  0.3113E+01
    -21.555  0.7266E+01  0.7266E+01  0.4545E+01  0.4545E+01
    -21.358  0.2062E+01  0.2062E+01  0.4951E+01  0.4951E+01
    -21.161  0.1596E+01  0.1597E+01  0.5266E+01  0.5266E+01
    -20.964  0.8893E+01  0.8893E+01  0.7019E+01  0.7019E+01
    -20.766  0.5209E+00  0.5208E+00  0.7122E+01  0.7122E+01
    -20.569  0.3328E+01  0.3328E+01  0.7778E+01  0.7778E+01
    -20.372  0.5403E+01  0.5404E+01  0.8843E+01  0.8843E+01
    -20.175  0.5055E+01  0.5055E+01  0.9839E+01  0.9839E+01
    -19.978  0.3072E+01  0.3072E+01  0.1044E+02  0.1044E+02
    -19.781  0.1559E+01  0.1560E+01  0.1075E+02  0.1075E+02
    -19.584  0.3705E+01  0.3705E+01  0.1148E+02  0.1148E+02
    -19.387  0.8257E+01  0.8257E+01  0.1311E+02  0.1311E+02
    -19.190  0.1795E+01  0.1795E+01  0.1346E+02  0.1346E+02
    -18.993  0.4977E+01  0.4977E+01  0.1444E+02  0.1444E+02
    -18.795  0.1011E-01  0.1012E-01  0.1445E+02  0.1445E+02
    -18.598  0.6318E+01  0.6319E+01  0.1569E+02  0.1569E+02
    -18.401  0.6784E+01  0.6784E+01  0.1703E+02  0.1703E+02
    -18.204  0.3797E+01  0.3797E+01  0.1778E+02  0.1778E+02
    -18.007  0.2723E+01  0.2723E+01  0.1831E+02  0.1831E+02
    -17.810  0.4043E+01  0.4043E+01  0.1911E+02  0.1911E+02
    -17.613  0.1324E+00  0.1324E+00  0.1914E+02  0.1914E+02
    -17.416  0.1091E+02  0.1091E+02  0.2129E+02  0.2129E+02
    -17.219  0.3404E+01  0.3404E+01  0.2196E+02  0.2196E+02
    -17.021  0.7699E+01  0.7699E+01  0.2348E+02  0.2348E+02
    -16.824  0.1527E+01  0.1527E+01  0.2378E+02  0.2378E+02
    -16.627  0.1422E-01  0.1422E-01  0.2378E+02  0.2378E+02
    -16.430  0.3420E+01  0.3420E+01  0.2445E+02  0.2445E+02
    -16.233  0.6712E+01  0.6712E+01  0.2578E+02  0.2578E+02
    -16.036  0.1043E+01  0.1043E+01  0.2598E+02  0.2598E+02
    -15.839  0.2339E+01  0.2339E+01  0.2644E+02  0.2644E+02
    -15.642  0.2859E+01  0.2859E+01  0.2701E+02  0.2701E+02
    -15.445  0.6404E+01  0.6404E+01  0.2827E+02  0.2827E+02
    -15.248  0.6521E+01  0.6520E+01  0.2956E+02  0.2956E+02
    -15.050  0.4860E-03  0.4862E-03  0.2956E+02  0.2956E+02
    -14.853  0.1013E+02  0.1013E+02  0.3155E+02  0.3155E+02
    -14.656  0.3394E+01  0.3394E+01  0.3222E+02  0.3222E+02
    -14.459  0.4004E+01  0.4004E+01  0.3301E+02  0.3301E+02
    -14.262  0.2768E+01  0.2768E+01  0.3356E+02  0.3356E+02
    -14.065  0.3394E+01  0.3394E+01  0.3423E+02  0.3423E+02
    -13.868  0.7041E+01  0.7041E+01  0.3561E+02  0.3561E+02
    -13.671  0.3085E+01  0.3085E+01  0.3622E+02  0.3622E+02
    -13.474  0.2567E-01  0.2568E-01  0.3623E+02  0.3623E+02
    -13.276  0.4111E+01  0.4111E+01  0.3704E+02  0.3704E+02
    -13.079  0.5047E+01  0.5047E+01  0.3803E+02  0.3803E+02
    -12.882  0.5494E+01  0.5494E+01  0.3911E+02  0.3911E+02
    -12.685  0.6728E+01  0.6728E+01  0.4044E+02  0.4044E+02
    -12.488  0.5106E+00  0.5107E+00  0.4054E+02  0.4054E+02
    -12.291  0.9611E+01  0.9611E+01  0.4244E+02  0.4244E+02
    -12.094  0.3424E+01  0.3424E+01  0.4311E+02  0.4311E+02
    -11.897  0.4524E-02  0.4524E-02  0.4311E+02  0.4311E+02
    -11.700  0.3941E+01  0.3941E+01  0.4389E+02  0.4389E+02
    -11.503  0.1412E+02  0.1412E+02  0.4667E+02  0.4667E+02
    -11.305  0.2226E+01  0.2226E+01  0.4711E+02  0.4711E+02
    -11.108  0.3163E+01  0.3163E+01  0.4773E+02  0.4773E+02
    -10.911  0.3602E+01  0.3602E+01  0.4844E+02  0.4844E+02
    -10.714  0.5426E+01  0.5426E+01  0.4951E+02  0.4951E+02
    -10.517  0.6577E+01  0.6577E+01  0.5081E+02  0.5081E+02
    -10.320  0.1140E+02  0.1140E+02  0.5306E+02  0.5306E+02
    -10.123  0.8593E+01  0.8593E+01  0.5475E+02  0.5475E+02
     -9.926  0.5789E+01  0.5789E+01  0.5589E+02  0.5589E+02
     -9.729  0.1311E+02  0.1311E+02  0.5848E+02  0.5848E+02
     -9.531  0.1075E+02  0.1075E+02  0.6060E+02  0.6060E+02
     -9.334  0.1020E+02  0.1020E+02  0.6261E+02  0.6261E+02
     -9.137  0.1262E+02  0.1262E+02  0.6509E+02  0.6509E+02
     -8.940  0.1798E+02  0.1798E+02  0.6864E+02  0.6864E+02
     -8.743  0.6433E+01  0.6433E+01  0.6991E+02  0.6991E+02
     -8.546  0.1014E+02  0.1014E+02  0.7190E+02  0.7190E+02
     -8.349  0.3337E+01  0.3337E+01  0.7256E+02  0.7256E+02
     -8.152  0.1516E+02  0.1516E+02  0.7555E+02  0.7555E+02
     -7.955  0.1255E+02  0.1255E+02  0.7802E+02  0.7802E+02
     -7.758  0.6071E+01  0.6071E+01  0.7922E+02  0.7922E+02
     -7.560  0.1232E+00  0.1233E+00  0.7925E+02  0.7925E+02
     -7.363  0.7795E+01  0.7796E+01  0.8078E+02  0.8078E+02
     -7.166  0.1635E+02  0.1635E+02  0.8400E+02  0.8400E+02
     -6.969  0.4870E+01  0.4869E+01  0.8496E+02  0.8496E+02
     -6.772  0.7572E+01  0.7572E+01  0.8646E+02  0.8646E+02
     -6.575  0.3433E+01  0.3433E+01  0.8713E+02  0.8713E+02
     -6.378  0.5043E+01  0.5043E+01  0.8813E+02  0.8813E+02
     -6.181  0.9886E+01  0.9887E+01  0.9008E+02  0.9008E+02
     -5.984  0.8841E+01  0.8841E+01  0.9182E+02  0.9182E+02
     -5.786  0.4711E+01  0.4711E+01  0.9275E+02  0.9275E+02
     -5.589  0.6914E+01  0.6914E+01  0.9411E+02  0.9411E+02
     -5.392  0.1914E+01  0.1914E+01  0.9449E+02  0.9449E+02
     -5.195  0.3298E+01  0.3298E+01  0.9514E+02  0.9514E+02
     -4.998  0.8649E+01  0.8649E+01  0.9684E+02  0.9684E+02
     -4.801  0.9817E+01  0.9817E+01  0.9878E+02  0.9878E+02
     -4.604  0.3002E-02  0.3001E-02  0.9878E+02  0.9878E+02
     -4.407  0.1094E+01  0.1095E+01  0.9899E+02  0.9899E+02
     -4.210  0.2176E+01  0.2176E+01  0.9942E+02  0.9942E+02
     -4.013  0.2238E+00  0.2238E+00  0.9947E+02  0.9947E+02
     -3.815  0.6650E+01  0.6650E+01  0.1008E+03  0.1008E+03
     -3.618  0.2886E-02  0.2884E-02  0.1008E+03  0.1008E+03
     -3.421  0.0000E+00  0.0000E+00  0.1008E+03  0.1008E+03
     -3.224  0.0000E+00  0.0000E+00  0.1008E+03  0.1008E+03
     -3.027  0.2169E-05  0.2171E-05  0.1008E+03  0.1008E+03
     -2.830  0.1720E+01  0.1720E+01  0.1011E+03  0.1011E+03
     -2.633  0.5353E+00  0.5352E+00  0.1012E+03  0.1012E+03
     -2.436  0.0000E+00  0.0000E+00  0.1012E+03  0.1012E+03
     -2.239  0.0000E+00  0.0000E+00  0.1012E+03  0.1012E+03
     -2.041  0.8586E-06  0.8597E-06  0.1012E+03  0.1012E+03
     -1.844  0.2543E+01  0.2543E+01  0.1017E+03  0.1017E+03
     -1.647  0.5331E+01  0.5330E+01  0.1028E+03  0.1028E+03
     -1.450  0.1869E+01  0.1869E+01  0.1031E+03  0.1031E+03
     -1.253  0.5290E+01  0.5289E+01  0.1042E+03  0.1042E+03
     -1.056  0.9327E+01  0.9326E+01  0.1060E+03  0.1060E+03
     -0.859  0.4387E+01  0.4388E+01  0.1069E+03  0.1069E+03
     -0.662  0.7769E+01  0.7769E+01  0.1084E+03  0.1084E+03
     -0.465  0.5288E+01  0.5288E+01  0.1095E+03  0.1095E+03
     -0.268  0.3859E+01  0.3859E+01  0.1102E+03  0.1102E+03
     -0.070  0.7435E-01  0.7430E-01  0.1102E+03  0.1102E+03
      0.127  0.2838E+01  0.2837E+01  0.1108E+03  0.1108E+03
      0.324  0.6820E+01  0.6742E+01  0.1121E+03  0.1121E+03
      0.521  0.6839E+01  0.6891E+01  0.1135E+03  0.1135E+03
      0.718  0.1025E+02  0.1027E+02  0.1155E+03  0.1155E+03
      0.915  0.5296E+01  0.4856E+01  0.1166E+03  0.1165E+03
      1.112  0.8170E+01  0.7856E+01  0.1182E+03  0.1180E+03
      1.309  0.1332E+02  0.1234E+02  0.1208E+03  0.1204E+03
      1.506  0.1218E+02  0.1090E+02  0.1232E+03  0.1226E+03
      1.704  0.1136E+02  0.1282E+02  0.1254E+03  0.1251E+03
      1.901  0.2213E+02  0.2188E+02  0.1298E+03  0.1294E+03
      2.098  0.9419E+01  0.1049E+02  0.1316E+03  0.1315E+03
      2.295  0.1780E+01  0.2531E+01  0.1320E+03  0.1320E+03
      2.492  0.1126E-03  0.3218E-04  0.1320E+03  0.1320E+03
      2.689  0.0000E+00  0.0000E+00  0.1320E+03  0.1320E+03
      2.886  0.0000E+00  0.0000E+00  0.1320E+03  0.1320E+03
      3.083  0.0000E+00  0.0000E+00  0.1320E+03  0.1320E+03
      3.280  0.0000E+00  0.0000E+00  0.1320E+03  0.1320E+03
      3.478  0.0000E+00  0.0000E+00  0.1320E+03  0.1320E+03
      3.675  0.0000E+00  0.0000E+00  0.1320E+03  0.1320E+03
      3.872  0.0000E+00  0.0000E+00  0.1320E+03  0.1320E+03
      4.069  0.0000E+00  0.0000E+00  0.1320E+03  0.1320E+03
      4.266  0.0000E+00  0.0000E+00  0.1320E+03  0.1320E+03
      4.463  0.0000E+00  0.0000E+00  0.1320E+03  0.1320E+03
      4.660  0.0000E+00  0.0000E+00  0.1320E+03  0.1320E+03
      4.857  0.0000E+00  0.0000E+00  0.1320E+03  0.1320E+03
