 vasp.5.4.1 24Jun15 (build Jul 23 2024 06:15:33) complex                        
  
 executed on           IFC91_ompi date 2026.05.05  12:46:44
 running on   16 total cores
 distrk:  each k-point on   16 cores,    1 groups
 distr:  one band on NCORES_PER_BAND=   4 cores,    4 groups


--------------------------------------------------------------------------------------------------------


 INCAR:
 POTCAR:    PAW_PBE C 08Apr2002                   
 POTCAR:    PAW_PBE Li_sv 10Sep2004               
 POTCAR:    PAW_PBE C 08Apr2002                   
   VRHFIN =C: s2p2                                                              
   LEXCH  = PE                                                                  
   EATOM  =   147.1560 eV,   10.8157 Ry                                         
                                                                                
   TITEL  = PAW_PBE C 08Apr2002                                                 
   LULTRA =        F    use ultrasoft PP ?                                      
   IUNSCR =        1    unscreen: 0-lin 1-nonlin 2-no                           
   RPACOR =    1.200    partial core radius                                     
   POMASS =   12.011; ZVAL   =    4.000    mass and valenz                      
   RCORE  =    1.500    outmost cutoff radius                                   
   RWIGS  =    1.630; RWIGS  =    0.863    wigner-seitz radius (au A)           
   ENMAX  =  400.000; ENMIN  =  300.000 eV                                      
   ICORE  =        2    local potential                                         
   LCOR   =        T    correct aug charges                                     
   LPAW   =        T    paw PP                                                  
   EAUG   =  644.873                                                            
   DEXC   =    0.000                                                            
   RMAX   =    1.529    core radius for proj-oper                               
   RAUG   =    1.300    factor for augmentation sphere                          
   RDEP   =    1.501    radius for radial grids                                 
   RDEPT  =    1.300    core radius for aug-charge                              
                                                                                
   Atomic configuration                                                         
    4 entries                                                                   
     n  l   j            E        occ.                                          
     1  0  0.50      -273.3789   2.0000                                         
     2  0  0.50       -13.7508   2.0000                                         
     2  1  0.50        -5.2854   2.0000                                         
     3  2  1.50        -5.4423   0.0000                                         
   Description                                                                  
     l       E           TYP  RCUT    TYP  RCUT                                 
     0    -13.7508458     23  1.200                                             
     0     -8.2022199     23  1.200                                             
     1     -5.2854383     23  1.500                                             
     1     34.0145650     23  1.500                                             
     2     -5.4423304      7  1.500                                             
  local pseudopotential read in
  partial core-charges read in
  partial kinetic energy density read in
  atomic valenz-charges read in
  non local Contribution for L=           0  read in
    real space projection operators read in
  non local Contribution for L=           0  read in
    real space projection operators read in
  non local Contribution for L=           1  read in
    real space projection operators read in
  non local Contribution for L=           1  read in
    real space projection operators read in
    PAW grid and wavefunctions read in
 
   number of l-projection  operators is LMAX  =           4
   number of lm-projection operators is LMMAX =           8
 
 POTCAR:    PAW_PBE Li_sv 10Sep2004               
   VRHFIN =Li: 1s2s2p                                                           
   LEXCH  = PE                                                                  
   EATOM  =   202.7858 eV,   14.9043 Ry                                         
                                                                                
   TITEL  = PAW_PBE Li_sv 10Sep2004                                             
   LULTRA =        F    use ultrasoft PP ?                                      
   IUNSCR =        0    unscreen: 0-lin 1-nonlin 2-no                           
   RPACOR =    0.000    partial core radius                                     
   POMASS =    7.010; ZVAL   =    3.000    mass and valenz                      
   RCORE  =    1.700    outmost cutoff radius                                   
   RWIGS  =    2.050; RWIGS  =    1.085    wigner-seitz radius (au A)           
   ENMAX  =  499.034; ENMIN  =  374.276 eV                                      
   ICORE  =        2    local potential                                         
   LCOR   =        T    correct aug charges                                     
   LPAW   =        T    paw PP                                                  
   EAUG   =  628.945                                                            
   RMAX   =    1.732    core radius for proj-oper                               
   RAUG   =    1.300    factor for augmentation sphere                          
   RDEP   =    1.728    radius for radial grids                                 
   RDEPT  =    1.329    core radius for aug-charge                              
                                                                                
   Atomic configuration                                                         
    4 entries                                                                   
     n  l   j            E        occ.                                          
     1  0  0.50       -51.8549   2.0000                                         
     2  0  0.50        -2.8742   1.0000                                         
     2  1  0.50        -1.3606   0.0000                                         
     3  2  1.50        -1.3606   0.0000                                         
   Description                                                                  
     l       E           TYP  RCUT    TYP  RCUT                                 
     0    -51.8548813     23  1.400                                             
     0     -2.8742052     23  1.700                                             
     1     -1.3605826     23  1.400                                             
     2     -1.3605826     23  1.400                                             
  local pseudopotential read in
  atomic valenz-charges read in
  non local Contribution for L=           0  read in
    real space projection operators read in
  non local Contribution for L=           0  read in
    real space projection operators read in
  non local Contribution for L=           1  read in
    real space projection operators read in
    PAW grid and wavefunctions read in
 
   number of l-projection  operators is LMAX  =           3
   number of lm-projection operators is LMMAX =           5
 
 Optimization of the real space projectors (new method)

 maximal supplied QI-value         = 25.13
 optimisation between [QCUT,QGAM] = [ 11.56, 23.12] = [ 37.43,149.72] Ry 
 Optimized for a Real-space Cutoff    1.04 Angstroem

   l    n(q)    QCUT    max X(q) W(low)/X(q) W(high)/X(q)  e(spline) 
   0      7    11.561   115.676    0.20E-03    0.60E-03    0.21E-06
   0      7    11.561    87.132    0.20E-03    0.59E-03    0.21E-06
   1      7    11.561     4.429    0.23E-03    0.35E-03    0.15E-06
   1      7    11.561     2.733    0.18E-03    0.25E-03    0.12E-06
 Optimization of the real space projectors (new method)

 maximal supplied QI-value         = 22.11
 optimisation between [QCUT,QGAM] = [ 11.50, 23.22] = [ 37.02,150.92] Ry 
 Optimized for a Real-space Cutoff    1.08 Angstroem

   l    n(q)    QCUT    max X(q) W(low)/X(q) W(high)/X(q)  e(spline) 
   0      7    11.497    10.506    0.36E-04    0.62E-04    0.14E-07
   0      7    11.497     8.367    0.65E-04    0.14E-03    0.28E-07
   1      7    11.497     8.983    0.21E-03    0.43E-03    0.90E-07
  PAW_PBE C 08Apr2002                   :
 energy of atom  1       EATOM= -147.1560
 kinetic energy error for atom=    0.0071 (will be added to EATOM!!)
  PAW_PBE Li_sv 10Sep2004               :
 energy of atom  2       EATOM= -202.7858
 kinetic energy error for atom=    0.0130 (will be added to EATOM!!)
 
 
 POSCAR: C  Li                                   
  positions in direct lattice
  velocities in cartesian coordinates
 exchange correlation table for  LEXCH =        8
   RHO(1)=    0.500       N(1)  =     2000
   RHO(2)=  100.500       N(2)  =     4000
 


--------------------------------------------------------------------------------------------------------


 ion  position               nearest neighbor table
   1  1.000  1.000  0.501-   2 1.42  42 1.42  38 1.42
   2  0.133  0.066  0.501-  25 1.42   1 1.42  11 1.42
   3  1.000  0.200  0.501-   4 1.42  42 1.42  44 1.42
   4  0.133  0.266  0.501-  25 1.42   3 1.42  15 1.42
   5  1.000  0.399  0.500-  46 1.42  44 1.42   6 1.42
   6  0.133  0.466  0.501-  15 1.42  17 1.42   5 1.42
   7  0.000  0.600  0.499-   8 1.42  48 1.42  46 1.43
   8  0.133  0.666  0.500-   7 1.42  19 1.42  17 1.42
   9  0.000  0.800  0.500-  10 1.42  38 1.42  48 1.42
  10  0.133  0.866  0.501-  19 1.42  11 1.42   9 1.42
  11  0.200  1.000  0.501-  24 1.42  10 1.42   2 1.42
  12  0.533  0.266  0.499-  23 1.42  33 1.42  35 1.42
  13  0.400  0.399  0.500-  26 1.42  14 1.42  16 1.42
  14  0.333  0.266  0.500-  23 1.42  13 1.42  25 1.42
  15  0.200  0.400  0.501-   6 1.42  16 1.42   4 1.42
  16  0.333  0.466  0.501-  15 1.42  39 1.42  13 1.42
  17  0.200  0.600  0.501-  18 1.42   6 1.42   8 1.42
  18  0.333  0.666  0.501-  39 1.42  17 1.42  29 1.42
  19  0.200  0.800  0.501-  10 1.42  20 1.42   8 1.42
  20  0.333  0.866  0.501-  29 1.42  21 1.42  19 1.42
  21  0.400  1.000  0.500-  20 1.42  24 1.42  22 1.42
  22  0.533  0.066  0.500-  33 1.42  21 1.42  31 1.42
  23  0.399  0.199  0.500-  14 1.42  12 1.42  24 1.42
  24  0.333  0.066  0.500-  11 1.42  21 1.42  23 1.42
  25  0.200  0.200  0.501-   4 1.42   2 1.42  14 1.42
  26  0.532  0.466  0.499-  13 1.42  35 1.42  37 1.43
  27  0.600  0.800  0.501-  40 1.42  30 1.42  28 1.42
  28  0.533  0.666  0.500-  37 1.42  27 1.42  39 1.42
  29  0.400  0.800  0.501-  30 1.42  20 1.42  18 1.42
  30  0.533  0.866  0.501-  29 1.42  31 1.42  27 1.42
  31  0.600  1.000  0.500-  30 1.42  32 1.42  22 1.42
  32  0.733  0.066  0.500-  41 1.42  31 1.42  43 1.42
  33  0.600  0.199  0.499-  22 1.42  34 1.42  12 1.42
  34  0.733  0.266  0.499-  43 1.42  33 1.42  45 1.42
  35  0.599  0.399  0.498-  12 1.42  26 1.42  36 1.43  51 2.27
  36  0.733  0.466  0.496-  35 1.43  45 1.43  47 1.43  51 1.88
  37  0.599  0.600  0.499-  28 1.42  50 1.42  26 1.43
  38  0.933  0.867  0.500-   1 1.42  49 1.42   9 1.42
  39  0.400  0.600  0.501-  18 1.42  16 1.42  28 1.42
  40  0.733  0.866  0.501-  27 1.42  41 1.42  49 1.42
  41  0.800  1.000  0.501-  32 1.42  40 1.42  42 1.42
  42  0.933  0.066  0.501-   3 1.42   1 1.42  41 1.42
  43  0.800  0.199  0.500-  44 1.42  34 1.42  32 1.42
  44  0.933  0.266  0.500-  43 1.42   5 1.42   3 1.42
  45  0.800  0.399  0.498-  34 1.42  46 1.42  36 1.43
  46  0.934  0.466  0.499-   5 1.42  45 1.42   7 1.43
  47  0.800  0.600  0.497-  48 1.43  50 1.43  36 1.43  51 2.11
  48  0.934  0.667  0.499-   9 1.42   7 1.42  47 1.43
  49  0.800  0.800  0.500-  40 1.42  38 1.42  50 1.42
  50  0.733  0.667  0.499-  49 1.42  37 1.42  47 1.43
  51  0.727  0.499  0.557-  36 1.88  47 2.11  35 2.27
 

IMPORTANT INFORMATION: All symmetrisations will be switched off!
NOSYMM: (Re-)initialisation of all symmetry stuff for point group C_1.

 
 
 KPOINTS: Automatic mesh                          

Automatic generation of k-mesh.
Space group operators:
 irot       det(A)        alpha          n_x          n_y          n_z        tau_x        tau_y        tau_z
    1     1.000000     0.000001     1.000000     0.000000     0.000000     0.000000     0.000000     0.000000
 
 Subroutine IBZKPT returns following result:
 ===========================================
 
 Found      5 irreducible k-points:
 
 Following reciprocal coordinates:
            Coordinates               Weight
  0.000000  0.000000  0.000000      1.000000
  0.333333 -0.000000  0.000000      2.000000
  0.000000  0.333333  0.000000      2.000000
  0.333333  0.333333  0.000000      2.000000
 -0.333333  0.333333  0.000000      2.000000
 
 Following cartesian coordinates:
            Coordinates               Weight
  0.000000  0.000000  0.000000      1.000000
  0.027100  0.015646  0.000000      2.000000
  0.000000  0.031293  0.000000      2.000000
  0.027100  0.046939  0.000000      2.000000
 -0.027100  0.015646  0.000000      2.000000
 


--------------------------------------------------------------------------------------------------------




 Dimension of arrays:
   k-points           NKPTS =      5   k-points in BZ     NKDIM =      5   number of bands    NBANDS=    132
   number of dos      NEDOS =    301   number of ions     NIONS =     51
   non local maximal  LDIM  =      4   non local SUM 2l+1 LMDIM =      8
   total plane-waves  NPLWV = ******
   max r-space proj   IRMAX =   2789   max aug-charges    IRDMAX=  51672
   dimension x,y,z NGX =    96 NGY =   96 NGZ =  224
   dimension x,y,z NGXF=   192 NGYF=  192 NGZF=  448
   support grid    NGXF=   384 NGYF=  384 NGZF=  896
   ions per type =              50   1
 NGX,Y,Z   is equivalent  to a cutoff of  12.98, 12.98, 12.41 a.u.
 NGXF,Y,Z  is equivalent  to a cutoff of  25.95, 25.95, 24.83 a.u.


 I would recommend the setting:
   dimension x,y,z NGX =    91 NGY =   91 NGZ =  223
 SYSTEM =  Li defective graphene MACE training lab 
 POSCAR =  C  Li                                   

 Startparameter for this run:
   NWRITE =      2    write-flag & timer
   PREC   = accura    normal or accurate (medium, high low for compatibility)
   ISTART =      0    job   : 0-new  1-cont  2-samecut
   ICHARG =      2    charge: 1-file 2-atom 10-const
   ISPIN  =      2    spin polarized calculation?
   LNONCOLLINEAR =      F non collinear calculations
   LSORBIT =      F    spin-orbit coupling
   INIWAV =      1    electr: 0-lowe 1-rand  2-diag
   LASPH  =      T    aspherical Exc in radial PAW
   METAGGA=      F    non-selfconsistent MetaGGA calc.

 Electronic Relaxation 1
   ENCUT  =  520.0 eV  38.22 Ry    6.18 a.u.  22.87 22.87 55.78*2*pi/ulx,y,z
   ENINI  =  520.0     initial cutoff
   ENAUG  =  644.9 eV  augmentation charge cutoff
   NELM   =    120;   NELMIN=  2; NELMDL= -5     # of ELM steps 
   EDIFF  = 0.1E-05   stopping-criterion for ELM
   LREAL  =      T    real-space projection
   NLSPLINE    = F    spline interpolate recip. space projectors
   LCOMPAT=      F    compatible to vasp.4.4
   GGA_COMPAT  = T    GGA compatible to vasp.4.4-vasp.4.6
   LMAXPAW     = -100 max onsite density
   LMAXMIX     =    2 max onsite mixed and CHGCAR
   VOSKOWN=      0    Vosko Wilk Nusair interpolation
   ROPT   =   -0.00025  -0.00025
 Ionic relaxation
   EDIFFG = 0.1E-04   stopping-criterion for IOM
   NSW    =      0    number of steps for IOM
   NBLOCK =      1;   KBLOCK =      1    inner block; outer block 
   IBRION =     -1    ionic relax: 0-MD 1-quasi-New 2-CG
   NFREE  =      0    steps in history (QN), initial steepest desc. (CG)
   ISIF   =      2    stress and relaxation
   IWAVPR =     10    prediction:  0-non 1-charg 2-wave 3-comb
   ISYM   =      0    0-nonsym 1-usesym 2-fastsym
   LCORR  =      T    Harris-Foulkes like correction to forces

   POTIM  = 0.5000    time-step for ionic-motion
   TEIN   =    0.0    initial temperature
   TEBEG  =    0.0;   TEEND  =   0.0 temperature during run
   SMASS  =  -3.00    Nose mass-parameter (am)
   estimated Nose-frequenzy (Omega)   =  0.10E-29 period in steps =****** mass=  -0.346E-26a.u.
   SCALEE = 1.0000    scale energy and forces
   NPACO  =    256;   APACO  = 16.0  distance and # of slots for P.C.
   PSTRESS=    0.0 pullay stress

  Mass of Ions in am
   POMASS =  12.01  7.01
  Ionic Valenz
   ZVAL   =   4.00  3.00
  Atomic Wigner-Seitz radii
   RWIGS  =  -1.00 -1.00
  virtual crystal weights 
   VCA    =   1.00  1.00
   NELECT =     203.0000    total number of electrons
   NUPDOWN=      -1.0000    fix difference up-down

 DOS related values:
   EMIN   =  10.00;   EMAX   =-10.00  energy-range for DOS
   EFERMI =   0.00
   ISMEAR =     0;   SIGMA  =   0.05  broadening in eV -4-tet -1-fermi 0-gaus

 Electronic relaxation 2 (details)
   IALGO  =     38    algorithm
   LDIAG  =      T    sub-space diagonalisation (order eigenvalues)
   LSUBROT=      F    optimize rotation matrix (better conditioning)
   TURBO    =      0    0=normal 1=particle mesh
   IRESTART =      0    0=no restart 2=restart with 2 vectors
   NREBOOT  =      0    no. of reboots
   NMIN     =      0    reboot dimension
   EREF     =   0.00    reference energy to select bands
   IMIX   =      4    mixing-type and parameters
     AMIX     =   0.40;   BMIX     =  1.00
     AMIX_MAG =   1.60;   BMIX_MAG =  1.00
     AMIN     =   0.10
     WC   =   100.;   INIMIX=   1;  MIXPRE=   1;  MAXMIX= -45

 Intra band minimization:
   WEIMIN = 0.0000     energy-eigenvalue tresh-hold
   EBREAK =  0.19E-08  absolut break condition
   DEPER  =   0.30     relativ break condition  

   TIME   =   0.40     timestep for ELM

  volume/ion in A,a.u.               =      77.07       520.10
  Fermi-wavevector in a.u.,A,eV,Ry     =   0.609658  1.152086  5.057049  0.371683
  Thomas-Fermi vector in A             =   1.664934
 
 Write flags
   LWAVE  =      F    write WAVECAR
   LCHARG =      F    write CHGCAR
   LVTOT  =      F    write LOCPOT, total local potential
   LVHAR  =      F    write LOCPOT, Hartree potential only
   LELF   =      F    write electronic localiz. function (ELF)
   LORBIT =      0    0 simple, 1 ext, 2 COOP (PROOUT)


 Dipole corrections
   LMONO  =      F    monopole corrections only (constant potential shift)
   LDIPOL =      F    correct potential (dipole corrections)
   IDIPOL =      0    1-x, 2-y, 3-z, 4-all directions 
   EPSILON=  1.0000000 bulk dielectric constant

 Exchange correlation treatment:
   GGA     =    --    GGA type
   LEXCH   =     8    internal setting for exchange type
   VOSKOWN=      0    Vosko Wilk Nusair interpolation
   LHFCALC =     F    Hartree Fock is set to
   LHFONE  =     F    Hartree Fock one center treatment
   AEXX    =    0.0000 exact exchange contribution

 Linear response parameters
   LEPSILON=     F    determine dielectric tensor
   LRPA    =     F    only Hartree local field effects (RPA)
   LNABLA  =     F    use nabla operator in PAW spheres
   LVEL    =     F    velocity operator in full k-point grid
   LINTERFAST=   F  fast interpolation
   KINTER  =     0    interpolate to denser k-point grid
   CSHIFT  =0.1000    complex shift for real part using Kramers Kronig
   OMEGAMAX=  -1.0    maximum frequency
   DEG_THRESHOLD= 0.2000000E-02 threshold for treating states as degnerate
   RTIME   =    0.100 relaxation time in fs

 Orbital magnetization related:
   ORBITALMAG=     F  switch on orbital magnetization
   LCHIMAG   =     F  perturbation theory with respect to B field
   DQ        =  0.001000  dq finite difference perturbation B field



--------------------------------------------------------------------------------------------------------


 Static calculation
 charge density and potential will be updated during run
 spin polarized calculation
 Variant of blocked Davidson
 Davidson routine will perform the subspace rotation
 perform sub-space diagonalisation
    after iterative eigenvector-optimisation
 modified Broyden-mixing scheme, WC =      100.0
 initial mixing is a Kerker type mixing with AMIX =  0.4000 and BMIX =      1.0000
 Hartree-type preconditioning will be used
 using additional bands           30
 real space projection scheme for non local part
 use partial core corrections
 calculate Harris-corrections to forces 
   (improved forces if not selfconsistent)
 use gradient corrections 
 use of overlap-Matrix (Vanderbilt PP)
 Gauss-broadening in eV      SIGMA  =   0.05


--------------------------------------------------------------------------------------------------------


  energy-cutoff  :      520.00
  volume of cell :     3930.63
      direct lattice vectors                 reciprocal lattice vectors
    12.300000000  0.000000000  0.000000000     0.081300813  0.046939046  0.000000000
    -6.150000000 10.652112467  0.000000000     0.000000000  0.093878093  0.000000000
     0.000000000  0.000000000 30.000000000     0.000000000  0.000000000  0.033333333

  length of vectors
    12.300000000 12.300000000 30.000000000     0.093878093  0.093878093  0.033333333


 
 k-points in units of 2pi/SCALE and weight: Automatic mesh                          
   0.00000000  0.00000000  0.00000000       0.111
   0.02710027  0.01564635  0.00000000       0.222
   0.00000000  0.03129270  0.00000000       0.222
   0.02710027  0.04693905  0.00000000       0.222
  -0.02710027  0.01564635  0.00000000       0.222
 
 k-points in reciprocal lattice and weights: Automatic mesh                          
   0.00000000  0.00000000  0.00000000       0.111
   0.33333333 -0.00000000  0.00000000       0.222
   0.00000000  0.33333333  0.00000000       0.222
   0.33333333  0.33333333  0.00000000       0.222
  -0.33333333  0.33333333  0.00000000       0.222
 
 position of ions in fractional coordinates (direct lattice) 
   0.99988345  0.99976655  0.50070365
   0.13313835  0.06628113  0.50076414
   0.99986462  0.19951048  0.50066204
   0.13305819  0.26611600  0.50076947
   0.99990120  0.39942212  0.49998752
   0.13338012  0.46632027  0.50055545
   0.00048883  0.59983601  0.49930029
   0.13338223  0.66639362  0.50027805
   0.00013167  0.80005692  0.50007430
   0.13342895  0.86639370  0.50062777
   0.19988452  0.99968809  0.50070413
   0.53269490  0.26567077  0.49881187
   0.39952012  0.39942278  0.49998743
   0.33300586  0.26609951  0.50014356
   0.19981037  0.39962309  0.50075225
   0.33294004  0.46632029  0.50055536
   0.19997977  0.59953607  0.50060301
   0.33310144  0.66620258  0.50078017
   0.19991176  0.79974914  0.50056953
   0.33323385  0.86627322  0.50060775
   0.39973654  0.99953012  0.50025629
   0.53301150  0.06602273  0.49980551
   0.39946049  0.19938192  0.49980423
   0.33298763  0.06605684  0.50031679
   0.19964609  0.19951040  0.50066207
   0.53246359  0.46605661  0.49899750
   0.59983768  0.79974909  0.50056930
   0.53301162  0.66639344  0.50027784
   0.39984966  0.79969901  0.50068206
   0.53303957  0.86627318  0.50060762
   0.59979394  0.99953014  0.50025619
   0.73306943  0.06605683  0.50031666
   0.59959923  0.19919799  0.49887261
   0.73297608  0.26567075  0.49881183
   0.59905631  0.39903661  0.49790284
   0.73285164  0.46570284  0.49584713
   0.59934769  0.59983616  0.49930013
   0.93325060  0.86650095  0.50020757
   0.39955622  0.59953654  0.50060288
   0.73296500  0.86639367  0.50062756
   0.79980395  0.99968811  0.50070396
   0.93314298  0.06628108  0.50076405
   0.79992187  0.19938193  0.49980417
   0.93309373  0.26609919  0.50014357
   0.79998080  0.39903666  0.49790285
   0.93359301  0.46605671  0.49899760
   0.80010598  0.60021136  0.49686686
   0.93384667  0.66677439  0.49886028
   0.79992566  0.80005696  0.50007418
   0.73292796  0.66677434  0.49886021
   0.72736086  0.49937388  0.55656547
 
 position of ions in cartesian coordinates  (Angst):
   6.15000211 10.64962578 15.02110949
   1.22997271  0.70603403 15.02292424
  11.07134542  2.12520807 15.01986130
   0.00000239  2.83469752 15.02308409
   9.84233872  4.25468934 14.99962560
  -1.22729425  4.96729599 15.01666349
  -3.68297885  6.38952063 14.97900858
  -2.45771932  7.09849979 15.00834149
  -4.91873054  8.52229634 15.00222896
  -3.68714513  9.22892316 15.01883306
  -3.68950212 10.64879000 15.02112389
   4.91827198  2.82995495 14.96435597
   2.45764743  4.25469637 14.99962277
   2.45946015  2.83452188 15.00430679
  -0.00001441  4.25683011 15.02256735
   1.22729275  4.96729621 15.01666077
  -1.22739567  6.38632568 15.01809035
   0.00000180  7.09646482 15.02340501
  -2.45954255  8.51901778 15.01708584
  -1.22880397  9.22763977 15.01823262
  -1.23035082 10.64710721 15.00768869
   6.15000161  0.70328155 14.99416520
   3.68716528  2.12383862 14.99412681
   3.68949833  0.70364485 15.00950376
   1.22865795  2.12520724 15.01986198
   3.68305398  4.96448738 14.96992501
   2.45954655  8.51901725 15.01707911
   2.45772319  7.09849792 15.00833506
   0.00000192  8.51848376 15.02046185
   1.22880664  9.22763937 15.01822858
   1.23035510 10.64710749 15.00768564
   8.61050455  0.70364473 15.00949968
   6.15000287  2.12187944 14.96617823
   7.38173073  2.82995467 14.96435504
   4.91431740  4.25058289 14.93708534
   6.15000268  4.96071899 14.87541392
   3.68298417  6.38952219 14.97900395
   6.15000151  9.23006557 15.00622702
   1.22739183  6.38633065 15.01808639
   3.68714850  9.22892279 15.01882683
   3.68950666 10.64879020 15.02111874
  11.07003004  0.70603350 15.02292160
   8.61284012  2.12383879 14.99412524
   9.84054283  2.83451845 15.00430711
   7.38568835  4.25058342 14.93708542
   8.61694531  4.96448846 14.96992788
   6.15000373  6.39351893 14.90600589
   7.38565149  7.10255578 14.96580842
   4.91873534  8.52229670 15.00222554
   4.91435171  7.10255524 14.96580626
   5.87538923  5.31938676 16.69696404
 


--------------------------------------------------------------------------------------------------------


 k-point  1 :   0.0000 0.0000 0.0000  plane waves:  105831
 k-point  2 :   0.3333-0.0000 0.0000  plane waves:  105834
 k-point  3 :   0.0000 0.3333 0.0000  plane waves:  105834
 k-point  4 :   0.3333 0.3333 0.0000  plane waves:  105861
 k-point  5 :  -0.3333 0.3333 0.0000  plane waves:  105834

 maximum and minimum number of plane-waves per node :     26501    26424

 maximum number of plane-waves:    105861
 maximum index in each direction: 
   IXMAX=   23   IYMAX=   22   IZMAX=   55
   IXMIN=  -23   IYMIN=  -23   IZMIN=  -55

 NGX is ok and might be reduce to  94
 NGY is ok and might be reduce to  92
 NGZ is ok and might be reduce to 222

 real space projection operators:
  total allocation   :       7708.69 KBytes
  max/ min on nodes  :       1929.26       1924.55


 parallel 3D FFT for wavefunctions:
    minimum data exchange during FFTs selected (reduces bandwidth)
 parallel 3D FFT for charge:
    minimum data exchange during FFTs selected (reduces bandwidth)


 total amount of memory used by VASP on root node   465216. kBytes
========================================================================

   base      :      30000. kBytes
   nonlr-proj:       4754. kBytes
   fftplans  :     165810. kBytes
   grid      :     124231. kBytes
   one-center:         79. kBytes
   wavefun   :     140342. kBytes
 
     INWAV:  cpu time    0.0000: real time    0.0002
 Broyden mixing: mesh for mixing (old mesh)
   NGX = 45   NGY = 45   NGZ =111
  (NGX  =192   NGY  =192   NGZ  =448)
  gives a total of 224775 points

 initial charge density was supplied:
 charge density of overlapping atoms calculated
 number of electron     203.0000000 magnetization       6.0000000
 keeping initial charge density in first step


--------------------------------------------------------------------------------------------------------


 Maximum index for non-local projection operator          654
 Maximum index for augmentation-charges         3155 (set IRDMAX)


--------------------------------------------------------------------------------------------------------


 First call to EWALD:  gamma=   0.112
 Maximum number of real-space cells 4x 4x 2
 Maximum number of reciprocal cells 2x 2x 5

 FEWALD executed in parallel
    FEWALD:  cpu time    0.0020: real time    0.0020


----------------------------------------- Iteration    1(   1)  ---------------------------------------


    POTLOK:  cpu time    1.5230: real time    1.5231
    SETDIJ:  cpu time    1.3831: real time    1.3841
     EDDAV:  cpu time   45.5926: real time   45.6404
       DOS:  cpu time    0.0012: real time    0.0012
    --------------------------------------------
      LOOP:  cpu time   48.5009: real time   48.5525

 eigenvalue-minimisations  :  3264
 total energy-change (2. order) : 0.1937391E+04  (-0.6809072E+04)
 number of electron     203.0000000 magnetization       6.0000000
 augmentation part      203.0000000 magnetization       6.0000000

 Free energy of the ion-electron system (eV)
  ---------------------------------------------------
  alpha Z        PSCENC =        53.42782116
  Ewald energy   TEWEN  =     56958.59009103
  -Hartree energ DENC   =    -62192.60106285
  -exchange      EXHF   =         0.00000000
  -V(xc)+E(xc)   XCENC  =       672.89667068
  PAW double counting   =      5505.55773403    -5549.36347127
  entropy T*S    EENTRO =        -0.03364547
  eigenvalues    EBANDS =     -1071.30079423
  atomic energy  EATOM  =      7560.21751256
  Solvation  Ediel_sol  =         0.00000000
  ---------------------------------------------------
  free energy    TOTEN  =      1937.39085563 eV

  energy without entropy =     1937.42450110  energy(sigma->0) =     1937.40767836


--------------------------------------------------------------------------------------------------------




----------------------------------------- Iteration    1(   2)  ---------------------------------------


     EDDAV:  cpu time   54.6168: real time   54.6333
       DOS:  cpu time    0.0005: real time    0.0005
    --------------------------------------------
      LOOP:  cpu time   54.6181: real time   54.6389

 eigenvalue-minimisations  :  4076
 total energy-change (2. order) :-0.1897872E+04  (-0.1757111E+04)
 number of electron     203.0000000 magnetization       6.0000000
 augmentation part      203.0000000 magnetization       6.0000000

 Free energy of the ion-electron system (eV)
  ---------------------------------------------------
  alpha Z        PSCENC =        53.42782116
  Ewald energy   TEWEN  =     56958.59009103
  -Hartree energ DENC   =    -62192.60106285
  -exchange      EXHF   =         0.00000000
  -V(xc)+E(xc)   XCENC  =       672.89667068
  PAW double counting   =      5505.55773403    -5549.36347127
  entropy T*S    EENTRO =        -0.00517116
  eigenvalues    EBANDS =     -2969.20094566
  atomic energy  EATOM  =      7560.21751256
  Solvation  Ediel_sol  =         0.00000000
  ---------------------------------------------------
  free energy    TOTEN  =        39.51917851 eV

  energy without entropy =       39.52434967  energy(sigma->0) =       39.52176409


--------------------------------------------------------------------------------------------------------




----------------------------------------- Iteration    1(   3)  ---------------------------------------


     EDDAV:  cpu time   48.0195: real time   48.0361
       DOS:  cpu time    0.0005: real time    0.0005
    --------------------------------------------
      LOOP:  cpu time   48.0205: real time   48.0400

 eigenvalue-minimisations  :  3456
 total energy-change (2. order) :-0.5074834E+03  (-0.5009556E+03)
 number of electron     203.0000000 magnetization       6.0000000
 augmentation part      203.0000000 magnetization       6.0000000

 Free energy of the ion-electron system (eV)
  ---------------------------------------------------
  alpha Z        PSCENC =        53.42782116
  Ewald energy   TEWEN  =     56958.59009103
  -Hartree energ DENC   =    -62192.60106285
  -exchange      EXHF   =         0.00000000
  -V(xc)+E(xc)   XCENC  =       672.89667068
  PAW double counting   =      5505.55773403    -5549.36347127
  entropy T*S    EENTRO =        -0.01057301
  eigenvalues    EBANDS =     -3476.67889952
  atomic energy  EATOM  =      7560.21751256
  Solvation  Ediel_sol  =         0.00000000
  ---------------------------------------------------
  free energy    TOTEN  =      -467.96417721 eV

  energy without entropy =     -467.95360420  energy(sigma->0) =     -467.95889070


--------------------------------------------------------------------------------------------------------




----------------------------------------- Iteration    1(   4)  ---------------------------------------


     EDDAV:  cpu time   47.4030: real time   47.4185
       DOS:  cpu time    0.0005: real time    0.0005
    --------------------------------------------
      LOOP:  cpu time   47.4040: real time   47.4223

 eigenvalue-minimisations  :  3412
 total energy-change (2. order) :-0.2712426E+02  (-0.2678264E+02)
 number of electron     203.0000000 magnetization       6.0000000
 augmentation part      203.0000000 magnetization       6.0000000

 Free energy of the ion-electron system (eV)
  ---------------------------------------------------
  alpha Z        PSCENC =        53.42782116
  Ewald energy   TEWEN  =     56958.59009103
  -Hartree energ DENC   =    -62192.60106285
  -exchange      EXHF   =         0.00000000
  -V(xc)+E(xc)   XCENC  =       672.89667068
  PAW double counting   =      5505.55773403    -5549.36347127
  entropy T*S    EENTRO =        -0.01206852
  eigenvalues    EBANDS =     -3503.80166880
  atomic energy  EATOM  =      7560.21751256
  Solvation  Ediel_sol  =         0.00000000
  ---------------------------------------------------
  free energy    TOTEN  =      -495.08844199 eV

  energy without entropy =     -495.07637348  energy(sigma->0) =     -495.08240774


--------------------------------------------------------------------------------------------------------




----------------------------------------- Iteration    1(   5)  ---------------------------------------


     EDDAV:  cpu time   54.3761: real time   54.3915
       DOS:  cpu time    0.0005: real time    0.0005
    CHARGE:  cpu time    4.1554: real time    4.1564
    MIXING:  cpu time    0.0321: real time    0.0321
    --------------------------------------------
      LOOP:  cpu time   58.5646: real time   58.5834

 eigenvalue-minimisations  :  4048
 total energy-change (2. order) :-0.9749700E+00  (-0.9670371E+00)
 number of electron     203.0000000 magnetization       5.6339248
 augmentation part        6.4893582 magnetization       5.0782339

 Broyden mixing:
  rms(total) = 0.33383E+01    rms(broyden)= 0.33378E+01
  rms(prec ) = 0.34397E+01
  weight for this iteration     100.00

 Free energy of the ion-electron system (eV)
  ---------------------------------------------------
  alpha Z        PSCENC =        53.42782116
  Ewald energy   TEWEN  =     56958.59009103
  -Hartree energ DENC   =    -62192.60106285
  -exchange      EXHF   =         0.00000000
  -V(xc)+E(xc)   XCENC  =       672.89667068
  PAW double counting   =      5505.55773403    -5549.36347127
  entropy T*S    EENTRO =        -0.01244881
  eigenvalues    EBANDS =     -3504.77625854
  atomic energy  EATOM  =      7560.21751256
  Solvation  Ediel_sol  =         0.00000000
  ---------------------------------------------------
  free energy    TOTEN  =      -496.06341202 eV

  energy without entropy =     -496.05096321  energy(sigma->0) =     -496.05718762


--------------------------------------------------------------------------------------------------------




----------------------------------------- Iteration    1(   6)  ---------------------------------------


    POTLOK:  cpu time    1.2412: real time    1.2418
    SETDIJ:  cpu time    1.3941: real time    1.3943
     EDDAV:  cpu time   42.6870: real time   42.7009
       DOS:  cpu time    0.0006: real time    0.0006
    CHARGE:  cpu time    4.1550: real time    4.1562
    MIXING:  cpu time    0.0546: real time    0.0546
    --------------------------------------------
      LOOP:  cpu time   49.5331: real time   49.5522

 eigenvalue-minimisations  :  2988
 total energy-change (2. order) : 0.2517082E+02  (-0.2441096E+01)
 number of electron     203.0000000 magnetization       5.1299772
 augmentation part        6.2341508 magnetization       4.5608161

 Broyden mixing:
  rms(total) = 0.19352E+01    rms(broyden)= 0.19352E+01
  rms(prec ) = 0.19883E+01
  weight for this iteration     100.00

 eigenvalues of (default mixing * dielectric matrix)
  average eigenvalue GAMMA=   0.9887
  0.9887

 Free energy of the ion-electron system (eV)
  ---------------------------------------------------
  alpha Z        PSCENC =        53.42782116
  Ewald energy   TEWEN  =     56958.59009103
  -Hartree energ DENC   =    -62498.09428582
  -exchange      EXHF   =         0.00000000
  -V(xc)+E(xc)   XCENC  =       685.94846614
  PAW double counting   =     10123.78898767   -10171.61386869
  entropy T*S    EENTRO =        -0.01431527
  eigenvalues    EBANDS =     -3183.14300197
  atomic energy  EATOM  =      7560.21751256
  Solvation  Ediel_sol  =         0.00000000
  ---------------------------------------------------
  free energy    TOTEN  =      -470.89259321 eV

  energy without entropy =     -470.87827793  energy(sigma->0) =     -470.88543557


--------------------------------------------------------------------------------------------------------




----------------------------------------- Iteration    1(   7)  ---------------------------------------


    POTLOK:  cpu time    1.2867: real time    1.2868
    SETDIJ:  cpu time    1.4054: real time    1.4059
     EDDAV:  cpu time   42.9796: real time   42.9903
       DOS:  cpu time    0.0005: real time    0.0005
    CHARGE:  cpu time    4.1664: real time    4.1672
    MIXING:  cpu time    0.0520: real time    0.0520
    --------------------------------------------
      LOOP:  cpu time   49.8911: real time   49.9058

 eigenvalue-minimisations  :  3016
 total energy-change (2. order) : 0.1266459E+02  (-0.1599105E+01)
 number of electron     203.0000000 magnetization       4.6732475
 augmentation part        6.0245800 magnetization       4.1273321

 Broyden mixing:
  rms(total) = 0.10042E+01    rms(broyden)= 0.10041E+01
  rms(prec ) = 0.10207E+01
  weight for this iteration     100.00

 eigenvalues of (default mixing * dielectric matrix)
  average eigenvalue GAMMA=   1.4400
  0.6694  2.2105

 Free energy of the ion-electron system (eV)
  ---------------------------------------------------
  alpha Z        PSCENC =        53.42782116
  Ewald energy   TEWEN  =     56958.59009103
  -Hartree energ DENC   =    -62779.97791369
  -exchange      EXHF   =         0.00000000
  -V(xc)+E(xc)   XCENC  =       700.53350723
  PAW double counting   =     15902.14120494   -15952.47752268
  entropy T*S    EENTRO =        -0.01601539
  eigenvalues    EBANDS =     -2900.66669232
  atomic energy  EATOM  =      7560.21751256
  Solvation  Ediel_sol  =         0.00000000
  ---------------------------------------------------
  free energy    TOTEN  =      -458.22800717 eV

  energy without entropy =     -458.21199178  energy(sigma->0) =     -458.21999947


--------------------------------------------------------------------------------------------------------




----------------------------------------- Iteration    1(   8)  ---------------------------------------


    POTLOK:  cpu time    1.2812: real time    1.2814
    SETDIJ:  cpu time    1.3951: real time    1.3965
     EDDAV:  cpu time   43.0333: real time   43.0444
       DOS:  cpu time    0.0006: real time    0.0006
    CHARGE:  cpu time    4.1624: real time    4.1634
    MIXING:  cpu time    0.0600: real time    0.0600
    --------------------------------------------
      LOOP:  cpu time   49.9333: real time   49.9492

 eigenvalue-minimisations  :  3020
 total energy-change (2. order) : 0.5573368E+00  (-0.4675120E+00)
 number of electron     203.0000000 magnetization       4.1492644
 augmentation part        5.8858618 magnetization       3.6095712

 Broyden mixing:
  rms(total) = 0.37928E+00    rms(broyden)= 0.37921E+00
  rms(prec ) = 0.39120E+00
  weight for this iteration     100.00

 eigenvalues of (default mixing * dielectric matrix)
  average eigenvalue GAMMA=   1.4499
  2.3275  1.3630  0.6593

 Free energy of the ion-electron system (eV)
  ---------------------------------------------------
  alpha Z        PSCENC =        53.42782116
  Ewald energy   TEWEN  =     56958.59009103
  -Hartree energ DENC   =    -62949.05573791
  -exchange      EXHF   =         0.00000000
  -V(xc)+E(xc)   XCENC  =       706.25937367
  PAW double counting   =     19997.98308823   -20049.21467542
  entropy T*S    EENTRO =        -0.01468045
  eigenvalues    EBANDS =     -2735.86346323
  atomic energy  EATOM  =      7560.21751256
  Solvation  Ediel_sol  =         0.00000000
  ---------------------------------------------------
  free energy    TOTEN  =      -457.67067037 eV

  energy without entropy =     -457.65598992  energy(sigma->0) =     -457.66333014


--------------------------------------------------------------------------------------------------------




----------------------------------------- Iteration    1(   9)  ---------------------------------------


    POTLOK:  cpu time    1.3241: real time    1.3244
    SETDIJ:  cpu time    1.4015: real time    1.4029
     EDDAV:  cpu time   47.6805: real time   47.6945
       DOS:  cpu time    0.0005: real time    0.0005
    CHARGE:  cpu time    4.0740: real time    4.0747
    MIXING:  cpu time    0.0273: real time    0.0273
    --------------------------------------------
      LOOP:  cpu time   54.5084: real time   54.5270

 eigenvalue-minimisations  :  3444
 total energy-change (2. order) :-0.1199235E+01  (-0.6056687E-01)
 number of electron     203.0000000 magnetization       3.8798466
 augmentation part        5.8598088 magnetization       3.3463439

 Broyden mixing:
  rms(total) = 0.14067E+00    rms(broyden)= 0.14059E+00
  rms(prec ) = 0.15419E+00
  weight for this iteration     100.00

 eigenvalues of (default mixing * dielectric matrix)
  average eigenvalue GAMMA=   1.4392
  2.2518  2.1312  0.7280  0.6457

 Free energy of the ion-electron system (eV)
  ---------------------------------------------------
  alpha Z        PSCENC =        53.42782116
  Ewald energy   TEWEN  =     56958.59009103
  -Hartree energ DENC   =    -63005.23363139
  -exchange      EXHF   =         0.00000000
  -V(xc)+E(xc)   XCENC  =       705.20466950
  PAW double counting   =     21274.74053155   -21325.18806577
  entropy T*S    EENTRO =        -0.01361325
  eigenvalues    EBANDS =     -2680.61522067
  atomic energy  EATOM  =      7560.21751256
  Solvation  Ediel_sol  =         0.00000000
  ---------------------------------------------------
  free energy    TOTEN  =      -458.86990529 eV

  energy without entropy =     -458.85629204  energy(sigma->0) =     -458.86309866


--------------------------------------------------------------------------------------------------------




----------------------------------------- Iteration    1(  10)  ---------------------------------------


    POTLOK:  cpu time    1.3231: real time    1.3242
    SETDIJ:  cpu time    1.3937: real time    1.3947
     EDDAV:  cpu time   41.9929: real time   42.0047
       DOS:  cpu time    0.0005: real time    0.0005
    CHARGE:  cpu time    3.8484: real time    3.8492
    MIXING:  cpu time    0.0405: real time    0.0405
    --------------------------------------------
      LOOP:  cpu time   48.5995: real time   48.6164

 eigenvalue-minimisations  :  2924
 total energy-change (2. order) :-0.2829340E+00  (-0.1753159E-01)
 number of electron     203.0000000 magnetization       3.5588912
 augmentation part        5.8552854 magnetization       3.0484251

 Broyden mixing:
  rms(total) = 0.93465E-01    rms(broyden)= 0.93447E-01
  rms(prec ) = 0.10708E+00
  weight for this iteration     100.00

 eigenvalues of (default mixing * dielectric matrix)
  average eigenvalue GAMMA=   1.3461
  2.2182  2.2182  0.9501  0.6992  0.6450

 Free energy of the ion-electron system (eV)
  ---------------------------------------------------
  alpha Z        PSCENC =        53.42782116
  Ewald energy   TEWEN  =     56958.59009103
  -Hartree energ DENC   =    -63032.25567457
  -exchange      EXHF   =         0.00000000
  -V(xc)+E(xc)   XCENC  =       705.14057659
  PAW double counting   =     21436.79298709   -21487.06203463
  entropy T*S    EENTRO =        -0.01449326
  eigenvalues    EBANDS =     -2653.98962527
  atomic energy  EATOM  =      7560.21751256
  Solvation  Ediel_sol  =         0.00000000
  ---------------------------------------------------
  free energy    TOTEN  =      -459.15283931 eV

  energy without entropy =     -459.13834605  energy(sigma->0) =     -459.14559268


--------------------------------------------------------------------------------------------------------




----------------------------------------- Iteration    1(  11)  ---------------------------------------


    POTLOK:  cpu time    1.4148: real time    1.4157
    SETDIJ:  cpu time    1.3989: real time    1.3998
     EDDAV:  cpu time   44.9682: real time   44.9812
       DOS:  cpu time    0.0006: real time    0.0006
    CHARGE:  cpu time    4.0350: real time    4.0358
    MIXING:  cpu time    0.0373: real time    0.0374
    --------------------------------------------
      LOOP:  cpu time   51.8554: real time   51.8727

 eigenvalue-minimisations  :  3196
 total energy-change (2. order) :-0.3057828E+00  (-0.5725437E-02)
 number of electron     203.0000000 magnetization       2.7291352
 augmentation part        5.8502665 magnetization       2.2359294

 Broyden mixing:
  rms(total) = 0.77923E-01    rms(broyden)= 0.77919E-01
  rms(prec ) = 0.88360E-01
  weight for this iteration     100.00

 eigenvalues of (default mixing * dielectric matrix)
  average eigenvalue GAMMA=   1.4598
  2.4220  2.4220  1.7437  0.8491  0.6827  0.6394

 Free energy of the ion-electron system (eV)
  ---------------------------------------------------
  alpha Z        PSCENC =        53.42782116
  Ewald energy   TEWEN  =     56958.59009103
  -Hartree energ DENC   =    -63062.84926943
  -exchange      EXHF   =         0.00000000
  -V(xc)+E(xc)   XCENC  =       705.17475136
  PAW double counting   =     21380.85355602   -21431.08578736
  entropy T*S    EENTRO =        -0.01511732
  eigenvalues    EBANDS =     -2623.77218010
  atomic energy  EATOM  =      7560.21751256
  Solvation  Ediel_sol  =         0.00000000
  ---------------------------------------------------
  free energy    TOTEN  =      -459.45862209 eV

  energy without entropy =     -459.44350477  energy(sigma->0) =     -459.45106343


--------------------------------------------------------------------------------------------------------




----------------------------------------- Iteration    1(  12)  ---------------------------------------


    POTLOK:  cpu time    1.3265: real time    1.3270
    SETDIJ:  cpu time    1.3933: real time    1.3935
     EDDAV:  cpu time   41.1315: real time   41.1423
       DOS:  cpu time    0.0005: real time    0.0005
    CHARGE:  cpu time    4.0480: real time    4.0489
    MIXING:  cpu time    0.0505: real time    0.0506
    --------------------------------------------
      LOOP:  cpu time   47.9508: real time   47.9664

 eigenvalue-minimisations  :  2844
 total energy-change (2. order) :-0.4497825E+00  (-0.2372504E-01)
 number of electron     203.0000000 magnetization       2.2747576
 augmentation part        5.8434682 magnetization       1.8273395

 Broyden mixing:
  rms(total) = 0.51603E-01    rms(broyden)= 0.51600E-01
  rms(prec ) = 0.55203E-01
  weight for this iteration     100.00

 eigenvalues of (default mixing * dielectric matrix)
  average eigenvalue GAMMA=   1.6258
  3.8883  2.4176  1.9614  1.0240  0.7805  0.6763  0.6325

 Free energy of the ion-electron system (eV)
  ---------------------------------------------------
  alpha Z        PSCENC =        53.42782116
  Ewald energy   TEWEN  =     56958.59009103
  -Hartree energ DENC   =    -63134.11711598
  -exchange      EXHF   =         0.00000000
  -V(xc)+E(xc)   XCENC  =       705.47766948
  PAW double counting   =     21283.89910257   -21334.01823824
  entropy T*S    EENTRO =        -0.01613769
  eigenvalues    EBANDS =     -2553.36910946
  atomic energy  EATOM  =      7560.21751256
  Solvation  Ediel_sol  =         0.00000000
  ---------------------------------------------------
  free energy    TOTEN  =      -459.90840458 eV

  energy without entropy =     -459.89226689  energy(sigma->0) =     -459.90033574


--------------------------------------------------------------------------------------------------------




----------------------------------------- Iteration    1(  13)  ---------------------------------------


    POTLOK:  cpu time    1.3305: real time    1.3307
    SETDIJ:  cpu time    1.4076: real time    1.4078
     EDDAV:  cpu time   41.6948: real time   41.7056
       DOS:  cpu time    0.0006: real time    0.0006
    CHARGE:  cpu time    3.9608: real time    3.9617
    MIXING:  cpu time    0.0313: real time    0.0313
    --------------------------------------------
      LOOP:  cpu time   48.4262: real time   48.4402

 eigenvalue-minimisations  :  2900
 total energy-change (2. order) :-0.5862983E-01  (-0.6175229E-02)
 number of electron     203.0000000 magnetization       1.7240723
 augmentation part        5.8401013 magnetization       1.3347328

 Broyden mixing:
  rms(total) = 0.40983E-01    rms(broyden)= 0.40980E-01
  rms(prec ) = 0.42882E-01
  weight for this iteration     100.00

 eigenvalues of (default mixing * dielectric matrix)
  average eigenvalue GAMMA=   1.7119
  5.0142  2.3129  2.0654  1.2586  0.9899  0.7529  0.6710  0.6303

 Free energy of the ion-electron system (eV)
  ---------------------------------------------------
  alpha Z        PSCENC =        53.42782116
  Ewald energy   TEWEN  =     56958.59009103
  -Hartree energ DENC   =    -63164.83668660
  -exchange      EXHF   =         0.00000000
  -V(xc)+E(xc)   XCENC  =       705.67893596
  PAW double counting   =     21286.64651844   -21336.73337378
  entropy T*S    EENTRO =        -0.01731775
  eigenvalues    EBANDS =     -2522.94053541
  atomic energy  EATOM  =      7560.21751256
  Solvation  Ediel_sol  =         0.00000000
  ---------------------------------------------------
  free energy    TOTEN  =      -459.96703441 eV

  energy without entropy =     -459.94971665  energy(sigma->0) =     -459.95837553


--------------------------------------------------------------------------------------------------------




----------------------------------------- Iteration    1(  14)  ---------------------------------------


    POTLOK:  cpu time    1.3259: real time    1.3262
    SETDIJ:  cpu time    1.3935: real time    1.3950
     EDDAV:  cpu time   42.1757: real time   42.1857
       DOS:  cpu time    0.0005: real time    0.0005
    CHARGE:  cpu time    3.8897: real time    3.8904
    MIXING:  cpu time    0.0428: real time    0.0428
    --------------------------------------------
      LOOP:  cpu time   48.8287: real time   48.8435

 eigenvalue-minimisations  :  2936
 total energy-change (2. order) :-0.8788515E+00  (-0.5669109E-02)
 number of electron     203.0000000 magnetization       1.2448944
 augmentation part        5.8378423 magnetization       0.9362532

 Broyden mixing:
  rms(total) = 0.28140E-01    rms(broyden)= 0.28138E-01
  rms(prec ) = 0.29309E-01
  weight for this iteration     100.00

 eigenvalues of (default mixing * dielectric matrix)
  average eigenvalue GAMMA=   2.0825
  7.9882  2.4741  2.4741  1.8705  1.0860  0.8240  0.7334  0.6268  0.6656

 Free energy of the ion-electron system (eV)
  ---------------------------------------------------
  alpha Z        PSCENC =        53.42782116
  Ewald energy   TEWEN  =     56958.59009103
  -Hartree energ DENC   =    -63189.65983987
  -exchange      EXHF   =         0.00000000
  -V(xc)+E(xc)   XCENC  =       704.91920033
  PAW double counting   =     21268.98016862   -21319.07199233
  entropy T*S    EENTRO =        -0.01888829
  eigenvalues    EBANDS =     -2498.22995914
  atomic energy  EATOM  =      7560.21751256
  Solvation  Ediel_sol  =         0.00000000
  ---------------------------------------------------
  free energy    TOTEN  =      -460.84588594 eV

  energy without entropy =     -460.82699766  energy(sigma->0) =     -460.83644180


--------------------------------------------------------------------------------------------------------




----------------------------------------- Iteration    1(  15)  ---------------------------------------


    POTLOK:  cpu time    1.4020: real time    1.4023
    SETDIJ:  cpu time    1.4056: real time    1.4060
     EDDAV:  cpu time   41.9564: real time   41.9669
       DOS:  cpu time    0.0006: real time    0.0006
    CHARGE:  cpu time    3.7801: real time    3.7806
    MIXING:  cpu time    0.0531: real time    0.0531
    --------------------------------------------
      LOOP:  cpu time   48.5985: real time   48.6123

 eigenvalue-minimisations  :  2928
 total energy-change (2. order) :-0.7194302E+00  (-0.2749535E-02)
 number of electron     203.0000000 magnetization       1.0564002
 augmentation part        5.8359340 magnetization       0.8234629

 Broyden mixing:
  rms(total) = 0.19287E-01    rms(broyden)= 0.19283E-01
  rms(prec ) = 0.20909E-01
  weight for this iteration     100.00

 eigenvalues of (default mixing * dielectric matrix)
  average eigenvalue GAMMA=   2.1506
  9.5579  2.5846  2.5846  1.8799  1.1806  0.9016  0.8167  0.7118  0.6264  0.6617

 Free energy of the ion-electron system (eV)
  ---------------------------------------------------
  alpha Z        PSCENC =        53.42782116
  Ewald energy   TEWEN  =     56958.59009103
  -Hartree energ DENC   =    -63203.86197323
  -exchange      EXHF   =         0.00000000
  -V(xc)+E(xc)   XCENC  =       704.20794001
  PAW double counting   =     21255.44608885   -21305.54921280
  entropy T*S    EENTRO =        -0.01987138
  eigenvalues    EBANDS =     -2484.02371231
  atomic energy  EATOM  =      7560.21751256
  Solvation  Ediel_sol  =         0.00000000
  ---------------------------------------------------
  free energy    TOTEN  =      -461.56531613 eV

  energy without entropy =     -461.54544475  energy(sigma->0) =     -461.55538044


--------------------------------------------------------------------------------------------------------




----------------------------------------- Iteration    1(  16)  ---------------------------------------


    POTLOK:  cpu time    1.4784: real time    1.4797
    SETDIJ:  cpu time    1.3929: real time    1.3959
     EDDAV:  cpu time   42.5491: real time   42.5824
       DOS:  cpu time    0.0005: real time    0.0005
    CHARGE:  cpu time    3.7892: real time    3.7903
    MIXING:  cpu time    0.0703: real time    0.0704
    --------------------------------------------
      LOOP:  cpu time   49.2812: real time   49.3224

 eigenvalue-minimisations  :  2980
 total energy-change (2. order) :-0.2514441E+00  (-0.3334253E-03)
 number of electron     203.0000000 magnetization       0.7306243
 augmentation part        5.8352606 magnetization       0.5278264

 Broyden mixing:
  rms(total) = 0.15693E-01    rms(broyden)= 0.15691E-01
  rms(prec ) = 0.17091E-01
  weight for this iteration     100.00

 eigenvalues of (default mixing * dielectric matrix)
  average eigenvalue GAMMA=   2.2579
 10.8424  2.8248  2.6654  1.8832  1.8832  1.1339  0.8548  0.7758  0.6927  0.6236
  0.6574

 Free energy of the ion-electron system (eV)
  ---------------------------------------------------
  alpha Z        PSCENC =        53.42782116
  Ewald energy   TEWEN  =     56958.59009103
  -Hartree energ DENC   =    -63203.35436921
  -exchange      EXHF   =         0.00000000
  -V(xc)+E(xc)   XCENC  =       703.90656995
  PAW double counting   =     21262.24974204   -21312.35633226
  entropy T*S    EENTRO =        -0.02015863
  eigenvalues    EBANDS =     -2484.47763683
  atomic energy  EATOM  =      7560.21751256
  Solvation  Ediel_sol  =         0.00000000
  ---------------------------------------------------
  free energy    TOTEN  =      -461.81676020 eV

  energy without entropy =     -461.79660157  energy(sigma->0) =     -461.80668088


--------------------------------------------------------------------------------------------------------




----------------------------------------- Iteration    1(  17)  ---------------------------------------


    POTLOK:  cpu time    1.4793: real time    1.4799
    SETDIJ:  cpu time    1.4062: real time    1.4065
     EDDAV:  cpu time   39.9894: real time   39.9992
       DOS:  cpu time    0.0006: real time    0.0006
    CHARGE:  cpu time    3.7759: real time    3.7766
    MIXING:  cpu time    0.0445: real time    0.0445
    --------------------------------------------
      LOOP:  cpu time   46.6963: real time   46.7101

 eigenvalue-minimisations  :  2756
 total energy-change (2. order) :-0.3040738E+00  (-0.7160238E-03)
 number of electron     203.0000000 magnetization       0.5272710
 augmentation part        5.8358062 magnetization       0.3716519

 Broyden mixing:
  rms(total) = 0.10301E-01    rms(broyden)= 0.10299E-01
  rms(prec ) = 0.11404E-01
  weight for this iteration     100.00

 eigenvalues of (default mixing * dielectric matrix)
  average eigenvalue GAMMA=   2.3741
 12.1837  3.9045  2.4886  2.1185  2.1185  1.0671  1.0671  0.8126  0.7656  0.6224
  0.6857  0.6550

 Free energy of the ion-electron system (eV)
  ---------------------------------------------------
  alpha Z        PSCENC =        53.42782116
  Ewald energy   TEWEN  =     56958.59009103
  -Hartree energ DENC   =    -63200.41371436
  -exchange      EXHF   =         0.00000000
  -V(xc)+E(xc)   XCENC  =       703.52102491
  PAW double counting   =     21271.18397728   -21321.29188756
  entropy T*S    EENTRO =        -0.02053981
  eigenvalues    EBANDS =     -2487.33511920
  atomic energy  EATOM  =      7560.21751256
  Solvation  Ediel_sol  =         0.00000000
  ---------------------------------------------------
  free energy    TOTEN  =      -462.12083401 eV

  energy without entropy =     -462.10029420  energy(sigma->0) =     -462.11056410


--------------------------------------------------------------------------------------------------------




----------------------------------------- Iteration    1(  18)  ---------------------------------------


    POTLOK:  cpu time    1.4754: real time    1.4757
    SETDIJ:  cpu time    1.3964: real time    1.3967
     EDDAV:  cpu time   42.3006: real time   42.3104
       DOS:  cpu time    0.0006: real time    0.0006
    CHARGE:  cpu time    3.7827: real time    3.7837
    MIXING:  cpu time    0.0647: real time    0.0647
    --------------------------------------------
      LOOP:  cpu time   49.0209: real time   49.0345

 eigenvalue-minimisations  :  2960
 total energy-change (2. order) :-0.8505856E-01  (-0.3088532E-03)
 number of electron     203.0000000 magnetization       0.3836056
 augmentation part        5.8360746 magnetization       0.2621184

 Broyden mixing:
  rms(total) = 0.75733E-02    rms(broyden)= 0.75713E-02
  rms(prec ) = 0.86375E-02
  weight for this iteration     100.00

 eigenvalues of (default mixing * dielectric matrix)
  average eigenvalue GAMMA=   2.4158
 13.1141  4.6422  2.3971  2.3971  2.0471  1.2160  1.2160  0.8502  0.8502  0.7285
  0.6211  0.6742  0.6517

 Free energy of the ion-electron system (eV)
  ---------------------------------------------------
  alpha Z        PSCENC =        53.42782116
  Ewald energy   TEWEN  =     56958.59009103
  -Hartree energ DENC   =    -63197.85692335
  -exchange      EXHF   =         0.00000000
  -V(xc)+E(xc)   XCENC  =       703.40514578
  PAW double counting   =     21270.25897245   -21320.37030356
  entropy T*S    EENTRO =        -0.02077173
  eigenvalues    EBANDS =     -2489.85743690
  atomic energy  EATOM  =      7560.21751256
  Solvation  Ediel_sol  =         0.00000000
  ---------------------------------------------------
  free energy    TOTEN  =      -462.20589257 eV

  energy without entropy =     -462.18512084  energy(sigma->0) =     -462.19550671


--------------------------------------------------------------------------------------------------------




----------------------------------------- Iteration    1(  19)  ---------------------------------------


    POTLOK:  cpu time    1.4783: real time    1.4788
    SETDIJ:  cpu time    1.4017: real time    1.4020
     EDDAV:  cpu time   42.5864: real time   42.5972
       DOS:  cpu time    0.0005: real time    0.0005
    CHARGE:  cpu time    3.7696: real time    3.7702
    MIXING:  cpu time    0.0559: real time    0.0559
    --------------------------------------------
      LOOP:  cpu time   49.2930: real time   49.3074

 eigenvalue-minimisations  :  2988
 total energy-change (2. order) :-0.2579874E-01  (-0.1434044E-03)
 number of electron     203.0000000 magnetization       0.2291414
 augmentation part        5.8364032 magnetization       0.1376249

 Broyden mixing:
  rms(total) = 0.56645E-02    rms(broyden)= 0.56626E-02
  rms(prec ) = 0.65751E-02
  weight for this iteration     100.00

 eigenvalues of (default mixing * dielectric matrix)
  average eigenvalue GAMMA=   2.4747
 14.0864  5.2850  2.6282  2.3971  1.9826  1.4625  1.4625  1.0040  0.8931  0.7692
  0.7247  0.6224  0.6758  0.6516

 Free energy of the ion-electron system (eV)
  ---------------------------------------------------
  alpha Z        PSCENC =        53.42782116
  Ewald energy   TEWEN  =     56958.59009103
  -Hartree energ DENC   =    -63194.78556324
  -exchange      EXHF   =         0.00000000
  -V(xc)+E(xc)   XCENC  =       703.35860244
  PAW double counting   =     21270.23374040   -21320.34286716
  entropy T*S    EENTRO =        -0.02092784
  eigenvalues    EBANDS =     -2492.91010063
  atomic energy  EATOM  =      7560.21751256
  Solvation  Ediel_sol  =         0.00000000
  ---------------------------------------------------
  free energy    TOTEN  =      -462.23169131 eV

  energy without entropy =     -462.21076347  energy(sigma->0) =     -462.22122739


--------------------------------------------------------------------------------------------------------




----------------------------------------- Iteration    1(  20)  ---------------------------------------


    POTLOK:  cpu time    1.4750: real time    1.4755
    SETDIJ:  cpu time    1.3972: real time    1.3980
     EDDAV:  cpu time   41.3171: real time   41.3256
       DOS:  cpu time    0.0005: real time    0.0005
    CHARGE:  cpu time    3.8003: real time    3.8008
    MIXING:  cpu time    0.0761: real time    0.0761
    --------------------------------------------
      LOOP:  cpu time   48.0668: real time   48.0801

 eigenvalue-minimisations  :  2868
 total energy-change (2. order) :-0.3107577E-01  (-0.9699996E-04)
 number of electron     203.0000000 magnetization       0.1348115
 augmentation part        5.8366163 magnetization       0.0787190

 Broyden mixing:
  rms(total) = 0.37991E-02    rms(broyden)= 0.37953E-02
  rms(prec ) = 0.45041E-02
  weight for this iteration     100.00

 eigenvalues of (default mixing * dielectric matrix)
  average eigenvalue GAMMA=   2.5315
 15.0287  5.8891  3.0445  2.2756  2.1211  1.9755  1.3868  1.0237  1.0237  0.7859
  0.7859  0.7004  0.6217  0.6619  0.6486

 Free energy of the ion-electron system (eV)
  ---------------------------------------------------
  alpha Z        PSCENC =        53.42782116
  Ewald energy   TEWEN  =     56958.59009103
  -Hartree energ DENC   =    -63191.66129278
  -exchange      EXHF   =         0.00000000
  -V(xc)+E(xc)   XCENC  =       703.31436764
  PAW double counting   =     21271.82692549   -21321.93078428
  entropy T*S    EENTRO =        -0.02104343
  eigenvalues    EBANDS =     -2496.02636446
  atomic energy  EATOM  =      7560.21751256
  Solvation  Ediel_sol  =         0.00000000
  ---------------------------------------------------
  free energy    TOTEN  =      -462.26276708 eV

  energy without entropy =     -462.24172366  energy(sigma->0) =     -462.25224537


--------------------------------------------------------------------------------------------------------




----------------------------------------- Iteration    1(  21)  ---------------------------------------


    POTLOK:  cpu time    1.4823: real time    1.4826
    SETDIJ:  cpu time    1.4062: real time    1.4080
     EDDAV:  cpu time   41.5857: real time   41.5975
       DOS:  cpu time    0.0006: real time    0.0006
    CHARGE:  cpu time    3.7807: real time    3.7813
    MIXING:  cpu time    0.0494: real time    0.0494
    --------------------------------------------
      LOOP:  cpu time   48.3055: real time   48.3223

 eigenvalue-minimisations  :  2896
 total energy-change (2. order) :-0.3782745E-01  (-0.3786068E-04)
 number of electron     203.0000000 magnetization       0.0542817
 augmentation part        5.8366794 magnetization       0.0211179

 Broyden mixing:
  rms(total) = 0.24683E-02    rms(broyden)= 0.24649E-02
  rms(prec ) = 0.30157E-02
  weight for this iteration     100.00

 eigenvalues of (default mixing * dielectric matrix)
  average eigenvalue GAMMA=   2.6615
 16.3097  6.8199  3.8526  2.4142  2.4142  1.9293  1.4948  1.1479  1.1479  0.9106
  0.8145  0.7377  0.6853  0.6504  0.6217  0.6335

 Free energy of the ion-electron system (eV)
  ---------------------------------------------------
  alpha Z        PSCENC =        53.42782116
  Ewald energy   TEWEN  =     56958.59009103
  -Hartree energ DENC   =    -63189.88048825
  -exchange      EXHF   =         0.00000000
  -V(xc)+E(xc)   XCENC  =       703.27605369
  PAW double counting   =     21270.57061363   -21320.67407553
  entropy T*S    EENTRO =        -0.02109093
  eigenvalues    EBANDS =     -2497.80703188
  atomic energy  EATOM  =      7560.21751256
  Solvation  Ediel_sol  =         0.00000000
  ---------------------------------------------------
  free energy    TOTEN  =      -462.30059454 eV

  energy without entropy =     -462.27950361  energy(sigma->0) =     -462.29004907


--------------------------------------------------------------------------------------------------------




----------------------------------------- Iteration    1(  22)  ---------------------------------------


    POTLOK:  cpu time    1.4814: real time    1.4818
    SETDIJ:  cpu time    1.3965: real time    1.3969
     EDDAV:  cpu time   41.6663: real time   41.6771
       DOS:  cpu time    0.0005: real time    0.0005
    CHARGE:  cpu time    3.7723: real time    3.7732
    MIXING:  cpu time    0.0725: real time    0.0725
    --------------------------------------------
      LOOP:  cpu time   48.3901: real time   48.4055

 eigenvalue-minimisations  :  2904
 total energy-change (2. order) :-0.2535933E-01  (-0.2240645E-04)
 number of electron     203.0000000 magnetization       0.0253974
 augmentation part        5.8366852 magnetization       0.0135918

 Broyden mixing:
  rms(total) = 0.13001E-02    rms(broyden)= 0.12951E-02
  rms(prec ) = 0.16665E-02
  weight for this iteration     100.00

 eigenvalues of (default mixing * dielectric matrix)
  average eigenvalue GAMMA=   2.7206
 17.4182  7.6507  4.3750  2.4703  2.4703  1.8829  1.7699  1.2024  1.0838  0.9302
  0.8905  0.7896  0.7387  0.6830  0.6510  0.6163  0.6274

 Free energy of the ion-electron system (eV)
  ---------------------------------------------------
  alpha Z        PSCENC =        53.42782116
  Ewald energy   TEWEN  =     56958.59009103
  -Hartree energ DENC   =    -63187.94654455
  -exchange      EXHF   =         0.00000000
  -V(xc)+E(xc)   XCENC  =       703.24768546
  PAW double counting   =     21269.12879672   -21319.23439496
  entropy T*S    EENTRO =        -0.02111018
  eigenvalues    EBANDS =     -2499.73581109
  atomic energy  EATOM  =      7560.21751256
  Solvation  Ediel_sol  =         0.00000000
  ---------------------------------------------------
  free energy    TOTEN  =      -462.32595386 eV

  energy without entropy =     -462.30484368  energy(sigma->0) =     -462.31539877


--------------------------------------------------------------------------------------------------------




----------------------------------------- Iteration    1(  23)  ---------------------------------------


    POTLOK:  cpu time    1.4884: real time    1.4888
    SETDIJ:  cpu time    1.4076: real time    1.4080
     EDDAV:  cpu time   41.8257: real time   41.8354
       DOS:  cpu time    0.0005: real time    0.0005
    CHARGE:  cpu time    3.7770: real time    3.7781
    MIXING:  cpu time    0.0668: real time    0.0668
    --------------------------------------------
      LOOP:  cpu time   48.5666: real time   48.5805

 eigenvalue-minimisations  :  2920
 total energy-change (2. order) :-0.4389601E-02  (-0.5860939E-05)
 number of electron     203.0000000 magnetization       0.0115676
 augmentation part        5.8367313 magnetization       0.0069400

 Broyden mixing:
  rms(total) = 0.81721E-03    rms(broyden)= 0.81535E-03
  rms(prec ) = 0.11018E-02
  weight for this iteration     100.00

 eigenvalues of (default mixing * dielectric matrix)
  average eigenvalue GAMMA=   2.6993
 17.7823  7.9134  4.5909  2.5119  2.5119  1.9859  1.9859  1.2022  1.2022  1.0066
  1.0066  0.8003  0.8003  0.7196  0.6759  0.6519  0.6245  0.6146

 Free energy of the ion-electron system (eV)
  ---------------------------------------------------
  alpha Z        PSCENC =        53.42782116
  Ewald energy   TEWEN  =     56958.59009103
  -Hartree energ DENC   =    -63187.11004656
  -exchange      EXHF   =         0.00000000
  -V(xc)+E(xc)   XCENC  =       703.23975770
  PAW double counting   =     21269.39673157   -21319.50385932
  entropy T*S    EENTRO =        -0.02111155
  eigenvalues    EBANDS =     -2500.56724005
  atomic energy  EATOM  =      7560.21751256
  Solvation  Ediel_sol  =         0.00000000
  ---------------------------------------------------
  free energy    TOTEN  =      -462.33034346 eV

  energy without entropy =     -462.30923191  energy(sigma->0) =     -462.31978769


--------------------------------------------------------------------------------------------------------




----------------------------------------- Iteration    1(  24)  ---------------------------------------


    POTLOK:  cpu time    1.4926: real time    1.4931
    SETDIJ:  cpu time    1.3848: real time    1.3882
     EDDAV:  cpu time   37.0598: real time   37.0689
       DOS:  cpu time    0.0006: real time    0.0006
    CHARGE:  cpu time    3.7900: real time    3.7910
    MIXING:  cpu time    0.0831: real time    0.0831
    --------------------------------------------
      LOOP:  cpu time   43.8113: real time   43.8277

 eigenvalue-minimisations  :  2480
 total energy-change (2. order) :-0.1793694E-02  (-0.3886267E-05)
 number of electron     203.0000000 magnetization       0.0053293
 augmentation part        5.8367815 magnetization       0.0038029

 Broyden mixing:
  rms(total) = 0.50094E-03    rms(broyden)= 0.50017E-03
  rms(prec ) = 0.68188E-03
  weight for this iteration     100.00

 eigenvalues of (default mixing * dielectric matrix)
  average eigenvalue GAMMA=   2.6987
 18.0800  8.1792  4.8769  2.8777  2.4975  2.1616  2.0916  1.3852  1.3852  0.9702
  0.9702  0.9575  0.8336  0.7528  0.6981  0.6684  0.6542  0.6233  0.6122

 Free energy of the ion-electron system (eV)
  ---------------------------------------------------
  alpha Z        PSCENC =        53.42782116
  Ewald energy   TEWEN  =     56958.59009103
  -Hartree energ DENC   =    -63186.52113714
  -exchange      EXHF   =         0.00000000
  -V(xc)+E(xc)   XCENC  =       703.23513608
  PAW double counting   =     21270.00303880   -21320.11183702
  entropy T*S    EENTRO =        -0.02111467
  eigenvalues    EBANDS =     -2501.15164796
  atomic energy  EATOM  =      7560.21751256
  Solvation  Ediel_sol  =         0.00000000
  ---------------------------------------------------
  free energy    TOTEN  =      -462.33213716 eV

  energy without entropy =     -462.31102249  energy(sigma->0) =     -462.32157982


--------------------------------------------------------------------------------------------------------




----------------------------------------- Iteration    1(  25)  ---------------------------------------


    POTLOK:  cpu time    1.4897: real time    1.4902
    SETDIJ:  cpu time    1.4022: real time    1.4033
     EDDAV:  cpu time   36.3436: real time   36.3547
       DOS:  cpu time    0.0005: real time    0.0005
    CHARGE:  cpu time    3.8075: real time    3.8101
    MIXING:  cpu time    0.0606: real time    0.0606
    --------------------------------------------
      LOOP:  cpu time   43.1047: real time   43.1224

 eigenvalue-minimisations  :  2420
 total energy-change (2. order) :-0.5956179E-03  (-0.3366419E-05)
 number of electron     203.0000000 magnetization       0.0029406
 augmentation part        5.8368184 magnetization       0.0026860

 Broyden mixing:
  rms(total) = 0.29709E-03    rms(broyden)= 0.29666E-03
  rms(prec ) = 0.40796E-03
  weight for this iteration     100.00

 eigenvalues of (default mixing * dielectric matrix)
  average eigenvalue GAMMA=   2.6728
 18.2492  8.3624  5.1246  3.2434  2.3903  2.3903  1.9861  1.7586  1.2076  1.0784
  1.0086  1.0086  0.8724  0.8021  0.7370  0.6908  0.6605  0.6510  0.6217  0.6114

 Free energy of the ion-electron system (eV)
  ---------------------------------------------------
  alpha Z        PSCENC =        53.42782116
  Ewald energy   TEWEN  =     56958.59009103
  -Hartree energ DENC   =    -63186.13464659
  -exchange      EXHF   =         0.00000000
  -V(xc)+E(xc)   XCENC  =       703.23309068
  PAW double counting   =     21270.32479777   -21320.43420273
  entropy T*S    EENTRO =        -0.02111852
  eigenvalues    EBANDS =     -2501.53607814
  atomic energy  EATOM  =      7560.21751256
  Solvation  Ediel_sol  =         0.00000000
  ---------------------------------------------------
  free energy    TOTEN  =      -462.33273277 eV

  energy without entropy =     -462.31161426  energy(sigma->0) =     -462.32217352


--------------------------------------------------------------------------------------------------------




----------------------------------------- Iteration    1(  26)  ---------------------------------------


    POTLOK:  cpu time    1.4912: real time    1.4916
    SETDIJ:  cpu time    1.3858: real time    1.3873
     EDDAV:  cpu time   36.6027: real time   36.6122
       DOS:  cpu time    0.0005: real time    0.0005
    CHARGE:  cpu time    3.7944: real time    3.7958
    MIXING:  cpu time    0.0819: real time    0.0819
    --------------------------------------------
      LOOP:  cpu time   43.3571: real time   43.3724

 eigenvalue-minimisations  :  2440
 total energy-change (2. order) :-0.2281853E-03  (-0.1287987E-05)
 number of electron     203.0000000 magnetization       0.0018471
 augmentation part        5.8368336 magnetization       0.0018725

 Broyden mixing:
  rms(total) = 0.19168E-03    rms(broyden)= 0.19133E-03
  rms(prec ) = 0.26983E-03
  weight for this iteration     100.00

 eigenvalues of (default mixing * dielectric matrix)
  average eigenvalue GAMMA=   2.6459
 18.3442  8.4808  5.3848  3.5165  2.4428  2.4428  1.9208  1.9208  1.3082  1.0981
  1.0981  1.0266  1.0266  0.8310  0.7890  0.7255  0.6803  0.6545  0.6433  0.6206
  0.6088

 Free energy of the ion-electron system (eV)
  ---------------------------------------------------
  alpha Z        PSCENC =        53.42782116
  Ewald energy   TEWEN  =     56958.59009103
  -Hartree energ DENC   =    -63185.97319584
  -exchange      EXHF   =         0.00000000
  -V(xc)+E(xc)   XCENC  =       703.23294913
  PAW double counting   =     21270.39909047   -21320.50828274
  entropy T*S    EENTRO =        -0.02112043
  eigenvalues    EBANDS =     -2501.69782628
  atomic energy  EATOM  =      7560.21751256
  Solvation  Ediel_sol  =         0.00000000
  ---------------------------------------------------
  free energy    TOTEN  =      -462.33296096 eV

  energy without entropy =     -462.31184053  energy(sigma->0) =     -462.32240074


--------------------------------------------------------------------------------------------------------




----------------------------------------- Iteration    1(  27)  ---------------------------------------


    POTLOK:  cpu time    1.4933: real time    1.4949
    SETDIJ:  cpu time    1.3966: real time    1.3986
     EDDAV:  cpu time   35.7675: real time   35.8006
       DOS:  cpu time    0.0005: real time    0.0005
    CHARGE:  cpu time    3.8405: real time    3.8416
    MIXING:  cpu time    0.0781: real time    0.0782
    --------------------------------------------
      LOOP:  cpu time   42.5770: real time   42.6172

 eigenvalue-minimisations  :  2368
 total energy-change (2. order) :-0.1207937E-03  (-0.4667491E-06)
 number of electron     203.0000000 magnetization       0.0011908
 augmentation part        5.8368357 magnetization       0.0012098

 Broyden mixing:
  rms(total) = 0.12676E-03    rms(broyden)= 0.12630E-03
  rms(prec ) = 0.18405E-03
  weight for this iteration     100.00

 eigenvalues of (default mixing * dielectric matrix)
  average eigenvalue GAMMA=   2.6290
 18.4061  8.5697  5.6944  3.8028  2.4882  2.4882  2.0094  2.0094  1.6364  1.1715
  1.0276  1.0276  1.0483  0.9763  0.8152  0.7612  0.7160  0.6769  0.6496  0.6370
  0.6199  0.6055

 Free energy of the ion-electron system (eV)
  ---------------------------------------------------
  alpha Z        PSCENC =        53.42782116
  Ewald energy   TEWEN  =     56958.59009103
  -Hartree energ DENC   =    -63185.88052479
  -exchange      EXHF   =         0.00000000
  -V(xc)+E(xc)   XCENC  =       703.23326368
  PAW double counting   =     21270.43255575   -21320.54150715
  entropy T*S    EENTRO =        -0.02112136
  eigenvalues    EBANDS =     -2501.79117262
  atomic energy  EATOM  =      7560.21751256
  Solvation  Ediel_sol  =         0.00000000
  ---------------------------------------------------
  free energy    TOTEN  =      -462.33308175 eV

  energy without entropy =     -462.31196039  energy(sigma->0) =     -462.32252107


--------------------------------------------------------------------------------------------------------




----------------------------------------- Iteration    1(  28)  ---------------------------------------


    POTLOK:  cpu time    1.4994: real time    1.5003
    SETDIJ:  cpu time    1.3860: real time    1.3876
     EDDAV:  cpu time   35.9171: real time   35.9246
       DOS:  cpu time    0.0021: real time    0.0021
    CHARGE:  cpu time    3.7988: real time    3.8007
    MIXING:  cpu time    0.0975: real time    0.0975
    --------------------------------------------
      LOOP:  cpu time   42.7016: real time   42.7160

 eigenvalue-minimisations  :  2376
 total energy-change (2. order) :-0.7211551E-04  (-0.1873281E-06)
 number of electron     203.0000000 magnetization       0.0005118
 augmentation part        5.8368346 magnetization       0.0005558

 Broyden mixing:
  rms(total) = 0.81419E-04    rms(broyden)= 0.80709E-04
  rms(prec ) = 0.12198E-03
  weight for this iteration     100.00

 eigenvalues of (default mixing * dielectric matrix)
  average eigenvalue GAMMA=   2.6183
 18.4544  8.6421  6.0334  4.0576  2.7352  2.4882  2.1356  2.1356  1.6309  1.2403
  1.1238  1.1238  1.0548  1.0548  0.8738  0.8097  0.7464  0.7048  0.6733  0.6484
  0.6319  0.6196  0.6029

 Free energy of the ion-electron system (eV)
  ---------------------------------------------------
  alpha Z        PSCENC =        53.42782116
  Ewald energy   TEWEN  =     56958.59009103
  -Hartree energ DENC   =    -63185.79706628
  -exchange      EXHF   =         0.00000000
  -V(xc)+E(xc)   XCENC  =       703.23342396
  PAW double counting   =     21270.43536992   -21320.54415033
  entropy T*S    EENTRO =        -0.02112240
  eigenvalues    EBANDS =     -2501.87503349
  atomic energy  EATOM  =      7560.21751256
  Solvation  Ediel_sol  =         0.00000000
  ---------------------------------------------------
  free energy    TOTEN  =      -462.33315387 eV

  energy without entropy =     -462.31203147  energy(sigma->0) =     -462.32259267


--------------------------------------------------------------------------------------------------------




----------------------------------------- Iteration    1(  29)  ---------------------------------------


    POTLOK:  cpu time    1.5009: real time    1.5012
    SETDIJ:  cpu time    1.3990: real time    1.4005
     EDDAV:  cpu time   34.1311: real time   34.1410
       DOS:  cpu time    0.0006: real time    0.0006
    CHARGE:  cpu time    3.7767: real time    3.7778
    MIXING:  cpu time    0.0715: real time    0.0715
    --------------------------------------------
      LOOP:  cpu time   40.8804: real time   40.8955

 eigenvalue-minimisations  :  2216
 total energy-change (2. order) :-0.4821277E-04  (-0.1459660E-06)
 number of electron     203.0000000 magnetization       0.0000676
 augmentation part        5.8368324 magnetization       0.0002130

 Broyden mixing:
  rms(total) = 0.52809E-04    rms(broyden)= 0.51709E-04
  rms(prec ) = 0.78533E-04
  weight for this iteration     100.00

 eigenvalues of (default mixing * dielectric matrix)
  average eigenvalue GAMMA=   2.6016
 18.5024  8.7341  6.3304  4.2722  3.0841  2.4051  2.3626  2.0249  1.5511  1.5511
  1.1708  1.1708  1.0580  1.0580  0.9495  0.8135  0.8135  0.7295  0.6907  0.6699
  0.6458  0.6291  0.6192  0.6016

 Free energy of the ion-electron system (eV)
  ---------------------------------------------------
  alpha Z        PSCENC =        53.42782116
  Ewald energy   TEWEN  =     56958.59009103
  -Hartree energ DENC   =    -63185.73465623
  -exchange      EXHF   =         0.00000000
  -V(xc)+E(xc)   XCENC  =       703.23354612
  PAW double counting   =     21270.40087933   -21320.50955791
  entropy T*S    EENTRO =        -0.02112326
  eigenvalues    EBANDS =     -2501.93771487
  atomic energy  EATOM  =      7560.21751256
  Solvation  Ediel_sol  =         0.00000000
  ---------------------------------------------------
  free energy    TOTEN  =      -462.33320208 eV

  energy without entropy =     -462.31207882  energy(sigma->0) =     -462.32264045


--------------------------------------------------------------------------------------------------------




----------------------------------------- Iteration    1(  30)  ---------------------------------------


    POTLOK:  cpu time    1.4967: real time    1.4983
    SETDIJ:  cpu time    1.3881: real time    1.3885
     EDDAV:  cpu time   31.6650: real time   31.6929
       DOS:  cpu time    0.0005: real time    0.0005
    CHARGE:  cpu time    3.8777: real time    3.8816
    MIXING:  cpu time    0.0965: real time    0.0966
    --------------------------------------------
      LOOP:  cpu time   38.5251: real time   38.5618

 eigenvalue-minimisations  :  1992
 total energy-change (2. order) :-0.2039532E-04  (-0.3835655E-07)
 number of electron     203.0000000 magnetization      -0.0001822
 augmentation part        5.8368303 magnetization       0.0000599

 Broyden mixing:
  rms(total) = 0.37574E-04    rms(broyden)= 0.36015E-04
  rms(prec ) = 0.53703E-04
  weight for this iteration     100.00

 eigenvalues of (default mixing * dielectric matrix)
  average eigenvalue GAMMA=   2.5959
 18.5223  8.7862  6.6105  4.5134  3.3494  2.4198  2.4198  2.0377  2.0377  1.4331
  1.4331  1.1229  1.1229  1.0184  1.0184  0.9013  0.8211  0.7635  0.7263  0.6870
  0.6613  0.6460  0.6260  0.6199  0.6004

 Free energy of the ion-electron system (eV)
  ---------------------------------------------------
  alpha Z        PSCENC =        53.42782116
  Ewald energy   TEWEN  =     56958.59009103
  -Hartree energ DENC   =    -63185.70364958
  -exchange      EXHF   =         0.00000000
  -V(xc)+E(xc)   XCENC  =       703.23360447
  PAW double counting   =     21270.38923043   -21320.49794339
  entropy T*S    EENTRO =        -0.02112350
  eigenvalues    EBANDS =     -2501.96876565
  atomic energy  EATOM  =      7560.21751256
  Solvation  Ediel_sol  =         0.00000000
  ---------------------------------------------------
  free energy    TOTEN  =      -462.33322248 eV

  energy without entropy =     -462.31209898  energy(sigma->0) =     -462.32266073


--------------------------------------------------------------------------------------------------------




----------------------------------------- Iteration    1(  31)  ---------------------------------------


    POTLOK:  cpu time    1.4891: real time    1.4908
    SETDIJ:  cpu time    1.4041: real time    1.4060
     EDDAV:  cpu time   31.5259: real time   31.5455
       DOS:  cpu time    0.0005: real time    0.0005
    CHARGE:  cpu time    3.9774: real time    3.9782
    MIXING:  cpu time    0.0953: real time    0.0953
    --------------------------------------------
      LOOP:  cpu time   38.4929: real time   38.5188

 eigenvalue-minimisations  :  1988
 total energy-change (2. order) :-0.1571414E-04  (-0.2948009E-07)
 number of electron     203.0000000 magnetization      -0.0002676
 augmentation part        5.8368287 magnetization       0.0000316

 Broyden mixing:
  rms(total) = 0.25162E-04    rms(broyden)= 0.22770E-04
  rms(prec ) = 0.32234E-04
  weight for this iteration     100.00

 eigenvalues of (default mixing * dielectric matrix)
  average eigenvalue GAMMA=   2.5848
 18.5212  8.7931  6.9096  4.7868  3.5817  2.5190  2.5190  2.2082  2.0919  1.4839
  1.4839  1.1515  1.1515  1.0382  1.0382  0.9132  0.9132  0.8128  0.7456  0.7180
  0.6815  0.6530  0.6454  0.6248  0.6192  0.6000

 Free energy of the ion-electron system (eV)
  ---------------------------------------------------
  alpha Z        PSCENC =        53.42782116
  Ewald energy   TEWEN  =     56958.59009103
  -Hartree energ DENC   =    -63185.67687294
  -exchange      EXHF   =         0.00000000
  -V(xc)+E(xc)   XCENC  =       703.23354835
  PAW double counting   =     21270.38700606   -21320.49581480
  entropy T*S    EENTRO =        -0.02112362
  eigenvalues    EBANDS =     -2501.99540598
  atomic energy  EATOM  =      7560.21751256
  Solvation  Ediel_sol  =         0.00000000
  ---------------------------------------------------
  free energy    TOTEN  =      -462.33323819 eV

  energy without entropy =     -462.31211457  energy(sigma->0) =     -462.32267638


--------------------------------------------------------------------------------------------------------




----------------------------------------- Iteration    1(  32)  ---------------------------------------


    POTLOK:  cpu time    1.4930: real time    1.4934
    SETDIJ:  cpu time    1.3977: real time    1.3990
     EDDAV:  cpu time   32.2778: real time   32.2858
       DOS:  cpu time    0.0005: real time    0.0005
    CHARGE:  cpu time    4.0051: real time    4.0062
    MIXING:  cpu time    0.1146: real time    0.1146
    --------------------------------------------
      LOOP:  cpu time   39.2894: real time   39.3027

 eigenvalue-minimisations  :  2052
 total energy-change (2. order) :-0.9873434E-05  (-0.1200266E-07)
 number of electron     203.0000000 magnetization      -0.0002034
 augmentation part        5.8368278 magnetization       0.0000785

 Broyden mixing:
  rms(total) = 0.18780E-04    rms(broyden)= 0.15434E-04
  rms(prec ) = 0.19764E-04
  weight for this iteration     100.00
  WARNING: grid for Broyden might be to small

 eigenvalues of (default mixing * dielectric matrix)
  average eigenvalue GAMMA=   2.5856
 18.5182  8.8276  7.2718  5.1168  3.8202  2.6203  2.6203  2.3121  2.0477  1.8018
  1.3729  1.3729  1.1351  1.1351  1.0218  1.0218  0.9071  0.8461  0.7859  0.7439
  0.7055  0.6767  0.6483  0.6390  0.6195  0.6219  0.5995

 Free energy of the ion-electron system (eV)
  ---------------------------------------------------
  alpha Z        PSCENC =        53.42782116
  Ewald energy   TEWEN  =     56958.59009103
  -Hartree energ DENC   =    -63185.65931236
  -exchange      EXHF   =         0.00000000
  -V(xc)+E(xc)   XCENC  =       703.23344893
  PAW double counting   =     21270.38856507   -21320.49741700
  entropy T*S    EENTRO =        -0.02112381
  eigenvalues    EBANDS =     -2502.01283363
  atomic energy  EATOM  =      7560.21751256
  Solvation  Ediel_sol  =         0.00000000
  ---------------------------------------------------
  free energy    TOTEN  =      -462.33324806 eV

  energy without entropy =     -462.31212425  energy(sigma->0) =     -462.32268616


--------------------------------------------------------------------------------------------------------




----------------------------------------- Iteration    1(  33)  ---------------------------------------


    POTLOK:  cpu time    1.4976: real time    1.4979
    SETDIJ:  cpu time    1.4076: real time    1.4082
     EDDAV:  cpu time   31.4583: real time   31.4655
       DOS:  cpu time    0.0006: real time    0.0006
    CHARGE:  cpu time    3.9731: real time    3.9750
    MIXING:  cpu time    0.1031: real time    0.1032
    --------------------------------------------
      LOOP:  cpu time   38.4410: real time   38.4534

 eigenvalue-minimisations  :  1980
 total energy-change (2. order) :-0.7419038E-05  (-0.2616239E-08)
 number of electron     203.0000000 magnetization      -0.0000955
 augmentation part        5.8368272 magnetization       0.0001148

 Broyden mixing:
  rms(total) = 0.13989E-04    rms(broyden)= 0.90133E-05
  rms(prec ) = 0.10995E-04
  weight for this iteration     100.00
  WARNING: grid for Broyden might be to small

 eigenvalues of (default mixing * dielectric matrix)
  average eigenvalue GAMMA=   2.6109
 18.5141  9.0066  7.8584  5.5964  4.0603  2.9275  2.6124  2.3661  2.1040  2.1040
  1.4617  1.4617  1.1459  1.1459  1.0510  1.0510  0.9258  0.9258  0.7902  0.7902
  0.7234  0.6902  0.6693  0.6514  0.6347  0.6190  0.6190  0.5986

 Free energy of the ion-electron system (eV)
  ---------------------------------------------------
  alpha Z        PSCENC =        53.42782116
  Ewald energy   TEWEN  =     56958.59009103
  -Hartree energ DENC   =    -63185.64941220
  -exchange      EXHF   =         0.00000000
  -V(xc)+E(xc)   XCENC  =       703.23341078
  PAW double counting   =     21270.39812635   -21320.50696648
  entropy T*S    EENTRO =        -0.02112396
  eigenvalues    EBANDS =     -2502.02271472
  atomic energy  EATOM  =      7560.21751256
  Solvation  Ediel_sol  =         0.00000000
  ---------------------------------------------------
  free energy    TOTEN  =      -462.33325548 eV

  energy without entropy =     -462.31213152  energy(sigma->0) =     -462.32269350


--------------------------------------------------------------------------------------------------------




----------------------------------------- Iteration    1(  34)  ---------------------------------------


    POTLOK:  cpu time    1.4979: real time    1.4985
    SETDIJ:  cpu time    1.3951: real time    1.3956
     EDDAV:  cpu time   31.4262: real time   31.4346
       DOS:  cpu time    0.0005: real time    0.0005
    CHARGE:  cpu time    3.9930: real time    3.9941
    MIXING:  cpu time    0.1131: real time    0.1131
    --------------------------------------------
      LOOP:  cpu time   38.4264: real time   38.4394

 eigenvalue-minimisations  :  1980
 total energy-change (2. order) :-0.2818020E-05  ( 0.4298949E-09)
 number of electron     203.0000000 magnetization      -0.0000116
 augmentation part        5.8368265 magnetization       0.0001178

 Broyden mixing:
  rms(total) = 0.12193E-04    rms(broyden)= 0.58441E-05
  rms(prec ) = 0.68716E-05
  weight for this iteration     100.00
  WARNING: grid for Broyden might be to small

 eigenvalues of (default mixing * dielectric matrix)
  average eigenvalue GAMMA=   2.6066
 18.4981  9.2451  8.2568  5.8324  4.1068  3.1233  2.7801  2.3959  2.2569  2.0664
  1.5144  1.5144  1.2309  1.2309  1.0267  1.0267  0.9661  0.9661  0.8168  0.8168
  0.7306  0.7054  0.7054  0.6669  0.6453  0.6323  0.6201  0.6140  0.5984

 Free energy of the ion-electron system (eV)
  ---------------------------------------------------
  alpha Z        PSCENC =        53.42782116
  Ewald energy   TEWEN  =     56958.59009103
  -Hartree energ DENC   =    -63185.64565914
  -exchange      EXHF   =         0.00000000
  -V(xc)+E(xc)   XCENC  =       703.23341466
  PAW double counting   =     21270.40328066   -21320.51210063
  entropy T*S    EENTRO =        -0.02112401
  eigenvalues    EBANDS =     -2502.02649459
  atomic energy  EATOM  =      7560.21751256
  Solvation  Ediel_sol  =         0.00000000
  ---------------------------------------------------
  free energy    TOTEN  =      -462.33325830 eV

  energy without entropy =     -462.31213430  energy(sigma->0) =     -462.32269630


--------------------------------------------------------------------------------------------------------




----------------------------------------- Iteration    1(  35)  ---------------------------------------


    POTLOK:  cpu time    1.4830: real time    1.4834
    SETDIJ:  cpu time    1.4021: real time    1.4025
     EDDAV:  cpu time   32.3428: real time   32.3510
       DOS:  cpu time    0.0005: real time    0.0005
    --------------------------------------------
      LOOP:  cpu time   35.2291: real time   35.2403

 eigenvalue-minimisations  :  2060
 total energy-change (2. order) : 0.2308116E-07  ( 0.1479276E-08)
 number of electron     203.0000000 magnetization      -0.0000116
 augmentation part        5.8368265 magnetization       0.0001178

 Free energy of the ion-electron system (eV)
  ---------------------------------------------------
  alpha Z        PSCENC =        53.42782116
  Ewald energy   TEWEN  =     56958.59009103
  -Hartree energ DENC   =    -63185.64452621
  -exchange      EXHF   =         0.00000000
  -V(xc)+E(xc)   XCENC  =       703.23342088
  PAW double counting   =     21270.40335447   -21320.51216463
  entropy T*S    EENTRO =        -0.02112402
  eigenvalues    EBANDS =     -2502.02764351
  atomic energy  EATOM  =      7560.21751256
  Solvation  Ediel_sol  =         0.00000000
  ---------------------------------------------------
  free energy    TOTEN  =      -462.33325828 eV

  energy without entropy =     -462.31213426  energy(sigma->0) =     -462.32269627


--------------------------------------------------------------------------------------------------------




 average (electrostatic) potential at core
  the test charge radii are     0.6991  0.7079
  (the norm of the test charge is              1.0000)
       1 -58.0959       2 -58.1233       3 -58.0895       4 -58.0918       5 -58.1505
       6 -58.1167       7 -58.2506       8 -58.1222       9 -58.2200      10 -58.1252
      11 -58.0904      12 -58.3351      13 -58.1980      14 -58.1600      15 -58.0843
      16 -58.1445      17 -58.1179      18 -58.0776      19 -58.1143      20 -58.0812
      21 -58.1147      22 -58.1086      23 -58.1890      24 -58.1097      25 -58.0955
      26 -58.4198      27 -58.1299      28 -58.1549      29 -58.0560      30 -58.0840
      31 -58.1183      32 -58.1050      33 -58.2215      34 -58.2849      35 -58.5315
      36 -58.5383      37 -58.3562      38 -58.1814      39 -58.1333      40 -58.1513
      41 -58.0903      42 -58.1115      43 -58.1512      44 -58.1323      45 -58.4765
      46 -58.2940      47 -58.5313      48 -58.3971      49 -58.2357      50 -58.4678
      51 -70.6697
 
 
 
 E-fermi :  -1.8671     XC(G=0):  -1.4703     alpha+bet : -1.3130


 spin component 1

 k-point     1 :       0.0000    0.0000    0.0000
  band No.  band energies     occupation 
      1     -51.5866      1.00000
      2     -22.4224      1.00000
      3     -21.6169      1.00000
      4     -21.4778      1.00000
      5     -21.4730      1.00000
      6     -21.3736      1.00000
      7     -21.3701      1.00000
      8     -21.3344      1.00000
      9     -19.6576      1.00000
     10     -19.6087      1.00000
     11     -19.5994      1.00000
     12     -19.5694      1.00000
     13     -19.5648      1.00000
     14     -19.5541      1.00000
     15     -18.7180      1.00000
     16     -18.6977      1.00000
     17     -18.6819      1.00000
     18     -18.6633      1.00000
     19     -18.6500      1.00000
     20     -18.6435      1.00000
     21     -16.5526      1.00000
     22     -16.5392      1.00000
     23     -16.5195      1.00000
     24     -16.5084      1.00000
     25     -16.4398      1.00000
     26     -16.4313      1.00000
     27     -15.5520      1.00000
     28     -15.5416      1.00000
     29     -15.5341      1.00000
     30     -15.5021      1.00000
     31     -15.4994      1.00000
     32     -15.4946      1.00000
     33     -14.1709      1.00000
     34     -14.1664      1.00000
     35     -14.1631      1.00000
     36     -14.1505      1.00000
     37     -14.1449      1.00000
     38     -14.1371      1.00000
     39     -11.7950      1.00000
     40     -11.7901      1.00000
     41     -11.7719      1.00000
     42     -11.7689      1.00000
     43     -11.7457      1.00000
     44     -11.7322      1.00000
     45     -11.7126      1.00000
     46     -11.7076      1.00000
     47     -11.6341      1.00000
     48     -11.6304      1.00000
     49     -11.6250      1.00000
     50     -11.6221      1.00000
     51     -10.5956      1.00000
     52     -10.3010      1.00000
     53     -10.2945      1.00000
     54     -10.2901      1.00000
     55     -10.2842      1.00000
     56     -10.2836      1.00000
     57     -10.2699      1.00000
     58      -9.6686      1.00000
     59      -9.4623      1.00000
     60      -9.4507      1.00000
     61      -9.3025      1.00000
     62      -9.2990      1.00000
     63      -9.2579      1.00000
     64      -9.0443      1.00000
     65      -9.0374      1.00000
     66      -9.0338      1.00000
     67      -8.9801      1.00000
     68      -8.9713      1.00000
     69      -8.9594      1.00000
     70      -8.9450      1.00000
     71      -8.9430      1.00000
     72      -8.9375      1.00000
     73      -8.9113      1.00000
     74      -8.9061      1.00000
     75      -8.8888      1.00000
     76      -7.3945      1.00000
     77      -7.3655      1.00000
     78      -7.3547      1.00000
     79      -7.3534      1.00000
     80      -7.3480      1.00000
     81      -7.3001      1.00000
     82      -7.2972      1.00000
     83      -7.2934      1.00000
     84      -7.2630      1.00000
     85      -7.2254      1.00000
     86      -7.2152      1.00000
     87      -7.1976      1.00000
     88      -6.4236      1.00000
     89      -6.4158      1.00000
     90      -6.3711      1.00000
     91      -6.3004      1.00000
     92      -6.2809      1.00000
     93      -6.2688      1.00000
     94      -5.8239      1.00000
     95      -5.8093      1.00000
     96      -4.4457      1.00000
     97      -4.4267      1.00000
     98      -4.3871      1.00000
     99      -4.3555      1.00000
    100      -4.2616      1.00000
    101      -4.2499      1.00000
    102      -1.7093      0.00000
    103      -1.6754      0.00000
    104      -1.6197      0.00000
    105      -1.5342      0.00000
    106      -1.4812      0.00000
    107      -1.4481      0.00000
    108      -1.0846      0.00000
    109       0.1290      0.00000
    110       0.1679      0.00000
    111       0.2540      0.00000
    112       0.3737      0.00000
    113       0.3946      0.00000
    114       0.3998      0.00000
    115       0.5293      0.00000
    116       0.7175      0.00000
    117       0.7372      0.00000
    118       0.8061      0.00000
    119       1.0217      0.00000
    120       1.3502      0.00000
    121       1.4372      0.00000
    122       1.4386      0.00000
    123       1.5190      0.00000
    124       1.5384      0.00000
    125       1.9482      0.00000
    126       1.9997      0.00000
    127       2.0347      0.00000
    128       2.0762      0.00000
    129       2.0784      0.00000
    130       2.1106      0.00000
    131       2.1393      0.00000
    132       2.1694      0.00000

 k-point     2 :       0.3333   -0.0000    0.0000
  band No.  band energies     occupation 
      1     -51.5866      1.00000
      2     -22.3319      1.00000
      3     -21.9768      1.00000
      4     -21.6489      1.00000
      5     -21.6384      1.00000
      6     -21.0571      1.00000
      7     -21.0032      1.00000
      8     -20.6905      1.00000
      9     -20.4324      1.00000
     10     -20.3852      1.00000
     11     -19.7775      1.00000
     12     -19.5030      1.00000
     13     -19.4914      1.00000
     14     -19.1694      1.00000
     15     -19.1648      1.00000
     16     -18.6146      1.00000
     17     -18.5718      1.00000
     18     -18.0012      1.00000
     19     -17.9953      1.00000
     20     -17.5074      1.00000
     21     -17.4297      1.00000
     22     -17.4273      1.00000
     23     -17.1823      1.00000
     24     -17.1777      1.00000
     25     -16.3847      1.00000
     26     -16.3777      1.00000
     27     -15.6791      1.00000
     28     -15.4273      1.00000
     29     -15.4236      1.00000
     30     -14.9184      1.00000
     31     -14.9096      1.00000
     32     -14.8617      1.00000
     33     -14.8503      1.00000
     34     -14.4867      1.00000
     35     -14.4529      1.00000
     36     -13.2736      1.00000
     37     -13.2678      1.00000
     38     -13.0629      1.00000
     39     -13.0298      1.00000
     40     -12.7873      1.00000
     41     -12.7814      1.00000
     42     -12.4522      1.00000
     43     -12.3299      1.00000
     44     -12.3236      1.00000
     45     -11.5592      1.00000
     46     -11.5278      1.00000
     47     -11.1130      1.00000
     48     -11.0941      1.00000
     49     -10.7385      1.00000
     50     -10.7317      1.00000
     51     -10.6814      1.00000
     52     -10.4976      1.00000
     53     -10.4604      1.00000
     54     -10.4562      1.00000
     55     -10.0443      1.00000
     56      -9.8332      1.00000
     57      -9.8213      1.00000
     58      -9.7868      1.00000
     59      -9.7798      1.00000
     60      -9.6489      1.00000
     61      -9.6336      1.00000
     62      -9.4646      1.00000
     63      -9.4589      1.00000
     64      -9.1997      1.00000
     65      -9.1833      1.00000
     66      -9.1743      1.00000
     67      -9.0744      1.00000
     68      -9.0695      1.00000
     69      -8.9762      1.00000
     70      -8.8815      1.00000
     71      -8.5761      1.00000
     72      -8.5182      1.00000
     73      -8.2595      1.00000
     74      -8.2469      1.00000
     75      -8.2236      1.00000
     76      -8.1649      1.00000
     77      -8.0273      1.00000
     78      -7.9850      1.00000
     79      -7.9481      1.00000
     80      -7.4961      1.00000
     81      -7.4146      1.00000
     82      -7.2182      1.00000
     83      -7.2104      1.00000
     84      -7.2058      1.00000
     85      -7.1737      1.00000
     86      -6.8269      1.00000
     87      -6.8204      1.00000
     88      -6.6083      1.00000
     89      -6.2491      1.00000
     90      -6.2338      1.00000
     91      -6.1392      1.00000
     92      -6.0342      1.00000
     93      -5.7130      1.00000
     94      -5.6988      1.00000
     95      -5.3958      1.00000
     96      -5.1005      1.00000
     97      -5.0584      1.00000
     98      -4.9261      1.00000
     99      -4.9140      1.00000
    100      -3.9449      1.00000
    101      -3.9288      1.00000
    102      -1.8535      0.35100
    103      -1.8050      0.03960
    104      -1.2534      0.00000
    105      -1.1624      0.00000
    106      -1.1065      0.00000
    107      -0.9724      0.00000
    108      -0.7595      0.00000
    109      -0.7437      0.00000
    110      -0.4797      0.00000
    111      -0.4313      0.00000
    112       0.3307      0.00000
    113       0.5513      0.00000
    114       0.6132      0.00000
    115       0.6462      0.00000
    116       0.8331      0.00000
    117       0.9480      0.00000
    118       1.0986      0.00000
    119       1.1271      0.00000
    120       1.1485      0.00000
    121       1.2964      0.00000
    122       1.3779      0.00000
    123       1.4912      0.00000
    124       1.5704      0.00000
    125       1.6634      0.00000
    126       1.6959      0.00000
    127       1.7861      0.00000
    128       1.8189      0.00000
    129       1.8231      0.00000
    130       1.8394      0.00000
    131       1.8530      0.00000
    132       2.0113      0.00000

 k-point     3 :       0.0000    0.3333    0.0000
  band No.  band energies     occupation 
      1     -51.5866      1.00000
      2     -22.3316      1.00000
      3     -21.9783      1.00000
      4     -21.6483      1.00000
      5     -21.6369      1.00000
      6     -21.0590      1.00000
      7     -21.0026      1.00000
      8     -20.6899      1.00000
      9     -20.4338      1.00000
     10     -20.3846      1.00000
     11     -19.7774      1.00000
     12     -19.5049      1.00000
     13     -19.4875      1.00000
     14     -19.1704      1.00000
     15     -19.1653      1.00000
     16     -18.6160      1.00000
     17     -18.5709      1.00000
     18     -18.0023      1.00000
     19     -17.9939      1.00000
     20     -17.5085      1.00000
     21     -17.4298      1.00000
     22     -17.4280      1.00000
     23     -17.1823      1.00000
     24     -17.1757      1.00000
     25     -16.3841      1.00000
     26     -16.3769      1.00000
     27     -15.6754      1.00000
     28     -15.4305      1.00000
     29     -15.4243      1.00000
     30     -14.9204      1.00000
     31     -14.9101      1.00000
     32     -14.8638      1.00000
     33     -14.8547      1.00000
     34     -14.4842      1.00000
     35     -14.4486      1.00000
     36     -13.2783      1.00000
     37     -13.2669      1.00000
     38     -13.0606      1.00000
     39     -13.0257      1.00000
     40     -12.7836      1.00000
     41     -12.7799      1.00000
     42     -12.4483      1.00000
     43     -12.3357      1.00000
     44     -12.3233      1.00000
     45     -11.5645      1.00000
     46     -11.5303      1.00000
     47     -11.1187      1.00000
     48     -11.0975      1.00000
     49     -10.7376      1.00000
     50     -10.7325      1.00000
     51     -10.6761      1.00000
     52     -10.4968      1.00000
     53     -10.4579      1.00000
     54     -10.4547      1.00000
     55     -10.0463      1.00000
     56      -9.8330      1.00000
     57      -9.8226      1.00000
     58      -9.7859      1.00000
     59      -9.7730      1.00000
     60      -9.6481      1.00000
     61      -9.6305      1.00000
     62      -9.4648      1.00000
     63      -9.4550      1.00000
     64      -9.2045      1.00000
     65      -9.1795      1.00000
     66      -9.1741      1.00000
     67      -9.0755      1.00000
     68      -9.0670      1.00000
     69      -8.9800      1.00000
     70      -8.8798      1.00000
     71      -8.5821      1.00000
     72      -8.5200      1.00000
     73      -8.2619      1.00000
     74      -8.2547      1.00000
     75      -8.2301      1.00000
     76      -8.1631      1.00000
     77      -8.0331      1.00000
     78      -7.9825      1.00000
     79      -7.9481      1.00000
     80      -7.4982      1.00000
     81      -7.4076      1.00000
     82      -7.2094      1.00000
     83      -7.2077      1.00000
     84      -7.1954      1.00000
     85      -7.1680      1.00000
     86      -6.8244      1.00000
     87      -6.8203      1.00000
     88      -6.6180      1.00000
     89      -6.2503      1.00000
     90      -6.2336      1.00000
     91      -6.1384      1.00000
     92      -6.0447      1.00000
     93      -5.7074      1.00000
     94      -5.6963      1.00000
     95      -5.4108      1.00000
     96      -5.1023      1.00000
     97      -5.0541      1.00000
     98      -4.9252      1.00000
     99      -4.9139      1.00000
    100      -3.9366      1.00000
    101      -3.9265      1.00000
    102      -1.8709      0.54311
    103      -1.7935      0.01872
    104      -1.2897      0.00000
    105      -1.1657      0.00000
    106      -1.0966      0.00000
    107      -0.9401      0.00000
    108      -0.7469      0.00000
    109      -0.7399      0.00000
    110      -0.4836      0.00000
    111      -0.4477      0.00000
    112       0.3317      0.00000
    113       0.5590      0.00000
    114       0.6084      0.00000
    115       0.6515      0.00000
    116       0.8344      0.00000
    117       0.9494      0.00000
    118       1.0972      0.00000
    119       1.1173      0.00000
    120       1.1479      0.00000
    121       1.2994      0.00000
    122       1.3773      0.00000
    123       1.4939      0.00000
    124       1.5701      0.00000
    125       1.6645      0.00000
    126       1.6888      0.00000
    127       1.7906      0.00000
    128       1.8140      0.00000
    129       1.8244      0.00000
    130       1.8415      0.00000
    131       1.8467      0.00000
    132       2.0124      0.00000

 k-point     4 :       0.3333    0.3333    0.0000
  band No.  band energies     occupation 
      1     -51.5866      1.00000
      2     -22.2390      1.00000
      3     -22.0113      1.00000
      4     -22.0058      1.00000
      5     -21.1586      1.00000
      6     -21.1184      1.00000
      7     -21.1153      1.00000
      8     -20.2845      1.00000
      9     -20.2508      1.00000
     10     -20.2367      1.00000
     11     -20.1368      1.00000
     12     -20.1339      1.00000
     13     -20.1238      1.00000
     14     -18.4843      1.00000
     15     -18.4649      1.00000
     16     -18.4116      1.00000
     17     -18.3401      1.00000
     18     -18.3187      1.00000
     19     -18.3164      1.00000
     20     -17.5602      1.00000
     21     -17.5525      1.00000
     22     -17.4829      1.00000
     23     -17.0308      1.00000
     24     -17.0261      1.00000
     25     -17.0205      1.00000
     26     -16.0250      1.00000
     27     -16.0166      1.00000
     28     -16.0126      1.00000
     29     -15.4227      1.00000
     30     -15.4192      1.00000
     31     -13.9932      1.00000
     32     -13.9887      1.00000
     33     -13.9622      1.00000
     34     -13.9521      1.00000
     35     -13.9134      1.00000
     36     -13.9115      1.00000
     37     -13.8447      1.00000
     38     -13.8407      1.00000
     39     -13.7684      1.00000
     40     -13.4009      1.00000
     41     -12.3270      1.00000
     42     -12.2059      1.00000
     43     -12.1994      1.00000
     44     -11.5819      1.00000
     45     -11.5727      1.00000
     46     -11.5707      1.00000
     47     -11.5201      1.00000
     48     -11.5145      1.00000
     49     -11.5109      1.00000
     50     -10.4104      1.00000
     51     -10.3131      1.00000
     52     -10.2832      1.00000
     53     -10.2804      1.00000
     54     -10.1860      1.00000
     55     -10.1805      1.00000
     56     -10.1580      1.00000
     57     -10.0660      1.00000
     58     -10.0591      1.00000
     59      -9.5708      1.00000
     60      -9.5660      1.00000
     61      -9.5645      1.00000
     62      -9.3457      1.00000
     63      -9.3402      1.00000
     64      -9.3216      1.00000
     65      -9.0875      1.00000
     66      -9.0301      1.00000
     67      -9.0186      1.00000
     68      -8.6786      1.00000
     69      -8.6734      1.00000
     70      -8.6671      1.00000
     71      -8.6317      1.00000
     72      -8.6249      1.00000
     73      -8.6113      1.00000
     74      -8.1973      1.00000
     75      -8.1924      1.00000
     76      -8.1814      1.00000
     77      -8.0877      1.00000
     78      -8.0609      1.00000
     79      -8.0191      1.00000
     80      -7.8758      1.00000
     81      -7.8708      1.00000
     82      -7.8545      1.00000
     83      -7.0192      1.00000
     84      -7.0086      1.00000
     85      -6.9111      1.00000
     86      -6.5087      1.00000
     87      -6.5020      1.00000
     88      -6.4452      1.00000
     89      -6.1787      1.00000
     90      -6.1627      1.00000
     91      -6.0022      1.00000
     92      -5.9498      1.00000
     93      -5.8866      1.00000
     94      -5.8840      1.00000
     95      -5.2376      1.00000
     96      -5.2160      1.00000
     97      -5.0839      1.00000
     98      -4.9618      1.00000
     99      -4.9593      1.00000
    100      -4.9416      1.00000
    101      -2.8628      1.00000
    102      -2.8486      1.00000
    103      -1.3464      0.00000
    104      -1.3121      0.00000
    105      -1.2638      0.00000
    106      -1.0489      0.00000
    107      -0.6782      0.00000
    108      -0.6378      0.00000
    109      -0.5599      0.00000
    110      -0.0170      0.00000
    111       0.0446      0.00000
    112       0.1498      0.00000
    113       0.1892      0.00000
    114       0.2797      0.00000
    115       0.2844      0.00000
    116       0.4011      0.00000
    117       0.4122      0.00000
    118       1.0847      0.00000
    119       1.2077      0.00000
    120       1.2550      0.00000
    121       1.2633      0.00000
    122       1.3039      0.00000
    123       1.3082      0.00000
    124       1.4811      0.00000
    125       1.4832      0.00000
    126       1.5075      0.00000
    127       1.7842      0.00000
    128       1.8031      0.00000
    129       1.8039      0.00000
    130       1.9032      0.00000
    131       2.0043      0.00000
    132       2.0045      0.00000

 k-point     5 :      -0.3333    0.3333    0.0000
  band No.  band energies     occupation 
      1     -51.5866      1.00000
      2     -22.3319      1.00000
      3     -21.9765      1.00000
      4     -21.6502      1.00000
      5     -21.6373      1.00000
      6     -21.0576      1.00000
      7     -21.0023      1.00000
      8     -20.6908      1.00000
      9     -20.4331      1.00000
     10     -20.3844      1.00000
     11     -19.7776      1.00000
     12     -19.5014      1.00000
     13     -19.4933      1.00000
     14     -19.1697      1.00000
     15     -19.1642      1.00000
     16     -18.6158      1.00000
     17     -18.5708      1.00000
     18     -18.0010      1.00000
     19     -17.9955      1.00000
     20     -17.5091      1.00000
     21     -17.4292      1.00000
     22     -17.4262      1.00000
     23     -17.1814      1.00000
     24     -17.1786      1.00000
     25     -16.3841      1.00000
     26     -16.3778      1.00000
     27     -15.6780      1.00000
     28     -15.4278      1.00000
     29     -15.4241      1.00000
     30     -14.9168      1.00000
     31     -14.9156      1.00000
     32     -14.8602      1.00000
     33     -14.8504      1.00000
     34     -14.4852      1.00000
     35     -14.4525      1.00000
     36     -13.2738      1.00000
     37     -13.2686      1.00000
     38     -13.0606      1.00000
     39     -13.0300      1.00000
     40     -12.7866      1.00000
     41     -12.7808      1.00000
     42     -12.4515      1.00000
     43     -12.3304      1.00000
     44     -12.3247      1.00000
     45     -11.5605      1.00000
     46     -11.5289      1.00000
     47     -11.1134      1.00000
     48     -11.0953      1.00000
     49     -10.7383      1.00000
     50     -10.7309      1.00000
     51     -10.6800      1.00000
     52     -10.4981      1.00000
     53     -10.4607      1.00000
     54     -10.4550      1.00000
     55     -10.0432      1.00000
     56      -9.8333      1.00000
     57      -9.8198      1.00000
     58      -9.7871      1.00000
     59      -9.7800      1.00000
     60      -9.6491      1.00000
     61      -9.6349      1.00000
     62      -9.4641      1.00000
     63      -9.4586      1.00000
     64      -9.2003      1.00000
     65      -9.1835      1.00000
     66      -9.1735      1.00000
     67      -9.0755      1.00000
     68      -9.0691      1.00000
     69      -8.9748      1.00000
     70      -8.8823      1.00000
     71      -8.5768      1.00000
     72      -8.5178      1.00000
     73      -8.2574      1.00000
     74      -8.2492      1.00000
     75      -8.2234      1.00000
     76      -8.1660      1.00000
     77      -8.0274      1.00000
     78      -7.9850      1.00000
     79      -7.9482      1.00000
     80      -7.4946      1.00000
     81      -7.4130      1.00000
     82      -7.2172      1.00000
     83      -7.2093      1.00000
     84      -7.2085      1.00000
     85      -7.1772      1.00000
     86      -6.8263      1.00000
     87      -6.8217      1.00000
     88      -6.6093      1.00000
     89      -6.2475      1.00000
     90      -6.2289      1.00000
     91      -6.1404      1.00000
     92      -6.0350      1.00000
     93      -5.7132      1.00000
     94      -5.7022      1.00000
     95      -5.3881      1.00000
     96      -5.0957      1.00000
     97      -5.0666      1.00000
     98      -4.9245      1.00000
     99      -4.9159      1.00000
    100      -3.9449      1.00000
    101      -3.9318      1.00000
    102      -1.8389      0.21268
    103      -1.8185      0.08474
    104      -1.2438      0.00000
    105      -1.1470      0.00000
    106      -1.1167      0.00000
    107      -0.9897      0.00000
    108      -0.7596      0.00000
    109      -0.7499      0.00000
    110      -0.4706      0.00000
    111      -0.4287      0.00000
    112       0.3265      0.00000
    113       0.5612      0.00000
    114       0.5921      0.00000
    115       0.6622      0.00000
    116       0.8312      0.00000
    117       0.9476      0.00000
    118       1.1091      0.00000
    119       1.1235      0.00000
    120       1.1503      0.00000
    121       1.2863      0.00000
    122       1.3776      0.00000
    123       1.4873      0.00000
    124       1.5703      0.00000
    125       1.6629      0.00000
    126       1.7013      0.00000
    127       1.7807      0.00000
    128       1.8187      0.00000
    129       1.8231      0.00000
    130       1.8401      0.00000
    131       1.8537      0.00000
    132       2.0037      0.00000

 spin component 2

 k-point     1 :       0.0000    0.0000    0.0000
  band No.  band energies     occupation 
      1     -51.5867      1.00000
      2     -22.4224      1.00000
      3     -21.6170      1.00000
      4     -21.4778      1.00000
      5     -21.4730      1.00000
      6     -21.3736      1.00000
      7     -21.3701      1.00000
      8     -21.3344      1.00000
      9     -19.6576      1.00000
     10     -19.6087      1.00000
     11     -19.5994      1.00000
     12     -19.5694      1.00000
     13     -19.5648      1.00000
     14     -19.5541      1.00000
     15     -18.7180      1.00000
     16     -18.6977      1.00000
     17     -18.6819      1.00000
     18     -18.6633      1.00000
     19     -18.6500      1.00000
     20     -18.6435      1.00000
     21     -16.5526      1.00000
     22     -16.5392      1.00000
     23     -16.5195      1.00000
     24     -16.5084      1.00000
     25     -16.4398      1.00000
     26     -16.4313      1.00000
     27     -15.5520      1.00000
     28     -15.5416      1.00000
     29     -15.5341      1.00000
     30     -15.5021      1.00000
     31     -15.4994      1.00000
     32     -15.4946      1.00000
     33     -14.1709      1.00000
     34     -14.1664      1.00000
     35     -14.1631      1.00000
     36     -14.1505      1.00000
     37     -14.1449      1.00000
     38     -14.1371      1.00000
     39     -11.7950      1.00000
     40     -11.7902      1.00000
     41     -11.7719      1.00000
     42     -11.7689      1.00000
     43     -11.7457      1.00000
     44     -11.7322      1.00000
     45     -11.7126      1.00000
     46     -11.7076      1.00000
     47     -11.6341      1.00000
     48     -11.6304      1.00000
     49     -11.6250      1.00000
     50     -11.6221      1.00000
     51     -10.5956      1.00000
     52     -10.3010      1.00000
     53     -10.2945      1.00000
     54     -10.2901      1.00000
     55     -10.2842      1.00000
     56     -10.2836      1.00000
     57     -10.2699      1.00000
     58      -9.6686      1.00000
     59      -9.4623      1.00000
     60      -9.4507      1.00000
     61      -9.3026      1.00000
     62      -9.2991      1.00000
     63      -9.2579      1.00000
     64      -9.0443      1.00000
     65      -9.0374      1.00000
     66      -9.0338      1.00000
     67      -8.9801      1.00000
     68      -8.9713      1.00000
     69      -8.9594      1.00000
     70      -8.9450      1.00000
     71      -8.9430      1.00000
     72      -8.9375      1.00000
     73      -8.9113      1.00000
     74      -8.9062      1.00000
     75      -8.8888      1.00000
     76      -7.3945      1.00000
     77      -7.3655      1.00000
     78      -7.3547      1.00000
     79      -7.3534      1.00000
     80      -7.3480      1.00000
     81      -7.3001      1.00000
     82      -7.2972      1.00000
     83      -7.2934      1.00000
     84      -7.2630      1.00000
     85      -7.2254      1.00000
     86      -7.2152      1.00000
     87      -7.1976      1.00000
     88      -6.4237      1.00000
     89      -6.4158      1.00000
     90      -6.3711      1.00000
     91      -6.3004      1.00000
     92      -6.2809      1.00000
     93      -6.2688      1.00000
     94      -5.8239      1.00000
     95      -5.8093      1.00000
     96      -4.4457      1.00000
     97      -4.4267      1.00000
     98      -4.3871      1.00000
     99      -4.3555      1.00000
    100      -4.2616      1.00000
    101      -4.2499      1.00000
    102      -1.7093      0.00000
    103      -1.6754      0.00000
    104      -1.6197      0.00000
    105      -1.5342      0.00000
    106      -1.4812      0.00000
    107      -1.4481      0.00000
    108      -1.0844      0.00000
    109       0.1290      0.00000
    110       0.1679      0.00000
    111       0.2542      0.00000
    112       0.3737      0.00000
    113       0.3946      0.00000
    114       0.4001      0.00000
    115       0.5325      0.00000
    116       0.7180      0.00000
    117       0.7377      0.00000
    118       0.8352      0.00000
    119       1.0662      0.00000
    120       1.3971      0.00000
    121       1.4402      0.00000
    122       1.4415      0.00000
    123       1.5418      0.00000
    124       1.5642      0.00000
    125       1.9629      0.00000
    126       2.0006      0.00000
    127       2.0366      0.00000
    128       2.0758      0.00000
    129       2.0967      0.00000
    130       2.1315      0.00000
    131       2.1403      0.00000
    132       2.1571      0.00000

 k-point     2 :       0.3333   -0.0000    0.0000
  band No.  band energies     occupation 
      1     -51.5867      1.00000
      2     -22.3319      1.00000
      3     -21.9768      1.00000
      4     -21.6489      1.00000
      5     -21.6384      1.00000
      6     -21.0571      1.00000
      7     -21.0032      1.00000
      8     -20.6906      1.00000
      9     -20.4324      1.00000
     10     -20.3853      1.00000
     11     -19.7775      1.00000
     12     -19.5030      1.00000
     13     -19.4914      1.00000
     14     -19.1694      1.00000
     15     -19.1648      1.00000
     16     -18.6146      1.00000
     17     -18.5718      1.00000
     18     -18.0012      1.00000
     19     -17.9953      1.00000
     20     -17.5074      1.00000
     21     -17.4298      1.00000
     22     -17.4273      1.00000
     23     -17.1823      1.00000
     24     -17.1777      1.00000
     25     -16.3848      1.00000
     26     -16.3777      1.00000
     27     -15.6791      1.00000
     28     -15.4273      1.00000
     29     -15.4236      1.00000
     30     -14.9184      1.00000
     31     -14.9096      1.00000
     32     -14.8617      1.00000
     33     -14.8503      1.00000
     34     -14.4867      1.00000
     35     -14.4529      1.00000
     36     -13.2736      1.00000
     37     -13.2678      1.00000
     38     -13.0629      1.00000
     39     -13.0298      1.00000
     40     -12.7873      1.00000
     41     -12.7814      1.00000
     42     -12.4522      1.00000
     43     -12.3299      1.00000
     44     -12.3236      1.00000
     45     -11.5592      1.00000
     46     -11.5278      1.00000
     47     -11.1130      1.00000
     48     -11.0941      1.00000
     49     -10.7385      1.00000
     50     -10.7317      1.00000
     51     -10.6814      1.00000
     52     -10.4976      1.00000
     53     -10.4604      1.00000
     54     -10.4562      1.00000
     55     -10.0443      1.00000
     56      -9.8332      1.00000
     57      -9.8213      1.00000
     58      -9.7868      1.00000
     59      -9.7798      1.00000
     60      -9.6489      1.00000
     61      -9.6336      1.00000
     62      -9.4646      1.00000
     63      -9.4589      1.00000
     64      -9.1997      1.00000
     65      -9.1833      1.00000
     66      -9.1743      1.00000
     67      -9.0744      1.00000
     68      -9.0695      1.00000
     69      -8.9762      1.00000
     70      -8.8815      1.00000
     71      -8.5761      1.00000
     72      -8.5182      1.00000
     73      -8.2595      1.00000
     74      -8.2469      1.00000
     75      -8.2236      1.00000
     76      -8.1649      1.00000
     77      -8.0273      1.00000
     78      -7.9850      1.00000
     79      -7.9481      1.00000
     80      -7.4961      1.00000
     81      -7.4146      1.00000
     82      -7.2182      1.00000
     83      -7.2104      1.00000
     84      -7.2058      1.00000
     85      -7.1737      1.00000
     86      -6.8269      1.00000
     87      -6.8204      1.00000
     88      -6.6083      1.00000
     89      -6.2491      1.00000
     90      -6.2339      1.00000
     91      -6.1392      1.00000
     92      -6.0342      1.00000
     93      -5.7130      1.00000
     94      -5.6988      1.00000
     95      -5.3958      1.00000
     96      -5.1005      1.00000
     97      -5.0584      1.00000
     98      -4.9261      1.00000
     99      -4.9140      1.00000
    100      -3.9449      1.00000
    101      -3.9288      1.00000
    102      -1.8535      0.35109
    103      -1.8050      0.03961
    104      -1.2534      0.00000
    105      -1.1624      0.00000
    106      -1.1065      0.00000
    107      -0.9723      0.00000
    108      -0.7595      0.00000
    109      -0.7437      0.00000
    110      -0.4797      0.00000
    111      -0.4313      0.00000
    112       0.3328      0.00000
    113       0.5515      0.00000
    114       0.6139      0.00000
    115       0.6463      0.00000
    116       0.8362      0.00000
    117       0.9746      0.00000
    118       1.1035      0.00000
    119       1.1294      0.00000
    120       1.1761      0.00000
    121       1.3169      0.00000
    122       1.4009      0.00000
    123       1.5275      0.00000
    124       1.6118      0.00000
    125       1.6981      0.00000
    126       1.7079      0.00000
    127       1.8134      0.00000
    128       1.8249      0.00000
    129       1.8337      0.00000
    130       1.8632      0.00000
    131       1.8816      0.00000
    132       2.0469      0.00000

 k-point     3 :       0.0000    0.3333    0.0000
  band No.  band energies     occupation 
      1     -51.5867      1.00000
      2     -22.3316      1.00000
      3     -21.9783      1.00000
      4     -21.6483      1.00000
      5     -21.6369      1.00000
      6     -21.0590      1.00000
      7     -21.0026      1.00000
      8     -20.6899      1.00000
      9     -20.4338      1.00000
     10     -20.3846      1.00000
     11     -19.7774      1.00000
     12     -19.5049      1.00000
     13     -19.4875      1.00000
     14     -19.1704      1.00000
     15     -19.1653      1.00000
     16     -18.6160      1.00000
     17     -18.5709      1.00000
     18     -18.0023      1.00000
     19     -17.9939      1.00000
     20     -17.5085      1.00000
     21     -17.4298      1.00000
     22     -17.4280      1.00000
     23     -17.1823      1.00000
     24     -17.1757      1.00000
     25     -16.3841      1.00000
     26     -16.3769      1.00000
     27     -15.6754      1.00000
     28     -15.4305      1.00000
     29     -15.4243      1.00000
     30     -14.9204      1.00000
     31     -14.9101      1.00000
     32     -14.8638      1.00000
     33     -14.8547      1.00000
     34     -14.4842      1.00000
     35     -14.4486      1.00000
     36     -13.2783      1.00000
     37     -13.2669      1.00000
     38     -13.0607      1.00000
     39     -13.0257      1.00000
     40     -12.7836      1.00000
     41     -12.7799      1.00000
     42     -12.4483      1.00000
     43     -12.3357      1.00000
     44     -12.3233      1.00000
     45     -11.5645      1.00000
     46     -11.5303      1.00000
     47     -11.1187      1.00000
     48     -11.0975      1.00000
     49     -10.7376      1.00000
     50     -10.7326      1.00000
     51     -10.6761      1.00000
     52     -10.4968      1.00000
     53     -10.4579      1.00000
     54     -10.4547      1.00000
     55     -10.0463      1.00000
     56      -9.8330      1.00000
     57      -9.8226      1.00000
     58      -9.7859      1.00000
     59      -9.7730      1.00000
     60      -9.6481      1.00000
     61      -9.6305      1.00000
     62      -9.4649      1.00000
     63      -9.4550      1.00000
     64      -9.2045      1.00000
     65      -9.1795      1.00000
     66      -9.1741      1.00000
     67      -9.0755      1.00000
     68      -9.0670      1.00000
     69      -8.9800      1.00000
     70      -8.8798      1.00000
     71      -8.5821      1.00000
     72      -8.5200      1.00000
     73      -8.2619      1.00000
     74      -8.2547      1.00000
     75      -8.2301      1.00000
     76      -8.1631      1.00000
     77      -8.0331      1.00000
     78      -7.9825      1.00000
     79      -7.9481      1.00000
     80      -7.4982      1.00000
     81      -7.4076      1.00000
     82      -7.2094      1.00000
     83      -7.2077      1.00000
     84      -7.1954      1.00000
     85      -7.1680      1.00000
     86      -6.8244      1.00000
     87      -6.8203      1.00000
     88      -6.6180      1.00000
     89      -6.2503      1.00000
     90      -6.2336      1.00000
     91      -6.1384      1.00000
     92      -6.0447      1.00000
     93      -5.7074      1.00000
     94      -5.6963      1.00000
     95      -5.4109      1.00000
     96      -5.1024      1.00000
     97      -5.0541      1.00000
     98      -4.9252      1.00000
     99      -4.9139      1.00000
    100      -3.9366      1.00000
    101      -3.9265      1.00000
    102      -1.8709      0.54321
    103      -1.7935      0.01873
    104      -1.2896      0.00000
    105      -1.1657      0.00000
    106      -1.0966      0.00000
    107      -0.9401      0.00000
    108      -0.7469      0.00000
    109      -0.7399      0.00000
    110      -0.4836      0.00000
    111      -0.4477      0.00000
    112       0.3338      0.00000
    113       0.5593      0.00000
    114       0.6090      0.00000
    115       0.6515      0.00000
    116       0.8374      0.00000
    117       0.9762      0.00000
    118       1.1025      0.00000
    119       1.1175      0.00000
    120       1.1770      0.00000
    121       1.3200      0.00000
    122       1.4004      0.00000
    123       1.5302      0.00000
    124       1.6118      0.00000
    125       1.6920      0.00000
    126       1.7080      0.00000
    127       1.8134      0.00000
    128       1.8211      0.00000
    129       1.8351      0.00000
    130       1.8653      0.00000
    131       1.8808      0.00000
    132       2.0651      0.00000

 k-point     4 :       0.3333    0.3333    0.0000
  band No.  band energies     occupation 
      1     -51.5867      1.00000
      2     -22.2390      1.00000
      3     -22.0113      1.00000
      4     -22.0058      1.00000
      5     -21.1586      1.00000
      6     -21.1184      1.00000
      7     -21.1153      1.00000
      8     -20.2845      1.00000
      9     -20.2508      1.00000
     10     -20.2367      1.00000
     11     -20.1368      1.00000
     12     -20.1339      1.00000
     13     -20.1238      1.00000
     14     -18.4843      1.00000
     15     -18.4649      1.00000
     16     -18.4116      1.00000
     17     -18.3401      1.00000
     18     -18.3187      1.00000
     19     -18.3164      1.00000
     20     -17.5602      1.00000
     21     -17.5525      1.00000
     22     -17.4829      1.00000
     23     -17.0308      1.00000
     24     -17.0261      1.00000
     25     -17.0205      1.00000
     26     -16.0250      1.00000
     27     -16.0166      1.00000
     28     -16.0126      1.00000
     29     -15.4228      1.00000
     30     -15.4192      1.00000
     31     -13.9932      1.00000
     32     -13.9887      1.00000
     33     -13.9622      1.00000
     34     -13.9521      1.00000
     35     -13.9134      1.00000
     36     -13.9115      1.00000
     37     -13.8447      1.00000
     38     -13.8407      1.00000
     39     -13.7684      1.00000
     40     -13.4009      1.00000
     41     -12.3270      1.00000
     42     -12.2059      1.00000
     43     -12.1994      1.00000
     44     -11.5819      1.00000
     45     -11.5727      1.00000
     46     -11.5707      1.00000
     47     -11.5201      1.00000
     48     -11.5145      1.00000
     49     -11.5109      1.00000
     50     -10.4104      1.00000
     51     -10.3131      1.00000
     52     -10.2832      1.00000
     53     -10.2804      1.00000
     54     -10.1860      1.00000
     55     -10.1805      1.00000
     56     -10.1580      1.00000
     57     -10.0660      1.00000
     58     -10.0591      1.00000
     59      -9.5708      1.00000
     60      -9.5660      1.00000
     61      -9.5645      1.00000
     62      -9.3457      1.00000
     63      -9.3402      1.00000
     64      -9.3217      1.00000
     65      -9.0875      1.00000
     66      -9.0301      1.00000
     67      -9.0186      1.00000
     68      -8.6786      1.00000
     69      -8.6734      1.00000
     70      -8.6671      1.00000
     71      -8.6317      1.00000
     72      -8.6249      1.00000
     73      -8.6113      1.00000
     74      -8.1973      1.00000
     75      -8.1924      1.00000
     76      -8.1814      1.00000
     77      -8.0877      1.00000
     78      -8.0609      1.00000
     79      -8.0191      1.00000
     80      -7.8758      1.00000
     81      -7.8708      1.00000
     82      -7.8545      1.00000
     83      -7.0192      1.00000
     84      -7.0086      1.00000
     85      -6.9111      1.00000
     86      -6.5087      1.00000
     87      -6.5020      1.00000
     88      -6.4452      1.00000
     89      -6.1787      1.00000
     90      -6.1628      1.00000
     91      -6.0022      1.00000
     92      -5.9498      1.00000
     93      -5.8866      1.00000
     94      -5.8840      1.00000
     95      -5.2376      1.00000
     96      -5.2160      1.00000
     97      -5.0839      1.00000
     98      -4.9618      1.00000
     99      -4.9593      1.00000
    100      -4.9416      1.00000
    101      -2.8628      1.00000
    102      -2.8486      1.00000
    103      -1.3464      0.00000
    104      -1.3121      0.00000
    105      -1.2638      0.00000
    106      -1.0488      0.00000
    107      -0.6782      0.00000
    108      -0.6378      0.00000
    109      -0.5600      0.00000
    110      -0.0170      0.00000
    111       0.0446      0.00000
    112       0.1499      0.00000
    113       0.1892      0.00000
    114       0.2797      0.00000
    115       0.2844      0.00000
    116       0.4030      0.00000
    117       0.4139      0.00000
    118       1.0901      0.00000
    119       1.2374      0.00000
    120       1.2597      0.00000
    121       1.2694      0.00000
    122       1.3375      0.00000
    123       1.3416      0.00000
    124       1.5212      0.00000
    125       1.5228      0.00000
    126       1.5518      0.00000
    127       1.8172      0.00000
    128       1.8537      0.00000
    129       1.8540      0.00000
    130       1.9485      0.00000
    131       2.0532      0.00000
    132       2.0542      0.00000

 k-point     5 :      -0.3333    0.3333    0.0000
  band No.  band energies     occupation 
      1     -51.5867      1.00000
      2     -22.3320      1.00000
      3     -21.9765      1.00000
      4     -21.6502      1.00000
      5     -21.6374      1.00000
      6     -21.0576      1.00000
      7     -21.0023      1.00000
      8     -20.6908      1.00000
      9     -20.4331      1.00000
     10     -20.3844      1.00000
     11     -19.7776      1.00000
     12     -19.5014      1.00000
     13     -19.4933      1.00000
     14     -19.1697      1.00000
     15     -19.1642      1.00000
     16     -18.6158      1.00000
     17     -18.5708      1.00000
     18     -18.0010      1.00000
     19     -17.9956      1.00000
     20     -17.5091      1.00000
     21     -17.4292      1.00000
     22     -17.4262      1.00000
     23     -17.1814      1.00000
     24     -17.1786      1.00000
     25     -16.3841      1.00000
     26     -16.3778      1.00000
     27     -15.6780      1.00000
     28     -15.4278      1.00000
     29     -15.4241      1.00000
     30     -14.9168      1.00000
     31     -14.9156      1.00000
     32     -14.8602      1.00000
     33     -14.8504      1.00000
     34     -14.4852      1.00000
     35     -14.4525      1.00000
     36     -13.2738      1.00000
     37     -13.2686      1.00000
     38     -13.0606      1.00000
     39     -13.0300      1.00000
     40     -12.7866      1.00000
     41     -12.7808      1.00000
     42     -12.4515      1.00000
     43     -12.3304      1.00000
     44     -12.3247      1.00000
     45     -11.5605      1.00000
     46     -11.5289      1.00000
     47     -11.1134      1.00000
     48     -11.0953      1.00000
     49     -10.7383      1.00000
     50     -10.7309      1.00000
     51     -10.6800      1.00000
     52     -10.4981      1.00000
     53     -10.4607      1.00000
     54     -10.4550      1.00000
     55     -10.0432      1.00000
     56      -9.8333      1.00000
     57      -9.8198      1.00000
     58      -9.7871      1.00000
     59      -9.7800      1.00000
     60      -9.6491      1.00000
     61      -9.6349      1.00000
     62      -9.4641      1.00000
     63      -9.4586      1.00000
     64      -9.2003      1.00000
     65      -9.1835      1.00000
     66      -9.1735      1.00000
     67      -9.0755      1.00000
     68      -9.0691      1.00000
     69      -8.9748      1.00000
     70      -8.8823      1.00000
     71      -8.5768      1.00000
     72      -8.5178      1.00000
     73      -8.2575      1.00000
     74      -8.2492      1.00000
     75      -8.2234      1.00000
     76      -8.1660      1.00000
     77      -8.0274      1.00000
     78      -7.9850      1.00000
     79      -7.9482      1.00000
     80      -7.4947      1.00000
     81      -7.4130      1.00000
     82      -7.2172      1.00000
     83      -7.2093      1.00000
     84      -7.2085      1.00000
     85      -7.1773      1.00000
     86      -6.8263      1.00000
     87      -6.8217      1.00000
     88      -6.6093      1.00000
     89      -6.2476      1.00000
     90      -6.2289      1.00000
     91      -6.1404      1.00000
     92      -6.0350      1.00000
     93      -5.7132      1.00000
     94      -5.7022      1.00000
     95      -5.3881      1.00000
     96      -5.0957      1.00000
     97      -5.0666      1.00000
     98      -4.9245      1.00000
     99      -4.9159      1.00000
    100      -3.9449      1.00000
    101      -3.9318      1.00000
    102      -1.8389      0.21274
    103      -1.8185      0.08477
    104      -1.2438      0.00000
    105      -1.1470      0.00000
    106      -1.1167      0.00000
    107      -0.9896      0.00000
    108      -0.7596      0.00000
    109      -0.7499      0.00000
    110      -0.4706      0.00000
    111      -0.4287      0.00000
    112       0.3284      0.00000
    113       0.5614      0.00000
    114       0.5926      0.00000
    115       0.6624      0.00000
    116       0.8343      0.00000
    117       0.9743      0.00000
    118       1.1120      0.00000
    119       1.1309      0.00000
    120       1.1732      0.00000
    121       1.3074      0.00000
    122       1.4005      0.00000
    123       1.5239      0.00000
    124       1.6116      0.00000
    125       1.7031      0.00000
    126       1.7076      0.00000
    127       1.8103      0.00000
    128       1.8242      0.00000
    129       1.8323      0.00000
    130       1.8632      0.00000
    131       1.8806      0.00000
    132       2.0379      0.00000


--------------------------------------------------------------------------------------------------------


 soft charge-density along one line, spin component           1
         0         1         2         3         4         5         6         7         8         9
 total charge-density along one line
 
 soft charge-density along one line, spin component           2
         0         1         2         3         4         5         6         7         8         9
 total charge-density along one line
 
 pseudopotential strength for first ion, spin component:           1
 10.215  13.584  -0.000   0.000   0.000   0.001  -0.000  -0.000
 13.584  18.063  -0.000   0.000   0.000   0.001  -0.000  -0.000
 -0.000  -0.000  -4.346  -0.000  -0.000   8.500   0.000   0.000
  0.000   0.000  -0.000  -4.325   0.000   0.000   8.466  -0.000
  0.000   0.000  -0.000   0.000  -4.346   0.000  -0.000   8.500
  0.001   0.001   8.500   0.000   0.000 -18.760  -0.000  -0.000
 -0.000  -0.000   0.000   8.466  -0.000  -0.000 -18.707   0.000
 -0.000  -0.000   0.000  -0.000   8.500  -0.000   0.000 -18.760
 pseudopotential strength for first ion, spin component:           2
 10.215  13.584  -0.000   0.000   0.000   0.001  -0.000  -0.000
 13.584  18.063  -0.000   0.000   0.000   0.001  -0.000  -0.000
 -0.000  -0.000  -4.346  -0.000  -0.000   8.500   0.000   0.000
  0.000   0.000  -0.000  -4.325   0.000   0.000   8.466  -0.000
  0.000   0.000  -0.000   0.000  -4.346   0.000  -0.000   8.500
  0.001   0.001   8.500   0.000   0.000 -18.760  -0.000  -0.000
 -0.000  -0.000   0.000   8.466  -0.000  -0.000 -18.707   0.000
 -0.000  -0.000   0.000  -0.000   8.500  -0.000   0.000 -18.760
 total augmentation occupancy for first ion, spin component:           1
  8.145  -3.619  -0.002  -0.005   0.000  -0.001  -0.001   0.000
 -3.619   1.665   0.003   0.003  -0.000   0.000   0.000  -0.000
 -0.002   0.003   1.822   0.004  -0.000   0.168   0.001   0.000
 -0.005   0.003   0.004   1.208   0.000   0.001   0.072  -0.000
  0.000  -0.000  -0.000   0.000   1.826   0.000  -0.000   0.168
 -0.001   0.000   0.168   0.001   0.000   0.017   0.000   0.000
 -0.001   0.000   0.001   0.072  -0.000   0.000   0.005  -0.000
  0.000  -0.000   0.000  -0.000   0.168   0.000  -0.000   0.017
 total augmentation occupancy for first ion, spin component:           2
 -0.000   0.000  -0.000   0.000   0.000  -0.000  -0.000  -0.000
  0.000  -0.000  -0.000  -0.000  -0.000   0.000   0.000   0.000
 -0.000  -0.000   0.000   0.000  -0.000  -0.000  -0.000  -0.000
  0.000  -0.000   0.000  -0.000  -0.000  -0.000  -0.000  -0.000
  0.000  -0.000  -0.000  -0.000   0.000  -0.000  -0.000  -0.000
 -0.000   0.000  -0.000  -0.000  -0.000  -0.000  -0.000   0.000
 -0.000   0.000  -0.000  -0.000  -0.000  -0.000   0.000  -0.000
 -0.000   0.000  -0.000  -0.000  -0.000   0.000  -0.000  -0.000


------------------------ aborting loop because EDIFF is reached ----------------------------------------


    CHARGE:  cpu time    4.4305: real time    4.4324
    FORLOC:  cpu time    0.2053: real time    0.2054
    FORNL :  cpu time   16.5526: real time   16.5571
    STRESS:  cpu time   50.8574: real time   50.8691
    FORCOR:  cpu time    1.1145: real time    1.1147
    FORHAR:  cpu time    0.2470: real time    0.2470
    MIXING:  cpu time    0.0547: real time    0.0548
    OFIELD:  cpu time    0.0000: real time    0.0000

  FORCE on cell =-STRESS in cart. coord.  units (eV):
  Direction    XX          YY          ZZ          XY          YZ          ZX
  --------------------------------------------------------------------------------------
  Alpha Z    53.42782    53.42782    53.42782
  Ewald   63713.15181 63711.52581-70466.11235     1.23026     1.97670    -2.81412
  Hartree 62856.62140 62857.81608-62528.78977     0.59965     1.06810    -1.29575
  E(xc)    -758.56942  -758.58675  -785.94063     0.00123     0.00539    -0.01009
  Local  ************************130426.66625    -1.77159    -2.97137     4.00970
  n-local  -195.54998  -195.75549  -183.22070    -0.03483    -0.14750     0.25007
  augment    -1.43915    -1.42297     0.19863     0.00313    -0.00227    -0.00190
  Kinetic  3053.80085  3055.67877  3485.50394     0.16979     0.36539    -0.68971
  Fock        0.00000     0.00000     0.00000     0.00000     0.00000     0.00000
  -------------------------------------------------------------------------------------
  Total      14.92853    15.75756     1.73319     0.19765     0.29444    -0.55180
  in kB       6.08507     6.42299     0.70647     0.08056     0.12002    -0.22492
  external pressure =        4.40 kB  Pullay stress =        0.00 kB


 VOLUME and BASIS-vectors are now :
 -----------------------------------------------------------------------------
  energy-cutoff  :      520.00
  volume of cell :     3930.63
      direct lattice vectors                 reciprocal lattice vectors
    12.300000000  0.000000000  0.000000000     0.081300813  0.046939046  0.000000000
    -6.150000000 10.652112467  0.000000000     0.000000000  0.093878093  0.000000000
     0.000000000  0.000000000 30.000000000     0.000000000  0.000000000  0.033333333

  length of vectors
    12.300000000 12.300000000 30.000000000     0.093878093  0.093878093  0.033333333


 FORCES acting on ions
    electron-ion (+dipol)            ewald-force                    non-local-force                 convergence-correction
 -----------------------------------------------------------------------------------------------
   -.794E-01 -.211E+01 -.225E+01   0.541E-01 0.225E+01 0.223E+01   0.474E-02 -.125E+00 0.249E-01   -.425E-05 0.754E-05 -.810E-05
   0.242E+00 -.278E+00 -.278E+01   -.229E+00 0.278E+00 0.273E+01   -.150E-02 -.807E-02 0.525E-01   -.667E-05 0.412E-05 -.764E-05
   -.672E+00 0.216E+00 -.220E+01   0.749E+00 -.227E+00 0.218E+01   -.649E-01 0.673E-02 0.290E-01   0.205E-05 0.140E-05 -.769E-05
   0.407E+00 -.107E+00 -.283E+01   -.424E+00 0.912E-01 0.278E+01   0.117E-01 0.152E-01 0.458E-01   0.119E-06 0.109E-05 -.760E-05
   -.567E+01 0.150E+01 0.268E+01   0.593E+01 -.163E+01 -.273E+01   -.260E+00 0.113E+00 0.508E-01   0.102E-04 -.258E-05 -.948E-05
   -.124E+01 0.413E+00 -.173E+01   0.136E+01 -.402E+00 0.169E+01   -.104E+00 -.203E-01 0.374E-01   0.726E-05 -.467E-05 -.815E-05
   -.762E+01 -.233E+01 0.113E+02   0.803E+01 0.245E+01 -.116E+02   -.482E+00 -.106E+00 0.295E+00   0.865E-05 -.666E-06 -.128E-04
   -.480E+01 -.210E+01 0.563E+00   0.500E+01 0.222E+01 -.603E+00   -.206E+00 -.127E+00 0.410E-01   0.777E-05 0.658E-05 -.904E-05
   -.264E+01 -.625E+01 0.255E+01   0.272E+01 0.662E+01 -.264E+01   -.101E+00 -.417E+00 0.695E-01   0.693E-05 0.854E-05 -.110E-04
   -.153E+01 -.243E+01 -.280E+01   0.169E+01 0.256E+01 0.276E+01   -.159E+00 -.120E+00 0.359E-01   0.591E-05 0.684E-06 -.840E-05
   0.551E+00 -.301E+00 -.303E+01   -.561E+00 0.325E+00 0.300E+01   -.729E-02 -.347E-01 0.252E-01   0.171E-05 -.267E-05 -.776E-05
   0.365E+01 0.104E+02 0.160E+02   -.375E+01 -.111E+02 -.163E+02   0.110E+00 0.583E+00 0.317E+00   -.781E-05 -.702E-05 -.143E-04
   0.753E+01 0.229E+01 0.396E+01   -.794E+01 -.247E+01 -.403E+01   0.376E+00 0.178E+00 0.828E-01   -.867E-05 0.179E-05 -.109E-04
   0.429E+01 0.268E+01 0.245E+01   -.444E+01 -.280E+01 -.257E+01   0.142E+00 0.109E+00 0.105E+00   -.110E-04 -.441E-05 -.929E-05
   0.564E+00 0.146E+01 -.309E+01   -.623E+00 -.151E+01 0.305E+01   0.317E-01 0.401E-01 0.304E-01   0.228E-06 -.271E-05 -.792E-05
   0.279E+01 0.554E+00 -.126E+01   -.296E+01 -.507E+00 0.121E+01   0.184E+00 -.191E-01 0.444E-01   -.776E-05 -.640E-06 -.895E-05
   -.114E+01 -.735E+00 -.174E+01   0.123E+01 0.752E+00 0.167E+01   -.911E-01 -.978E-02 0.618E-01   0.825E-05 0.483E-05 -.804E-05
   0.502E+00 -.151E+01 -.322E+01   -.538E+00 0.161E+01 0.321E+01   0.229E-01 -.801E-01 0.452E-02   0.174E-05 0.895E-06 -.773E-05
   -.234E+01 -.119E+01 -.161E+01   0.241E+01 0.124E+01 0.153E+01   -.751E-01 -.567E-01 0.785E-01   0.485E-05 0.247E-05 -.811E-05
   -.399E+00 0.257E+00 -.194E+01   0.493E+00 -.308E+00 0.192E+01   -.676E-01 0.282E-01 0.184E-01   0.513E-06 -.287E-05 -.760E-05
   0.175E+00 0.189E+01 0.820E+00   -.187E+00 -.195E+01 -.879E+00   0.677E-02 0.697E-01 0.628E-01   0.214E-05 -.803E-05 -.808E-05
   -.234E+00 0.399E+01 0.429E+01   0.214E+00 -.416E+01 -.433E+01   -.543E-02 0.199E+00 0.365E-01   -.130E-05 -.173E-04 -.894E-05
   0.331E+01 0.495E+01 0.462E+01   -.355E+01 -.517E+01 -.469E+01   0.246E+00 0.227E+00 0.660E-01   -.118E-04 -.785E-05 -.103E-04
   0.568E+00 0.197E+01 0.964E-01   -.578E+00 -.213E+01 -.143E+00   0.347E-01 0.152E+00 0.454E-01   -.156E-05 -.394E-05 -.839E-05
   0.128E+01 0.635E+00 -.203E+01   -.138E+01 -.649E+00 0.201E+01   0.108E+00 0.217E-01 0.342E-01   -.554E-05 0.408E-05 -.791E-05
   0.126E+02 0.106E+01 0.185E+02   -.133E+02 -.110E+01 -.192E+02   0.696E+00 0.474E-01 0.738E+00   -.125E-04 0.959E-05 -.164E-04
   0.291E+01 -.202E+01 -.121E+01   -.301E+01 0.216E+01 0.113E+01   0.102E+00 -.845E-01 0.860E-01   -.499E-05 0.553E-05 -.887E-05
   0.619E+01 -.314E+01 0.151E+01   -.648E+01 0.329E+01 -.157E+01   0.321E+00 -.202E+00 0.576E-01   -.482E-05 0.441E-05 -.103E-04
   0.265E+00 0.356E+00 -.186E+01   -.307E+00 -.354E+00 0.179E+01   -.315E-02 -.118E-01 0.697E-01   0.168E-05 -.255E-05 -.755E-05
   0.813E+00 -.970E-01 -.184E+01   -.883E+00 0.917E-01 0.182E+01   0.105E+00 0.241E-01 0.212E-01   0.180E-05 -.442E-05 -.771E-05
   -.185E+00 0.143E+01 0.788E+00   0.220E+00 -.151E+01 -.846E+00   -.113E-01 0.492E-01 0.614E-01   -.127E-05 -.107E-04 -.806E-05
   -.504E+00 0.121E+01 -.503E-01   0.537E+00 -.133E+01 0.787E-02   -.292E-01 0.927E-01 0.414E-01   0.746E-05 -.289E-05 -.818E-05
   -.801E+00 0.787E+01 0.145E+02   0.831E+00 -.828E+01 -.148E+02   -.670E-01 0.355E+00 0.277E+00   0.192E-05 -.999E-05 -.122E-04
   -.483E+01 0.830E+01 0.144E+02   0.503E+01 -.880E+01 -.147E+02   -.142E+00 0.506E+00 0.251E+00   0.906E-05 -.124E-04 -.134E-04
   0.118E+02 0.124E+02 0.376E+02   -.125E+02 -.131E+02 -.390E+02   0.715E+00 0.735E+00 0.125E+01   -.172E-04 -.966E-06 -.226E-04
   -.653E+01 0.692E+01 0.853E+02   0.705E+01 -.741E+01 -.887E+02   -.241E+00 0.417E+00 0.235E+01   -.122E-05 0.257E-05 -.322E-04
   0.995E+01 -.445E+01 0.147E+02   -.106E+02 0.473E+01 -.153E+02   0.568E+00 -.232E+00 0.554E+00   -.555E-05 0.431E-06 -.152E-04
   -.419E+00 -.529E+01 0.291E+01   0.449E+00 0.549E+01 -.308E+01   -.228E-01 -.241E+00 0.169E+00   -.148E-05 0.102E-04 -.991E-05
   0.252E+01 -.103E+01 -.132E+01   -.266E+01 0.104E+01 0.125E+01   0.146E+00 -.325E-01 0.705E-01   -.837E-05 0.273E-05 -.876E-05
   0.157E+01 -.343E+01 -.246E+01   -.175E+01 0.359E+01 0.242E+01   0.159E+00 -.156E+00 0.376E-01   -.664E-05 0.328E-05 -.907E-05
   -.498E+00 -.946E+00 -.300E+01   0.472E+00 0.101E+01 0.297E+01   -.514E-02 -.827E-01 0.249E-01   0.149E-05 -.105E-05 -.794E-05
   -.312E-01 -.649E+00 -.282E+01   0.545E-01 0.674E+00 0.276E+01   0.144E-01 -.184E-01 0.518E-01   0.228E-05 0.124E-05 -.765E-05
   -.315E+01 0.361E+01 0.395E+01   0.335E+01 -.375E+01 -.400E+01   -.231E+00 0.174E+00 0.537E-01   0.131E-04 -.715E-05 -.944E-05
   -.336E+01 0.170E+01 0.182E+01   0.346E+01 -.175E+01 -.191E+01   -.100E+00 0.683E-01 0.908E-01   0.963E-05 -.530E-05 -.860E-05
   -.129E+02 0.801E+01 0.305E+02   0.137E+02 -.849E+01 -.313E+02   -.761E+00 0.504E+00 0.788E+00   0.139E-04 -.178E-05 -.194E-04
   -.918E+01 0.166E+00 0.141E+02   0.968E+01 -.113E+00 -.144E+02   -.551E+00 -.299E-01 0.343E+00   0.157E-04 0.722E-05 -.137E-04
   -.463E+01 -.165E+02 0.601E+02   0.494E+01 0.175E+02 -.620E+02   -.222E+00 -.948E+00 0.199E+01   -.301E-05 0.184E-04 -.265E-04
   -.807E+01 -.896E+01 0.178E+02   0.862E+01 0.939E+01 -.182E+02   -.524E+00 -.468E+00 0.370E+00   0.566E-05 0.494E-05 -.160E-04
   0.180E+01 -.753E+01 0.324E+01   -.184E+01 0.801E+01 -.333E+01   0.649E-01 -.501E+00 0.894E-01   -.852E-05 0.521E-05 -.117E-04
   0.668E+01 -.125E+02 0.211E+02   -.706E+01 0.132E+02 -.219E+02   0.470E+00 -.650E+00 0.737E+00   -.101E-04 0.471E-05 -.181E-04
   0.906E+00 -.551E+00 -.363E+03   -.758E+00 0.504E+00 0.359E+03   -.448E+00 0.221E+00 0.520E+01   -.205E-05 0.220E-05 0.167E-04
 -----------------------------------------------------------------------------------------------
   0.341E+00 -.168E+00 -.175E+02   -.391E-12 0.128E-12 0.000E+00   -.344E+00 0.156E+00 0.175E+02   -.204E-05 0.221E-05 -.537E-03
 
 
 POSITION                                       TOTAL-FORCE (eV/Angst)
 -----------------------------------------------------------------------------------
      6.15000     10.64963     15.02111        -0.020491      0.014617      0.005593
      1.22997      0.70603     15.02292         0.011163     -0.007982     -0.004746
     11.07135      2.12521     15.01986         0.012274     -0.004449      0.005521
      0.00000      2.83470     15.02308        -0.005157     -0.000119     -0.005767
      9.84234      4.25469     14.99963        -0.003905     -0.020152     -0.001661
     -1.22729      4.96730     15.01666         0.016620     -0.009742     -0.003148
     -3.68298      6.38952     14.97901        -0.073933      0.009492     -0.023694
     -2.45772      7.09850     15.00834        -0.001877     -0.004683      0.000995
     -4.91873      8.52230     15.00223        -0.024213     -0.044775     -0.021837
     -3.68715      9.22892     15.01883         0.008543      0.006885     -0.005587
     -3.68950     10.64879     15.02112        -0.016864     -0.011085     -0.004320
      4.91827      2.82995     14.96436         0.015195     -0.099949      0.033451
      2.45765      4.25470     14.99962        -0.036730     -0.008683      0.011516
      2.45946      2.83452     15.00431        -0.005034     -0.010730     -0.008256
     -0.00001      4.25683     15.02257        -0.027741     -0.009875     -0.005104
      1.22729      4.96730     15.01666         0.015701      0.027895     -0.004113
     -1.22740      6.38633     15.01809        -0.005467      0.008250      0.000264
      0.00000      7.09646     15.02341        -0.012292      0.015824     -0.009136
     -2.45954      8.51902     15.01709        -0.004971     -0.005875      0.004076
     -1.22880      9.22764     15.01823         0.027203     -0.021668     -0.000743
     -1.23035     10.64711     15.00769        -0.005456      0.014690      0.003901
      6.15000      0.70328     14.99417        -0.025149      0.030572     -0.004058
      3.68717      2.12384     14.99413         0.000398      0.002694     -0.000269
      3.68950      0.70364     15.00950         0.024418     -0.006663     -0.001066
      1.22866      2.12521     15.01986         0.001741      0.007820      0.006215
      3.68305      4.96449     14.96993        -0.037872      0.014248      0.058040
      2.45955      8.51902     15.01708        -0.006122      0.047877      0.002978
      2.45772      7.09850     15.00834         0.030008     -0.051997      0.001228
      0.00000      8.51848     15.02046        -0.044610     -0.009045      0.004022
      1.22881      9.22764     15.01823         0.035856      0.019099     -0.001001
      1.23036     10.64711     15.00769         0.023369     -0.023894      0.003758
      8.61050      0.70364     15.00950         0.003916     -0.028784     -0.000896
      6.15000      2.12188     14.96618        -0.036438     -0.054178      0.006989
      7.38173      2.82995     14.96436         0.059947      0.012883      0.010370
      4.91432      4.25058     14.93709         0.020748     -0.015396     -0.073210
      6.15000      4.96072     14.87541         0.279589     -0.075794     -1.012978
      3.68298      6.38952     14.97900        -0.086440      0.053234     -0.002145
      6.15000      9.23007     15.00623         0.007410     -0.032288     -0.000811
      1.22739      6.38633     15.01809         0.005362     -0.026737      0.000116
      3.68715      9.22892     15.01883        -0.021981      0.008776     -0.008056
      3.68951     10.64879     15.02112        -0.030771     -0.013930     -0.005320
     11.07003      0.70603     15.02292         0.037747      0.007210     -0.003822
      8.61284      2.12384     14.99413        -0.024143      0.036911      0.001712
      9.84054      2.83452     15.00431        -0.002575      0.019204      0.000000
      7.38569      4.25058     14.93709         0.035648      0.032117     -0.035870
      8.61695      4.96449     14.96993        -0.051628      0.023477      0.005864
      6.15000      6.39352     14.90601         0.092516      0.045201      0.024441
      7.38565      7.10256     14.96581         0.028006     -0.037192     -0.049906
      4.91874      8.52230     15.00223         0.027631     -0.020804     -0.002809
      4.91435      7.10256     14.96581         0.091044      0.022649     -0.005745
      5.87539      5.31939     16.69696        -0.300194      0.174846      1.115022
 -----------------------------------------------------------------------------------
    total drift:                               -0.003218     -0.012768     -0.006489


--------------------------------------------------------------------------------------------------------



  FREE ENERGIE OF THE ION-ELECTRON SYSTEM (eV)
  ---------------------------------------------------
  free  energy   TOTEN  =      -462.33325828 eV

  energy  without entropy=     -462.31213426  energy(sigma->0) =     -462.32269627
 


--------------------------------------------------------------------------------------------------------


    POTLOK:  cpu time    2.0565: real time    2.0571


--------------------------------------------------------------------------------------------------------


     LOOP+:  cpu time 1704.5987: real time 1705.2902
    4ORBIT:  cpu time    0.0000: real time    0.0000

 total amount of memory used by VASP on root node   465216. kBytes
========================================================================

   base      :      30000. kBytes
   nonlr-proj:       4754. kBytes
   fftplans  :     165810. kBytes
   grid      :     124231. kBytes
   one-center:         79. kBytes
   wavefun   :     140342. kBytes
 
  
  
 General timing and accounting informations for this job:
 ========================================================
  
                  Total CPU time used (sec):     1729.190
                            User time (sec):     1650.805
                          System time (sec):       78.385
                         Elapsed time (sec):     1731.841
  
                   Maximum memory used (kb):      867800.
                   Average memory used (kb):           0.
  
                          Minor page faults:       174495
                          Major page faults:          456
                 Voluntary context switches:         2192
